LAMMPS data file via write_data, version 30 Sep 2026, timestep = 4000, units = metal

4348 atoms
4 atom types

0 37.28597486102 xlo xhi
0 32.290601434511 ylo yhi
-10 100 zlo zhi
-18.64298743051 0 0 xy xz yz

Masses

1 47.867
2 28.0855
3 12.0107
4 107.87

Atoms # atomic

2 1 0.03164569620000002 1.7473227802 2.060172476199998 0 0 0
3 3 1.1638999270000001 0.7955488483 0.6109038571999967 0 0 0
9 2 -1.483562725 2.5923322781000064 3.8558349945999986 0 0 0
90 2 1.519023372899995 2.9154854454000088 3.7295821013999984 0 0 0
2969 4 -1.0626214355000003 4.7187361273 2.257858491699997 0 0 0
3032 4 -2.2169102255000004 4.40833075560002 4.9634680177 0 0 0
81 1 2.855346163500001 1.0243127964000032 1.783477745999999 0 0 0
82 3 4.732023700100001 0.8858499638000024 0.9171016393000002 0 0 0
2909 4 3.642818147 3.0939985453 2.1819606820999997 0 0 0
2910 4 1.7401789480999996 5.040046469600005 2.3127014441999982 0 0 0
2914 4 6.2947130764 2.4921079354 2.3534615557999956 0 0 0
2975 4 3.3728361956000006 4.0066235206 4.735087586399997 0 0 0
170 3 7.6728844084 0.8326752832 0.8780570372999978 0 0 0
250 2 9.4608650689 0.3626176511 3.8977363381999997 0 0 0
251 1 9.008217930700008 1.9361728674 2.0127068619 0 0 0
255 2 7.665259484 2.694287669600008 4.1263759524 0 0 0
256 1 7.561520459099997 4.4815472256000035 2.039605577099996 0 0 0
257 3 9.332381394800006 3.6118070787000063 0.7903352302999984 0 0 0
351 1 10.667920308900001 4.6654503125 1.9894523697999968 0 0 0
356 2 9.1038331443 5.2562894618 3.8438638423999993 0 0 0
2921 4 10.82148071190003 0.06204456620000023 2.131134870799997 0 0 0
341 1 11.9146352167 2.0352330904 1.6728343411999997 0 0 0
342 3 14.116058266200005 0.9588784144000014 0.6616609940999965 0 0 0
352 3 12.4824309653 3.8168714894 0.7831009480999995 0 0 0
444 1 14.038139364900003 4.053050230500008 2.3061954998999994 0 0 0
445 3 15.584860514500008 3.5145789198000075 0.9576766050999979 0 0 0
516 1 16.870930701000006 4.773005839800012 2.134309182399999 0 0 0
2924 4 13.549957367900003 1.0205128038 2.8384087855000004 0 0 0
2933 4 16.2042772719 0.6939663257000016 2.3166954460000007 0 0 0
2992 4 12.0281898964 4.1608410764 4.715711417099998 0 0 0
2998 4 14.854715588100001 4.0870217659 4.858605840699999 0 0 0
3003 4 16.251109792100017 1.7474825347 4.829093056999998 0 0 0
436 3 17.4075710282 1.0073186097 0.4414903775999992 0 0 0
511 3 20.271103269800008 0.9115097132000016 0.9219647829999964 0 0 0
517 3 18.6977196514 3.649391799 0.8675315855000001 0 0 0
596 1 21.6285616728 1.7984287789000084 2.229481161699999 0 0 0
603 1 20.17281067609999 4.4686764949 2.2000295892999997 0 0 0
604 3 21.7501520023 3.5878446038 0.961352012199999 0 0 0
2934 4 17.818440231500013 2.8386543234 2.7847011469 0 0 0
2939 4 18.8906061069 0.34022304990000013 2.6043318078999995 0 0 0
3006 4 19.1778624783 1.7541144128000095 4.9166324267 0 0 0
597 3 23.2209749071 0.8477134577 0.8818106856999961 0 0 0
693 1 24.5554938188 1.7893925657 2.154819935199999 0 0 0
698 1 23.2830575369 4.4723322421 2.203884056199996 0 0 0
699 3 24.857316574 3.5878446038 0.961352012199999 0 0 0
777 2 24.757126294000017 5.338102671900024 4.023736899500001 0 0 0
2948 4 26.555032981700002 2.7021410205 2.6356872285999984 0 0 0
3010 4 22.0369671935 1.7111258879 4.850445012199998 0 0 0
3018 4 24.761001187200005 1.9751569807 4.919979897599999 0 0 0
3019 4 26.413065120600002 4.1414381205 4.9662657006999975 0 0 0
766 3 29.45313990570004 0.9359180560000031 0.7999548612999998 0 0 0
849 2 30.7238642604 0.242275738 3.959814579599998 0 0 0
850 1 31.3273035155 1.7892825772 2.0951611587999963 0 0 0
859 3 31.084615332600002 3.5448117679 0.9153784082000005 0 0 0
2953 4 27.5947923723 0.14374905 1.8899258660000005 0 0 0
2954 4 29.2760114133 2.6245762954 2.5153058287000007 0 0 0
2955 4 27.794957066300007 4.9848854001000165 1.8135570968000003 0 0 0
2958 4 30.6211020158 5.030785320300001 2.5400439144 0 0 0
3022 4 29.387586128800002 3.9750022534000116 4.936226725399999 0 0 0
3024 4 32.1025387618 4.1717254763 4.815546297099997 0 0 0
851 3 32.4670838484 0.9628747140000026 0.5318893727000003 0 0 0
952 2 33.65139491819999 0.5724434707 3.7762019129999995 0 0 0
953 1 34.2572886682 2.0747273986 1.8761132165000003 0 0 0
2963 4 33.52566714150003 4.9974814469 2.5205776422999993 0 0 0
24 1 -4.512137476300003 9.8732230722 1.9088460573 0 0 0
3033 4 -3.5601909624 6.7725204123 4.789009641799998 0 0 0
16 1 -3.1071645718 7.1756892076 2.2291625893999996 0 0 0
17 3 -1.7297240774 6.282008566 0.7835270045999962 0 0 0
25 3 -3.1006495982008264 8.8433014961 0.7974431873000007 0 0 0
96 2 -0.0687399258000001 5.520836716500024 4.110244538199998 0 0 0
97 1 -0.026230423700001282 7.142647275700031 2.2122917101000006 0 0 0
104 2 -1.5535822859000001 8.072650358800013 4.1500103403 0 0 0
105 1 -1.6120625013000005 9.8443657223 2.3104928322999996 0 0 0
106 3 -0.2169869868999994 8.7410316398 0.45997805120000024 0 0 0
189 1 1.2218223069000018 9.716054487300024 1.5857716034999996 0 0 0
184 2 3.1241454772999844 6.032861946900036 3.7890376855999985 0 0 0
190 3 3.107164571800004 8.969611509500021 0.961352012199999 0 0 0
260 2 6.175314834100001 5.483675565 4.135817227099999 0 0 0
261 1 6.254612101300004 7.3113699925 2.2325835597 0 0 0
269 1 4.980847700499992 9.941595564600018 2.053627054899998 0 0 0
270 3 6.31948365519998 8.90141542920005 0.8643701508999975 0 0 0
2915 4 4.9239926477 5.4972986344 2.2659222609999983 0 0 0
2916 4 2.9425619740000046 10.635694266300055 2.7064042288000003 0 0 0
2983 4 3.417335475500005 9.043395307200054 4.8658962350999975 0 0 0
2989 4 6.1356344443000035 8.856245961200004 4.873474505899999 0 0 0
262 3 7.695408787699998 6.293981327400014 0.8405107306000001 0 0 0
357 1 9.178633629300005 7.180958176500015 2.1532606239999996 0 0 0
358 3 10.8845990243 6.3966386149 0.8739748119000001 0 0 0
364 1 7.904932752599999 9.817241407 2.136393875299998 0 0 0
2925 4 11.248602420000001 7.9531332422 2.5803671198999982 0 0 0
2926 4 10.3041795452 10.4547777709 2.0568489343999996 0 0 0
2993 4 10.3133195358 6.8419054641 4.885719662099998 0 0 0
453 1 12.812397553299999 6.62976241720001 1.6499188029000003 0 0 0
454 3 14.3204857037 6.058755101600007 0.35073690699999993 0 0 0
523 1 15.562682822600001 7.3864613915 2.310165108499998 0 0 0
530 3 15.534394112700006 8.967078675600007 0.9617035077999994 0 0 0
537 2 12.1252941414 10.7528878096 3.9050049268 0 0 0
626 2 15.5224159488 10.6879087297 4.027170127699998 0 0 0
2935 4 13.5227987026 9.9109479895 2.3556120899999993 0 0 0
2999 4 13.5668844669 6.479612596 4.655550981000001 0 0 0
524 3 17.1869046573 6.2916535128 0.7621401278000004 0 0 0
610 2 18.6429874305 5.3817669059 4.1500103403 0 0 0
611 1 18.479060308700014 7.2193025501 2.088056334599999 0 0 0
617 2 17.209662429100007 8.2057438167 3.9985180049999993 0 0 0
618 1 17.0217190141 9.9213111814 2.1747484411 0 0 0
708 2 21.6172235099 5.4847988307 3.9650985604999995 0 0 0
715 2 20.134366210900005 8.0349632286 4.3592152013 0 0 0
792 2 21.7224623645 10.7615848475 4.0850641375 0 0 0
2941 4 20.701798467100005 7.533469115700008 2.240483532499999 0 0 0
2942 4 19.2470115027 9.9953528069 2.498926127899999 0 0 0
778 1 25.44222520480001 6.69611461590001 2.0436499018000003 0 0 0
783 2 23.299295635600014 7.9566993897000025 4.3263396782 0 0 0
784 1 23.1809123082 9.9136551789 2.2376220635 0 0 0
785 3 24.7872758162 8.932995587200022 0.8251662404999998 0 0 0
875 2 26.410898859899994 8.072650358800013 4.1500103403 0 0 0
876 1 26.16907513030001 9.7420704895 2.1382850864 0 0 0
882 2 24.8642749786 10.6386350222 4.069080191099999 0 0 0
2949 4 23.418865548200017 7.678811781200022 2.096770004999996 0 0 0
867 2 27.955768087000003 5.4677911338 4.005232662099999 0 0 0
868 1 28.32151880330001 7.195177912100037 2.2258361943999994 0 0 0
869 3 29.583229539600005 6.2325633949 0.8955309169000003 0 0 0
877 3 27.796580009800003 8.824728333 0.7720274770999964 0 0 0
963 1 31.248310647900002 7.1667777457 2.1505323574999995 0 0 0
970 2 29.474772507600008 8.1364919902 4.2303898019999995 0 0 0
971 1 29.077297014100004 10.0126242675 1.934241299 0 0 0
972 3 31.053535177400004 8.8983048134 0.8198985072999996 0 0 0
2964 4 30.935252680700003 9.9664083013 3.2024544817999967 0 0 0
23 2 32.40395252810002 8.405915438000042 3.984471017499997 0 0 0
964 3 32.641375886900136 6.282622448400034 0.899176526899998 0 0 0
119 2 -4.6069336274 13.439971124400014 4.196327461199997 0 0 0
120 1 -4.522366009900005 15.067918647400043 2.1362337666 0 0 0
127 2 -6.127860810600003 15.943988304700014 3.8359954935999987 0 0 0
2970 4 -5.304899532400003 12.44647553900004 2.3020439509 0 0 0
2971 4 -6.89287404630001 14.706477920900026 2.1196555813 0 0 0
111 2 -3.112310655 10.7664316047 4.080620320899998 0 0 0
112 1 -3.0301030114000005 12.550384746900011 2.224335652999997 0 0 0
113 3 -1.5535822859000001 11.660494962400033 0.961352012199999 0 0 0
121 3 -3.0382060623000013 14.3162816246 0.9031223148999992 0 0 0
203 1 -1.5535822858999992 15.248339566200002 2.2291625893999996 0 0 0
285 1 1.5357626224999965 15.237443202100028 2.207554998899999 0 0 0
2917 4 0.5296424052000006 12.45172371890007 2.4585267471000005 0 0 0
2976 4 -1.1022758285999998 11.6964633146 4.624013608699999 0 0 0
2985 4 0.19699822260000133 14.091436360000012 4.609089904499998 0 0 0
277 3 4.659290475699999 11.6681630768 0.9564404802999995 0 0 0
286 3 3.1071645718000056 14.351378415300047 0.961352012199999 0 0 0
372 2 6.219001689600002 10.934274376700008 3.9976432304999996 0 0 0
373 1 6.214551801999979 12.62181499770005 2.1557539205000005 0 0 0
380 2 4.614262079700003 13.4693854173 4.068229987900001 0 0 0
381 1 4.6607468575999995 15.248339566200002 2.2291625893999996 0 0 0
389 2 3.0271444133000056 16.1343917 3.9979642452999986 0 0 0
475 2 6.1959023367000015 16.0598055951 4.188972956099997 0 0 0
2984 4 2.0909174047 12.142914994 4.810499912299997 0 0 0
374 3 7.713808447499999 11.665955817 0.8662035690999996 0 0 0
466 2 9.182315661900002 10.9782329548 3.9404704875000007 0 0 0
470 2 7.6668404652999795 13.500658897900038 4.172554797699998 0 0 0
545 2 10.6991090289 13.5057845319 4.095330686599999 0 0 0
550 2 9.1946968505 16.0411334037 3.9473106481 0 0 0
2927 4 8.986221998499971 12.799881203200052 2.4901033501999983 0 0 0
2928 4 7.5952409211 15.142757156700029 2.471791888999997 0 0 0
2937 4 10.566501550300002 15.01887947090002 2.4353732040999994 0 0 0
538 3 14.010669334500001 11.4952977722 0.6912110501999997 0 0 0
627 1 15.4476777217 12.5294948506 2.1334646716000005 0 0 0
637 2 13.607604526999998 13.2916510785 3.6393031536000002 0 0 0
638 1 13.920836561999993 15.233157225700008 2.1008816122000002 0 0 0
639 3 15.541254636800003 14.3543510806 0.953738186199999 0 0 0
644 2 12.371032461999997 15.95725203830004 3.919698722899998 0 0 0
2936 4 11.9398670029 12.6219060209 2.2855700255 0 0 0
3007 4 15.473330465900005 14.1816661596 4.527806236499998 0 0 0
628 3 16.9505858945 11.4786937289 0.6066787779999991 0 0 0
725 1 17.008584529900002 15.1253330052 2.233010331599999 0 0 0
901 2 21.563678753400012 15.912519130500062 3.754593680500001 0 0 0
2943 4 17.657785228900003 12.398545288800054 2.5344343946 0 0 0
2950 4 20.3792387147 12.5322942997 2.5286341684 0 0 0
3011 4 19.19575031540001 11.514999364400019 4.763930260799999 0 0 0
3012 4 18.192402196099998 14.0451748123 4.6384846614 0 0 0
3020 4 20.906339939 14.0776569483 4.878731264099997 0 0 0
883 1 25.258453479000003 12.5404348777 1.9742050944000002 0 0 0
884 3 26.598094329700004 11.5085343612 0.7788823259999997 0 0 0
892 2 23.366973119800008 13.2131806806 4.074704836599997 0 0 0
893 1 23.366610324200003 15.2223362746 2.171120635099996 0 0 0
984 2 26.554773788300004 13.162450166300008 4.0155164363 0 0 0
985 1 26.324653751300012 15.259485286600032 2.180528967600001 0 0 0
2956 4 23.045944927300013 12.156227755900016 2.1145284786000005 0 0 0
38 2 28.091109451300007 15.8469349818 3.8537309684000007 0 0 0
986 3 27.9576045331 14.2500091411 0.7694810132000001 0 0 0
2965 4 29.207291478900007 12.2559055447 2.2327168032000007 0 0 0
3025 4 27.7693319348 11.3905158276 4.703860159399998 0 0 0
3035 4 28.929728724400004 13.8408084686 4.4322412034 0 0 0
39 1 -9.401179807600004 17.736866849900082 2.146951496199998 0 0 0
44 3 -9.276986706800006 19.688717385400103 0.6087131210999974 0 0 0
2972 4 -9.6074458597 19.8653851587 2.846497060299999 0 0 0
40 3 -7.9230044176000005 16.907726451900054 0.7979684496000008 0 0 0
128 1 -6.476470027100017 17.7575039875 2.0119162436 0 0 0
135 2 -7.707460433200003 18.99892584020004 3.9781133172 0 0 0
136 1 -7.6351948897 20.4451672626 1.9318502354000007 0 0 0
2911 4 -4.299006346100001 17.3010629901 2.347793389599996 0 0 0
2918 4 -3.6582778643999996 19.96547671800001 2.2758511860000006 0 0 0
2977 4 -3.6639964157 16.7723852803 4.944232060499997 0 0 0
2978 4 -4.924367563899999 19.805610804200004 4.683275401699998 0 0 0
210 3 -1.5535822858999992 17.0422618681 0.961352012199999 0 0 0
294 1 0.03020100710000051 17.8082093051 2.1865552533 0 0 0
295 3 1.5536409667999997 17.0408943604 0.9588403756999995 0 0 0
299 1 -1.4291362576000015 20.346035034300073 2.2351665183 0 0 0
300 3 0.04015926039999762 19.70865251500004 0.9146314400999973 0 0 0
396 2 1.4816422342000006 18.702580908800112 4.010759032499999 0 0 0
406 2 0.05221915639999786 21.28519746350003 4.012203727299999 0 0 0
2986 4 -1.0247013357999997 16.5097503608 4.320232091299998 0 0 0
2987 4 -2.289732965299999 19.1236233527 4.816786631899998 0 0 0
390 1 3.1599816787999995 17.8699385635 2.207843349599999 0 0 0
397 1 1.7098502877000037 20.413500072500074 2.2066031582 0 0 0
398 3 3.162851812900003 19.7060854114 0.9117657811999997 0 0 0
486 2 3.0780901109000016 21.3234136197 4.1448851867 0 0 0
2929 4 6.187097567200002 17.4736275335 2.380101251100001 0 0 0
2930 4 4.828055719199977 19.926336953500073 2.4890800121999987 0 0 0
556 2 7.678726743699999 18.5585472092 3.6687016012000004 0 0 0
557 1 7.767911429400002 20.630106472 2.2291625893999996 0 0 0
558 3 9.349374742499991 19.771816054000013 0.8727210102999994 0 0 0
654 2 10.897672839799998 18.8562591725 4.114922251300001 0 0 0
655 1 10.885783239999995 20.6076470688 2.1871167111999963 0 0 0
2938 4 9.147739552599969 17.559769072900064 2.2877803989000007 0 0 0
645 1 12.2528000868 17.6618762006 2.0991002384999984 0 0 0
646 3 13.981448384999988 17.041916783900025 0.9607160794999992 0 0 0
656 3 12.240270008099998 19.716631828900027 0.5907090591999999 0 0 0
728 1 15.5291996161 17.6783602473 2.1829682027999997 0 0 0
818 2 15.60581381299996 21.349269269500066 4.133828019700001 0 0 0
2944 4 13.152396906800002 19.6502476557 2.646461306699999 0 0 0
2951 4 15.849861216399999 19.8988896707 2.3530417467000007 0 0 0
3013 4 16.322534558999998 16.7697389607 4.457352952299999 0 0 0
3014 4 14.809367195499998 19.0590616586 4.7271295361 0 0 0
729 3 17.0272147322 17.0203761018 0.9136138776999996 0 0 0
805 2 18.638730558000006 16.2031927769 4.184338502300001 0 0 0
806 1 18.654245867900002 17.548270569 2.080811344499999 0 0 0
807 3 20.129103880100004 16.9831046618 0.7415450725999992 0 0 0
902 1 21.612384096199996 17.69008478890008 2.0018274462 0 0 0
912 2 20.018475528899994 18.790729288000097 3.846523252600001 0 0 0
913 1 20.662934234400005 20.4596236463 1.9737700635999964 0 0 0
914 3 22.005243159800003 19.5286116209 0.7011050347999959 0 0 0
922 2 18.65832411670001 21.4075993113 3.9695673761999988 0 0 0
2957 4 18.570455184500005 19.769496589500093 2.4295719997000003 0 0 0
3021 4 17.834599626999996 19.1572821188 4.985148015699998 0 0 0
43 2 26.226756125100003 18.7913429937 4.188618115600001 0 0 0
903 3 23.2519551511 16.9105377553 0.5243273705 0 0 0
991 3 26.370863268800015 17.022476645100046 0.9279724039000001 0 0 0
2959 4 23.769257720700004 17.53450604680001 2.6232703311000005 0 0 0
2966 4 24.945624545 19.9868962012 2.461482763499996 0 0 0
3026 4 25.0049597267 16.3431240691 4.7393707652 0 0 0
3027 4 23.5012174653 19.162713684 4.8911604397 0 0 0
60 2 -13.9177910228 24.3561716269 4.040517572700001 0 0 0
53 2 -12.3966730942 21.5279681772 4.099904222100001 0 0 0
54 1 -12.578506139700004 23.543832336400044 2.096109639099998 0 0 0
61 3 -12.482324650400004 25.1663691826 0.8129977555999996 0 0 0
146 2 -9.234203442800013 21.6502795119 4.164579841 0 0 0
150 2 -10.850510277799998 24.1176516202 3.9767668978999975 0 0 0
151 1 -11.2725473157 26.1630964484 2.176823590899996 0 0 0
2913 4 -9.3822138914 24.9649092823 2.408096220699999 0 0 0
2973 4 -10.7492397045 22.3244100999 2.5749556339 0 0 0
2980 4 -9.1316882796 26.8225498595 4.3856300371999986 0 0 0
222 2 -6.2043943037 21.538751849 4.035005698599999 0 0 0
223 1 -5.974446772701689 23.432346555600137 2.1574899076000005 0 0 0
224 3 -4.725213373400001 22.388278658500063 0.8778059782999978 0 0 0
229 3 -6.309410018800001 25.010064415500054 0.8586986313999994 0 0 0
315 2 -4.6048990568000026 24.141742997900057 4.121006428899998 0 0 0
316 1 -5.2034765591 26.3009916348 2.041352810199996 0 0 0
2912 4 -8.0402605705 22.594137471 2.461329899599999 0 0 0
2920 4 -3.4004780488 24.9598445199 2.1554613556 0 0 0
2979 4 -7.744593494401645 24.235522530500038 4.616014948099998 0 0 0
2991 4 -4.4542180092 26.481242723 4.1552641446999985 0 0 0
308 1 -3.133079498799999 22.7257920789 2.1582149925999996 0 0 0
309 3 -1.4983079015000005 22.3915416711 0.8823054949000007 0 0 0
407 1 0.11985024429999847 22.8689498428 2.0830962363999994 0 0 0
497 2 0.20890723850000548 26.729095186300107 3.4339867537999957 0 0 0
2922 4 -0.6860960366000075 24.946740892 2.3925059814999994 0 0 0
2990 4 -2.1128229022000014 24.05493106150001 4.551568389299998 0 0 0
2995 4 0.6936779411000007 23.77635032700006 4.4505864117 0 0 0
408 3 1.696957085699994 22.36807483190011 0.8380616702999983 0 0 0
562 2 6.016343513499999 21.5281704483 3.862040916299998 0 0 0
563 1 6.134201560899944 23.219106686500133 2.0286981824999994 0 0 0
573 2 4.356788918099973 23.968576191200068 3.8032272893999988 0 0 0
574 1 4.764102641000001 25.8033488369 1.8978960531000002 0 0 0
575 3 6.314952881099996 25.074838407400026 0.7349735953999996 0 0 0
2931 4 3.430510184000001 22.526648252 2.276590175700001 0 0 0
2932 4 2.0643743303000015 24.9369924963 2.3739106210000003 0 0 0
3001 4 1.8275935711000084 26.211258787500118 4.908503134599998 0 0 0
564 3 7.7679114294 22.4240287739 0.961352012199999 0 0 0
659 1 9.251297016399961 23.232139896700094 2.2144825292999997 0 0 0
660 3 10.875076001100004 22.4240287739 0.961352012199999 0 0 0
667 2 7.3078153661 24.269924203 3.988897550799999 0 0 0
2945 4 10.634556242800002 24.9829718177 2.5037600722999986 0 0 0
3008 4 10.395551831799999 21.6672886806 4.110481526799999 0 0 0
3009 4 9.377498527500006 24.1089794052 4.856658005399998 0 0 0
742 1 12.388931734500003 23.3478698817 2.230356994800001 0 0 0
743 3 13.709077422199998 22.6869631293 0 0 0 0
750 3 12.428658286999932 25.114912226800126 0.961352012199999 0 0 0
819 1 15.945466828300004 23.4768211259 1.5864250623 0 0 0
826 2 14.237365516800006 24.2301224371 3.9956386741000003 0 0 0
827 1 13.945900107699941 25.941005207500112 2.1290768621999963 0 0 0
828 3 15.406841586800002 25.2831870103 0.7289998823000001 0 0 0
2952 4 14.249989699 22.0900176832 2.1008496333999958 0 0 0
3015 4 13.088771077099995 21.6260183086 4.521698165 0 0 0
3016 4 12.147744208500006 24.1647755846 4.827331144399999 0 0 0
923 1 18.7944665336 22.9549172073 2.0146828329 0 0 0
924 3 20.29878124840001 22.3709284327 0.7168974325999997 0 0 0
930 2 17.171808644899993 24.012459009800097 3.760924715999998 0 0 0
931 1 16.998864320900005 26.20704901350001 1.6802184596000007 0 0 0
932 3 18.48652804939996 25.16591890900009 0.44591130819999947 0 0 0
999 2 21.818156718599987 21.63368085970013 3.8812610449999987 0 0 0
1000 1 21.813057086499988 23.151002164600047 1.894482547900001 0 0 0
2960 4 18.987790138700007 25.108020349500084 2.6386000681000006 0 0 0
2967 4 21.965951412399995 25.3593911371 2.2971493936 0 0 0
3028 4 20.419616739000013 23.8013402151 4.553460705599999 0 0 0
1001 3 23.43308703030002 22.366341304400123 0.8707329641000001 0 0 0
71 1 -15.311024871700026 29.066012930400085 2.1802080980999996 0 0 0
75 1 -17.5226827741 30.9895588999 2.1771035923 0 0 0
76 3 -15.549796688600004 30.6152608587 0.8270370750999998 0 0 0
80 2 -15.447281188103844 32.0180061026 4.005462761399999 0 0 0
163 1 -13.608086660400001 31.4420695894 2.3443541856000003 0 0 0
2974 4 -13.673892961100004 27.5236286836 2.122329457100001 0 0 0
3036 4 -15.01529050940001 27.01582948560008 4.4390133769 0 0 0
3037 4 -13.663565501100194 29.379290272200105 4.544484356999998 0 0 0
156 2 -12.5755729659 27.0863154413 4.104963075499999 0 0 0
157 1 -11.985842764399997 29.0073859382 2.2293372727000005 0 0 0
158 3 -10.892188414100069 27.8008019613 0.9454802100999995 0 0 0
164 3 -12.414885828900001 30.5330996953 0.8965310621999993 0 0 0
236 1 -9.171152866 28.2018203849 2.1950936001 0 0 0
2919 4 -9.713348748900007 30.39266979260005 2.6463969124999984 0 0 0
2981 4 -11.028075045400005 28.7353367376 4.796963059099999 0 0 0
2982 4 -12.168046071299994 31.658867204500098 4.356410437400001 0 0 0
237 3 -7.646007340700013 27.771776263300115 0.8619597021000001 0 0 0
325 2 -6.655019523 26.9486875074 4.1768988795999995 0 0 0
326 1 -6.350915572899998 28.9863697837 2.252813535799996 0 0 0
327 3 -4.736604827199999 27.8648997488 0.7668038570999993 0 0 0
334 2 -7.860577737600007 29.64307922320009 4.170314021199998 0 0 0
340 2 -6.2316469498000036 32.117084011 4.3682265394 0 0 0
431 2 -4.795565387500016 29.548867893800153 4.1335007761 0 0 0
432 1 -4.764718935700024 31.376721222600136 1.667332568299999 0 0 0
2997 4 -3.572346028900002 31.423106904000036 4.373617044100001 0 0 0
424 2 -2.5391695903000002 27.6510299892 3.9919028483999988 0 0 0
425 1 -3.336461489700005 28.8358034819 1.9437479115999992 0 0 0
433 3 -2.9600308756999993 30.5160145433 0.7933377528999994 0 0 0
498 1 0.28201714980000503 28.62232542360012 1.8077531569000005 0 0 0
504 1 -1.3817726556000025 31.003268153500176 2.1758604079 0 0 0
505 3 0.11439701250000311 30.45416716720007 0.8518138126999997 0 0 0
587 2 1.5460397944999968 29.539559814100173 4.093262629899998 0 0 0
2923 4 -1.7463722983000025 27.30076731680008 1.5215263996999973 0 0 0
3002 4 -0.8860611634999991 31.5204485372 4.819296099199997 0 0 0
499 3 1.7307409914999994 27.8789124759 0.5283825620999991 0 0 0
580 2 3.4776316230000006 27.0557343443 3.6330688413999983 0 0 0
581 1 3.274702499300002 28.616505560400125 1.6947410291999994 0 0 0
582 3 4.7758577548000005 27.826681983400107 0.5024391701000006 0 0 0
588 1 1.8815423167000027 31.1496271733 2.1584083203999995 0 0 0
589 3 3.2679014057000018 30.4728455809 0.7770220399999985 0 0 0
675 2 6.3715145005 27.0601576825 4.214947218900001 0 0 0
681 2 4.816709481 29.677200782 3.8520307423 0 0 0
682 1 4.797799725799944 31.3664814289001 2.0134783557 0 0 0
692 2 6.2055496535999985 32.28184673 3.862184341500001 0 0 0
2940 4 6.431396236399994 27.5316466506 2.015717320999997 0 0 0
3005 4 1.9820774513999986 31.6236430462 4.889283302699999 0 0 0
756 2 9.264374367199967 27.168505336400084 3.6380733839 0 0 0
760 2 7.7577533488000014 29.663825165800002 4.103511689800001 0 0 0
765 2 9.145563568700002 32.268947433 4.1254569665 0 0 0
841 2 10.702503144199994 29.7317766365 3.911178767399999 0 0 0
842 1 10.9359220296 31.3863833966 2.0558907696999995 0 0 0
2946 4 9.189697766 27.6045046293 1.431984547599999 0 0 0
2947 4 7.671472143999999 29.95369951520009 1.8739313689999975 0 0 0
835 2 12.552608510199935 27.01169100840011 3.902963448899998 0 0 0
836 1 12.422541726599995 28.7826019918 2.1476120796 0 0 0
837 3 13.714659683799983 27.904288097400055 0.4641028219999992 0 0 0
843 3 12.441029231600005 30.489581871500164 0.9519649735999973 0 0 0
939 2 15.4371424839 27.4477391649 3.4482625974999994 0 0 0
946 1 13.921681227499928 31.323870201500135 2.137828153499999 0 0 0
2962 4 15.9717304031 30.137007279700047 2.3401782653000005 0 0 0
3023 4 14.656042044500001 29.0685259695 4.799347886999996 0 0 0
3031 4 16.5584040824 31.4784528832 4.638127193900001 0 0 0
1 2 18.5461391367 32.2698682848 3.9416568173999984 0 0 0
74 2 20.22130478069998 29.554530437600107 4.1742867446 0 0 0
1015 2 18.398395890499998 27.0758635314 3.5565910561999985 0 0 0
2961 4 17.870878073999986 28.280576471100044 1.7309702872 0 0 0
2968 4 20.3610214344 27.5453776313 2.561525109599998 0 0 0
3030 4 17.3711146576 28.8880213555 4.4070479352 0 0 0
4 1 0.18826883370000003 1.8596050738 5.559475683899999 0 0 0
5 1 -1.4143424379 2.7599096366 7.843072312299999 0 0 0
12 3 0.2741660943999964 3.762326169000007 7.185537178200001 0 0 0
91 1 1.5365020654999997 4.6975719625 5.8364353015 0 0 0
93 3 1.36041663522411 4.255194515983837 9.731614908894546 0 0 0
3105 4 0.5649296607000001 0.7223769656 7.464032963999998 0 0 0
3166 4 0.12012886968321479 2.5590334529333907 9.468427330155794 0 0 0
83 1 3.1208900815999985 1.8487145381000079 5.320281443500001 0 0 0
85 1 1.7856935051 2.6020055227 7.996212010099999 0 0 0
94 3 3.2049231555 3.7217525064 6.986159104000002 0 0 0
171 1 6.1831910180000005 1.8077716629 5.929668489999996 0 0 0
173 1 4.713404910184577 2.588650103094094 8.231897534224498 0 0 0
174 3 6.087405853737112 1.6555645523786409 9.601663887637798 0 0 0
177 1 4.872907983200001 4.8666348905 6.174762742599999 0 0 0
180 3 4.817716980609888 4.398207753520245 9.342188713541077 0 0 0
181 3 6.116958673999999 3.5134501703 7.128430397199995 0 0 0
3110 4 3.2727797933 1.0198152245 7.406511106300002 0 0 0
3111 4 3.1945553579202803 3.046384647209485 9.851436109293086 0 0 0
179 1 2.9557575281853596 5.216451574767245 8.53686384108817 0 0 0
3170 4 2.1580546075380136 0.21706286685243534 9.950166309515996 0 0 0
175 3 8.0631758544 0.846276720100002 7.043071337000001 0 0 0
252 1 9.531528151700002 1.8175147076 5.952708422699999 0 0 0
254 3 10.9465924011 0.9445556538000035 7.3838090044 0 0 0
258 1 7.7733149794 4.6208110536 5.8588551035 0 0 0
3044 4 8.304958170799999 3.056737364200012 7.386444173299999 0 0 0
3049 4 11.0033634913 3.2826366486 7.083442801700002 0 0 0
3121 4 9.276423003938023 1.7899259546483226 9.381409317471128 0 0 0
3122 4 6.954968204018522 4.658678527462204 9.397644534577182 0 0 0
3123 4 10.581798994259795 4.92891332481548 9.339856903416326 0 0 0
343 1 12.4569078834 1.7938453451 6.07179211559999 0 0 0
345 3 12.348974975969742 1.7705271062126302 9.835456491970767 0 0 0
346 3 13.982721977300002 0.9022166449 7.3416015333 0 0 0
438 1 14.019908032088074 2.72499293767172 8.636693376639094 0 0 0
439 3 15.471741061587373 1.8079862224020462 9.956033257172074 0 0 0
449 3 15.537652239999993 3.584350846200016 7.3388001647 0 0 0
507 1 15.534485798024035 0.16814367005104444 8.638415638619634 0 0 0
519 1 15.602382336049969 5.320861895127681 8.568732534061983 0 0 0
447 1 12.793812516661124 5.3575345452717285 8.741354401863937 0 0 0
435 1 12.49964803502257 0.007323461431741344 8.633854547298785 0 0 0
513 1 17.063916139609077 2.73329343970962 8.62053671564841 0 0 0
514 3 18.62376451008717 1.7943410638172448 9.835240776421383 0 0 0
515 3 20.1965697164 0.8969611509 7.338668668399997 0 0 0
518 1 17.0894682504 4.4660979806 6.057468828799998 0 0 0
520 3 18.642987430500003 3.5878446038 7.338668668399997 0 0 0
599 1 20.182016233904115 2.505192722154983 8.438910639361698 0 0 0
600 3 21.782932778509966 1.7060254601488234 9.618526814753544 0 0 0
605 1 20.0991820556 4.179160274000001 5.844101576899998 0 0 0
607 3 21.745212578400004 3.585225407000002 7.331585008799998 0 0 0
702 1 21.827692851013275 5.314023856614454 8.436305664127769 0 0 0
3063 4 17.650140325399995 1.0593302157 7.0636827467 0 0 0
3137 4 19.64506212068517 4.551538087302645 9.006943116545688 0 0 0
591 1 18.591441052967284 0.02502476531981901 8.751275184986827 0 1 0
694 1 23.341409327435194 2.676817202981408 8.533237894899212 0 0 0
700 1 22.973229389300023 4.732655465400021 5.922093661799998 0 0 0
703 3 23.242064140868532 4.459490235275725 9.671816943210082 0 0 0
768 1 26.567414095384596 3.0604937784534583 8.20395090944686 0 0 0
774 3 26.401048216380754 4.5185028781173076 9.67055943175702 0 0 0
3074 4 23.49087178160019 0.8891205936000018 7.129287379499999 0 0 0
3075 4 24.66184297810002 3.7196961374000077 7.010669354400001 0 0 0
3082 4 26.35260452020001 0.9247894929 7.2144032715 0 0 0
767 1 27.981102004100002 1.8283684274 5.791182697699998 0 0 0
769 3 29.458719223500005 0.9204009603000014 7.3145562606 0 0 0
775 3 28.19302206890002 3.8004770799000176 7.045687872099993 0 0 0
852 1 30.89539165210001 2.0959915024 5.7024050175999985 0 0 0
854 1 29.495832730584976 2.8661717500821258 8.410123362961624 0 0 0
855 3 30.91222326458679 1.6946479742323086 9.41240088741283 0 0 0
862 3 29.404084084057462 4.776795366522126 9.843727605600446 0 0 0
863 3 31.1290272905 3.6535836592000095 7.260120780299999 0 0 0
949 1 31.31339821180688 0.21506078930000117 7.906936243800001 0 0 0
3150 4 28.022643752497086 0.35536348000280477 9.105071324187186 0 1 0
856 3 32.852707201 1.3224020535000045 7.074724846799999 0 0 0
954 1 33.7439867176 2.6157336607 5.268859521799998 0 0 0
955 1 32.65903426836455 2.778346120201483 8.498295134450235 0 0 0
959 3 32.62214603234863 4.466025480086643 9.805907089630864 0 0 0
960 3 34.2064890242 3.879920627500004 7.332067714199997 0 0 0
1024 1 34.2664231344718 0.17531470592333243 8.517025838057236 0 0 0
3099 4 35.0156930473 1.1985572407 6.4675559326 0 0 0
3162 4 34.65476070668524 3.6490941449910097 9.462691981360894 0 0 0
26 1 -4.7397706421 9.9633241524 5.9308892898 0 0 0
28 3 -4.662003540530346 9.7411311942062 9.518065180693153 0 0 0
3101 4 -3.7847626292000003 8.300490628200006 7.107938208900002 0 0 0
92 1 0.17472136612467093 5.41252443087928 8.451847944439358 0 0 0
11 3 -1.5730826264268296 5.533005646521231 9.424567447876324 0 0 0
98 1 0.10283470959999885 7.24970468140003 5.912478633799999 0 0 0
100 3 1.5010359650000002 6.3957102011 7.193634082500001 0 0 0
107 1 -1.6071159639000028 9.925079313600005 5.953868129899998 0 0 0
193 3 1.4270767451031716 9.697745732397458 9.633591395737277 0 0 0
3039 4 0.5651777696999982 10.662158853700046 6.514527916399999 0 0 0
3100 4 -2.1520544522 5.927078688500007 7.224762275300002 0 0 0
3106 4 -1.0253177841999994 8.3931113417 7.4956479067 0 0 0
3112 4 0.7478677889210177 7.42274665601954 9.422668713590369 0 0 0
3167 4 -3.1346629953012055 7.115216617501811 9.442327486790507 0 0 0
185 1 3.065152253200001 7.182732001 6.080967578500001 0 0 0
187 3 2.972585095941696 7.1219008839452815 9.642774719818412 0 0 0
188 3 4.3930229027 6.4099469835 7.469425242699998 0 0 0
272 1 3.0101049853783284 10.4986348958921 8.604335050122241 0 0 0
273 3 4.707286047978691 9.733663891720271 9.565145648155443 0 0 0
366 1 6.066303239876332 10.443059547380837 8.116146252460247 0 0 0
3038 4 1.9884529148999999 8.567807715700003 7.520615767100001 0 0 0
3045 4 6.557152588699999 5.8098583425 7.331816558499998 0 0 0
3046 4 4.7010599833 8.6299419196 7.271349374099998 0 0 0
186 1 4.951656651312754 6.3641870116252095 9.863752597870501 0 0 0
264 3 6.74878697377783 6.974301630291933 9.284888519922358 0 0 0
360 3 9.502496166932508 6.833839410037275 9.730306048401115 0 0 0
367 3 7.669733743518656 9.938147058075353 9.624449099483172 0 0 0
368 3 9.615443326200005 8.8613672876 7.385456623899998 0 0 0
455 1 10.951556231066737 7.8695890100247805 8.490066589868583 0 0 0
459 1 10.653302555999998 10.0726603673 6.064899874799995 0 0 0
462 3 11.005760816363996 9.903625827899306 9.909789495277483 0 0 0
2994 4 8.833799277500002 9.1144476328 5.151808605199999 0 0 0
3050 4 9.278683951700007 5.863424222100009 7.210864797599999 0 0 0
3051 4 7.4141779079 8.3961135914 7.363799329300001 0 0 0
461 1 9.415741581630844 10.584547102096169 8.561850634845115 0 0 0
456 3 12.400383057839827 7.105427535262225 9.679061643785502 0 0 0
457 3 14.1948296898 6.1584346233 7.2350109325 0 0 0
463 3 12.513838987200007 8.7087756843 7.2594812299 0 0 0
525 1 14.128436215995645 7.960160524472266 8.535618084558244 0 0 0
526 3 15.737034567040642 7.252848409474502 9.616340979689973 0 0 0
531 1 14.135832004600001 9.5902037251 5.858721369699996 0 0 0
533 1 12.573320205021918 10.566002049241831 8.515617761089466 0 0 0
534 3 14.16241617549368 9.650437793133323 9.904565827010924 0 0 0
535 3 15.752250643699995 8.7232091965 7.215949545099999 0 0 0
3000 4 12.1971913789 8.8052323544 5.0292683675999985 0 0 0
3004 4 16.267625189 6.4322521868 5.013305275799999 0 0 0
3052 4 12.0001117096 5.9044826396 6.809310544500001 0 0 0
621 1 15.6694789052448 10.598122543033988 8.594101110072042 0 0 0
527 3 17.0998109554 6.149001038800014 7.264110100899998 0 0 0
612 1 17.249839296187165 7.954521267829607 8.63244268923162 0 0 0
619 1 17.0976239361 9.7092626162 5.988789370099999 0 0 0
622 3 17.24316526675672 9.760261110226633 9.864002859072933 0 0 0
716 1 20.283988453399992 9.948022341800048 5.9567506337000005 0 0 0
719 3 20.288663797551738 9.463171605631723 9.35050854056163 0 0 0
788 1 21.828088634117446 10.43618125788111 8.3033765513316 0 0 0
3068 4 20.426211983600002 6.1118405352 6.948772744700001 0 0 0
3069 4 19.125087518100003 8.4904770676 7.219687793599999 0 0 0
3141 4 20.87731637721072 7.305450179111062 9.585608282838919 0 0 0
773 1 24.826633227839 5.398509771778366 8.53215579217073 0 0 0
710 3 23.303694263199997 6.265065748800007 7.362612025499995 0 0 0
779 1 24.906069211999995 6.9318363786 5.94001725 0 0 0
780 3 26.410853582900003 6.3097115766 7.296918049099993 0 0 0
786 1 23.272255952300036 9.9292083782 5.856953217099999 0 0 0
789 3 23.19641713090063 10.182894761449903 9.872022577840635 0 0 0
3076 4 22.039789657000004 8.3390587816 7.211900857099998 0 0 0
3083 4 24.772445717100005 8.837080035200044 7.129425230099997 0 0 0
3151 4 25.893651216333033 7.281385770308193 9.103861732778533 0 0 0
958 1 30.965974989124646 5.420524584745816 8.65929440941753 0 0 0
27 1 30.965291835933524 10.51739758135197 8.570405536391476 0 0 0
861 1 27.94453267175568 5.691237479989611 8.607617058561054 0 0 0
870 1 28.10785904419999 6.965505261200016 5.997222193399997 0 0 0
872 3 29.5542430183 6.3494565131 7.345076107499999 0 0 0
965 1 31.0210292029 7.3001975165 6.004448515900002 0 0 0
967 3 31.670898692432214 7.2064122322092325 9.786803457257573 0 0 0
974 3 31.074151971200003 8.9122480861 7.303187814799998 0 0 0
3087 4 27.5543700703 8.6737310588 7.352993030299999 0 0 0
3156 4 29.709629210778814 7.6346450749890185 8.993531331838987 0 0 0
3157 4 28.272384339217492 10.427451248734702 9.603530897571137 0 0 0
3093 4 32.4184269194 5.8036916807 6.974511922399998 0 0 0
31 3 -6.303568703105876 12.298061961375511 9.737429332892894 0 0 0
32 3 -4.787690880700001 11.4642545535 7.356779989499998 0 0 0
35 1 -7.4681584455000065 15.341109732000026 5.854526809199999 0 0 0
36 3 -6.259117567999999 14.3866285033 7.299001323599999 0 0 0
115 1 -4.8209621864083765 13.170184216569298 8.478002595208295 0 0 0
122 1 -4.5653519562 15.1030081933 6.1538759058 0 0 0
3034 4 -6.608800073900004 11.871317296400067 5.133503186799999 0 0 0
3102 4 -8.261836510700002 15.7079357164 7.927696999799995 0 0 0
3114 4 -3.428380968028155 14.769580289252373 9.326934336921639 0 0 0
192 1 0.03989887478212051 10.81303864482002 8.618893390380592 0 0 0
108 1 -3.1091337878054133 10.90459380556529 8.626290422046143 0 0 0
114 1 -3.1042359695999995 12.4411800232 5.932498836899999 0 0 0
116 3 -3.284061283671411 12.636385483324062 9.94090091935987 0 0 0
117 3 -1.5147848565000022 11.607744914000019 7.337642839099999 0 0 0
123 3 -3.256246367200001 13.9329615627 7.360691195499999 0 0 0
198 1 -1.6245407771172875 13.464384279116807 8.645871849583301 0 0 0
205 3 -1.342812916278353 15.294164037144464 9.861504158818772 0 0 0
206 3 -0.024283267899999572 14.363583769700014 7.321587457299998 0 0 0
279 1 1.4870158212249889 13.40497326698911 8.497036114823768 0 0 0
287 1 1.5118721612000012 15.2458953578 6.023597018899995 0 0 0
290 3 1.5271666376695574 15.101939469318413 9.559368832576087 0 0 0
3040 4 -2.2841325134000003 15.9506652055 7.145364350000001 0 0 0
199 3 -0.09851819212881185 12.455417521506472 9.861943153352314 0 0 0
280 3 3.219544983293405 12.44911047180782 9.551232970080793 0 0 0
291 3 3.0636960492999865 14.36590839930003 7.2547027464 0 0 0
375 1 6.017181214699999 12.5304915693 5.9079575805 0 0 0
376 1 4.658822910550445 13.51400933055745 8.421416500608231 0 0 0
382 1 4.4874949183999995 15.2537276929 5.8217263662 0 0 0
383 1 3.015473649661237 15.997385027798376 8.326302952345053 0 0 0
384 3 4.7718932901054245 15.504057501926171 9.454323900543226 0 0 0
3047 4 3.778369945499998 11.12776564460001 6.693637536699999 0 0 0
3054 4 6.154480571899999 15.7409063363 7.2698053632 0 0 0
377 3 7.879632429099997 11.1796436796 7.156530748899996 0 0 0
467 1 9.268649988999986 12.65244975410005 6.068344698299995 0 0 0
469 3 10.943626951999999 11.638897612 7.409254138099996 0 0 0
471 1 7.8975308864 15.2575400079 5.931660226499998 0 0 0
472 3 9.632250955600002 14.2303395341 7.476882960099999 0 0 0
546 1 10.8264825549 15.1403000553 5.980241108299998 0 0 0
3053 4 7.5478181621 13.3997125182 7.3104539578 0 0 0
3125 4 7.60836685722531 14.984002531393804 9.574381490627772 0 0 0
3131 4 11.594924489049713 12.684283926680713 9.004937521485346 0 0 0
3132 4 10.450547931288906 15.319033891402333 9.347357780454047 0 0 0
539 1 12.2295767074 12.5266260176 5.8079948429999995 0 0 0
540 3 14.122401515599995 11.127905062800032 7.2456414412 0 0 0
629 1 15.331303793400004 12.2959953353 5.927652993199997 0 0 0
631 3 15.404693746260051 12.738140219599847 9.423402276615143 0 0 0
3064 4 13.634590349399998 13.320525776100023 7.375846345599999 0 0 0
3065 4 12.377197457399964 15.720627760100081 7.663694289399995 0 0 0
3070 4 16.4303356855 13.4704646845 7.5389116821 0 0 0
3071 4 14.952372846099976 15.628961843400072 6.776843803099997 0 0 0
3142 4 16.70331982752794 15.059293868895798 9.69175899192243 0 0 0
718 1 18.738727455527016 10.78688217247774 8.58170980290653 0 0 0
632 3 17.117492230900005 11.3466754987 7.256360396199998 0 0 0
720 3 18.62441343594042 12.584067699946283 9.740998663005655 0 0 0
721 3 20.286511128099995 11.561323441500022 7.255020825199999 0 0 0
726 3 18.539710438 13.8475185638 6.852713154999993 0 0 0
793 1 21.827691135899997 12.4599047022 6.142253679999996 0 0 0
795 1 20.077824623268853 13.498762357756243 8.277101066086097 0 0 0
801 3 20.19360157334973 15.241932107391486 9.613933236225229 0 0 0
802 3 21.756608187700003 14.312674453700067 7.211211935699996 0 0 0
896 1 21.445369302288206 16.107533676156546 8.198112164733416 0 0 0
3077 4 17.929190315200003 15.988888375100021 6.529761264899999 0 0 0
3147 4 20.540411791333007 11.694585789107768 9.564869478637824 0 0 0
800 1 18.655787865770137 16.148224634920084 8.689842520593501 0 0 0
878 1 24.72346527144173 10.771751921864956 8.607640337145646 0 0 0
796 3 23.309333025399994 11.6242703314 7.323230226999996 0 0 0
885 1 24.887771795700004 12.371051030100071 5.866991268399998 0 0 0
887 1 23.326277067358838 13.354338170048242 8.390301346332372 0 0 0
888 3 24.897878950967844 12.559311269521473 9.677322459470936 0 0 0
894 1 23.208958537799994 15.239119222000056 5.525534231599998 0 0 0
897 3 25.1510085225 13.971087029500067 7.154952274399999 0 0 0
979 1 26.468970273154692 13.341646805723078 8.463964628930341 0 0 0
987 1 26.582572097899977 15.037605353000073 5.6717119027999985 0 0 0
3088 4 26.4046642473 11.1250417831 7.047241745699999 0 0 0
3089 4 23.600035745500005 15.4977588337 7.7261395909999955 0 0 0
3095 4 26.3062249464 15.8127126097 7.7658324800999985 0 0 0
3152 4 22.203171470172208 14.695546117547176 9.896447963542023 0 0 0
30 1 29.545904615603117 13.270968929469902 8.449007975555887 0 0 0
980 3 28.02109717685993 12.553444124789872 9.784102297361038 0 0 0
989 3 28.053108622800004 13.8677521682 7.071352704799999 0 0 0
3094 4 29.118556972700013 10.904133403600037 7.1483226372 0 0 0
41 1 -9.221376988800005 17.72387357360002 5.5001513756 0 0 0
45 1 -10.8750760011 20.630106472 6.070858091200002 0 0 0
48 3 -11.001539020647481 20.70524165754711 9.849987472541507 0 0 0
3103 4 -9.659143196 19.115699236700063 7.212950880499999 0 0 0
139 1 -9.364847002238513 21.34029045714802 8.453723489630995 0 0 0
129 1 -5.934320730999997 17.91231605060004 5.359980269299996 0 0 0
130 1 -7.758925273693265 18.972901145483526 8.370063393427149 0 0 0
137 1 -7.774335533 20.6437767354 6.029421571299999 0 0 0
140 3 -7.855658602764326 20.26365996168167 9.703787439229906 0 0 0
141 3 -6.189612874799998 19.8618436273 7.196624184199997 0 0 0
218 3 -4.822367362119637 20.150774093625206 9.569070644292577 0 0 0
3041 4 -3.7205122169000004 18.2971123485 7.201718477699998 0 0 0
3107 4 -6.328824023500008 17.5911058489 7.5517126699999935 0 0 0
217 1 -6.345529337658879 21.437138919646017 8.561608526383282 0 0 0
3115 4 -5.0541081420912475 18.11712783122892 10.002913735259266 0 0 0
289 1 -0.11810692638629128 16.20760068079706 8.435821346767412 0 0 0
296 1 -1.3757657824389007 19.013752768557033 8.527885411546407 0 0 0
297 3 -0.07635126454607644 17.955421043473656 9.716215872314496 0 0 0
298 3 1.5027765473000017 17.0021067134 7.3186073369999995 0 0 0
304 3 0.1607969317000002 19.8511178475 7.582970680399999 0 0 0
393 1 1.6207744591676718 18.766407352384547 8.59588494540354 0 0 0
399 1 1.5236788353000001 20.383176790300084 5.857795498 0 0 0
3048 4 -0.550296962900001 17.9722275987 6.569750342499997 0 0 0
3118 4 -2.1987959312015475 17.24226719823688 9.5498249206826 0 0 0
400 1 0.007404391853237158 21.517364246632273 8.743808816763789 0 0 0
303 3 -1.6143873718952868 20.423009056917955 9.99653373520626 0 0 0
391 1 2.917423424099999 17.808307140300013 5.8473613905 0 0 0
401 3 1.90826307986352 20.50700383553571 9.86527195988176 0 0 0
402 3 3.003205085700001 19.4882906607 7.1043019311 0 0 0
481 1 2.8906317534660406 21.333677687993966 8.117381037699808 0 0 0
3055 4 4.7570978335 18.0749158747 7.1150426263999975 0 0 0
3059 4 5.946528637700002 20.5256851879 7.058330092799999 0 0 0
3126 4 6.209540151290737 17.230475865567303 9.611569729948648 0 0 0
3127 4 3.8140996563642187 19.590510379346107 9.168338419404876 0 0 0
547 1 8.914676580509711 16.366552004728334 8.159315714138998 0 0 0
551 1 9.272913789899949 17.947453694300098 5.778812920899998 0 0 0
553 3 9.582473430674009 17.618468892356322 9.706618295670847 0 0 0
554 3 10.598397347599999 16.9284175988 7.000660540399998 0 0 0
559 1 7.502618870199999 20.3004666318 5.4488711687 0 0 0
560 3 9.258696527499971 19.47114269300005 7.424456107000001 0 0 0
649 1 10.950208679968828 18.540382263341332 8.319353008766988 0 0 0
3058 4 7.48137500749999 18.123518972700047 7.128586825399999 0 0 0
3066 4 9.084332121399997 21.5122820676 6.493946954199995 0 0 0
3072 4 11.742138168799999 20.9995680843 6.806073411500002 0 0 0
3133 4 8.241132513462976 19.18446789364718 9.368477625295426 0 0 0
647 1 12.330209994099995 17.642977277900023 5.761156084399998 0 0 0
650 3 12.488849816403851 18.096598715272307 9.834682845979316 0 0 0
658 3 12.682657236099999 19.0103014325 7.275902696599999 0 0 0
731 1 14.073087520180607 19.090494507844827 8.760222309323119 0 0 0
736 1 13.838422445999969 20.398631806800076 6.2520288437 0 0 0
740 3 15.385413503300002 20.0316698074 7.5788335455 0 0 0
3078 4 16.185640944899998 18.05737951310006 6.8547418524 0 0 0
3143 4 14.283291021935407 16.961251351853424 9.030836408532103 0 0 0
732 3 15.576960900886892 18.337370289453247 9.956004531224721 0 0 0
739 3 14.00879670278948 20.8523434806069 9.906541747970632 0 0 0
809 1 17.14945945219916 19.10441387920513 8.703248031647561 0 0 0
810 3 18.751457998916347 17.861942663857707 9.762788327608334 0 0 0
811 3 20.0828174563 17.0544258167 7.229105953600001 0 0 0
817 3 18.75786997450001 19.6390994455 7.290979149800002 0 0 0
904 1 21.7560825627 17.8200788372 5.354124288899998 0 0 0
906 1 20.47061508944376 18.85820101450141 8.443526149115684 0 0 0
907 3 21.970968598504307 17.5590722653184 9.574825815231751 0 0 0
915 1 20.046549567400007 20.566070878 5.903889404899999 0 0 0
917 3 20.356993233455622 20.67591241974265 9.710983347009197 0 0 0
918 3 21.742718221299995 20.0334662371 6.965773273 0 0 0
995 1 21.87524690111751 21.42336606115893 8.274009057662042 0 0 0
816 3 17.28249549189756 20.77067907729194 9.967609277956779 0 0 0
916 1 18.867658786737103 21.51743356298118 8.510313648407159 0 0 0
3163 4 26.580563050410575 18.500384868556182 9.612050177685319 0 0 0
3090 4 22.488759646500014 17.9729802621 7.475987727099998 0 0 0
3096 4 25.133197384600003 18.086715176000055 6.829269505999999 0 0 0
3164 4 24.394258518951528 19.904758349544984 8.601355057247371 0 0 0
3159 4 22.18388842163622 19.69896118005033 9.882674696134668 0 0 0
3158 4 24.12704582480539 17.18421528356041 9.975544705813029 0 0 0
62 1 -13.851405422100001 26.1516999983 6.159812907300001 0 0 0
65 3 -14.084128840007578 25.93180732647651 9.49308137934269 0 0 0
47 1 -12.214930410646417 21.97803915381715 8.583344297538154 0 0 0
55 1 -12.237974104300008 23.323620763500116 5.8947764052 0 0 0
58 3 -12.518453752729666 23.359224339168037 9.927414545446307 0 0 0
59 3 -10.7389137503 22.483829733 7.1847842066 0 0 0
66 3 -12.4937908639 24.9461959062 7.1557524575 0 0 0
147 1 -9.2878957386 23.391165654200012 6.018790576799997 0 0 0
152 1 -10.956024547200006 25.976575675000095 5.647636754499995 0 0 0
3108 4 -10.6713439463 26.0501054453 7.8786424565 0 0 0
3116 4 -10.486230890557687 23.822657981569474 9.27584664207496 0 0 0
148 3 -7.816236730900039 22.4012495544 7.258382359899997 0 0 0
225 1 -6.2165633214 23.1220551519 5.965628420399998 0 0 0
226 3 -4.7543544591 22.3677962847 7.512988458900001 0 0 0
231 3 -6.221829257 24.8435288452 7.116607677800001 0 0 0
311 1 -4.842446044881372 24.158345666193437 8.565375572054254 0 0 0
317 1 -4.676419108300001 25.9806725781 6.3375920951 0 0 0
320 3 -4.831336537903905 25.85597373179854 9.78113749500083 0 0 0
3042 4 -8.1947531484 25.86401239860009 6.757884219200001 0 0 0
3119 4 -7.0551510252245455 23.88525316131757 8.848539556584875 0 0 0
3120 4 -8.276223141981887 26.806229842784322 9.36376975295994 0 0 0
319 1 -6.220602631714829 26.763049984516478 8.467321492944926 0 0 0
302 1 -3.2555175425532514 21.574593849575773 9.072696474779818 0 0 0
310 1 -3.250284197500001 23.201753381200064 6.295348631100001 0 0 0
312 3 -1.9169704652000004 21.8413761526 7.178345644499995 0 0 0
321 3 -3.3739322259000026 25.0507593741 7.6517617704 0 0 0
409 1 -0.3457009931999995 22.6255507313 6.0808782292 0 0 0
411 1 -1.6455622953204863 23.985608429428595 8.579320850879082 0 0 0
412 3 0.06154343935327766 23.36437763978752 9.84022235202234 0 0 0
413 3 1.4852157143000007 22.38408459890012 7.063503431899999 0 0 0
420 3 -1.553898468621231 26.061840100544376 9.674041180460101 0 0 0
421 3 -0.5967821732000029 24.427827754800138 7.069314977200001 0 0 0
2996 4 -1.1974799795999989 26.4507503143 5.471584168399998 0 0 0
3056 4 1.1903767926999986 25.721129984 7.511954322099999 0 0 0
487 1 3.135552883199999 23.2530670476 5.9716833285999975 0 0 0
488 3 4.506061859700001 22.2501867549 7.175162687299995 0 0 0
493 3 3.1064342967093204 24.702656216627283 7.962554101321668 0 0 0
565 1 6.222691574200001 23.002299611600012 5.8667017462 0 0 0
567 3 6.253315878814387 23.84714312868194 9.876719143115178 0 0 0
576 1 4.901448068299995 25.60258186460004 5.610898027999998 0 0 0
577 3 6.186405514900001 25.250748109 7.215168710699999 0 0 0
3060 4 3.7213072207 26.6794218164 7.1952534445000005 0 0 0
3128 4 3.777270348975696 23.018640043986075 9.248361163035206 0 0 0
3134 4 6.199143909375509 21.93502009838846 9.219072532186967 0 0 0
3135 4 5.007059872636688 25.263622307178085 9.000917520434903 0 0 0
3129 4 1.8702332345572596 24.697662905631283 9.907153645488233 0 0 0
568 3 7.374462586599993 22.547901528200015 7.526580752499999 0 0 0
662 1 7.778206150976295 24.3929447516192 8.51193211537148 0 0 0
668 1 7.7706886052 26.0780465061 6.036038420899999 0 0 0
671 3 7.723552889237814 26.220065771019613 9.643467095196037 0 0 0
672 3 9.3274268893 25.2951308671 7.154904600999998 0 0 0
745 1 10.850274484289487 24.668221438265437 8.912940487710621 0 0 0
3017 4 10.7672062654 26.4889830949 5.168512809500001 0 0 0
3073 4 10.7986878767 23.5384398507 7.110307737399999 0 0 0
3140 4 9.00391420040427 21.988219561686012 9.158978657600127 0 0 0
3148 4 11.214033575770026 26.691762272935144 9.966150560397796 0 0 0
738 1 12.436356146780353 21.674586090381528 8.6781706952195 0 0 0
746 3 12.393288004733465 23.310290604936398 9.630380329551233 0 0 0
747 3 13.918152908899994 22.5338742097 7.330871365900002 0 0 0
815 1 15.619551766751906 21.780678102835168 8.659631295096862 0 0 0
820 1 15.456420633199999 23.1795178676 5.9305164082999955 0 0 0
821 1 14.048733892660938 24.349016014169123 8.509154372601706 0 0 0
830 3 15.9159327235 24.7354143775 7.217512042999999 0 0 0
933 1 16.7098503748 26.070619414 5.096915665199997 0 0 0
3079 4 12.337305348500001 25.7742400437 7.357429561700002 0 0 0
3084 4 14.5882559114 25.9050265258 5.827609858199997 0 0 0
3153 4 16.695180515542695 25.17358463744746 9.182340771235225 0 0 0
934 1 15.481820153742074 26.866923484803813 8.188986320681039 0 0 0
822 3 15.370683884700686 23.56273411770023 9.952232245759369 0 0 0
823 3 17.2790848366 22.17439298930007 7.0663915485 0 0 0
925 1 18.566307922199982 23.337279749000075 5.741902679599997 0 0 0
926 3 20.4322444649 22.6256558477 6.9104236935 0 0 0
3029 4 19.7422461712 26.3570984383 5.211868337799997 0 0 0
3091 4 18.730694011799986 23.621138049300043 7.994969273999995 0 0 0
3092 4 17.783739129899978 26.00387445180009 7.072973848300002 0 0 0
3097 4 20.975275325 25.118756354 7.616517515599995 0 0 0
3160 4 20.978976664868725 22.915311683849623 9.639899678240248 0 0 0
3161 4 19.63028237488186 25.564711062033865 9.715379763831677 0 0 0
57 1 23.24001117816257 24.16475369974817 8.384818790464848 -1 0 0
1002 1 22.1208363314 23.3495521039 5.954973844399996 0 0 0
1004 3 23.476051267900004 22.3563013599 7.165386346600002 0 0 0
64 1 -15.46834287786211 27.141560111926722 8.661966221144013 0 0 0
72 1 -15.466978372503334 28.7039153603 6.118131313300001 0 0 0
73 3 -13.914274261300065 27.9366817854 7.253347341000001 0 0 0
77 1 -17.1727307007 31.5221375649 5.783931423999999 0 0 0
3104 4 -16.2027038797 30.7107369444 7.667600003299999 0 0 0
3109 4 -13.806059351200018 31.272162024600107 6.499212792699996 0 0 0
3117 4 -13.73642108648685 31.788193290744147 9.393259867487988 0 0 0
3169 4 -14.171657999947389 28.981428440826004 9.13182048394367 0 0 0
245 1 -12.077891346496738 32.19228541692356 8.054133945217032 0 0 0
336 1 -9.233292412984948 32.11083301936929 8.441899062323472 0 -1 0
153 1 -12.567985696184277 27.00363346328922 8.470361547380307 0 0 0
160 3 -12.18902915518834 28.80591096432813 9.816760736929794 0 0 0
166 3 -11.946934238500006 30.09293144130008 6.963506229799997 0 0 0
239 1 -10.776704321720167 29.613258308162564 8.53559618998225 0 0 0
240 3 -9.357910654932068 28.67051496035098 9.730803034567845 0 0 0
246 3 -10.895251051198212 31.466422043348313 9.672032003304416 0 0 0
247 3 -9.1228884454 30.5266508851 7.489343372 0 0 0
2988 4 -9.718710657200036 31.051590981500006 5.384127949999998 0 0 0
3043 4 -9.433243351200005 28.3287679345 7.042558867300002 0 0 0
328 1 -6.214329143499999 28.702756830600094 6.070858091200002 0 0 0
329 1 -7.742311265227425 29.473986289840663 8.585080082454265 0 0 0
330 3 -6.304776279851783 28.537391302900822 9.749452345045498 0 0 0
331 3 -4.717333242199997 27.8527596509 7.357224823599999 0 0 0
335 1 -7.642963030500006 31.266858847100167 6.2442877458999995 0 0 0
337 3 -7.781726088706405 31.364640622186265 9.74936170568106 0 0 0
338 3 -6.181508516600001 30.3933703925 7.4230254771999995 0 0 0
434 1 -4.71678308880001 31.343330021300094 6.3091787866 0 0 0
3124 4 -4.3836439200789865 29.586170491674356 8.691855669264946 0 0 0
419 1 -3.2553377820437905 27.024376959716125 8.661439146415471 0 0 0
426 1 -3.270744215199999 28.8077552986 6.080224334599997 0 0 0
428 3 -1.820893969799993 28.0773003099 7.365768174199996 0 0 0
492 1 -0.2075054729527004 27.25776110189152 8.450320995046216 0 0 0
500 1 -0.35407334099999943 28.7873480734 5.8248771373 0 0 0
584 1 1.5027842901185728 29.62297997673526 8.562481449228521 0 0 0
592 3 1.4734494681161472 31.2814326646706 9.55973928110095 0 0 0
3057 4 -2.4230927425000015 30.726298518400075 7.046912904199999 0 0 0
3061 4 1.5854728716999986 28.3405520115 6.874178331899994 0 0 0
3062 4 0.4694612375000027 30.8324722105 7.0805963458 0 0 0
3130 4 -0.7973479651070541 29.55726598568952 9.008823255763552 0 0 0
3145 4 6.083034097540395 32.11898713315563 9.156815965504165 0 -1 0
670 1 6.152583873766002 27.116908156871474 8.368666671802366 0 0 0
583 1 3.4564824730999995 28.6110160714 5.6540668157 0 0 0
593 3 2.9821457456999987 30.4363990363 7.1286987758999985 0 0 0
676 1 6.350864013900008 28.76992333490008 6.066245930600001 0 0 0
683 1 4.604682389499999 31.2899431737 5.9325883314 0 0 0
685 1 3.133044738683516 32.15357732995463 8.41160690312498 0 0 0
686 3 4.4339202457327005 30.777484676926544 9.555706810161155 0 0 0
687 3 6.333949707199984 30.71598818570018 7.366386245699999 0 0 0
3067 4 4.981226728500001 28.9946397039 7.8856160733 0 0 0
3136 4 3.0187641466221464 28.34146487107119 9.68717245753831 0 0 0
751 1 9.238257113690674 26.94305663909479 8.501215895941634 0 0 0
679 3 7.7701238792 27.83172671650009 7.301882028999998 0 0 0
757 1 9.275113525899982 28.76113344210008 5.920385488600001 0 0 0
761 1 7.526988417499997 31.444456474900026 5.838562496099998 0 0 0
844 1 10.774839194999998 31.5536544878 5.887720838299998 0 0 0
3080 4 10.878061296300011 28.075168742200063 7.3811939538 0 0 0
3081 4 9.1603126198 30.636434133 7.158354816500001 0 0 0
3144 4 7.193417557676 29.32910480678598 8.823129790445854 0 0 0
3149 4 9.777011007812384 29.239829562616602 9.680782929513263 0 0 0
3155 4 11.785911263180715 31.845901179192097 9.988766261154499 0 0 0
838 1 12.1922896526 28.7542932255 5.660282486299996 0 0 0
941 1 14.34030169571442 29.978052938236946 7.998461985557952 0 0 0
942 3 15.398586659905956 28.736447090616814 9.552991017646693 0 0 0
943 3 16.757013669499997 27.9958697315 7.273704779199999 0 0 0
947 1 13.765006994499998 31.4103916192 5.422015888600001 0 0 0
950 3 13.934475232270024 31.507261679587806 9.240575878508533 0 0 0
951 3 15.3055032539 30.4689221268 6.4362932845 0 0 0
3085 4 13.726678059600037 28.111031452600123 7.174999045199996 0 0 0
3086 4 12.2414431993 30.4245437823 7.167049472199999 0 0 0
3154 4 13.348308859839296 29.50764545296573 9.963858953504293 0 0 0
1010 1 18.78953740581753 27.39841168085726 8.481486866106216 0 0 0
1016 1 18.900368555199993 28.4974395565 6.010583715199999 0 0 0
1018 1 17.157994223471768 29.4569013141096 8.766088313274743 0 0 0
1020 3 20.54788530419999 27.269138077700042 7.110853578599997 0 0 0
1025 3 19.071047594800003 29.7041783953 7.684770712900001 0 0 0
3098 4 17.329939220299938 31.053261766200148 7.225409558999999 0 0 0
3165 4 17.367584985255135 31.56397881100287 9.92976399085589 0 0 0
10 1 -0.6475991800796796 4.176876700036178 10.846649684939006 0 0 0
3230 4 -0.9379931088837651 2.2355164669122685 12.103944589449444 0 0 0
3231 4 1.407901191300307 4.0032231995420995 11.907403240082324 0 0 0
3296 4 -0.6400520679438626 3.65254659241722 14.675174602284628 0 0 0
1026 2 0.26213940033301497 0.1421954659830572 12.931852351904986 0 0 0
7 1 1.6925912720310539 0.9501692765091593 14.877593577899209 0 0 0
84 1 4.342347491848035 0.9380853453560887 11.046322802307653 0 0 0
87 2 4.059595259411913 2.7353843712992036 12.779015997656487 0 0 0
167 2 6.061548645825549 0.1536523448379351 12.830202098666867 0 0 0
178 1 5.622640655386631 3.5366732955480185 10.990348575551536 0 0 0
3171 4 3.8268923099064946 4.973908719783178 11.25048160242184 0 0 0
3239 4 2.043867531125721 1.5519344886750859 12.170248572081132 0 0 0
78 2 3.4564080584782104 0.05450165684734612 13.365782319285337 0 0 0
3241 4 3.5808924328122504 5.373924780158191 14.319694978368577 0 0 0
172 1 7.6730485708012 0.936482047247736 10.911558483847486 0 0 0
253 1 10.75956521688112 0.9631228500457887 10.989654847499772 0 0 0
259 2 9.489207143749734 5.291861651599739 12.951781717863962 0 0 0
3186 4 10.519697172643948 2.9021378340729944 12.367847358539276 0 0 0
3244 4 8.249895732683338 3.7132506405694334 14.434468545838229 0 0 0
3250 4 9.970730841611054 1.2936437651770578 14.982314737358287 0 0 0
448 3 14.132076579852487 4.602869974010474 10.089741425454768 0 0 0
344 1 13.702989455633299 1.114023487546885 11.338471479646529 0 0 0
348 2 13.950786669666106 2.943867619820507 13.117255610896244 0 0 0
353 1 12.285839962705506 3.5976635846747365 11.00558610045206 0 0 0
354 2 12.223266156755635 5.022029944122541 13.093308357421954 0 0 0
446 1 15.499782716219277 3.54667221813891 11.265143627217675 0 0 0
3256 4 12.231112652585896 1.3108351168664063 13.29491106264943 0 0 0
3260 4 15.663099350576726 1.3875839156976606 13.3989930845629 0 0 0
349 1 13.95204734936559 0.682254342757855 14.794334125060075 0 0 0
451 1 15.574369181668931 3.526581166999447 14.97543350681945 0 0 0
355 1 12.312316144730236 3.3070373333602427 14.986265901069334 0 0 0
437 1 17.05519837588733 1.099890545333869 11.375664969367055 0 0 0
441 2 17.314264461481052 2.943054720685337 13.19481219024182 0 0 0
512 1 20.32704303643212 0.6115352166522128 10.877020763349172 0 0 0
606 1 21.61570744941677 3.524652317592487 10.794922952900823 0 0 0
608 1 21.85401467248031 3.567384920573048 14.902351146634576 0 0 0
3199 4 17.67271080489053 3.6169312663597752 10.723700433840314 0 0 0
3208 4 19.124688489777856 1.9950589698534917 11.98335839204929 0 0 0
3209 4 20.569509093752774 5.36530041909435 12.115334494946218 0 0 0
3265 4 19.838367231666293 3.546979596063557 14.031753157295068 0 0 0
3271 4 20.45085751324281 0.7120186137347975 14.824136602482398 0 0 0
3266 4 17.95346942440319 5.126490927984298 14.403207641308065 0 0 0
598 1 23.29086807169609 0.6782834535615305 10.841626028438867 0 0 0
601 2 23.105269462293904 2.5558055108833297 12.862177389414743 0 0 0
695 2 25.91246343633378 2.4677308085576595 12.943128736946612 0 0 0
701 1 24.793866314697453 3.7071521953822164 10.9396656475995 0 0 0
3146 4 26.40680110173569 2.294123028994107 10.32183485524617 0 0 0
3212 4 26.9045610749741 4.294156082398561 11.824490374431875 0 0 0
689 2 24.814372132196237 0.09113365506434876 12.865779791924272 0 1 0
706 1 24.896530869142847 3.6105739450445395 14.919666966385435 0 0 0
705 2 24.82709633331926 5.3254673385259474 12.817263124658687 0 0 0
602 1 23.00520245800654 0.7782890578869845 14.916863529358018 0 0 0
762 2 27.905604044404047 0.8783397657766395 13.03358385214321 0 0 0
770 2 29.848045868621877 2.843003129709932 13.082109763318165 0 0 0
860 1 30.91219502165107 3.568877256840976 10.805263209615756 0 0 0
865 2 31.574794499413706 5.014681482053776 12.943248227201977 0 0 0
3219 4 29.322282934641084 1.8914006941906865 10.948602801845315 0 0 0
3279 4 27.69227304115361 3.0250196644507823 14.464903991797563 0 0 0
3292 4 31.740900649099338 1.1591218559527474 14.517798733426428 0 0 0
846 2 30.496494268279807 0.3745956062506896 12.575537632372594 0 1 0
853 1 32.19506476213128 0.752404999941917 10.645060701361857 0 0 0
866 1 31.27320129503193 3.5329068009464253 15.004875255221556 0 0 0
956 3 33.79162903582497 1.6984420821947983 10.05972300901685 0 0 0
957 1 33.62781838960694 3.5001371092422375 11.553716406210171 0 0 0
3227 4 33.663221063454785 1.1992841538020576 12.272781475335435 0 0 0
3293 4 33.440980796860785 3.5559363622670297 14.023563035441178 0 0 0
3295 4 35.86077904620564 1.1452302485724648 14.877552604276897 0 0 0
3232 4 -3.6515615051443846 9.068175823517272 11.29906620874813 0 0 0
3113 4 -1.3556496417652202 9.956923989603165 10.089133998708842 0 0 0
962 2 -2.8903503804732003 5.525575187805524 13.043370333870435 0 0 0
14 2 -0.09800317803907888 5.517407273795847 12.981976231210929 0 0 0
18 1 -1.3951451848471916 6.758321004929984 11.078219022093577 0 0 0
20 2 -1.6599776670628574 8.285052570326872 13.055213050610234 0 0 0
102 2 1.4687409178553485 7.926673763643262 12.92820649395749 0 0 0
110 1 0.011884202662552745 8.87418262598782 14.987465094576784 0 0 0
99 1 1.7706926835283725 6.104663992240298 11.041062313009363 0 0 0
191 1 3.1488387404285696 8.872577120569778 10.836509577815875 0 0 0
194 2 2.867409441240052 10.514374944002084 13.018589194333508 0 0 0
271 1 6.347338204074142 8.688594299406015 10.637667756948492 0 0 0
3177 4 5.897697480957364 6.768045191377717 12.001503503439 0 0 0
3180 4 5.7240172238279 9.401978348545411 12.7931646760225 0 0 0
275 1 6.526970371983621 8.759284287694237 14.961748590100115 0 0 0
263 1 7.846739916730993 6.135916934413535 10.932810197712772 0 0 0
266 2 7.793797967331541 7.965211513352218 12.86827822841897 0 0 0
267 1 7.847257605158425 6.19583823704155 14.81137348848435 0 0 0
359 1 11.049183472967641 6.211399959514436 11.135992931406513 0 0 0
361 2 10.99884307516527 7.865648226825063 12.908519988463464 0 0 0
362 1 11.165997891398664 6.367151235776494 14.899704993304955 0 0 0
365 1 9.363591722061305 8.943885035290533 11.108262223272575 0 0 0
370 1 9.430802745581605 8.647094867560769 14.820623006505418 0 0 0
3194 4 11.197893512805422 10.089760066070195 12.264959496183266 0 0 0
3257 4 9.231387201894247 10.795697436430036 14.432676955270413 0 0 0
460 1 12.524031051283934 8.846376001887414 10.872381650323817 0 0 0
532 1 15.880207344761043 8.62630488534346 11.007535954275824 0 0 0
3193 4 13.329748573637136 6.7498747293773205 11.541787896817304 0 0 0
3200 4 15.80342244594518 5.9647467511222985 11.26256012067477 0 0 0
3201 4 14.211547351242734 9.52348424190121 12.234987302840143 0 0 0
3261 4 14.172294526620668 5.382837492071889 14.531613571875152 0 0 0
3262 4 12.578265844862234 8.42324826973864 14.658806746674902 0 0 0
3267 4 16.60025936377102 8.257186947144929 13.376758303053442 0 0 0
614 2 20.381327581139672 7.7035307702683005 12.605582766055178 0 0 0
615 1 20.145127468548402 6.071439545564105 14.65385293707616 0 0 0
620 1 19.087387577328442 9.4110557840467 11.175351981070797 0 0 0
624 1 18.581037577528132 8.76388503808196 14.521508853814531 0 0 0
717 1 21.850365010588042 8.96414487261195 10.963972546829734 0 0 0
3210 4 18.28655647930113 7.235678998269281 11.290651179006858 0 0 0
3274 4 20.464785490516242 9.675012896213014 13.802075810377062 0 0 0
709 1 22.891587496929635 6.244314662604736 11.015104579757534 0 0 0
712 2 23.29744843714184 8.014751431376377 12.90053601569619 0 0 0
713 1 23.42438244038714 6.238637147843777 14.824540605282007 0 0 0
787 1 24.686337547888442 8.984759458898685 10.959147546005298 0 0 0
3221 4 26.71284873586064 9.518879200998018 11.985810405924333 0 0 0
3280 4 26.218045747182412 5.503851692090398 14.848179478118162 0 0 0
3281 4 22.939358946893826 10.158516533178275 13.707175602062769 0 0 0
3288 4 27.04064166539037 7.655045216405767 13.801105611412403 0 0 0
791 1 24.881539843474442 8.974981567889271 14.940947904073088 0 0 0
975 2 -6.106551859688103 10.638466513979465 12.893905703606354 0 0 0
871 1 30.014604146103842 6.4995702583606425 11.12607541494556 0 0 0
973 1 31.31263606591439 8.870941929234577 10.947911525804678 0 0 0
3220 4 27.75525279825897 6.370522162668847 10.744837654276505 0 0 0
3224 4 29.351089970265633 9.365744008109814 11.938354738531892 0 0 0
3287 4 29.288926447888453 5.535602330301122 14.362410310592338 0 0 0
976 1 30.95735138504422 8.915183307717541 14.94997957267211 0 0 0
966 1 32.82355324153883 6.273936555798083 11.079486781503967 0 0 0
968 2 32.384109955240916 7.985616607965784 13.116038438006122 0 0 0
969 1 32.66132153342469 6.175407484399745 14.928287991510022 0 0 0
29 1 -4.754805247520839 11.29117808386637 10.785300363714082 0 0 0
982 2 -7.451780997480323 13.630408273152462 12.752094520598963 0 0 0
3234 4 -5.285283066451784 13.519425371692664 11.240947851063034 0 0 0
3297 4 -7.685710715718534 15.328703723914558 14.46110358203778 0 0 0
3303 4 -5.219036256656676 12.686812100810187 14.256676230406097 0 0 0
3304 4 -5.091057959957187 15.234998518158784 13.993693379342321 0 0 0
3302 4 -2.0567335646314353 10.832282378894613 14.729761582316428 0 0 0
125 1 -3.0118645642057524 14.50564056717643 14.914881618336864 0 0 0
204 1 0.16423505451367326 14.378743301783258 10.985371584659259 0 0 0
208 1 -0.2679168360620272 13.817820920818997 14.880965469906528 0 0 0
3172 4 -0.19252297978859723 12.08734429575376 11.933098176657804 0 0 0
3173 4 -2.0451354619483197 14.02254511498208 11.33567476395256 0 0 0
3233 4 -2.833029471051902 11.64587562269261 11.822260184586284 0 0 0
3246 4 0.47075283429835224 15.739935223966441 13.767052688063409 0 0 0
200 2 1.679753268102087 13.458132398343905 13.002555819691661 0 0 0
197 1 1.7176049399910847 11.64866931016284 10.866961607535686 0 0 0
278 1 4.962007511968097 11.601830659568058 10.596914719209927 0 0 0
282 2 4.414227725763618 14.280581515611559 13.069169611252569 0 0 0
288 1 3.2493578073264455 14.401624879427072 10.836969682773073 0 0 0
386 2 6.597765113164764 15.671390730053327 12.714363461990033 0 0 0
3181 4 4.78442278455223 11.947326418856894 12.813125753776283 0 0 0
3188 4 6.203365985620862 13.596732915711149 11.549397532134122 0 0 0
3189 4 4.656577241600619 16.02117559752005 11.547007267056454 0 0 0
283 1 4.483228767196651 11.202345786554101 14.920938950573149 0 0 0
3251 4 6.72805969655973 10.966736932152237 14.899543882269974 0 0 0
468 1 10.876419190145208 11.796057788432368 10.907428195893626 0 0 0
473 2 9.62438935242237 15.711129677856116 12.62957503528856 0 0 0
3187 4 7.64663394106927 10.807949717115944 11.627631100981997 0 0 0
3195 4 9.266065370099778 13.637526724664696 11.482943812536007 0 0 0
3258 4 7.943390512516169 13.726755830079037 14.267931926801179 0 0 0
3264 4 10.730196749129167 13.33594512974311 14.330795943256653 0 0 0
3203 4 11.716944472499677 14.414943490378771 11.875846628759998 0 0 0
3138 4 13.886333660886946 14.309413553613476 10.09455836479528 0 0 0
542 2 13.820236750077427 13.74299268866647 12.967581759748086 0 0 0
543 1 14.112815366006492 11.751964632924954 14.828583585324708 0 0 0
642 1 15.449895358108334 14.224641142315084 14.890548335554339 0 0 0
3202 4 13.251057601536917 11.46665513638081 10.7596059909915 0 0 0
3263 4 12.043148109983113 10.934797749332056 14.847511567885906 0 0 0
641 2 15.576598361289058 15.877943538059325 12.731913181166707 0 0 0
549 1 12.417713387085605 14.634244773129794 14.964921545922056 0 0 0
630 1 17.022133965496266 11.796902719186129 10.88248745932679 0 0 0
634 2 17.036461234686648 13.432724182611073 13.022185404729033 0 0 0
623 2 18.894235241507364 11.221311617066263 12.91627995270995 0 0 0
3213 4 21.13272874420867 10.941237748888998 11.731763534035416 0 0 0
3214 4 19.821526816434357 13.77393987723556 11.09623490805766 0 0 0
3275 4 19.078687199647405 13.098717556651337 14.330847722946679 0 0 0
3276 4 17.19347060400786 15.705828424658918 14.455330322885086 0 0 0
3283 4 20.934749622598297 15.522342220947467 13.15783276238328 0 0 0
3282 4 21.74535968616447 12.833281278273681 13.999298688298015 0 0 0
790 2 24.90293779843798 10.818942068415437 12.85448836273956 0 0 0
794 1 23.2954310168869 11.778633602912807 11.007988181475298 0 0 0
886 1 26.499941517098023 11.631841947096833 10.910487013820347 0 0 0
890 2 26.536720410491288 13.581943646636368 12.827248493800383 0 0 0
895 1 24.71282564084778 14.424442291603413 10.870471675746582 0 0 0
899 2 24.706755372281787 15.985767017874197 13.1366343645278 0 0 0
3294 4 26.793309790454416 15.623911873576308 14.216929092715652 0 0 0
891 1 26.438465719933543 11.479502886359416 14.825485693457225 0 0 0
978 1 29.559879758962076 11.633030420380054 11.135023419986151 0 0 0
983 1 29.780747115947758 11.809925086726059 14.723920555290302 0 0 0
988 1 28.081901229511153 14.242414820490842 10.937073573236539 0 0 0
46 1 -9.49769329112516 19.757938525793353 11.071683530771654 0 0 0
990 2 -8.886683699678107 16.285907145466485 12.432774792066517 0 0 0
3298 4 -10.901190997417922 20.844099793633163 14.298175261081955 0 0 0
50 2 -9.071505224673526 21.382990447868295 12.915203516506033 0 0 0
42 2 -7.969024340458585 18.77916331082752 12.95407026317875 0 0 0
132 2 -4.658649290490898 18.89335671626515 12.948548915128228 0 0 0
138 1 -6.286167056289622 19.58408063232728 11.115684324822425 0 0 0
143 2 -6.429281621583619 21.28749184427284 12.94206486467899 0 0 0
144 1 -6.26331660856665 19.63371341520341 14.92457988446937 0 0 0
3168 4 -8.04075304303086 18.100050794333335 10.5455422830054 0 0 0
3178 4 -4.257670205766057 21.094370248615903 11.3644996715099 0 0 0
3235 4 -6.347185266774116 17.145108440547666 12.33678089012193 0 0 0
3242 4 -4.513472827045212 20.96881705234741 14.300168770776502 0 0 0
3174 4 -3.2114168414111743 16.97618077380735 12.094652429697675 0 0 0
211 1 -0.8806317397977956 16.862940938912132 11.370786232472021 0 0 0
213 2 -1.5983766970521796 18.749542159571416 12.918911094503649 0 0 0
216 1 -3.108752404640301 19.055003810528763 10.864001900404496 0 0 0
301 1 0.31220777828158397 19.62924666537665 11.254983745475581 0 0 0
306 1 -0.07207326875605524 20.00365951785706 14.6038400148596 0 0 0
3247 4 -2.053670819642422 20.985135566863434 13.47249581327225 0 0 0
3254 4 1.44216642038554 18.390906640621356 14.217286948677504 0 0 0
3182 4 1.4827393155631778 16.537871587005252 11.125685126323614 0 0 0
214 1 -1.1898186660002867 17.09610660575442 14.923796680694402 0 0 0
3253 4 3.3380086947452163 16.27022606327163 13.732190476356088 0 0 0
392 1 3.9660884949277975 17.522933518592712 10.045587071568768 0 0 0
395 1 5.350783103960655 17.348951551833274 14.278920432625654 0 0 0
3190 4 2.7282531330226956 18.909638622480465 11.431291473597568 0 0 0
3196 4 4.420660189021081 21.156724556305306 11.575947446595865 0 0 0
403 2 2.360764024493651 20.617431303246004 13.008409389255725 0 0 0
478 2 5.648612541581089 18.246870610432712 11.735472770865933 0 0 0
484 1 5.622971715759185 19.929388545855687 14.767983535590123 0 0 0
476 1 7.979535351789638 17.01721390721247 11.116238777948546 0 0 0
479 1 8.10998814799434 16.37702564974837 14.338783408352583 0 0 0
552 1 11.0427281692818 16.860615527587758 10.862632753577344 0 0 0
555 2 7.675619165773876 18.48180395171339 13.314697642974679 0 0 0
3139 4 10.644901909275278 19.64696990373557 10.131533394615868 0 0 0
3204 4 7.7800164923197155 20.637463810405585 11.848851036825444 0 0 0
3409 4 9.60103861037385 18.295442785086887 11.922324703476221 0 0 0
548 2 12.381557060399299 16.399603144594767 13.164216372452014 0 0 0
648 1 13.96330201414537 17.11325131066818 11.2461980883118 0 0 0
652 2 14.35874020636723 18.741026859364684 13.12987353133849 0 0 0
653 1 14.418585716221719 16.867428190426438 14.759632296243012 0 0 0
657 1 12.612241718844249 19.755610442907624 11.179959848593008 0 0 0
737 1 15.622888799361194 19.96229011326659 11.208108104614851 0 0 0
730 1 17.025824957893683 17.08305244697998 10.778826188314373 0 0 0
734 2 17.04841360181016 18.511096323452193 12.893455592988605 0 0 0
808 1 20.355152130654403 16.88694325572898 10.789249529219564 0 0 0
812 2 20.681611045326015 18.562900842404428 12.702968964213891 0 0 0
813 1 20.943866913941605 17.250122677045166 14.708406172260695 0 0 0
814 1 18.830116354795653 19.398960995313978 11.050068343870628 0 0 0
3215 4 18.722713774579027 16.783138132540703 12.270738374195556 0 0 0
3284 4 18.826265782275783 18.26809743070347 14.584486701636731 0 0 0
3289 4 20.07339490484165 20.518031679144933 14.057264963320971 0 0 0
993 2 26.382650290414517 18.831940384885446 13.007986472220953 -1 0 0
905 1 22.785599425682605 17.002792120017343 11.8502020639514 0 0 0
909 2 23.61670789503613 19.06222809031922 13.151658524406056 0 0 0
992 1 26.120306345976044 16.92066916056623 11.358540859105979 0 0 0
994 1 24.74271482285631 19.469988893744286 10.804087387597853 0 0 0
3228 4 24.770308370109056 21.300853208943654 12.11527249301733 -1 0 0
56 1 -10.86630084306993 22.40603619287178 11.12256630929906 0 0 0
63 1 -12.533071542931228 25.138730132380363 10.76379387802693 0 0 0
155 1 -9.0780392710042 25.127285027956844 14.584006657997108 0 0 0
3236 4 -10.828873193261858 24.586275613676367 12.291151800034832 0 0 0
3299 4 -12.127799475500636 23.16093097144512 13.879388356961663 0 0 0
3305 4 -9.224680971812061 22.810130317149433 14.755884608192147 0 0 0
68 2 -12.33688281975559 26.554041536499067 12.89352866168662 0 0 0
69 1 -12.506685966309773 25.157682649234435 14.990642926896758 0 0 0
230 1 -6.620279117161941 25.42439720758992 10.883121046416736 0 0 0
3175 4 -6.793075622665376 21.879324823575953 10.672388640207291 0 0 0
3176 4 -8.056799951058654 24.378241412444712 12.418052386500982 0 0 0
3179 4 -4.934060212054961 23.865409306704798 10.812859678431337 0 0 0
3243 4 -6.7059900260515075 23.18284712845841 14.318888212364762 0 0 0
3248 4 -3.8749337081314597 23.499083329550324 14.022362860724996 0 0 0
233 2 -6.262989120735055 26.861198142175922 12.96836579993959 0 0 0
305 2 0.04041029891526371 21.76201366532325 12.701188996423227 0 0 0
318 1 -3.2305363963426696 25.435264131549474 11.111831822143113 0 0 0
415 2 1.225707602716465 24.165848516942678 12.812463905034686 0 0 0
416 1 1.341363311534936 22.379751505996907 14.902900742838352 0 0 0
418 1 -0.012042156531704151 25.29631334974908 10.944785884665905 0 0 0
423 1 -0.11279072750172503 25.08723432580899 14.816484503450909 0 0 0
3183 4 -1.4063077631138974 23.536055391204112 11.784503276895169 0 0 0
322 2 -2.96944115643692 26.90281018168624 13.205213056366958 0 0 0
313 1 -1.7222359476097857 22.66304503289014 14.949865226299526 0 0 0
483 2 5.915848538289016 21.95211373084319 13.136418669272022 0 0 0
410 1 1.9191478704677127 22.502852691778383 10.999574123512538 0 0 0
495 1 2.9693418206842637 25.039888635371813 14.514367333158713 0 0 0
3197 4 3.074086217672093 22.93579161794995 13.665982898880014 0 0 0
3198 4 1.9886342049977515 26.37075497465258 12.419430982197817 0 0 0
3205 4 5.476352277827246 23.69079206898811 11.818397445367733 0 0 0
3206 4 5.55948831322622 26.642296072176052 11.578719834899516 0 0 0
3269 4 5.639772589357156 24.225836404587536 14.53139069495565 0 0 0
663 3 9.36295032159959 23.8827978559954 10.058878458575844 0 0 0
3211 4 9.55095998852373 23.77213267001709 12.422860503831743 0 0 0
566 1 7.657840456200075 22.82833248778542 10.986488937882022 0 0 0
570 2 8.286185675256784 22.577217268559757 13.937538373948062 0 0 0
661 1 10.685833707676025 22.41721922546157 10.775782019543854 0 0 0
664 2 11.347037942396856 26.61071075748565 12.26818152366895 0 0 0
669 1 9.388815181906287 25.614181806980476 11.123449027724902 0 0 0
674 1 7.40116117091509 24.698374639318423 12.916715104754338 0 0 0
3272 4 11.58620929840887 24.446342313923655 11.200291050579207 0 0 0
666 3 8.260855927304043 24.49076785871374 14.629804251047204 0 0 0
3428 4 9.482289194733138 25.99184826575969 13.799671879279359 0 0 0
755 3 11.539157321936814 24.979163965785677 13.293421545006165 0 0 0
665 1 10.100696279450737 24.09332573391587 14.847440191950923 0 0 0
1769 1 11.2483702325622 26.72804552612415 14.790973517150654 0 0 0
744 1 13.825542390983484 22.7279152737603 10.999703466409851 0 0 0
748 2 13.43004648805579 25.61708661164535 13.587264325449954 0 0 0
829 1 15.385258864113117 25.32395228723172 11.191945538401583 0 0 0
833 1 16.170177107122015 25.199939074554877 13.884292210853445 0 0 0
3216 4 13.561574519507959 26.819214221683985 11.438694795110052 0 0 0
1012 2 21.8716513699428 26.48655876234028 12.77513251052791 0 0 0
1009 1 21.709897880610917 24.98120752307685 10.776780926456944 0 0 0
3222 4 19.00390249684081 21.62700750248427 11.130534552121972 0 0 0
3223 4 17.257376638605802 23.741768974910972 11.287268025408721 0 0 0
3226 4 20.827161822954714 24.223400215667063 12.923842001023914 0 0 0
3290 4 18.527110448440837 23.411097442426964 13.93238182164919 0 0 0
3225 4 21.929731993464088 21.584690110590163 12.50635851855382 0 0 0
936 2 18.083702779476774 26.719503585884816 13.143211526662697 0 0 0
1013 1 21.664194489185544 25.056181220285254 14.979271322359509 0 0 0
1003 1 23.19545291933779 22.44878579362347 10.737263889806751 0 0 0
1006 2 23.239622534763548 24.04929577395165 12.702720604853415 0 0 0
1007 1 23.195253291820123 22.46013823470086 14.957407607067648 0 0 0
1021 2 -16.76091543081964 30.21383078626387 13.271622362159874 0 0 0
3229 4 -16.347929264106373 29.068254015468565 11.152078379233629 0 0 0
3238 4 -14.43121061773482 30.88112139361134 11.860260246509181 0 0 0
3300 4 -15.163162598234218 28.596826806622648 14.196745247023511 0 0 0
248 2 9.403264736092861 0.003769398431000548 12.981850036385975 0 1 0
154 2 -9.25806081601042 26.95122958027902 12.94484314895567 0 0 0
159 1 -10.919616310403466 27.83408338865171 11.11911348495741 0 0 0
161 2 -11.184913224737858 29.704339316283324 12.953909128616637 0 0 0
162 1 -10.97142669930809 27.837712715122503 14.623471119823478 0 0 0
165 1 -12.435099166204786 30.592508029999756 10.912374687374587 0 0 0
168 1 -13.156150844856391 30.410923438915713 14.284614815005874 0 0 0
244 1 -9.323263166086363 30.542343842500898 11.10240924842293 0 0 0
3237 4 -13.115245239641153 28.585986916633313 11.781283621536119 0 0 0
249 1 -9.824284488804558 30.626375703631407 14.985065723585677 0 0 0
238 1 -7.77271444256597 27.999402524462866 11.217414641792708 0 0 0
241 2 -7.913880127246806 29.71593543436488 13.218008947145865 0 0 0
3184 4 -5.833420163853853 28.99567880142813 11.912562675418194 0 0 0
3185 4 -6.970762589377804 31.372432968224825 11.763891945938521 0 0 0
3192 4 -3.7689942324476693 31.536354450949453 11.992530133302608 0 0 0
3255 4 -5.385143556023012 30.52580793877192 14.429695865401456 0 0 0
242 1 -7.837186536016123 27.942465383620704 14.935296070900016 0 0 0
422 2 -0.16840754814919734 26.925708508866368 13.023962293158032 0 0 0
501 3 0.7106408005284948 28.482740070728823 10.091821196941453 0 0 0
508 2 -0.14447880298864035 32.25198487539412 13.229386929238771 0 0 0
427 1 -1.2660665658394628 27.840904724921067 10.977377757811055 0 0 0
429 2 -1.3667966961254514 29.51340236030848 13.07976304239051 0 0 0
503 1 1.4439803368888704 27.747547020540313 14.93173310169177 0 0 0
506 1 -0.007231007082253882 30.47824384520414 11.132143578120807 0 0 0
3191 4 -3.34073198618775 28.674838917219443 11.58626834819475 0 0 0
3259 4 -2.4255004618165135 31.303691118663725 14.292712729630644 0 0 0
502 2 1.680276364416315 29.551574755307687 13.106017511674615 0 0 0
678 3 5.553938441587967 28.389254137426196 10.039333772686746 0 0 0
594 2 3.101587834903576 32.08607144242596 12.916337187458577 0 -1 0
590 1 2.9664492731133727 30.437793874962402 10.907114347345455 0 0 0
684 1 6.09127087617448 30.416342699618593 10.843395521835607 0 0 0
690 1 5.366175446391132 30.199014012170828 13.739496034293929 0 0 0
3207 4 4.545670930720718 29.104496866895182 11.882753231193142 0 0 0
3270 4 3.6837578544178253 27.58366090661447 14.513701679541352 0 0 0
673 2 7.547803653198278 27.02269914444893 12.747895176115055 0 0 0
3435 4 7.092340681997975 28.218396212337424 14.97280472962877 0 0 0
677 1 7.55177291359513 28.0896935633648 10.73337214574234 0 0 0
680 2 7.7445558594713155 29.843643171484846 13.159712331707297 0 0 0
3218 4 10.049615568879297 30.939007689038547 13.266797697018827 0 0 0
3217 4 11.1327785859621 28.70202384598521 11.905125537180094 0 0 0
839 1 9.470981227966135 28.2369359321737 13.513529215585173 0 0 0
3273 4 11.334367712827078 29.152540877052708 14.983493743808264 0 0 0
832 2 15.369442022583431 27.262948371739277 12.967116359327207 0 0 0
759 1 13.041274331553833 28.24472957854349 13.379247186736968 0 0 0
840 2 13.109564326751663 30.396893968860905 12.130464880069631 0 0 0
847 1 12.770215442217058 31.148685079725862 14.472118159660123 0 0 0
948 1 15.304828170065981 30.60207936856869 10.858415833436283 0 0 0
3291 4 15.236798284122589 31.212144023564633 14.048445916521871 0 0 0
940 1 16.86750119793611 27.879391262237004 11.06434630554093 0 0 0
944 2 16.86927769457282 29.585313256062445 13.118216499179734 0 0 0
753 2 14.532668387659022 29.178264673505108 14.886243362322471 0 0 0
1017 1 19.78252417596942 27.127984999427234 11.30057974484215 0 0 0
1019 3 18.70621439133668 28.666766275019327 10.133364999813736 0 0 0
1023 1 18.73709905491428 30.30946399142371 11.491903001148202 0 0 0
1027 1 18.30374561929914 30.81955518703993 14.860392420645063 0 0 0
8 3 0.2571053844905016 2.07125306819005 16.03343475126715 0 0 0
13 1 -1.4356673305840464 2.7299596089797875 17.30183656740476 0 0 0
15 3 -1.5901138694359784 4.650091679192291 16.3691716918279 0 0 0
1029 3 1.5930368354816784 0.9261339470555229 18.59820572740758 0 0 0
1034 3 0.09818233683840472 3.595846668977511 18.572638764765436 0 0 0
1117 1 1.485425759429055 4.7001622039360695 19.617530609260122 0 0 0
3505 4 0.04988217701884934 1.531450223249814 19.90259719231831 0 0 0
19 1 -2.729698981410941 5.320377789319341 17.61787789839388 0 0 0
6 1 -0.042925285729392575 0.17453065377055665 17.274571123185588 0 0 0
1033 1 -1.3245042724695333 4.295970071112074 19.97728315576113 0 0 0
95 1 1.7501462946439965 2.6675665878599024 17.533014918015827 0 0 0
3240 4 4.968076280180545 3.0914968051860545 15.147882911074259 0 0 0
3301 4 2.2121669341576213 3.1385959609697838 15.273979473481436 0 0 0
88 1 4.893192508100754 0.8014467926989272 15.261505161086063 0 0 0
89 3 3.3061405462750426 1.6437629171545718 16.363412884592016 0 0 0
176 3 6.30067340843935 1.8072178186464438 16.451378535019323 0 0 0
182 1 4.661668794591371 2.864068127112473 17.583346126796112 0 0 0
183 3 4.338963041014798 4.747688308835093 16.358723236861216 0 0 0
1110 3 4.688335254093815 1.0081864591148009 18.720192733426643 0 0 0
1118 3 3.000358644648381 3.1952314793944536 19.238343621488063 0 0 0
1194 1 6.465009088565811 1.7683287741246894 19.697502141455452 0 0 0
3449 4 5.064337895576121 3.6563422026469357 19.808460909333096 0 0 0
1201 3 6.800460129213649 3.5690999386135305 18.372015159066887 0 0 0
1286 1 9.356527491545574 2.1854516417429632 19.830851669431528 0 0 0
1287 3 10.79299320705184 1.1069802986678265 18.529645396981746 0 0 0
3313 4 7.013469821756614 0.06513108808770865 15.348869040701501 0 0 0
3314 4 8.618254628354313 2.2418522659297073 17.584732383997544 0 0 0
3315 4 7.923181621775935 5.260005871260615 16.904203611659643 0 0 0
3321 4 10.433602111296775 4.795678963419362 16.263925149292234 0 0 0
3391 4 9.168196293964638 4.505798206460248 19.360721484292473 0 0 0
3320 4 11.786888559015521 2.3131779391257736 17.057683361260203 0 0 0
350 3 12.040101738333316 0.8684301530243879 15.466863296568377 0 0 0
440 1 15.57193181788268 0.09311855661663689 17.534004738492897 0 0 0
443 3 15.49717591662477 1.7328906245945 16.168324494348308 0 0 0
450 1 14.016359771712791 2.661067823480119 17.41712271616697 0 0 0
452 3 13.823124880489857 4.30389317120188 16.333815535431086 0 0 0
521 1 16.793467622053093 2.809251491628537 17.54384017700092 0 0 0
522 3 16.697775450138273 4.698195822736292 16.15618953127089 0 0 0
528 1 15.476154242114214 5.292094270552683 17.512161536127152 0 0 0
1363 1 12.331870073866453 1.8324446860689723 19.879568617551016 0 0 0
1364 3 13.877647094385248 1.0062293394676158 18.690037621602 0 0 0
1461 3 15.418019860690304 3.6009482864983786 18.78060728160047 0 0 0
3395 4 12.66016791695436 3.9185108591529763 18.894249118072278 0 0 0
347 1 12.398002122792896 0.0348874355822354 17.43472819190378 0 1 0
442 1 17.18876286201319 0.9607874670219854 15.115331455732267 0 0 0
609 3 20.13808472012485 4.572258831791367 15.942499779361746 0 0 0
613 1 18.435659693364013 5.277534609362399 17.02639354373866 0 0 0
1455 3 17.078814362195605 0.9371218007851512 18.743569853809312 0 0 0
1630 3 22.00780602743371 3.6383871605016127 18.694937194903904 0 0 0
3332 4 17.989277657977652 3.0122168121709643 15.703733782166044 0 0 0
3339 4 21.091901413003242 2.868512125607831 16.892551543662915 0 0 0
3413 4 18.46343429009769 2.5866032193226483 19.06827222611481 0 0 0
3338 4 -0.19312338823882058 32.28630002740708 17.348919207096028 0 -1 0
696 1 26.317734400340587 0.9774850418084815 15.200010367603916 0 0 0
697 3 24.455546807083017 1.8642300788731707 15.811289771309532 0 0 0
704 1 23.431833852759127 2.726588587670942 17.409593199989196 0 0 0
707 3 23.362969608567536 4.484554777377657 16.199298398889614 0 0 0
776 3 26.481223223574062 4.297757863597724 16.44968261433104 0 0 0
1624 3 22.66054521776015 1.0238438761856379 18.443306679402088 0 0 0
1721 3 24.75212126113743 3.459389739094848 18.61517517470245 0 0 0
3354 4 25.903588526696275 2.5084240681910512 17.145786869084834 0 0 0
3423 4 24.146517862335333 1.7635278163612382 19.773138267824027 0 0 0
3424 4 26.411185862683823 4.5063994006682835 19.213332887580272 0 0 0
3353 4 24.51172237508376 0.37630034203606266 17.21941039364073 0 1 0
781 1 24.94807638643746 5.367085350665375 17.482002290935686 0 0 0
771 1 29.410809748974422 1.3353915003217456 15.013743613502609 0 0 0
772 3 27.844323469863113 2.2688651477763093 16.473662710301866 0 0 0
857 1 31.347763040346184 0.23322258234929233 17.20819970699302 0 0 0
858 3 31.209859855124023 2.048019357713885 16.31962942228145 0 0 0
864 1 29.73090455180567 2.773121486507028 17.397400460396483 0 0 0
1792 3 29.856453820508197 1.0651237982827713 18.451135720449624 0 0 0
1880 1 31.22440070635765 2.189516105884965 19.785351501986828 0 0 0
1886 3 31.16166167967384 4.139686307164526 18.552303499398313 0 0 0
3359 4 28.274426540867964 0.17720288687865515 16.64385866922064 0 0 0
3364 4 30.36623734591731 4.906625026320711 16.595779285814658 0 0 0
3430 4 27.866158042301635 1.787773651157757 18.678945614583895 0 0 0
3431 4 28.99169033463467 4.187064686524226 19.016986630936287 0 0 0
873 1 28.13097965130176 5.325380913432587 17.047777572865947 0 0 0
961 1 32.712138833499566 2.7649252726049047 17.593494732829267 0 0 0
1881 3 32.62757446937939 1.0147483415501704 18.72034391024777 0 0 0
1957 1 34.34432054901248 1.9140533794892596 19.77687378082064 0 0 0
1958 3 35.67450922346631 0.9882092537896211 18.46399575981829 0 0 0
1964 1 32.890126845483856 4.756588974353946 19.681202660109868 0 0 0
1965 3 34.27930685534509 3.6298641690063045 18.58301172576157 0 0 0
3369 4 33.573548794080324 0.9817766749182356 16.622804427126507 0 0 0
3370 4 32.81438007888287 4.630553040105897 16.542001414850983 0 0 0
3441 4 -3.427414403236307 6.9462632355494955 18.92496129883976 0 0 0
1046 1 -4.6588499275766235 10.192653613170824 19.976608045122028 0 0 0
101 1 -0.011662851043688693 5.493619530422352 17.462190934399995 0 0 0
21 1 -1.6483818567685447 6.482618053476758 15.140319344002535 0 0 0
22 3 -3.1937604037287066 6.948084260681682 16.6363680022276 0 0 0
103 3 -0.07617826507118508 7.466495527082141 16.52675101555971 0 0 0
109 1 -1.6004600747982156 8.032421482594309 17.684051616022302 0 0 0
1041 3 -1.346534763406833 6.239926485473451 18.823034244286216 0 0 0
1126 3 1.601412973880541 6.491341608957951 18.583614480969565 0 0 0
1136 3 -0.2501349181925905 9.061445825476833 18.910893160127564 0 0 0
3306 4 -0.3396541570198508 9.97309821156958 16.962243674891706 0 0 0
1125 1 0.1407998398510948 7.270936618857547 19.972564238887777 0 0 0
196 3 1.635561493865465 9.628153610169676 16.316865990056282 0 0 0
195 1 2.9056484223505485 8.852391860412373 14.982244030600413 0 0 0
3386 4 1.7179003254024847 8.720498703537224 18.297670834179343 0 0 0
3245 4 4.721947979661922 7.559782909789251 15.04733934554131 0 0 0
265 1 5.856097689310993 5.400403143112681 17.642566138906087 0 0 0
268 3 6.414929523298962 7.009348134084016 16.266261884891435 0 0 0
274 1 4.817779399175905 8.01565216748147 17.24661414813024 0 0 0
276 3 4.818303641328026 9.611753202909435 16.041261642897464 0 0 0
1206 3 4.554659074873435 6.540781112568957 18.593186389124796 0 0 0
1303 3 6.182239997734086 8.90812662812008 18.53771286993492 0 0 0
3311 4 2.72078377034431 7.092839342583318 16.714041321268343 0 0 0
3385 4 4.205904450430556 8.554905050400214 19.3584677363314 0 0 0
281 1 3.276456655171951 10.514107045128497 17.42598644321768 0 0 0
1299 1 6.125841170569815 7.236781680884962 19.874201245187237 0 0 0
378 1 6.333593747673887 10.75216218434892 17.297847374229377 0 0 0
363 3 9.385955556453974 6.960609096894536 16.13138258461096 0 0 0
369 1 7.822711707217049 7.898770015391861 17.469765856511362 0 0 0
371 3 7.937570861728959 9.68097684861207 16.073045914474033 0 0 0
464 1 10.479085338867577 8.625879421643365 17.298438326582733 0 0 0
465 3 10.582002779475598 10.002814921430236 16.02563627344976 0 0 0
1300 3 7.687123453570834 6.153713654600876 18.842595257073743 0 0 0
1389 3 9.130347333014644 9.029511077647081 18.861266841514716 0 0 0
1472 1 10.841380055270136 9.974784531704675 19.753688309244424 0 0 0
3396 4 9.71203400770596 6.72240692702948 18.153186540900936 0 0 0
1388 1 7.469744035010757 9.87194896768776 19.870004717867374 0 0 0
458 3 12.802094798661331 6.774181042887533 16.00996981925969 0 0 0
529 1 16.50424454255357 6.655678203544738 15.162166009458957 0 0 0
536 3 13.79745049592626 10.081255293292616 16.041349937919836 0 0 0
3327 4 12.78713690980269 8.739102680765306 17.29242809127717 0 0 0
3333 4 14.802699679770685 7.248065345965686 16.518390263010893 0 0 0
3341 4 15.976632918941332 9.76079010773524 15.596522291643033 0 0 0
3401 4 13.962794150785609 6.329301005197536 19.504113127432845 0 0 0
3407 4 15.121236548958676 8.886829534567234 18.81047354928628 0 0 0
633 1 15.155352594419785 10.73438760805354 17.4726973933378 0 0 0
711 1 21.736253781146743 5.4147884673519515 17.320320660417728 0 0 0
616 3 18.437042914035725 6.8869423334014055 15.531167879545528 0 0 0
625 3 18.00376762108977 9.621996297136779 16.402686796696507 0 0 0
714 3 21.708187767468047 7.1893528608797155 15.773069511419791 0 0 0
1554 3 17.155246553906412 6.039035780251522 18.563128562594652 0 0 0
1638 1 18.665198363692422 7.330137842819798 19.362501400803016 0 0 0
1639 3 19.83873087038409 5.623489457981509 18.54050171541375 0 0 0
3340 4 17.439976583397286 7.591571664331397 17.20228233652695 0 0 0
3348 4 19.979184184830714 6.9595642576344625 16.925086561278544 0 0 0
3414 4 17.747074000982465 9.610968735723747 19.37952401892459 0 0 0
3418 4 21.338913517295396 6.989572081930164 19.125673338233277 0 0 0
3419 4 20.07215894666252 9.450162457030826 18.054528093361323 0 0 0
3356 4 22.062290815969316 9.573866845649881 16.021648162864288 0 0 0
782 3 25.213432504521847 7.004731429152754 15.88972273874792 0 0 0
879 1 26.781309799364394 7.849686282068658 17.12942446094393 0 0 0
881 3 26.53166957232904 9.754770222828943 16.338485380660345 0 0 0
889 1 24.955420057394125 10.622826144466304 17.471637520576163 0 0 0
1729 3 23.297273209614914 6.103110231130659 18.83643125490294 0 0 0
1806 3 26.936746163516286 6.247971941179603 18.25867035923047 0 0 0
3355 4 23.44444433350617 7.174975343630422 17.02011439221136 0 0 0
3425 4 25.233359275321614 6.943429097570856 19.2094976557613 0 0 0
3426 4 23.38705557241379 9.386620173292998 18.825088626347668 0 0 0
3432 4 26.440300307064373 9.418870807888432 18.71199243826474 0 0 0
880 1 28.116766409823462 9.17160676731394 15.046263657701967 0 0 0
874 3 27.823027351021672 6.864457480835115 15.585345659979044 0 0 0
977 3 29.72783763702748 10.048926126574736 16.241000025635937 0 0 0
1892 1 28.393755915873 7.073716881090843 19.475700969256557 0 0 0
1898 3 28.437005329520318 8.844861985204915 18.448141921673553 0 0 0
3365 4 29.208525949729417 8.016716924141008 16.687243200161262 0 0 0
3371 4 31.92408197386313 7.574597340001339 16.714734246451997 0 0 0
3436 4 30.506950772108166 6.400492349841715 18.766513392828887 0 0 0
3442 4 30.479456154245742 9.426927817872714 18.392754536195884 0 0 0
981 1 28.080719509478428 10.687965780114169 17.594673209284448 0 0 0
33 1 -6.1615329769364955 11.235266448985753 17.27873409415763 0 0 0
34 3 -6.324517601296363 12.938486452165478 16.209232276984707 0 0 0
118 3 -3.4839952821465436 12.71048748862535 15.702148404211133 0 0 0
124 1 -4.545729874646053 13.625248012130218 17.358858572942804 0 0 0
126 3 -4.594549660577712 15.391176533175022 16.07199481619154 0 0 0
1053 3 -4.595721611976739 11.918019277741694 18.65980628260247 0 0 0
1063 3 -6.270220506142094 14.436212012398567 18.637815578013488 0 0 0
37 1 -7.6631482388953005 13.446247738362636 17.66632369945784 0 0 0
131 1 -6.236421695651183 16.11001777017219 17.307663865742654 0 0 0
201 1 1.444091525105211 11.487640618114593 15.174468208581825 0 0 0
202 3 -0.21292795363310812 12.248495625245694 16.565602264394386 0 0 0
207 1 -1.297368756104806 13.851691100588853 17.51152696231546 0 0 0
209 3 -1.4408954241696543 15.225250399707482 15.943159206030035 0 0 0
212 1 -2.892174755180907 16.1110271693649 17.19525070773893 0 0 0
292 1 1.4994244745018301 13.338467035430336 17.4103610438283 0 0 0
1144 3 -2.952985359021427 14.504117260436741 18.658189579272694 0 0 0
1230 3 0.21130790680639144 14.060454489425227 18.88587831834756 0 0 0
3307 4 -2.3394552555445207 11.830746581510425 17.308180624830722 0 0 0
3380 4 -0.37763534592641435 12.020103598433497 18.934892620025398 0 0 0
1139 1 -2.7551655928130963 12.49522074143278 19.605701146334088 0 0 0
387 1 6.168031371638762 14.774942844386517 15.063875915560992 0 0 0
293 1 2.7820851599634366 14.520049517609534 15.05622601674946 0 0 0
3252 4 4.57526996842241 13.348446110209204 15.155935440380642 0 0 0
284 3 3.117203501140909 12.415059099630792 16.297714022931853 0 0 0
379 3 6.223720931656445 12.599696822792383 16.032561848278892 0 0 0
385 1 4.651760005091028 13.389109872784699 17.444039219308692 0 0 0
388 3 4.556272104210699 15.163032929294886 16.29210214925087 0 0 0
394 1 2.993871361301361 15.896103593233171 17.67978853781132 0 0 0
1308 3 4.809855609956149 11.664867805470868 18.539739335838306 0 0 0
1315 3 3.05385462501296 14.215778271875037 18.788156429972428 0 0 0
1410 3 5.89572093834817 14.448324508569012 18.89273183312248 0 0 0
3387 4 2.5745401212787673 12.130619254578397 18.85600112309772 0 0 0
1400 1 6.450206863019331 12.54874126161672 19.7046121331752 0 0 0
474 3 7.93262396495785 15.323568641184412 16.092599342939785 0 0 0
1401 3 7.825095554836871 11.821435554298452 18.556951388973516 0 0 0
1479 3 10.633671940899516 11.83169888132793 18.63654216410704 0 0 0
1486 1 7.669710446875079 15.170703230299797 19.764824237600937 0 0 0
3328 4 9.183626308480385 11.304790339799647 17.036069207984266 0 0 0
3329 4 7.164326215387031 13.835849640794503 17.43667810358907 0 0 0
3334 4 11.281095850986299 14.065977079652399 16.966818540987926 0 0 0
3403 4 9.195753827330098 13.56637664095275 19.162675716256423 0 0 0
3408 4 11.236687531511153 15.377874025086784 19.754123988925762 0 0 0
3268 4 10.106074055253503 15.951764356923537 15.253063023025355 0 0 0
541 1 12.173566332469722 10.99953515214563 17.246023145751177 0 0 0
544 3 12.506214968183837 12.655960156883214 15.916231339602831 0 0 0
636 3 15.557083531217273 12.331272151359082 16.206605341827974 0 0 0
640 1 13.955587384668796 13.375611148377535 17.380391722688323 0 0 0
643 3 13.808683737456642 15.247812131999373 16.261064851705502 0 0 0
651 1 12.348651293832178 15.955400601998686 17.820555961379934 0 0 0
733 1 15.236965061720166 16.042007932937263 17.52458207099732 0 0 0
1571 3 13.934934220190089 11.668858805970475 18.61634310388507 0 0 0
1575 3 12.541878732662235 14.147878794608273 18.713643336737643 0 0 0
1660 1 14.031445755204473 14.938739679403584 19.8744187353622 0 0 0
1661 3 15.5688555326131 14.154287211407684 18.58796630480986 0 0 0
3415 4 16.383807049528404 12.080569225236216 18.8738175669873 0 0 0
635 1 17.32409489050841 11.500854022586992 15.038788381469878 0 0 0
727 1 17.04079006568016 13.42339378645003 17.141456953592268 0 0 0
722 1 18.456893631681005 11.070523122172673 17.70296991553186 0 0 0
723 1 20.35955956016209 11.43092055847594 15.325281401725768 0 0 0
724 3 18.80327418588642 12.408438284961127 16.381866444766462 0 0 0
799 3 21.809930873374203 12.56459418529436 16.409637534057623 0 0 0
803 1 20.25156294222947 13.324232617884979 17.76796155859138 0 0 0
804 1 21.382201194652524 14.476826858374398 15.492464172769004 0 0 0
1740 3 20.17780876653444 11.576490049636147 18.99844202712623 0 0 0
3357 4 18.954387885246376 14.520645002271117 16.326877432262577 0 0 0
3420 4 17.65032456305125 14.700769820558444 18.881074005361185 0 0 0
797 1 21.82794516927905 10.940206550937248 17.868242988164337 0 0 0
1739 1 18.62315445211889 12.89107356908971 20.002163097045763 0 0 0
1831 3 22.058583909150997 14.176997236566704 18.71608836977796 0 0 0
798 1 23.38885171018075 11.738408191426526 15.303312000735417 0 0 0
898 1 23.353710186372712 13.572621949769156 17.476658612720914 0 0 0
900 3 23.006498067996247 15.389077948797867 16.4980281880007 0 0 0
1902 3 26.3437887513151 11.604482938502573 18.731654026804033 0 0 0
3366 4 25.01086079365235 14.670973630426301 16.103147781471186 0 0 0
3433 4 23.921561733228657 12.165742968724595 19.16102000166407 0 0 0
3437 4 26.09527901936972 13.74478297048321 18.90461993813344 0 0 0
1991 3 29.634735932896938 11.648697148058076 18.8134968555655 0 0 0
3372 4 28.004321677818336 14.66674096119944 16.638460575975113 0 0 0
1990 1 27.892568104529452 12.59523195027665 19.945144251906818 0 0 0
51 1 -9.358925238650313 19.407699338884896 15.093633469712003 0 0 0
52 3 -10.737243297085634 20.435787605374415 16.481179435830363 0 0 0
1077 3 -9.138746959861804 19.21945147054162 18.945624834457796 0 0 0
3443 4 -9.278116352902092 16.8635722355675 18.51836027531102 0 0 0
3446 4 -9.901272291468594 21.124170433154692 18.65296862482775 0 0 0
49 1 -10.750480548812352 19.012679827412132 17.830872812536267 1 0 0
133 1 -4.484431831737048 17.195730377112852 15.05185397371574 0 0 0
134 3 -6.164366501187224 17.977173310575413 16.22747638764361 0 0 0
142 1 -7.698924029130422 19.00884522396034 17.53395956332214 0 0 0
145 3 -7.778429812345907 20.513291165584334 16.13557804554428 0 0 0
219 1 -4.736737326060275 18.780026085900708 17.500165612976943 0 0 0
221 3 -4.62627292083332 20.457966787412328 16.300198424835074 0 0 0
1150 3 -5.216322665956297 17.226588024927576 18.76688636157832 0 0 0
1157 3 -6.233439609180719 19.964832546251763 18.61932812526492 0 0 0
3375 4 -8.297924113046736 17.47852913066025 15.982272904012149 0 0 0
1246 1 -4.757839248459662 20.730305397693964 19.8498110799269 0 0 0
1156 1 -7.955815409742806 20.673151500941128 19.82868290395371 0 0 0
3381 4 -3.216805156717548 16.700933272499043 19.208705556738987 0 0 0
220 1 -2.930601840926407 19.617969048724827 15.196364299712158 0 0 0
215 3 -2.8572821184677446 18.012453672566885 16.434496993618517 0 0 0
307 3 -1.5009401106322695 20.93846760667102 15.902905867870732 0 0 0
405 3 1.3744500115075766 20.5411405226748 16.135467997060935 0 0 0
414 1 0.004799290940310286 21.323107579617883 17.361030189294553 0 0 0
1239 3 -1.3148135125446228 17.43106772026225 18.188675705845704 0 0 0
1325 3 1.27431744390897 16.96103250068512 18.648524288724072 0 0 0
1331 1 -1.4525230931240145 20.211811054919025 19.944471786211395 0 0 0
3316 4 0.30585921509183045 16.264018122894942 16.826323018460243 0 0 0
3317 4 -0.7547436753235424 18.962868896927315 16.58600603671003 0 0 0
3388 4 -2.7156244148122948 19.142357767223125 18.32557589671162 0 0 0
3392 4 0.3665491117153685 18.834219557790632 19.225560598369672 0 0 0
3398 4 1.2890994494996963 21.065978213003476 19.42516760012793 0 0 0
477 1 6.097650694281144 16.187229431412955 17.36672323999517 0 0 0
404 1 3.1478939582935315 19.615644964893153 15.320729008744788 0 0 0
480 3 5.568039861295423 18.108398127983317 16.157741751810285 0 0 0
482 1 4.4423291811931005 18.964264900637424 17.570094754966796 0 0 0
485 3 4.422862696194155 20.751935255105064 16.613306201742578 0 0 0
1415 3 4.4124293087921505 17.05091993155211 18.715821156720374 0 0 0
3322 4 3.727445855317125 17.15477744355807 16.08368396827246 0 0 0
3323 4 2.1543654833202712 18.93794421881648 17.359101457603504 0 0 0
3397 4 3.9302607969669943 19.224587598541106 19.651678781537008 0 0 0
1414 1 2.5079886911650124 17.711992759327547 19.90227478726581 0 0 0
3404 4 6.524169644238613 19.790532562604515 17.04852590697117 0 0 0
489 1 2.707389942272405 21.31245104661692 17.627545619754017 0 0 0
1867 1 6.218369624803769 20.063587419765046 19.74021054149669 0 0 0
3335 4 8.912377766673334 16.19102257044113 17.928970347868614 0 0 0
1589 1 8.220470182053155 19.538301703069223 15.334851173742258 0 0 0
1493 3 9.377354921598094 17.840909405553205 16.59622168139396 0 0 0
3336 4 7.582380514759487 17.452563759907665 16.051052463317202 0 0 0
1684 3 8.44714729064678 20.49963327986873 16.842680242450292 0 0 0
1682 2 10.182050989581802 19.543297593564933 16.683191911926794 0 0 0
1588 2 8.218364228186818 18.74935055647892 17.914419998691383 0 0 0
1760 3 9.842543957734236 19.306769591486926 18.7677370593546 0 0 0
3540 4 11.347068751876419 17.980501749137414 18.05538077223463 0 0 0
3607 4 8.057900922306322 20.92890833034705 18.77788531528661 0 0 0
1582 1 10.010517913187108 17.398912392494015 19.775365916072822 0 0 0
3278 4 15.55248542721759 19.812482169554396 15.973248770988114 0 0 0
3342 4 12.492710655444318 16.92146691402479 15.86033373759954 0 0 0
735 3 15.406621129188311 17.70088164783886 16.346850179079805 0 0 0
741 1 13.734083920708034 18.55326203203489 17.12206684425575 0 0 0
1671 3 13.95280642228164 16.999941008707136 18.82224754317322 0 0 0
3349 4 15.676180294603414 18.605318875029955 18.31282197148587 0 0 0
3416 4 13.540112514939896 19.0294123435084 19.356931508405136 0 0 0
1764 3 14.454019519425625 20.455494377294745 17.769056622862387 0 0 0
1757 1 15.494930563615643 20.52155753540568 19.533503576959607 0 0 0
1853 3 16.707995014709667 20.65654514594554 17.79959563208834 0 0 0
3350 4 12.836781562007012 20.585031822377555 16.457195096690736 0 0 0
1689 1 12.883787524434563 21.438509304369628 18.558936470938246 0 0 0
3285 4 17.86310980524624 21.24616026788588 15.318748973099261 0 0 0
920 1 21.93872658309786 19.777057018558015 15.139470466469572 0 0 0
1758 3 17.62943137988629 18.28118898641026 18.94231425942776 0 0 0
908 1 21.909784521757004 16.232123207643582 17.851634024825398 0 0 0
1844 1 17.808301738786284 20.108812079852136 19.772274251884436 0 0 0
911 3 21.900317802470436 18.00400258108547 16.466837180586708 0 0 0
919 1 20.34243165901054 18.901484844484177 17.583736329392735 0 0 0
921 3 20.02585397086427 20.598186486109768 16.30558310319272 0 0 0
1923 3 21.60208180226611 19.726251051126415 18.698752099909857 0 0 0
3358 4 17.309953970756744 16.992818209140392 17.17023779064992 0 0 0
3360 4 20.069611781419482 16.78171174475554 16.682216468876327 0 0 0
3361 4 18.205838288377656 19.417021460642136 17.150685947788716 0 0 0
3427 4 19.6055005175147 17.445126179128962 19.312147420266577 0 0 0
1922 1 20.49644988207689 20.836305490786746 19.99193382751559 0 0 0
1005 1 21.724401204301664 21.526321763288912 17.510539050223418 0 0 0
910 1 23.565496135361425 16.98429771729315 15.227084330716394 0 0 0
996 1 23.29174507172985 19.075259778865444 17.775793959924133 0 0 0
997 1 24.907666621783232 19.612620451455914 15.35331919060826 0 0 0
998 3 23.49896800343378 20.82677352261933 16.453177550293383 0 0 0
1916 3 23.04684856251782 17.326741155099732 19.14750881563687 0 0 0
2011 3 25.002821404953497 19.543173263894182 18.91166825441364 0 0 0
3373 4 26.061247783732185 17.658484848323162 16.09528510749389 0 0 0
3438 4 24.726685390885486 16.224433698309905 18.40073908616602 0 0 0
3444 4 24.566747755774742 21.41872391845366 18.261396588799332 -1 0 0
3496 4 23.146293821708518 20.198396027475873 19.965176743910845 0 0 0
70 3 -14.143719786544288 25.78855340033113 16.25702135902188 0 0 0
1091 1 -14.092868975616938 26.26138561145981 19.90009557157297 0 0 0
149 1 -9.145516520568998 21.802173264090854 16.722482902890473 0 0 0
3308 4 -9.496182942302568 24.92665356994715 16.81907170610365 0 0 0
3376 4 -11.507452997220238 22.43129076115992 16.406434840672755 0 0 0
3377 4 -12.421587247641465 25.361559643817266 17.412206391154058 0 0 0
3445 4 -13.362372703314515 24.137081464199746 19.73734228986022 0 0 0
3447 4 -10.2655608957513 24.26541259502894 19.3242930917233 0 0 0
234 1 -6.034783352533491 25.28606254566458 15.09423079813795 0 0 0
227 1 -6.313583564927628 21.68489653042408 17.29607346377572 0 0 0
228 3 -6.117192715116335 23.559301719973604 16.268624554751007 0 0 0
232 1 -7.422900059926162 24.38948617583171 17.5020772685787 0 0 0
235 3 -7.726164538528838 26.137233311337983 16.174685611381065 0 0 0
324 3 -4.680809702974001 26.32709198037446 16.012952413784447 0 0 0
1165 3 -8.080635270382315 22.523891181731976 18.540955241492426 0 0 0
1254 3 -4.7886834151345 22.488191301983278 18.63788044027104 0 0 0
1262 1 -7.676589826408142 26.038809185906082 19.873014072389854 0 0 0
1263 3 -5.979781766183262 25.34578865649554 18.86747373590363 0 0 0
3319 4 -4.594914666256592 24.632724554354613 17.321065707756134 0 0 0
3390 4 -4.371908707424044 24.13763051933136 19.915034818615453 0 0 0
3394 4 -4.210875154954701 26.670719931421417 19.213696903020963 0 0 0
1253 1 -6.458679187248443 23.348242275275705 19.95748255771031 0 0 0
323 1 -3.0145965042340688 25.274394235356525 15.428999379213124 0 0 0
314 3 -3.341583391302601 23.353705013252423 16.045402255016224 0 0 0
417 3 -0.0495752388535351 23.244543718753025 16.2367939329561 0 0 0
1427 3 1.2359150692543217 22.667492516741977 18.274375129120028 0 0 0
3318 4 -1.8258599968357991 22.584544739515547 17.331751359825645 0 0 0
3324 4 -0.5285915315002505 25.111195922133827 17.026417211015854 0 0 0
3389 4 -2.8690249045417033 21.931994461352275 19.584929309874823 0 0 0
3393 4 -1.6582602176508825 24.298469668522486 19.574200430949325 0 0 0
3399 4 -0.6262735765348957 26.80005436443368 19.65517595097918 0 0 0
496 3 1.4754529586218172 25.812331093979513 15.890195088982722 0 0 0
1511 1 1.7305196208158602 26.14754059427152 19.741696449729194 0 0 0
3468 4 4.464445765606236 21.447673630264465 19.238121687064698 0 0 0
494 1 1.7175438593944463 24.29015766238157 17.27324419469866 0 0 0
490 1 4.472261328779323 22.21645147050244 15.255728382198885 0 0 0
569 1 6.030748102995458 21.818763527034783 17.713510522029438 0 0 0
491 3 2.7581345510421347 23.083210856717688 15.905650682711705 0 0 0
572 3 5.751276256501265 23.161607085914316 16.50612353375772 0 0 0
578 1 5.22090895105373 24.988530174190988 16.99137085242688 0 0 0
579 3 4.452770549391522 25.861833999277774 15.476118371586058 0 0 0
1512 3 3.4821853164967376 25.433287302058837 18.20014144464561 0 0 0
3405 4 3.970805148640757 23.249759888133276 17.519755502178835 0 0 0
3411 4 5.20712614104886 24.96625646327713 19.33274330334956 0 0 0
3469 4 2.3977779366880743 23.915514979158473 19.511552150884288 0 0 0
1604 3 6.50165531998935 26.219324428001627 17.990079472397255 0 0 0
585 1 3.05823551548203 26.63076791736815 16.804559360829032 0 0 0
3343 4 6.921103506608519 21.438551245387554 15.503193726890963 0 0 0
3545 4 10.276116846590286 21.31408457827242 17.99149164541431 0 0 0
3277 4 9.61536489793694 21.65614015282686 15.60671955577159 0 0 0
561 3 8.249260117482878 22.02531550824405 17.128561662082966 0 0 0
3345 4 7.198128337615492 25.897175429290698 15.761725538706088 0 0 0
3410 4 7.061835331700847 23.968309178845402 17.85746685145769 0 0 0
571 1 7.380417624048274 23.499669852410662 15.917956244959303 0 0 0
3344 4 9.362186334304056 23.959372320308606 16.745878191509217 0 0 0
752 1 11.104285358798885 25.903064374852065 17.462460508494736 0 0 0
1770 3 10.988438938410798 23.792296245159633 17.956852977489667 0 0 0
3351 4 8.866882650031313 26.122018462644014 17.871854462117884 0 0 0
1683 1 8.970508789812241 23.120454516794688 18.77598212120691 0 0 0
749 3 10.00533741769296 25.728917218448885 15.900863442758538 0 0 0
1692 1 7.472219120191076 25.48595282503523 19.679513474620503 0 0 0
1779 2 10.009015979430062 26.642273363852823 19.946509217588453 0 0 0
831 1 11.7024897363567 22.9300005868328 16.443136027854962 0 0 0
4342 4 11.68888549695731 22.765308356042322 19.737158768843386 0 0 0
4320 4 12.127328006229684 24.90458940467763 15.550355349247834 0 0 0
824 1 15.586640466548848 22.04348943383044 16.7525387334219 0 0 0
754 1 14.488842176595835 24.896559816543554 16.156681775991636 0 0 0
3286 4 16.39459462261497 23.681222225227742 15.540777903623002 0 0 0
834 3 13.46280546811116 22.707175221433648 16.8024752825217 0 0 0
3362 4 15.81405868309063 25.31668193993322 18.089888348449048 0 0 0
3490 4 14.679908967422806 22.673417031046856 18.544380122525585 0 0 0
1763 1 13.340728944078576 24.371934001818808 18.333362537458093 0 0 0
938 3 16.548128043777837 25.67949749278736 16.130357138023527 0 0 0
3549 4 17.041488632434415 22.292360469624896 19.145893498938047 0 0 0
927 1 18.536771007281477 21.612143548851044 17.43833554798773 0 0 0
935 1 17.382102004142183 23.931936274430072 17.54076640966603 0 0 0
928 1 20.22947007494681 22.436681256100055 15.183707846387442 0 0 0
929 3 18.60362562674534 23.26707614616578 16.129773460956628 0 0 0
937 1 18.51577230545443 25.239095313886903 15.24422875812084 0 0 0
1008 3 21.659511124219293 23.32795798494381 16.299053175925096 0 0 0
1011 1 20.07209860483936 24.27348380840457 17.594660291666344 0 0 0
1014 3 19.960672551197888 25.976471226421925 16.47021142864639 0 0 0
1929 3 20.046772318900537 22.318545990527948 18.50709333592661 0 0 0
1934 3 18.463570011873948 25.07725376799826 18.99632687781752 0 0 0
2027 3 21.730343619276567 25.232162313791118 18.71764301315502 0 0 0
3439 4 19.99280267255648 26.560489867196008 18.609183435930625 0 0 0
3497 4 21.277344239916637 23.42652425462688 19.79185652843731 0 0 0
1928 1 18.952773655352498 23.139613970587863 19.94954357289189 0 0 0
3367 4 17.931807723386612 26.934583865294037 17.104799008149115 0 0 0
67 1 23.068488187554877 24.044373231253797 17.599229100508175 0 0 0
2019 3 22.935188788083032 22.400164203656633 19.042573944900028 0 0 0
86 1 -15.398037313691564 32.224317863436184 17.39257718081489 0 -1 0
79 3 -17.215523699829465 31.547381596424575 16.111895548741305 0 0 0
1099 3 -14.123531122608144 28.002299045704284 18.647661557843822 0 0 0
1105 1 -17.060867320155158 31.524851562534877 19.678149469834768 0 0 0
3378 4 -13.686362525758758 27.84753027940183 16.47878395819478 0 0 0
3379 4 -15.263195730372109 30.74991412989123 15.670034546630927 0 0 0
3448 4 -14.075557873948284 30.198890337780636 18.31885966110674 0 0 0
3382 4 -9.010591095764006 27.04419578076465 18.33285747261731 0 0 0
169 3 -13.413589666727818 31.359705249021676 16.442695062861535 0 0 0
243 3 -9.580542503423217 29.060443167904783 16.347489097697903 0 0 0
3309 4 -11.012738054870763 27.45264391843684 16.8561724559247 0 0 0
3310 4 -11.72732246340944 29.915258098372334 16.176185698395606 0 0 0
3312 4 -9.368618098534036 31.072331960741007 17.316004617308778 0 0 0
3383 4 -10.63896298357778 29.255916210247133 18.88732233132783 0 0 0
3384 4 -12.293584749625115 32.18605873325695 18.159515981191344 0 0 0
1175 1 -12.665885098114813 28.851436892875967 19.918047938242985 0 0 0
3249 4 -7.550181937835346 30.997336748327676 15.465276568000665 0 0 0
332 1 -5.971840438013279 27.09616013184619 17.4113170502641 0 0 0
333 3 -6.236341950066635 29.067386778541636 16.108198246445436 0 0 0
339 1 -7.618786074611327 29.600708233620566 17.388743545758867 0 0 0
1272 3 -7.2438197356515275 27.96672179935493 18.829169197024683 0 0 0
1350 3 -4.323118231375718 28.480549523240743 18.235786785041565 0 0 0
1356 1 -8.01022083584242 31.643874341088907 19.55085812541457 0 0 0
1357 3 -6.210316057807676 30.599621559237402 18.710782950473412 0 0 0
3326 4 -4.316873953133069 30.23085400715252 16.9796463595436 0 0 0
1349 1 -5.626061514780627 28.61717444381916 19.793804404022232 0 0 0
1444 1 -4.622379615836644 31.467956773016354 19.787979971500416 0 0 0
430 1 -1.4201519149694786 27.827529351159427 15.100913426604418 0 0 0
509 1 -0.04074026959900934 30.62734612837043 15.215291846989214 0 0 0
510 3 -1.7510197393396396 31.460153228667547 16.24535930027005 0 0 0
1445 3 -3.0334791170813276 30.66820021773392 18.61221345914055 0 0 0
1521 1 0.1819034975588103 28.947545373341566 19.839433613316928 0 0 0
1528 1 -1.5770633496123985 31.162529983701145 19.923628209073847 0 0 0
1529 3 0.00703056933584989 30.56875746405704 18.727542273297505 0 0 0
3325 4 -3.060607619323493 27.481587159994945 16.81375331627489 0 0 0
3330 4 0.8132028352991405 27.409454040653003 17.200382489367136 0 0 0
3331 4 -1.3002298275866462 29.637895832818 17.184992201620705 0 0 0
3400 4 -2.3649281833211298 28.901671311522154 19.46838343683271 0 0 0
3337 4 1.6291601814031829 29.909748387516544 17.101726052482462 0 0 0
1603 1 4.874424388277189 27.04047160232816 18.87915920282629 0 0 0
595 1 2.939691328536437 30.61194462354375 15.072198900246995 0 0 0
3412 4 1.8705833213689047 31.4989203223314 19.485073841282503 0 0 0
3347 4 3.432493559735086 31.95401815070028 16.96978159073082 0 -1 0
586 3 2.9432542020430645 28.589245063368324 16.169987860646835 0 0 0
688 1 4.54548794822286 29.60773395943611 16.904879420350955 0 0 0
691 3 4.997157717919215 31.150077062635358 15.686592474110828 0 0 0
1609 1 2.822832583969113 28.794679226858168 19.185989836326797 0 0 0
1610 3 5.946751794736571 28.633413210248445 17.938817025370508 0 0 0
1617 3 3.2987224519943297 30.443109793765007 18.39885572621239 0 0 0
1703 1 4.385436058616207 31.693032454182887 19.56890350828245 0 0 0
1704 3 5.740010517997948 31.028292263009334 18.420572866404086 0 0 0
3346 4 5.116566897824683 27.243867529041502 16.76458916527789 0 0 0
1697 1 5.836116821684456 29.429932501035378 19.455755098858564 0 0 0
3352 4 7.009926478090236 30.12905961152366 16.87052563018981 0 0 0
763 1 8.869843322857317 29.969454280401912 15.523181107828513 0 0 0
4331 4 9.580351051457658 27.875122316799494 16.11292342862021 0 0 0
758 2 11.23238691052864 30.469612810495033 17.040897135285032 0 0 0
3422 4 8.1031589770807 29.936368102903813 19.065735057303396 0 0 0
764 3 9.28692296191663 30.4352876503878 17.448519001363575 0 0 0
848 3 10.670858668420276 31.164620375751642 15.305183393096137 0 0 0
1780 1 7.424287714932241 27.714770897918243 17.274791985469054 0 0 0
1702 2 7.066083242364847 32.15162530702453 19.410389401673292 0 0 0
845 1 9.827405128703159 31.81958256239675 19.03291807628284 0 0 0
1864 1 10.200348521598698 28.413076043409404 18.34121142986828 0 0 0
1781 3 8.419937361944971 27.738946871693756 19.138900250893393 0 0 0
1768 2 13.955409375746658 26.796094983716088 18.10376995278528 0 0 0
3421 4 14.891102770918636 27.10684880429991 16.035838421698973 0 0 0
3429 4 12.125414169972142 31.521386831715247 19.139840714089544 0 0 0
3546 4 12.681688376888548 28.885504097074016 18.661426753767522 0 0 0
1871 1 12.785068183704876 28.147468001600508 16.379288385426925 0 0 0
1872 3 14.206964088871931 30.06001994213077 19.54986693780754 0 0 0
3363 4 13.514629146783797 30.490829049151316 16.42023791382901 0 0 0
3368 4 16.533819029808853 29.735625082370028 16.153097959577643 0 0 0
1857 3 15.863378425269499 27.370663052978102 18.129440150727117 0 0 0
1863 2 14.895452552863937 28.99545312071241 17.576910552110068 0 0 0
3550 4 14.90199089576527 31.489369008102177 18.231499422607794 0 0 0
1028 3 16.679617849571013 31.814602437420024 16.176656290389815 0 0 0
1950 2 16.05255452533459 30.645911089206535 20.007606920270298 0 0 0
1766 1 15.20048894485178 28.391748027343418 19.933624725773473 0 0 0
945 1 16.78525601560672 27.75816940310434 15.078666067693735 0 0 0
1022 3 18.511448962059504 28.879080001686223 16.28814863315419 0 0 0
2042 3 18.90635215619406 30.514424091647726 18.6119455885609 0 0 0
3374 4 20.760370164276203 27.985097000837357 16.60914596441795 0 0 0
3440 4 17.13388316718937 29.1202954068918 18.657120535204008 0 0 0
1032 2 -1.3731003683394072 2.483478475116809 21.85482319692356 0 0 0
1035 1 -0.9058919394088181 4.10255708051845 23.756641452053984 0 0 0
1124 2 0.2716301257325111 5.319392429513384 21.844874025694494 0 0 0
3570 4 1.204361741251401 2.947685322765502 24.02640673393404 0 0 0
3569 4 -0.6169496911712128 1.1269045626547725 24.078985314380674 1 0 0
1193 2 5.921331089416349 0.5948584362588729 21.898888101261697 0 0 0
1195 1 6.474385001692827 1.820688087743679 24.003795390773483 0 0 0
3506 4 1.9923929133115965 3.317398181427563 21.28539082366202 0 0 0
3509 4 3.751330521986155 1.4024664608361095 20.507061130247447 0 0 0
3510 4 4.206513375567208 2.3077879137451336 23.69161810479561 0 0 0
3511 4 1.8541882200504785 5.2919120228813785 23.78104644529443 0 0 0
3516 4 5.0011668496618125 4.594414223318864 24.166429780807505 0 0 0
3574 4 2.6893766330874262 0.4373156914879954 23.96423108289951 0 0 0
1122 3 3.023403125884542 3.7000558545100946 24.91847717417157 0 0 0
1285 2 9.15421217448898 0.4446727225495484 21.681648433962184 0 0 0
1288 1 9.33672987369875 1.9684496153995323 23.898738510036885 0 0 0
1291 2 7.856354395966659 2.763047844818249 21.87883369800192 0 0 0
1292 1 7.192847274248621 4.64050615086928 20.34556896278391 0 0 0
1293 1 7.7613754522510465 4.554229383384301 23.74090450241158 0 0 0
1370 1 10.824241635343672 4.643992592303865 23.991166691383 0 0 0
3459 4 10.349288863243437 3.195879191873378 21.73391837618122 0 0 0
3528 4 11.606735383197222 2.5322812553987233 23.904012277204856 0 0 0
1454 1 15.55875968224868 1.7567899406138023 20.007420685538197 0 0 0
1456 1 15.728401895119307 1.8515367653254422 24.11266347438874 0 0 0
1460 2 13.753342203058748 2.1679943223534326 22.458579483745964 0 0 0
1462 1 14.08238238763946 4.31885459735426 24.045159421576315 0 0 0
1465 2 12.568874516973237 4.8089647160508395 22.08337570357986 0 0 0
1553 2 15.477928267800477 5.345944063960463 21.979755110694423 0 0 0
3462 4 14.440241182272205 3.636830175957322 20.687771380651338 0 0 0
1543 2 16.628813932734143 2.8083434534624736 22.004322594106846 0 0 0
1458 3 17.00918207295464 0.4696296623833725 24.635668320880058 0 0 0
1544 1 17.116805119836116 4.527127624962661 20.109857611081456 0 0 0
1545 1 17.333319610179622 4.6166638714102355 23.708038421070412 0 0 0
1625 1 21.617749445723938 1.7236392831930065 23.88117176989926 0 0 0
1631 1 20.148090372936593 4.429004525861598 23.67463489432832 0 0 0
1632 3 21.800960354340646 3.5147288288043814 24.857595221453593 0 0 0
1728 2 21.39487087207283 4.8645860766779965 21.593114399870775 0 0 0
3472 4 17.62263632800361 0.8952728730581545 20.918027457326186 0 0 0
3473 4 18.86029773285982 3.663936403086491 21.828230009080716 0 0 0
3477 4 20.478329529589775 1.6507704492294135 21.82085978583285 0 0 0
3533 4 18.08457818238512 2.405070994333598 24.586612209049143 0 0 0
3538 4 19.025197887280328 0.18143648153825662 23.752007311114454 0 1 0
1720 1 23.516504405491887 4.315281771106806 20.004182607155695 0 0 0
1712 1 24.731189178477152 1.7699699331723 23.784840179841396 0 0 0
1719 2 22.772533183835357 2.49532456852169 21.759695283372587 0 0 0
1722 1 23.33790690085041 4.55150826220697 23.373133438108702 0 0 0
1798 1 26.541277570321494 4.436443632821563 23.742773274942273 0 0 0
3480 4 24.99109881739817 3.267225351230474 22.080559117304155 0 0 0
3484 4 26.415041219199754 0.795036739848944 22.17738430660203 0 0 0
1711 2 24.13363840931896 0.2512008345562433 21.734092324360116 0 1 0
1714 3 26.2944074577376 0.5201564870474565 24.47308031539619 0 0 0
1723 3 24.878993589005148 3.5937987574261765 24.913968886097294 0 0 0
1801 3 28.235951792579357 3.8322634678912846 24.962396477177357 0 0 0
1879 2 31.80685925787585 1.0710014451873688 22.04537365589823 0 0 0
1884 2 30.168013423783794 3.0370572202418713 21.907931425120438 0 0 0
1885 1 30.1509956796219 5.151720428855891 20.676110138567395 0 0 0
1887 1 29.36522554003611 4.637448592035279 23.608176269057537 0 0 0
3485 4 27.778892542436516 3.5452455983723232 21.896066921640564 0 0 0
3491 4 29.45972009360366 0.9970885816056715 20.678874465630514 0 0 0
3553 4 28.82761466947051 2.2815975235315333 23.75774207165837 0 0 0
3558 4 30.473314909657905 0.12369321514487032 23.648809199626577 0 0 0
3559 4 31.62023176948793 2.6371209780310165 23.79377313473489 0 0 0
1782 1 28.2218457205171 0.15627247492423593 23.51763412569521 0 1 0
1963 2 33.17857191823894 3.1339924046744674 21.80540011685557 0 0 0
3499 4 34.38207622518568 0.4053815842726601 21.550683360059477 0 0 0
3564 4 33.80469367806037 0.7281257991592721 24.06502633308736 0 0 0
3565 4 34.1142297901327 4.731637895248923 23.710836813789463 0 0 0
3501 4 -3.258436058668805 8.623433289651715 21.0527416971324 0 0 0
1042 3 -1.44652015517444 5.739458431639046 24.661912309894902 0 0 0
1127 1 0.0024730588756840532 7.07971673176784 23.919503101920697 0 0 0
1134 2 -1.1111765308913797 8.346154853483117 21.98455002170655 0 0 0
1135 1 -1.5140736390913565 9.98161913127786 20.068256222467294 0 0 0
1211 2 1.4982450256136763 8.018624549858783 22.0162717235428 0 0 0
1212 1 1.550242787275093 9.9382336715448 23.715025447216917 0 0 0
3500 4 -1.8278308532786756 6.286901528714393 20.978473070885244 0 0 0
3571 4 -2.4840461898956927 7.374975145787145 23.78455868917078 0 0 0
1304 1 4.894687038105838 9.987046805310149 23.997907292068923 0 0 0
3450 4 3.176316929923698 6.045280447796458 20.15978227844419 0 0 0
3455 4 5.5445685127522975 8.841330243987905 21.65931025757439 0 0 0
3522 4 6.93579090373476 7.43241518879466 23.896842599884273 0 0 0
1377 2 9.367641723255002 5.3992967623881265 21.87101039339168 0 0 0
1378 1 9.226517410811724 7.287179656729878 20.19687627172958 0 0 0
1379 1 9.35071943728185 7.297787009899716 23.690873818103988 0 0 0
1387 2 7.798599091639588 8.286575153817227 21.87618368981404 0 0 0
1390 1 7.7017617970932974 9.851878265720408 23.929709341730202 0 0 0
1471 2 10.906360746874178 8.399322369660451 21.92786375964741 0 0 0
1473 1 11.045487556789945 10.02307305847546 24.03519768028579 0 0 0
3463 4 11.294031317851738 6.337781093776203 20.781700965656178 0 0 0
1394 3 9.378691976254522 9.18606964039651 24.786156156635123 0 0 0
1466 1 12.518202009011741 7.238525902507571 23.750431866879573 0 0 0
1555 1 15.516196142458071 7.321712884260765 23.660470741016653 0 0 0
1562 2 14.151686267557698 8.134877411601382 21.560907434002292 0 0 0
1563 1 13.68575471272213 10.259949669913153 20.18283720913818 0 0 0
1564 1 13.874707193491204 10.026189080282212 23.4998212359962 0 0 0
1566 3 15.309412101625085 9.219748185042087 24.668080234398076 0 0 0
3406 4 16.393732885688298 6.829986199902981 20.354400067918096 0 0 0
3466 4 12.18932215427293 10.519863820783241 21.975958393685406 0 0 0
1475 3 12.687652997416084 9.178414596220458 24.96133726460947 0 0 0
1558 3 16.982346648369976 6.579679211673819 24.795779440410683 0 0 0
1637 2 18.644745300020624 5.989247324904138 21.75581292113447 0 0 0
1640 1 18.64031179989114 7.333403051072032 23.89410297454892 0 0 0
1644 2 17.48810748431797 8.516457511400043 21.60185680037558 0 0 0
1645 1 16.964844522876977 9.952815199025508 23.722772082155622 0 0 0
1734 1 19.86716253502563 9.872426039340004 20.3220654459425 0 0 0
3482 4 21.799245990505014 8.795591833511457 21.271597483135647 0 0 0
3542 4 21.149936879630918 6.544194760595245 23.446531363121643 0 0 0
1805 2 25.33851167843096 5.5185358044881045 21.47798387597703 0 0 0
3481 4 23.16608086448545 6.345591516442932 21.055764267639653 0 0 0
3486 4 25.275089722373103 8.327152058281033 21.62554545557715 0 0 0
3547 4 23.745705441878897 7.528278591979008 23.817800737311586 0 0 0
3554 4 24.718180131963503 10.470528146095038 23.892561766815234 0 0 0
1981 1 29.351673723495807 10.0263061881865 20.252786515936986 0 0 0
3560 4 31.438191330085257 5.416209593056809 23.981895856220504 0 0 0
1891 2 27.89146519526977 5.827711321734433 21.689176032963687 0 0 0
1893 1 28.13710183844396 7.338746768778341 23.81011545808917 0 0 0
1897 3 29.754189135442335 6.436623820651507 24.928074565699347 0 0 0
1980 2 29.737585294405626 7.8833612060731 21.65079158404498 0 0 0
1982 1 29.733788986346923 9.873319290299545 23.83286080786793 0 0 0
3495 4 32.14450496226725 6.027731303547277 21.45591964145895 0 0 0
3561 4 27.374471509539788 10.207323637086509 23.623260489520398 0 0 0
3566 4 31.18829115734207 7.964161133404084 23.566680670463427 0 0 0
1069 2 -9.00345976129864 16.000824608414295 22.22096690083552 0 0 0
1051 2 -6.136564625476021 10.818952364205868 21.963824942260967 0 0 0
1052 1 -6.105055495113482 12.753174179879984 20.068517174024812 0 0 0
1054 1 -5.63448117923123 12.96935833976331 23.412236553250253 0 0 0
1062 1 -7.936429317826304 15.210071951711646 20.027492663073144 0 0 0
1064 1 -8.257382915265396 14.710555257788625 24.50387134322815 0 0 0
3507 4 -5.635345871382363 15.706101369814826 20.239728614328694 0 0 0
3512 4 -4.404797153155175 15.230871375661584 24.516365657972777 0 0 0
3572 4 -6.647665196291902 15.23560307466531 22.939937386817306 0 0 0
1067 3 -6.207642335324923 14.329063541199357 24.825845234985216 0 0 0
1057 3 -4.703327170983892 11.995243814013559 24.884337563780946 0 0 0
1138 2 -2.8867232594512306 11.08221907746202 21.807335831835406 0 0 0
1140 1 -2.674881392418743 12.533668515709856 24.113435382991362 0 0 0
1220 2 0.1556439194140946 11.015092826305915 21.8487819279945 0 0 0
1221 1 0.2820087663381585 12.993660155219176 23.67311428971813 0 0 0
1314 1 1.5065302487132932 15.104843956017088 20.05552138529834 0 0 0
1316 1 1.5116289941629972 15.597941745128006 24.21223743239645 0 0 0
1323 2 0.026314626385252282 15.270670549860556 22.245563552649443 0 0 0
3451 4 -1.094053578941491 13.127138805662161 21.64149079459977 0 0 0
3452 4 -2.1247013762000533 16.049258164904355 21.456449685506083 0 0 0
3517 4 -0.9876528741460762 15.190786548651829 24.557220142357394 0 0 0
3457 4 1.551063506575118 13.414493164614948 21.67653481326231 0 0 0
1399 2 6.333056414186672 11.061012780141526 21.919458209011445 0 0 0
1402 1 6.201043174853219 12.589978091176263 23.880315698287895 0 0 0
1409 1 4.51013584381473 15.206250923331531 20.07814627401226 0 0 0
1413 2 3.095767342667811 15.727736474724749 22.269931168792375 0 0 0
1491 2 6.301943543206196 15.847801526661433 21.769015747728258 0 0 0
3456 4 4.300086314141398 11.095722967675838 20.58365467291096 0 0 0
3460 4 5.423355201657729 13.523259894108357 21.46845754680766 0 0 0
3523 4 3.1887915474743718 11.381032691539206 23.904463318452834 0 0 0
3524 4 2.4394599091129523 13.616671740799696 24.35169146678868 0 0 0
3529 4 5.618048807447435 14.85714216097921 23.846591920275046 0 0 0
1480 1 9.469186572372923 12.419685614765067 23.930526725598604 0 0 0
1485 2 7.887371071528365 13.253732139414415 21.67255104822186 0 0 0
1487 1 7.835339454560014 14.83131197110507 23.64282209275126 0 0 0
1576 1 11.029128726508263 14.668041447392639 23.62900757452499 0 0 0
1581 2 9.44587113251321 15.515334721513177 21.529829310696226 0 0 0
3402 4 9.073375428895336 11.356769245638104 20.256007656396466 0 0 0
3467 4 10.353770112551686 13.379940527141521 21.853212085934743 0 0 0
3534 4 11.709935491192754 12.474988270730409 23.88370578218713 0 0 0
1651 2 15.477501508437765 10.968762523670625 21.791221273331907 0 0 0
1652 1 15.641696575133405 12.648054676753322 23.98583914912799 0 0 0
1669 2 12.447370569990357 15.021988200726089 21.766107535502588 0 0 0
3474 4 13.418050067980865 12.802228058290886 20.686775878229827 0 0 0
3478 4 16.58939468830888 13.10165235125663 21.373644387181322 0 0 0
3539 4 13.188529525347615 15.32480925651736 23.881152880421382 0 0 0
3543 4 15.748298138643879 15.458710415435288 24.105743078341447 0 0 0
1738 2 18.223249132655265 11.178439303854056 21.715226077366623 0 0 0
1741 1 18.608335386503754 12.409734705292463 23.942334983386147 0 0 0
1821 2 21.25993177678817 11.044976671967005 22.094647640287874 0 0 0
1822 1 21.75169673715213 12.64610805389853 20.280782840700603 0 0 0
1823 1 21.65424120888983 12.77644785622322 23.97207731809867 0 0 0
1830 2 20.045072194952127 13.605467487037702 22.12465281862187 0 0 0
1832 1 20.36156912267578 15.495800623941879 24.022517518526584 0 0 0
3483 4 18.596612381000515 15.181049150074235 21.31642062176362 0 0 0
3488 4 20.96188018307225 15.0643877829603 20.241023411049632 0 0 0
3548 4 18.317641791379238 14.5934066892657 24.246927562434337 0 0 0
1903 1 24.864162481770506 12.693267639823967 23.79971027835196 0 0 0
1907 2 23.054709369786096 13.801595888815054 22.10523678614748 0 0 0
1908 1 23.332983185348382 15.34578481347221 20.113466436912763 0 0 0
1909 1 23.277385092337727 15.451714462999448 24.10298400975058 0 0 0
1997 2 26.02669712210279 13.417683371546712 21.578399194301884 0 0 0
1998 1 26.50965032726807 15.543757026365165 20.340480907219522 0 0 0
1999 1 26.3247096244711 15.194564202233146 23.734426161983833 0 0 0
3487 4 23.60276383188676 11.586929216893818 21.789204698502864 0 0 0
3492 4 26.258267314394065 11.13082418602721 20.822666888978578 0 0 0
1910 3 24.760035758627808 14.264653031116742 24.9628091249579 0 0 0
1905 3 26.35569271691367 11.630535208603774 24.972568395482085 0 0 0
3562 4 27.262584388222745 13.068932364541391 23.55490132898531 0 0 0
1061 2 29.27866648400343 13.404510133661018 22.105266074176 0 0 0
3567 4 29.76330631552719 12.402952112542183 24.379840490391565 0 0 0
1070 1 -9.357170372582768 18.012467680846488 20.506675602029457 0 0 0
1071 1 -9.248973959661916 17.795073954593725 24.13067202988178 0 0 0
1078 1 -10.686116533885937 20.58205295283682 24.092212501235096 0 0 0
1164 2 -9.279389437966158 20.66985242256157 21.937882548809267 0 0 0
3502 4 -10.832726170450496 19.736985057840887 20.37871519301534 0 0 0
1155 2 -7.452035731437735 18.515846592254935 21.95122505628718 0 0 0
1158 1 -7.397771288434637 20.204727295304735 23.703919142615135 0 0 0
3453 4 -3.99382418154336 18.77840766565539 20.790899603835655 0 0 0
3513 4 -5.958108732131039 17.733419610434055 23.719159179286677 0 0 0
3519 4 -4.181983328705279 19.68119529086144 23.603421075361496 0 0 0
1074 3 -7.4384026462356125 16.871625168309528 24.84298591855743 0 0 0
1324 1 -0.46825565137043945 17.11411998622576 20.353483028685915 0 0 0
1326 1 -0.22894289616611552 17.532755307877554 23.69718193607997 0 0 0
1330 2 -1.8168301545180352 18.63526242271499 21.892420081320864 0 0 0
1332 1 -1.804404813780284 20.371150383082128 23.73935890664947 0 0 0
1337 2 -3.19806747268162 21.244329066254647 21.853563206198302 0 0 0
1419 2 1.2002713313666433 18.747685847835648 21.82581176743997 0 0 0
1420 1 0.8567430275755274 20.43710153014313 23.815309413007796 0 0 0
1425 2 -0.14064962324513708 21.265610271386453 21.739294212216173 0 0 0
3518 4 -2.578434748794254 17.245018187101625 23.798459040708494 0 0 0
1492 1 5.701557143786804 17.631200778251305 20.136938025983117 0 0 0
1499 1 2.7016628913804404 20.622893404834254 20.97370052935194 0 0 0
1416 1 2.9438805189403308 18.15505477499558 24.084827751271774 0 0 0
1498 2 4.0542829518780525 18.351267844453552 21.840344658140136 0 0 0
3464 4 2.835950574458284 20.046630868864757 23.102695080807926 0 0 0
1503 3 4.684670402915501 20.32807215904002 21.48082233864432 0 0 0
4317 4 5.774870146554951 17.649306026074097 23.199561087933432 0 0 0
1495 2 5.022218666614943 19.920180668206736 23.479838096362315 0 0 0
2585 3 6.122734368790066 16.69758492592375 25.009384403818757 0 0 0
3745 4 6.616555234028809 19.328017755203376 21.78296934429409 0 0 0
4318 4 7.77297410541334 17.293072644265628 19.997773548628015 0 0 0
1680 2 11.250130707294659 19.621500370484306 20.14019896361098 0 0 0
3802 4 9.431633504721779 16.19629051512365 23.859074576388558 0 0 0
1494 1 8.133673779539286 17.556056885003287 22.258553551191255 0 0 0
1681 3 10.053825795259222 18.639128566184507 21.395160230592815 0 0 0
1583 1 10.273016510783773 18.301044107360287 24.066679910789 0 0 0
3475 4 10.94944050975925 16.97041172764873 22.09065549440902 0 0 0
1584 3 11.407216284213805 16.365719399583444 24.384694282175822 0 0 0
1593 2 8.605119901761192 19.668133193390812 20.58100345636173 0 0 0
1587 3 6.850880887644459 19.19526491900957 23.894266858032402 0 0 0
4335 4 8.78905593808509 19.56877415665363 23.104134192806242 0 0 0
1767 3 9.943983823120972 21.13908936211849 20.27551355464344 0 0 0
1676 2 7.829538461579169 17.632140687130164 24.66260452814231 0 0 0
2596 2 12.707849232555509 20.043894375499033 24.273319421089816 0 0 0
4333 4 12.001325318432084 19.425210059063506 22.307795602135172 0 0 0
1670 1 12.619164642324966 17.494022540804067 20.56889338285777 0 0 0
1672 1 12.732988024254391 17.548389952661996 23.37056243284303 0 0 0
1748 2 16.729922920722373 16.272385690465107 22.151582133263176 0 0 0
1749 1 15.798682773964646 17.715147242230557 20.335850883363 0 0 0
1750 1 15.63776751551076 17.879963569699896 23.674285196704382 0 0 0
1756 2 14.267702950916865 19.210454199812947 21.690812023927265 0 0 0
3479 4 14.29924004748742 16.62536248267105 21.741794883109915 0 0 0
3544 4 16.37034760048737 20.742791786770415 21.574572850293247 0 0 0
3873 4 15.088831271414923 20.012068290066843 23.718519790026292 0 0 0
1674 3 14.17989038196468 16.848158107124924 24.87346039860762 0 0 0
4322 4 13.741788491334196 21.2631936325792 20.618060614343534 0 0 0
1845 1 17.249017104232315 20.483247428366276 23.94568249337715 0 0 0
1839 3 19.95832503988268 17.59822036567251 24.425232561361284 0 0 0
1843 2 17.44276734966766 18.725828555166302 22.08270944952619 0 0 0
1914 2 21.77374348829187 16.36432979948721 22.11112150049263 0 0 0
1915 1 21.649361110120676 18.185477625978834 20.338481547463942 0 0 0
1917 1 21.609260107944458 18.4093238507328 23.718552104166022 0 0 0
1926 3 21.191936404840447 20.37464127034423 24.69302792603016 0 0 0
3489 4 19.946207201572207 18.078394487000242 22.022063074930983 0 0 0
3493 4 21.36201760715479 20.30986071646617 22.34628293980864 0 0 0
3555 4 19.35473629171862 19.55568695040785 23.98014264385708 0 0 0
1851 2 18.96870022674345 20.86499597296546 21.93690394977985 0 0 0
2003 2 24.73599767052093 16.241892412314332 22.103914320711596 0 0 0
1076 2 26.327118311080255 18.543636652701345 22.395117847607054 0 0 0
2004 1 24.87824634049884 17.96856165718029 20.11921316792213 0 0 0
2005 1 24.633593806343484 18.084863583950703 24.139693733154296 0 0 0
2010 2 23.408593754512236 18.94033343519939 22.022256845281035 0 0 0
2012 1 23.21211264419607 20.811344140605136 23.789408911735904 0 0 0
1092 1 -14.095428569202635 25.77653508702746 24.080967725249714 0 0 0
1084 1 -12.258325808263793 23.320346072965396 23.83161324662086 0 0 0
1167 2 -10.872644185232666 24.46190387046278 21.824162344666373 0 0 0
1168 1 -10.816146752584483 26.561689650429535 20.306719108928306 0 0 0
1169 1 -11.02960000457152 26.19790420285256 23.843101743567942 0 0 0
3503 4 -12.2748417293697 22.423209205240983 21.573805221031975 0 0 0
3508 4 -8.606924627929084 22.680757788454457 20.681406962673684 0 0 0
3515 4 -9.381755485166149 24.681349260783076 23.812687451114975 0 0 0
1270 2 -9.058905989151976 26.74217185113414 22.16277648798193 0 0 0
1174 2 -12.69625026071771 26.90602392524209 22.01058412960112 0 0 0
1252 2 -6.404634917823566 21.55165580811457 21.75503545358057 0 0 0
1261 2 -7.616351565488156 24.445796014009204 21.964020613000507 0 0 0
1343 2 -4.866372143735521 24.02823679077104 22.257136956683354 0 0 0
1344 1 -4.127287349264611 26.00840158711236 23.68705018109506 0 0 0
3458 4 -5.792932093436383 26.101117346846053 21.107003003999928 0 0 0
3514 4 -8.12842550502037 22.355560012338355 23.36444486361526 0 0 0
3520 4 -6.302129947569576 25.442265562003254 23.72274855999006 0 0 0
1338 1 -3.107587376675932 23.16640442622548 24.06055156829259 0 0 0
1426 1 0.24043767304410402 23.105318357849633 20.128012291349357 0 0 0
1428 1 0.2559490653235841 23.117431106908278 23.578280068128414 0 0 0
1434 2 -1.6638545129270543 23.841004500255032 21.980472968729018 0 0 0
1435 1 -1.3982799421061411 25.8885911421034 23.789945701906348 0 0 0
1513 1 1.2051269101840454 26.231274412892766 24.23302870360243 0 0 0
3461 4 -2.2337323871750705 26.29052151368201 21.76229626761871 0 0 0
1510 2 1.1634038533451747 24.831011445897158 21.861418056065045 0 0 0
3602 4 4.086766837845849 21.97076017242656 22.936265715057047 0 0 0
3465 4 1.8078626076058164 22.588092389605332 21.67090701291148 0 0 0
3532 4 1.9519884054115781 24.267711655834173 24.54024099047774 0 0 0
1509 3 2.233644748692061 22.147797653394026 23.669409348651172 0 0 0
1591 1 3.1379369957258625 23.96570669814884 22.88512835902683 0 0 0
1691 2 4.203701327805815 23.34536675511957 20.75227320680921 0 0 0
1601 3 4.954682608918118 23.938077650917535 22.50014690336421 0 0 0
3673 4 5.255308535602868 25.66596099113929 23.827261396387918 0 0 0
1600 3 3.1182368043396345 25.056966776689976 21.038700735805 0 0 0
3535 4 2.881871093589611 26.331198625349966 22.76449830879649 0 0 0
1685 1 5.03190662038781 25.637820794976584 21.65244022866356 0 0 0
1590 1 5.908317211141469 22.02671119402165 21.927558056574775 0 0 0
3936 4 4.467352709785118 23.51547418389858 24.77880959771487 0 0 0
1596 2 6.584505348448445 22.97787680866843 19.8384457701587 0 0 0
3612 4 6.887261986877913 24.24434167598562 21.80546637561722 0 0 0
2740 1 6.153093404015536 21.573530756246786 24.792417143152363 0 0 0
1688 3 6.905864310597192 26.430650574087334 24.808663252073558 0 0 0
1500 1 7.199652574501998 24.470989892138565 24.25171832823648 0 0 0
4326 4 8.277561613276898 22.072987735604265 21.685134862394957 0 0 0
2677 2 8.827392522430342 26.41016469289993 24.466713139120543 0 0 0
4339 4 8.698906307524222 26.178581927303142 21.85263170616033 0 0 0
1687 1 6.818784453583865 26.919919227055182 22.76934553678811 0 0 0
1852 1 16.255269972352565 24.304480457499913 19.83586568316626 0 0 0
3746 4 14.681776966668213 26.06450137541309 20.333184753351905 0 0 0
825 3 15.562586560938172 22.41130646499 20.57401489985545 0 0 0
1679 1 14.619796922467485 21.83170276000859 22.58839753928285 0 0 0
1762 2 13.798611490494157 23.448925350621785 20.509365768737684 0 0 0
1693 1 13.95908392256134 25.316398913294133 22.347112479581163 0 0 0
1761 3 16.576851062741568 22.3710737674294 23.672085972615875 0 0 0
1855 1 15.407179492227844 23.660236566683185 24.584682779538966 0 0 0
4323 4 15.563488156131381 23.8198097324255 21.950206932997965 0 0 0
1859 3 16.27233970709667 25.792184934244816 21.738695726216942 0 0 0
3618 4 15.76751412212777 25.826938975709858 23.71330204193228 0 0 0
1847 1 17.464492860635893 22.93325966980452 21.916665494761226 0 0 0
3617 4 18.075698743259696 24.52650456377743 23.396683933923264 0 0 0
3557 4 18.14012979149046 26.649666115555664 24.450847368334664 0 0 0
1097 2 21.806747582117104 26.675739859238426 22.06437965278012 0 0 0
2025 2 20.010216364056372 23.638320496105507 22.231073067935355 0 0 0
2026 1 20.3144031336925 25.348118253171258 20.447655196118063 0 0 0
2028 1 20.126076075494016 25.602387378963673 23.93707573105253 0 0 0
3494 4 18.19196385376039 24.98278785555442 21.089355104729542 0 0 0
3556 4 18.806081040367832 22.17897580987352 23.685200001329108 0 0 0
3563 4 21.44636062068058 22.473289325279005 24.267574034307593 0 0 0
1774 3 17.25905795407268 26.775534277849683 22.463717759371555 0 0 0
2033 2 19.185736862907202 26.91433887295819 21.929689851787618 0 0 0
2031 3 21.664841382752154 24.423560122166396 24.993418816311483 0 0 0
1090 2 23.185964192893746 24.169723204201844 22.00390743015282 0 0 0
1098 1 -15.423035112250705 28.97111635372524 20.074059012560923 0 0 0
1184 1 -13.815761481764218 31.585498145811407 20.153536737786176 0 0 0
1100 1 -15.449417891800373 28.092452308286298 24.21254791501915 0 0 0
1183 2 -13.8881861690537 29.736861915745727 22.05178634010666 0 0 0
1185 1 -13.902444480477637 31.654815049632518 23.60857343582915 0 0 0
3504 4 -15.663045313357845 31.14339804533907 21.46849040725085 0 0 0
3573 4 -15.5986852330824 30.270762907276097 24.10245483772907 0 0 0
1104 2 -16.717361890849567 29.14537498529049 22.21784543013979 0 0 0
1176 1 -12.495812124959283 28.71858714699482 23.996599736432742 0 0 0
1271 1 -8.836171819696116 28.597099088748706 20.273821379538216 0 0 0
1273 1 -9.344584452205197 28.953517103269608 23.744346807319147 0 0 0
1279 2 -10.92483510530642 29.133955246363094 21.752355332589286 0 0 0
1280 1 -10.89205085054299 31.455655496245054 23.621075407540225 0 0 0
3454 4 -11.398151149735227 31.319650008820542 20.68049160420078 0 0 0
3527 4 -8.736809941596823 32.02369435824883 23.836659659777496 0 -1 0
1178 3 -10.645407658640845 27.986188427969005 24.94967116578694 0 0 0
3531 4 -4.107545170839902 32.18010711334907 23.925006162031586 0 -1 0
1438 2 -3.9549900510171874 27.83378705963278 21.570971328082457 0 0 0
3521 4 -8.132284674941939 27.114897583659427 24.458955643211937 0 0 0
3525 4 -5.235725763002536 28.1060811541153 23.603235779786182 0 0 0
3530 4 -3.5331799687229193 30.068885540229793 22.69411684931694 0 0 0
1453 2 -3.0355143912791274 32.277838517388474 21.79318314127082 0 0 0
1439 1 -2.8126566571420426 28.30751300290665 23.931424141036118 0 0 0
1448 3 -3.018548081906948 30.243304071923806 24.806938133461685 0 0 0
1520 2 0.3537635491643094 27.18452240328559 21.828927324007367 0 0 0
1522 1 -0.02434075712386985 28.682320666636404 23.802891571160757 0 0 0
1527 2 -1.6067600597681224 29.106095961621747 21.70440376723537 0 0 0
1530 1 -1.5299754582441842 31.151438726800336 23.42468801454433 0 0 0
1533 3 -0.09686531928601383 30.67646762734594 24.905060044026982 0 0 0
3471 4 0.16077032141793524 30.675129695835395 21.47308769019281 0 0 0
3537 4 1.578058152512238 30.223501609074503 23.632808316816707 0 0 0
3470 4 3.5014598375424395 27.17485004428454 20.677457956735747 0 0 0
1605 1 4.043343194578471 27.370720059003016 24.41663340563221 0 0 0
3476 4 3.8852089695835907 29.968125805848572 20.831547815093778 0 0 0
1597 1 2.4907041695461487 28.48830291697374 22.187990629201423 0 0 0
1524 3 2.077392791605959 28.157541161315674 24.462508242458185 0 0 0
1623 2 2.7626192733010626 31.773778511519108 21.873098254524606 0 0 0
1705 1 4.24740413463832 31.62098276578911 23.84766204481589 0 0 0
3541 4 3.797396953424162 29.517705117896465 23.709218595791647 0 0 0
1694 3 4.78078672071932 27.346323699102218 22.637642019749947 0 0 0
1598 1 5.198322397756549 28.819410825370387 21.92008540594105 0 0 0
1709 3 5.728781276933521 30.51288855137182 24.831511334574692 0 0 0
4319 4 6.080085337499259 28.66920793399709 24.08693711345606 0 0 0
3417 4 6.383252167693714 27.534280620541576 20.455686056314917 0 0 0
3613 4 6.65675541096666 30.514960552351678 21.111753530219524 0 0 0
4007 4 10.732733813915143 29.230237823412722 20.380531594770222 0 0 0
3552 4 8.607869006226874 28.659377567752898 23.209873821708335 0 0 0
1785 2 9.22494771826793 30.991770350470038 21.35642320094678 0 0 0
1695 3 6.885229245694543 28.77567869969343 22.09803865821347 0 0 0
1771 1 8.324777234170458 28.62493640024011 20.968119426504604 0 0 0
1786 1 7.169631948644707 30.812801634451787 23.163248112903794 0 0 0
1873 1 11.679797580481154 31.461029165696914 21.482711930632828 0 0 0
1773 3 9.015462945650743 30.674277191105983 23.352323796831932 0 0 0
1865 1 10.503706404165392 29.568544771960358 22.75566630971086 0 0 0
3816 4 10.285107418977223 30.62080633494719 24.951320607970644 0 0 0
1686 1 12.382809075453816 27.19560742779103 20.146129640690425 0 0 0
1772 1 14.854082979855072 27.7190428624109 22.202550755091934 0 0 0
1877 3 12.283541638048419 30.34437056237031 23.134368954432503 0 0 0
1951 1 13.971743320474769 31.865533087702637 20.374700059590804 0 0 0
1870 2 12.97017314943604 29.493459584847173 21.368783295728072 0 0 0
3551 4 15.305323847369614 30.181890778724735 22.239744189222023 0 0 0
1942 1 15.950010361703246 29.07625497308511 24.37868318351832 0 0 0
1952 1 13.849486605165836 31.439136080941854 23.329126374364336 0 0 0
1954 3 15.260137892242643 30.879238271948793 24.4032474739426 0 0 0
2043 1 16.82756042618518 31.457058450107652 23.46726710883943 0 0 0
3623 4 13.544111634451927 28.79060912911803 23.84136715137668 0 0 0
3434 4 17.043070964047722 27.03109256592291 20.185163452335985 0 0 0
2041 2 17.101251257861062 28.834146412947803 21.92393255354199 0 0 0
2034 1 18.85091953602742 28.656036423005474 20.228060848281597 0 0 0
2035 1 18.702745146345457 28.599549757160595 23.765209755111194 0 0 0
3498 4 18.2285389669492 30.910777881844886 20.68827688411214 0 0 0
3568 4 19.053597352805383 30.72557934959098 23.044607454767288 0 0 0
2044 3 17.889153207902396 30.228673511120988 24.721655631430323 0 0 0
2038 3 20.020837101310455 27.487677441458146 24.915621809233926 0 0 0
1031 3 1.2542217927094619 1.1514972385042814 25.290505772524753 0 0 0
1036 1 -0.2695288966422469 3.364187141824827 28.65795919094741 0 0 0
1038 3 -1.7766787011934435 4.462129691699595 27.391218498572428 0 0 0
1039 3 -0.22566987410049077 3.3716187165305875 25.500923084534705 0 0 0
1112 1 1.681652589644007 2.872604828809055 26.300087443670563 0 0 0
1121 3 1.58774771840993 4.473464249912375 27.643180634527212 0 0 0
3642 4 -0.1379661518106875 1.6862379909447882 26.81602922619515 0 0 0
1120 1 -0.08205532337599175 5.357857651323777 26.429832854229936 0 0 0
3706 4 1.7126768813119473 0.43234963101930257 28.42140137334526 0 0 0
1111 1 4.607129082617568 0.9533677267130752 28.64362726239915 0 0 0
1113 3 3.1175530163715126 1.8773825420372374 27.448792172592746 0 0 0
1114 3 4.694525627056778 0.801766294951838 25.06914943880576 0 0 0
1119 1 3.8175955339822023 3.9407065029648685 28.452567732216245 0 0 0
1197 1 4.52675180473276 2.616314828636096 26.038361074080356 0 0 0
1198 3 6.287914366931556 1.790028394070522 27.175981266379225 0 0 0
1282 1 6.226131707185947 0.10315055931841585 26.21364217284929 0 0 0
3579 4 6.760346167508091 3.3350630276303614 25.622797768904007 0 0 0
3707 4 1.969990822221578 2.902465474161178 29.033001985361892 0 0 0
1199 3 8.094503591126431 0.7283409218290634 25.149590466847776 0 0 0
1196 1 7.68906642026835 0.946906497639695 28.686565539250594 0 0 0
1289 1 10.796678693330994 0.8626886864480777 28.405098684751792 0 0 0
1294 1 9.37553922208598 3.4812095232041878 28.72438926850269 0 0 0
1295 3 9.198723444603175 3.658903878559155 25.185376625726747 0 0 0
1365 1 10.862726259275293 2.8884372930556714 26.229614056545003 0 0 0
1372 3 10.739835986315766 4.70580344757605 27.537257749521558 0 0 0
3585 4 8.53314548744429 2.191869138681226 26.80367705448767 0 0 0
3592 4 10.274314254542066 0.6830904661592182 26.027219319814535 0 0 0
1464 3 15.973973969774953 3.691871541461883 25.105321760344623 0 0 0
1366 3 12.098194344659523 1.3456812105439562 26.9371223640443 0 0 0
1373 3 12.427394520303883 3.8262820025991364 25.391768171447907 0 0 0
3598 4 13.607102339551217 1.8849032997737085 25.474020617788383 0 0 0
3599 4 14.300815709456113 4.157490879879029 26.35412797493376 0 0 0
3604 4 16.49077677403963 1.5447033098777836 26.447315340252715 0 0 0
3657 4 12.287073546171529 3.3231927059527 27.899077082197614 0 0 0
3662 4 16.78551382769849 2.9810867840035016 28.582118417204377 0 0 0
1457 1 17.310489494430957 0.8166549078840731 28.679807533561288 0 0 0
1537 1 17.45116166865441 3.518052058254718 26.399121525299925 0 0 0
1538 3 18.39652013536763 2.1089540324934224 27.270067386722722 0 0 0
1539 3 20.234552595996345 0.9886351614302692 25.28885107785331 0 0 0
1546 1 18.964254426046338 3.725379581072889 28.588413084148485 0 0 0
1548 3 17.027684331270223 4.8320656128674235 27.78928343277154 0 0 0
1549 3 18.96202795756672 4.237559075330565 25.281513576487555 0 0 0
1626 1 20.130360499736 2.7477732652985627 26.110840292345102 0 0 0
1707 1 21.73799495873877 0.21994748346086548 26.45460981465839 0 0 0
3675 4 19.958904496231497 0.8614915017986697 27.632433555129083 0 0 0
3676 4 21.3833457420776 3.2128202818257527 27.88284750853282 0 0 0
1618 1 18.408480274124834 0.2985643993410337 26.01074864243983 0 1 0
3614 4 20.907282277201716 5.195378600109744 25.744741394341837 0 0 0
1627 3 23.295726221651158 1.0622449608564146 25.27378664111381 0 0 0
1713 1 23.350837009904993 2.915327630133595 26.254052305174312 0 0 0
3620 4 25.475509075254003 1.761682042613116 26.046505589110076 0 0 0
3621 4 26.61789946470735 3.9829016326284967 26.24018026965568 0 0 0
3679 4 23.65482284016384 0.8690218799879802 27.583039513487492 0 0 0
3680 4 25.195597930577907 3.4563575427143793 28.555842050364006 0 0 0
3681 4 23.128569244864103 5.2954775795241575 27.22241742359762 0 0 0
3685 4 26.843859652384698 1.1636840218314124 28.34531196881396 0 0 0
1793 1 29.258964717060945 1.0498311664573616 28.25804766776998 0 0 0
1794 3 27.8250614249877 2.2496466917178393 26.823958490311966 0 0 0
1799 1 27.523678085975206 3.252348370542656 28.58537277277278 0 0 0
1882 3 31.131858860293487 1.5175207310651762 27.54904003928575 0 0 0
1888 1 30.859135089367996 3.4982507433831986 28.26503692383112 0 0 0
1890 3 29.98755717445615 4.400284714830218 26.639867769805527 0 0 0
3627 4 29.816273954185935 2.4339428022638687 26.16401678960669 0 0 0
3689 4 28.81926587126413 4.958780235903727 28.271782529144026 0 0 0
1953 1 30.742073413047315 0.2669087206443814 25.981295174247755 0 1 0
1876 3 29.060617149999057 0.7004159792191373 25.19538773703397 0 1 0
1875 1 27.380062792372602 0.3869716139296573 26.317465229805947 0 1 0
3695 4 32.268881465953356 0.6438860728571254 29.11727163064829 0 0 0
1030 1 35.26498770937517 2.882693355128221 26.21295662460814 0 0 0
1966 1 33.942749592696075 3.600765389988504 28.60062613809456 0 0 0
1968 3 32.62116535597421 4.967770120219271 27.686107108828253 0 0 0
3628 4 32.55707737072739 3.649747997357488 26.109374178174832 0 0 0
3634 4 33.01670270922601 1.0828664074161793 26.669354066292243 0 0 0
3703 4 35.13456794497576 1.6582976467453405 28.38657149820385 0 0 0
1048 3 -4.728418987703796 10.005837882173223 27.38241819270518 0 0 0
1037 1 -3.1310998532235232 5.436702884252757 26.014618323141825 0 0 0
1129 3 0.2624635015128973 7.306940976776343 27.60660117075009 0 0 0
1130 3 1.328351434834683 6.433549500599431 25.39927898588906 0 0 0
3575 4 0.7036149474124249 9.687464931529012 25.72767782835934 0 0 0
3643 4 -1.228246423643884 7.249378348729345 26.099310569434536 0 0 0
3647 4 -0.10038683503415857 10.398461743851545 28.045962098152444 0 0 0
3708 4 -1.5567705186800094 7.340187073494724 28.818007417857416 0 0 0
3709 4 -2.768811795336853 10.413845132106292 28.369895051896563 0 0 0
1128 1 1.571009959064126 6.256205882331797 29.031967611740285 0 0 0
1202 1 2.9216548999774283 5.425402253235591 26.199813453616933 0 0 0
1215 3 3.131045321118143 9.35295346151535 25.166019729262757 0 0 0
1207 1 1.9189938511549567 8.048113000572757 26.47371218779221 0 0 0
1208 3 3.3672329509946755 7.173764183628642 27.562179921246504 0 0 0
1213 1 3.1929047916029356 9.147883114598589 28.793267946826063 0 0 0
1214 3 1.8802961691059537 9.969170210931699 27.503159754715966 0 0 0
1301 1 4.723592609008564 8.516976800683178 26.46896407012629 0 0 0
1305 1 6.196903813945666 9.390549658450777 29.122501588876055 0 0 0
1307 3 4.665117147202676 10.063327710664112 27.65266279941052 0 0 0
3580 4 4.900770089795888 6.37785653122426 25.982245616502738 0 0 0
3648 4 4.982338068582264 5.997073048137543 28.451437170035007 0 0 0
1382 3 10.89184262919372 6.4839784913297365 25.154749663712643 0 0 0
1371 1 9.39638668701796 5.61773599944823 26.41526471928823 0 0 0
1380 1 10.501299122821962 6.587988238352737 28.9631000081881 0 0 0
1381 3 9.850014031905767 7.681726812832156 27.545765021694265 0 0 0
1391 1 9.429047239315548 9.195422939962816 29.154861896848857 0 0 0
1393 3 7.786776356259451 9.830479066088841 27.808934830187823 0 0 0
3586 4 8.453581867510136 7.775467244254313 25.95372484559205 0 0 0
3600 4 10.93008067087315 8.967885768485061 26.188433851572775 0 0 0
3651 4 7.888509370211468 7.721510091804082 28.534089916037345 0 0 0
3665 4 11.245264325919024 10.377884318461787 28.519763123793936 0 0 0
1474 1 9.230159843602278 10.619008411856772 26.415724529408052 0 0 0
1463 1 12.455648688942025 5.533693322769112 26.472361332893335 0 0 0
1467 3 14.073215968218422 6.260380139129327 25.17065521628396 0 0 0
1547 1 15.841277168718925 5.708952476006653 26.201791683166135 0 0 0
1557 3 16.117802309480922 7.394517135982685 27.479817805277882 0 0 0
1565 1 15.802638302577527 8.853446189688109 28.872480555299845 0 0 0
1647 3 16.746141583444405 10.090865940264916 27.44152650184956 0 0 0
3605 4 14.393907352537079 8.503305229961562 26.42743201583494 0 0 0
3663 4 15.062012901612402 5.70499874087065 28.395700084710285 0 0 0
3664 4 12.601132378516965 7.764015206215061 28.63798627617983 0 0 0
1646 1 15.46778587476939 10.719405883894543 26.144121809666963 0 0 0
3609 4 16.936928369142912 8.578600119221482 25.856940914472332 0 0 0
1556 1 17.180199723456248 6.2871153944282305 29.09727269322029 0 0 0
1735 1 21.493546292579772 9.443757637094418 29.047463438371068 0 0 0
1736 1 18.54159642498548 10.583012595856754 26.365846681322815 0 0 0
3608 4 18.16469924870003 5.864521336746319 26.372863450637517 0 0 0
3615 4 20.565612867758563 9.394205245876254 26.927522623012344 0 0 0
3677 4 20.4160596152277 5.54468672358467 28.62210084290603 0 0 0
3678 4 18.495704214434543 9.460424185511897 28.602231937471117 0 0 0
1731 3 22.975562049097796 6.039608920492611 25.14185169994471 0 0 0
1809 3 26.729161195508556 6.182472317134259 25.106014188879726 0 0 0
1730 1 23.228769906525493 6.26597188988374 29.388276812953876 0 0 0
1800 1 24.899293943442004 5.504842858873999 25.93100194712582 0 0 0
1807 1 23.304243456347557 8.084747165120067 26.081684043535518 0 0 0
1808 3 24.502450442038977 7.089418153079937 27.423561373210248 0 0 0
1813 1 24.408047092233218 8.683440681036544 28.86235466935453 0 0 0
1815 3 23.16156950067196 9.825526335745625 27.561478571586697 0 0 0
1816 3 24.930986675055223 8.791147804042913 25.140751187879708 0 0 0
1895 1 26.447534136082446 7.861552289083093 26.366852012097972 0 0 0
1899 1 24.767824487853154 10.591242365323001 26.15617448189036 0 0 0
3682 4 22.400405705158587 7.750415631559325 28.042997616910853 0 0 0
3686 4 26.27001557988406 5.9453491393323645 27.850076239447773 0 0 0
3690 4 26.603846477897314 8.443890736361322 28.472684846681666 0 0 0
3691 4 25.194059668923707 10.703766398624882 28.341313196368333 0 0 0
1985 3 31.168684807442006 9.155508607315769 25.281915235123563 0 0 0
1900 3 28.101212420601414 8.858894469585508 25.115390326840853 0 0 0
1889 1 28.287228128100722 5.514424418799238 26.220985492794753 0 0 0
1894 1 30.272705919383863 6.470426389612821 28.771024925936445 0 0 0
1896 3 28.196726683883078 7.0656876515553595 27.693749038564448 0 0 0
1967 1 31.300445285230687 5.643767918175216 26.18933856718207 0 0 0
1974 1 29.62169006480717 8.090651181504583 26.311099605590123 0 0 0
1975 3 31.23295073576216 7.303472578150987 27.494590627851217 0 0 0
1983 1 31.1310800399177 9.144208619867076 28.665885999897483 0 0 0
1984 3 29.790796961027148 9.821401130116449 27.390658143597292 0 0 0
3696 4 28.351215323988104 10.506902657494264 28.71364523347424 0 0 0
3759 4 28.724698302346336 7.633582030180683 29.803507005516664 0 0 0
3629 4 28.598004165122795 10.743641439919706 25.910903028922704 0 0 0
1973 1 33.124566732238215 6.74530105749278 28.575135851892135 0 0 0
3635 4 32.62823867826354 7.518715273187746 25.97239845363145 0 0 0
1047 1 -6.195488105413059 11.013671842956189 26.184542966236762 0 0 0
1055 1 -4.604500372962631 11.664735551539684 28.62735464931582 0 0 0
1056 3 -6.09073017154718 12.57763843593055 27.6630480031845 0 0 0
1065 1 -6.190003386389336 14.565490293768082 28.767624375582884 0 0 0
1066 3 -7.777536316725389 15.593350462317531 27.726548380415295 0 0 0
1141 1 -4.623253709810896 13.503987196472659 26.247048891382867 0 0 0
1147 3 -4.617778004327375 15.285194324647781 27.39535900901874 0 0 0
3636 4 -7.117023196161878 14.001233266915989 26.593008423370513 1 0 0
1146 1 -6.101863674387155 16.13030961195312 26.178930009414188 0 0 0
3644 4 -3.3763495667803696 10.793681491946169 25.945514027810027 0 0 0
1225 3 1.4198402973045345 11.707476949134696 25.059547060517687 0 0 0
1142 3 -2.982504795524866 12.488634681075341 27.444817078429935 0 0 0
1145 1 -3.1877914863398793 14.284002378726376 28.54436281364002 0 0 0
1148 3 -2.7811994707271994 14.247220824281296 25.285026611286362 0 0 0
1223 1 -1.362152603666103 13.682518469429935 26.508002604054475 0 0 0
1224 3 -0.11723186886360448 12.501714747204497 27.669706117626163 0 0 0
1231 1 -0.09005063181233375 14.249428875543266 28.91004168468674 0 0 0
1233 3 -1.5258845500059763 15.400691730852767 27.669375647957658 0 0 0
1234 3 0.5525915251777178 14.08133395205858 25.47360982415733 0 0 0
1319 3 1.4174297454319351 15.055286760807968 27.847688228283687 0 0 0
3576 4 -0.6378774297948091 11.920560733578167 25.530474119306646 0 0 0
1318 1 0.1652871823219364 15.983860799854076 26.458886770253955 0 0 0
3715 4 -2.6661509570395125 12.524721774092512 29.736821348840905 0 0 0
1222 1 1.7015746926926303 11.799873767394132 28.69099867614903 0 0 0
1306 1 3.092142667054791 10.95696806532293 26.235995971120317 0 0 0
1309 3 4.7537401857361745 11.755916933909052 25.233422380364146 0 0 0
1317 1 3.093147786899202 14.256114672755016 28.94874865099964 0 0 0
1392 1 6.252975526352099 11.079578032547827 26.629808244019742 0 0 0
3587 4 1.834088598360462 13.090595208484993 26.844744711732687 0 0 0
3593 4 5.8248392580864765 13.349924351798567 26.125860340971542 0 0 0
3652 4 4.0842118756263 12.084785708746905 27.968720645669592 0 0 0
3658 4 6.714332085068543 15.126942973286257 28.648278053807203 0 0 0
1404 3 7.762921559888775 11.68186356216725 25.144682948971187 0 0 0
1403 1 8.167695346849408 11.630585999581402 28.973247464590912 0 0 0
1481 1 8.059597455846664 13.437725548582657 26.1787611879479 0 0 0
1482 3 9.204792888812223 12.534304459592612 27.35800155114891 0 0 0
1483 3 10.933261564369257 11.354589731611565 25.527865881657405 0 0 0
1488 1 8.920071901692767 14.362411622236284 28.609217022186527 0 0 0
1489 3 9.54320207536772 14.277922502646884 25.029525128516738 0 0 0
1572 1 10.936824617057551 13.186803332721494 26.38709752701248 0 0 0
1578 3 10.85012770639576 14.839026510098963 27.44240864661794 0 0 0
3666 4 10.58729275152243 12.859506732097238 28.812998774837112 0 0 0
3601 4 7.776616229077611 15.650606749465465 26.07036003060567 0 0 0
1594 1 9.938492003319604 16.139766858753372 26.01558108985965 0 0 0
1577 1 12.158219675359566 14.4847610911789 29.030262235479192 0 0 0
1579 3 12.559982459347946 13.78848739232219 25.283925107597 0 0 0
1653 1 16.857358851886467 11.825516471734144 28.518654307946036 0 0 0
1654 3 15.123161274456034 12.522500249070264 27.181645935539663 0 0 0
1662 1 15.43865984460675 14.23744234476096 28.348682600320828 0 0 0
1663 1 12.566560878054103 15.61631828908819 26.002241364043712 0 0 0
1664 3 13.846995814430038 15.224432949669986 27.573299382887555 0 0 0
3606 4 13.168419500387522 11.251179601647546 25.576044027306025 0 0 0
3610 4 14.590712177105278 14.11732844444284 25.878142139682765 0 0 0
3670 4 14.746449821081637 10.772282947692235 28.316447090522445 0 0 0
3671 4 12.98115551881909 13.188912874881497 27.423544674320304 0 0 0
1745 1 15.517662390053607 16.126498892539885 26.283519678418756 0 0 0
1655 3 17.089590569917675 11.486052396152786 25.086582652492936 0 0 0
1742 1 20.06067672705242 11.543447180690828 28.737247061935243 0 0 0
1743 3 18.677013165183787 12.122671030866151 27.44928199036982 0 0 0
1744 3 20.114675605423052 11.746601740598223 25.33267126728451 0 0 0
1814 1 21.843730232213325 11.116298750228758 26.43727706706578 0 0 0
1825 1 19.907800924153932 13.450683689817494 26.326331811690423 0 0 0
1826 3 21.611904943429114 12.796241663950411 27.652798230944455 0 0 0
1833 3 21.654573793257065 14.539614227056619 25.419964486831155 0 0 0
3616 4 17.091590709494064 13.108043914119978 26.441629411374493 0 0 0
3683 4 18.64848181796598 13.43885424378392 29.073137484329052 0 0 0
3684 4 17.089998181881583 15.957950568176708 27.80952351728881 0 0 0
3687 4 21.131666732885108 14.906445115735995 27.492510678813602 0 0 0
3748 4 21.45543447661025 13.101968454109134 29.780742690799308 0 0 0
1824 1 23.219292962480665 11.781220152627348 28.81399939541025 0 0 0
1827 3 23.323950467568523 11.80209050999873 25.08636482434362 0 0 0
1904 1 23.25671370428436 13.50031675509357 26.34896801270628 0 0 0
3630 4 26.59605300963178 13.752540726772287 25.82995418871532 0 0 0
3692 4 23.3866850315238 14.262271472813213 28.554470848781946 0 0 0
1992 1 30.044740568017154 12.04810573951662 29.472868360579454 0 0 0
3697 4 28.83004000240309 13.964114619453042 28.930196148793613 0 0 0
3698 4 27.495028446335162 16.144636691529726 28.793733696042572 0 0 0
1073 3 -9.37031916961399 17.898105494701646 27.625865688311983 0 0 0
1079 1 -9.49103708668332 19.534971957937056 28.73536698403028 0 0 0
1081 3 -10.872134969034132 20.691033192583323 27.588726007533253 0 0 0
1082 3 -8.904684229576084 19.800819514784827 25.00326266876982 0 0 0
3637 4 -8.946422127354131 16.436151549911838 26.162363949349597 1 0 0
3638 4 -10.519197795840139 19.061528584177598 26.2103806419803 1 0 0
1161 3 -5.962042953315926 19.4337266135739 25.03231346286905 0 0 0
1072 1 -7.771189701171059 17.176302783227182 28.814333366089663 0 0 0
1151 1 -4.6211005759325365 17.02938521891976 28.5484807613636 0 0 0
1152 1 -7.7103560912610885 18.681356189414448 26.31481959322491 0 0 0
1153 3 -6.275630922449609 17.86051416688815 27.63970694973174 0 0 0
1154 3 -4.377876303303507 17.27244308375915 25.083183848396366 0 0 0
1159 1 -6.346738519987835 19.748811960353798 28.7321104718811 0 0 0
1160 3 -7.992989149698249 20.427275268911032 27.70062659987073 0 0 0
1247 1 -3.5915005421013735 19.582626156978662 29.416015274383838 0 0 0
3577 4 -7.20852060991101 20.973988903386388 25.84622279067075 0 0 0
1232 1 -2.95171961881859 16.231172773201518 26.263617532717852 0 0 0
1240 1 -1.9537048405527768 16.763651498497907 29.293883772111663 0 0 0
1241 3 -3.005057038369297 17.828204410107244 27.916832413675614 0 0 0
1242 3 -1.2255249224318518 17.184463885289738 25.473459805614866 0 0 0
1327 1 1.307119883500805 16.806312255755337 29.05652261141062 0 0 0
1328 3 1.6152562924754754 17.1552637220635 25.442071273631626 0 0 0
3581 4 -2.8307754966278678 18.564596651904157 25.9246858999025 0 0 0
3588 4 0.36022978421420504 18.85250988419607 25.47676000008215 0 0 0
3649 4 -0.8561389867377951 17.634266572613416 27.548985509071144 0 0 0
3650 4 -2.1140113931030378 21.34228081390679 28.620713516955966 0 0 0
3655 4 0.561448403822336 20.454773420424907 28.82911252155428 0 0 0
1501 1 3.534374358365765 21.14658234882019 24.95851586318173 0 0 0
3594 4 4.067590095490232 16.502670253460472 25.023356130115374 0 0 0
1421 3 2.2053628339557854 19.925839994243866 25.269099022235764 0 0 0
3595 4 3.2033793529015284 18.44442752698267 26.290315842724894 0 0 0
3653 4 3.118335466125565 16.23847076224937 27.624451748737158 0 0 0
3654 4 2.5462862197434823 18.658160396425245 29.12694830540118 0 0 0
1505 1 4.401515026202254 17.443565772815308 28.915449095606817 0 0 0
1595 3 4.141859081459172 19.960573192070644 29.57557342747524 0 0 0
1504 2 5.643970873437487 18.68196797211303 25.482545746194354 0 0 0
1585 2 5.90377232438669 16.844794996088687 27.044990744808004 0 0 0
4321 4 4.92887486645019 19.693208899890863 27.655452108673444 0 0 0
3667 4 2.547210632999871 21.03226589410137 27.29779772345907 0 0 0
1678 3 10.919375338939316 16.2859124920828 29.757467725669514 0 0 0
3813 4 9.560395283291777 16.424442268581657 28.322778777242057 0 0 0
2524 1 7.703236625160741 17.138965943407197 28.71551823970436 0 0 0
2595 3 6.618866868599241 19.426581942041533 28.715438775176892 0 0 0
4329 4 7.6307081494976945 18.29792037107051 26.78066997229555 0 0 0
2598 2 8.623132308928723 19.25963105644727 28.921291626780388 0 0 0
2579 1 6.878586185150388 20.854189461916732 27.27037564484676 0 0 0
2746 2 7.000706975399915 21.042212113829287 29.751911770834745 0 0 0
3611 4 11.694703586875677 17.809255852757705 25.68449075751017 0 0 0
3672 4 11.957551469062723 16.45987238931973 28.0564247942821 0 0 0
1752 1 14.233525932436821 18.7226843898112 25.587999704793212 0 0 0
1673 1 14.143537961727553 16.715221439071996 28.87477272323619 0 0 0
1751 1 16.829568380160076 17.65879407846166 29.16165270199476 0 0 0
1753 3 15.566232577393492 17.92206522578418 27.429457495042783 0 0 0
1759 1 15.145271273464235 19.638527617250514 28.27438775853991 0 0 0
3751 4 16.05177121614362 19.842989084890252 25.886084417037445 0 0 0
4149 4 13.81850322840707 17.12255569218058 26.8650824167129 0 0 0
3750 4 16.88797029422051 19.88746280067164 29.96374818090353 0 0 0
1848 3 17.044761299587016 19.422829425435793 27.896560880100495 0 0 0
1837 1 17.34489802842974 18.144124563312378 26.356084139823054 0 0 0
1836 1 19.65844215397035 17.007991952481657 29.679918821231247 0 0 0
1838 3 18.669686068292645 17.697761766616352 27.832118402234933 0 0 0
1846 1 18.830969841552545 19.57075578176769 28.891329973309738 0 0 0
1849 3 18.24538951904846 19.916981585566994 25.71287025583309 0 0 0
1918 1 20.033427251238983 18.982691329420053 26.219837649747888 0 0 0
1924 1 21.944129240941276 19.762211583911707 28.70888970189003 0 0 0
1925 3 20.40970490143894 20.600373952077796 27.714162636438978 0 0 0
3622 4 19.269316815111594 16.514687842951695 26.127264415499923 0 0 0
3624 4 21.794674622391 16.79511837465953 25.362682862310457 0 0 0
1777 1 17.621537160149273 21.17907271837921 27.050787886896835 0 0 0
3625 4 19.610959508626937 21.48816330302965 26.006928811017602 0 0 0
2013 1 24.899662479906645 20.006684475088992 28.735728223067063 0 0 0
2015 3 23.349858541848292 21.073811738755367 27.676078191814824 0 0 0
3631 4 25.133266489094783 16.264463676652138 25.51500432200963 0 0 0
3632 4 23.044928404893255 19.825781858965303 25.82746807254513 0 0 0
3699 4 25.723651350523944 17.921053888272372 28.485979858517126 0 0 0
3704 4 -13.827856314963956 25.1812087751121 28.131155564901206 0 0 0
1087 3 -10.685573933430184 22.65573811350386 25.182784377548522 0 0 0
1080 1 -12.291472020894265 21.748253702450008 26.421826749308728 0 0 0
1086 3 -12.447678411105628 23.53063323599218 27.57818199443264 0 0 0
1093 3 -12.44565103788228 24.934725897821224 25.05334327344697 0 0 0
1166 1 -10.995375525702828 24.431479867874614 26.394342262399448 0 0 0
1170 1 -9.078441130246723 25.283865069491537 28.57800286352878 0 0 0
1171 3 -10.42075843861933 26.156746289346376 27.479557756866328 0 0 0
3578 4 -8.732960301718142 24.808894741634894 26.38866512634553 0 0 0
3645 4 -11.898481415695777 26.70316202767046 26.073277476920275 0 0 0
3710 4 -10.364971985976105 22.817372094587927 27.9066232512763 0 0 0
3711 4 -11.392671140128844 25.01162913972977 28.851047010147866 0 0 0
3582 4 -4.257444940687934 22.211805298454813 26.315212875120743 0 0 0
1255 1 -4.437871196610413 22.527626062709686 28.724772721858095 0 0 0
1256 3 -5.950022207813615 23.39596132239461 27.541587567227296 0 0 0
1264 1 -6.238668259163088 25.100951585377626 28.71120000666226 0 0 0
1266 3 -7.6024459611803055 26.294845192347886 27.4712355268166 0 0 0
1339 1 -4.617014352687793 24.572183057108784 26.377460430081264 0 0 0
1347 3 -4.728021276524048 26.264614739686703 27.70690511084667 0 0 0
3583 4 -6.3730436559590515 23.475842383249052 25.407082904755633 0 0 0
3718 4 -7.250935066596081 22.97516739789924 29.939372436255134 0 0 0
3589 4 -1.2153254247433072 22.253880746651276 25.165356659692137 0 0 0
1345 1 -3.313108383229375 25.29677136669114 28.96456045732267 0 0 0
1348 3 -2.7904087722530733 25.02058302543603 25.219696600857887 0 0 0
3590 4 -2.5331983292160576 24.025649235801126 27.113706799521637 0 0 0
3596 4 1.2293858141147904 21.850201524701276 25.551736994227184 0 0 0
3597 4 -0.36160572063734264 25.023128718642578 25.538070186430147 0 0 0
3656 4 -0.36395204368586853 23.59946089625949 28.662634357235532 0 0 0
3660 4 1.1664412732951455 25.684825683641485 28.093118409338857 0 0 0
1436 1 -2.912908922657957 26.820562910796145 26.527942163018565 0 0 0
1507 1 1.2217790724649795 23.888583918137318 26.719802466435944 0 0 0
1429 1 1.725419409553906 22.57820532108056 28.898479298949752 0 0 0
4334 4 4.0562603219465245 22.230211403082738 29.181155038316604 0 0 0
1515 3 1.758556305192009 25.588028653158975 25.985896982846725 0 0 0
1502 3 2.883711179478734 22.9551450911655 25.849106825077477 0 0 0
1506 1 4.406492878195772 22.7945781072728 27.042276272386324 0 0 0
1508 3 2.9378065128220623 23.82650050341614 27.87405338291304 0 0 0
1514 1 2.9305440283121573 25.16175052799893 29.30947501803429 0 0 0
1599 1 3.5878080564392167 25.140974467668023 26.158818642968114 0 0 0
1607 3 3.466603541908272 26.30238911519506 27.858725732868955 0 0 0
3874 4 5.877204662304621 25.236479082409133 26.30486976735157 0 0 0
4330 4 4.854496850065223 24.658076384959163 28.392776889697934 0 0 0
1775 1 5.607796859642551 26.599244857906495 27.95683699407389 0 0 0
3737 4 4.416022305642603 26.753434487583377 29.850797072528174 0 0 0
2679 1 8.012577876764528 26.16473444112473 26.77690020937331 0 0 0
1765 1 16.37275341020593 24.373977223579217 27.339310905079962 0 0 0
3693 4 16.29604693942097 26.227945065620574 26.070162477298496 0 0 0
1856 3 16.929954945056206 24.55726168451164 25.074778327929785 0 0 0
1861 1 16.89435939961562 25.980148338913278 30.14496756653643 0 0 0
1858 1 16.983869386512502 22.17871106951425 29.34470416494235 0 0 0
1854 1 17.829392165129338 23.05901810932204 25.318995525067578 0 0 0
1937 3 17.44105207303249 26.233715039002718 27.96743154245621 0 0 0
3626 4 18.3409685502331 25.033783241857538 26.470461976654896 0 0 0
3639 4 21.486462015460596 26.291633513654123 25.874764665315347 -1 0 0
2014 1 21.80735989043177 21.600764483042294 26.382560295188952 0 0 0
1930 1 20.185176873833225 22.323125784657993 29.02296565269696 0 0 0
1935 1 18.89795493434783 25.078931633716227 28.767432760303592 0 0 0
2021 1 20.091339274420562 23.815653229931044 26.111746443150125 0 0 0
2030 3 20.219165870157852 25.41846553611109 27.324169431016728 0 0 0
3700 4 21.614343767507094 23.49864281849387 27.660756589071205 0 0 0
3701 4 20.853648410020536 26.142950115000037 29.24914615400263 0 0 0
3755 4 18.440305318809084 23.078958907553826 27.901778579007292 0 0 0
1085 1 23.32449115948306 24.029351822012345 26.213424532670196 -1 0 0
2020 1 23.45253395953376 22.740707111391817 28.995063053690316 0 0 0
2022 3 23.44289062245214 22.308301876997866 25.16375714586691 0 0 0
1187 1 -15.712549839980245 32.27288561495543 26.2441430157089 0 0 0
1106 1 -15.593911888942868 30.80811396717784 28.976633970178526 0 0 0
1107 3 -16.901770196242158 30.78121529445552 27.485985976557657 0 0 0
1188 3 -14.009048914480854 31.42644903096221 27.466991165716244 0 0 0
3641 4 -17.93564133181537 31.417084377754247 25.777569744091558 0 0 0
3705 4 -16.10060691674858 28.624043808239293 28.851032115543752 0 0 0
3646 4 -13.153727074340726 30.207968802843652 25.837197996890467 0 0 0
1283 3 -9.463235264648734 30.587199832001946 25.19728724078479 0 0 0
1177 1 -10.565307668252679 27.600821541490408 28.99223958495873 0 0 0
1186 1 -12.357612197442252 30.548605082398087 28.85840122606649 0 0 0
1265 1 -9.293186740730086 27.04857422242433 26.331093990204252 0 0 0
1275 1 -10.84072276870767 29.522391477391196 26.294568484540818 0 0 0
1276 3 -9.422748291560618 28.61627702582242 27.627719425443743 0 0 0
1281 1 -9.275318043061587 30.376748504501744 28.73533866099656 0 0 0
3584 4 -10.315570800497674 31.658693801100643 26.964132399772197 0 0 0
3712 4 -12.232733451097895 28.516769952712657 27.81903698143384 0 0 0
3526 4 -7.471404014644417 29.608984671511518 25.056194407067807 0 0 0
1346 1 -6.143768836667553 26.995029604487076 26.10549000736068 0 0 0
1274 1 -7.574923455698119 27.91165785595344 28.546765455428798 0 0 0
1351 1 -4.682087841184579 28.159120728257417 28.68932209380597 0 0 0
1352 3 -6.118810125614097 28.86210768208479 27.35177118883702 0 0 0
1353 3 -4.268105152005489 27.532068153788764 25.314173268888467 0 0 0
1358 1 -6.219798910161124 30.73016351568732 28.435530725226187 0 0 0
1359 3 -8.05669166455843 31.32151069142119 27.39294185382542 0 0 0
1440 1 -4.621658958400285 29.56638714454871 26.039238922810583 0 0 0
1447 3 -4.443578683605795 31.29009544220261 27.343541838448196 0 0 0
3591 4 -6.203674435591278 31.44798023015239 26.2675839249503 0 0 0
1441 3 -3.173165645810018 28.84988319063828 27.33024331085206 0 0 0
1442 3 -1.1843947123298975 27.64623699759571 25.347501303872868 0 0 0
1446 1 -2.971734468020328 30.592092674263288 28.440847250641333 0 0 0
1523 1 -1.5303735094677169 29.725019237740753 26.14298208689894 0 0 0
1531 1 -3.161297141383427 32.00954618311841 25.890500858235065 0 0 0
1532 3 -1.752903376655098 31.66634657253519 27.127682104966155 0 0 0
3603 4 0.6608180829697972 28.97544580437557 25.899826741273593 0 0 0
3661 4 -1.2112350368665155 27.973418721023616 27.57512121644062 0 0 0
3668 4 1.2992727191021345 28.386023786902115 28.613744675203904 0 0 0
3669 4 0.10741687537843347 30.85414368370002 27.580815671311044 0 0 0
2591 3 5.963967610966229 27.184215685664775 25.641513128954486 0 0 0
1606 1 1.8431997688330117 27.310582305576368 26.69794015952658 0 0 0
4312 4 4.156373846621628 27.688421304274762 26.56976875737658 0 0 0
1611 1 3.4379604188403476 28.285530630069598 28.63458992799235 0 0 0
1612 3 2.4750865348524336 29.13157074150562 27.002802833956814 0 0 0
1619 3 2.7765169457027383 30.973735795542645 25.224033630171412 0 0 0
1699 1 4.02207801914594 29.797544333062056 25.904385167701392 0 0 0
1706 1 5.191744165593384 31.002866197344158 28.6635757943951 0 0 0
1708 3 4.551436507667702 31.272160864117822 26.864084568978406 0 0 0
1788 1 6.123561545836754 31.99860622097679 25.80457952231491 0 0 0
3674 4 2.9535072997595933 30.785619730533917 28.118891314686813 0 0 0
3536 4 6.304780110704691 30.112092740608507 26.927894045500402 0 0 0
2748 3 6.330208878304852 28.152845988601094 26.534585241691225 0 0 0
3747 4 6.771249385112281 32.013656578631355 29.799697325645283 0 0 0
3619 4 7.959941306014503 30.78487080812152 25.31528221520923 0 0 0
1787 1 10.097672842279778 28.517455021187253 25.477413821145788 0 0 0
3740 4 8.017474118424282 28.187597951572084 25.72192950230206 0 0 0
2460 1 10.298910496351393 28.896779996596067 28.225628318195085 0 0 0
1608 2 7.74261020520051 28.429503855999474 27.98783527849892 0 0 0
1700 3 8.856706076096476 29.749587552758612 26.813703239189024 0 0 0
1698 1 8.325039606139296 30.874373040319753 28.512329623346083 0 0 0
1789 3 6.906869921085136 32.06001777209148 27.571632270615545 0 0 0
1690 2 10.51091398372601 31.06191537682214 26.997040114954245 0 0 0
4316 4 10.839977929642142 31.498690896144826 29.21659196139167 0 0 0
1862 3 11.818278931840485 29.575702932088127 26.705275685896012 0 0 0
3815 4 12.911280402343078 30.644598648649723 25.249240357295946 0 0 0
1866 3 15.723579681335206 29.449653975225143 26.401926655762672 0 0 0
1936 1 15.929265684858887 27.675355705060625 27.546000470570164 0 0 0
1874 1 12.887286477076458 31.077122998353754 28.017797390419297 0 0 0
1944 1 14.72553997467908 31.12892001710975 26.190907540931093 0 0 0
1945 3 16.79066948405417 29.1742831213103 28.495767079332126 0 0 0
3633 4 16.771763641069708 31.61850669601433 25.82303229196191 0 0 0
3688 4 14.001032025279855 29.155773085401716 27.624304505290254 0 0 0
3694 4 15.542155488381926 30.76463959824835 28.24293393114126 0 0 0
3640 4 -16.791742420110094 29.097084365239358 26.087249352608495 0 0 0
2029 1 18.917193833899685 27.05177033750323 26.57615908611723 0 0 0
1946 3 17.280807365729384 28.090898334901087 25.70094408383602 0 0 0
1943 1 18.21495777250081 28.15782546572944 29.186246653240893 0 0 0
2036 1 17.71928029998836 29.776855680904017 26.70813436419852 0 0 0
2037 3 19.226381645709957 28.666411703174056 27.645440832956886 0 0 0
3702 4 18.550885230083082 30.460916981886594 28.708804497180154 0 0 0
1040 2 0.09647360496442703 4.837144797135378 30.80122555373778 0 0 0
3766 4 0.5186578512045488 2.3049848534404886 31.015533554275557 0 0 0
3835 4 0.39788444776995036 4.781897701771654 33.287843030280435 0 0 0
1108 2 2.93387892154933 0.3149211127663525 30.798375706836616 0 0 0
1115 2 4.486781200764909 2.652305460799429 30.68989256757645 0 0 0
1116 1 4.756202097541026 0.9873004286439555 32.70747777503762 0 0 0
1204 1 5.816768220062105 3.7983629023355037 32.66403138695764 0 0 0
1205 3 4.5497099813790385 4.426923959700661 34.254473189687715 0 0 0
1209 1 2.6156775993474732 4.899048490200314 34.47272273638549 0 0 0
3770 4 3.422520836650703 3.6115046206968247 32.6446136294509 0 0 0
3843 4 2.565070945492118 1.1562020047375892 33.27441852637714 0 0 0
1190 2 6.107258565152129 0.02721815082654803 30.665105800853034 0 1 0
1123 2 3.2266954823655865 5.156509829937405 30.65277975277312 0 0 0
1200 2 7.735814158530549 2.602652021322194 30.779116024140045 0 0 0
1290 2 10.920739403346158 2.7721541891652746 30.563555696904807 0 0 0
1296 2 9.20243896183673 5.2291059510988145 30.59445746709396 0 0 0
1297 1 9.100821031228934 3.7307062499940877 32.56305734202703 0 0 0
1298 3 7.5478309354290305 4.420677776352469 33.832789129758524 0 0 0
1376 3 10.615405904151402 4.489390010907695 33.609477190033964 0 0 0
3782 4 7.495464222813328 2.3168612131333544 33.44163720542488 0 0 0
3791 4 10.58551687532215 2.1254311459249426 33.05517424770127 0 0 0
1368 1 14.18792716092622 0.906924083161443 32.62030681751581 0 0 0
1369 3 12.494552890285025 1.761714860396414 33.9560325372229 0 0 0
3730 4 15.79604644027481 1.9960411102659004 30.922452504476844 0 0 0
3731 4 14.237699605573068 4.775421310502465 30.97880330826073 0 0 0
3733 4 16.83157282188083 4.454474580894057 30.847451461609644 0 0 0
3795 4 14.999271456995102 4.900448714761605 33.61439023889577 0 0 0
3800 4 16.47083189899266 2.495679209427221 33.40322161722388 0 0 0
1459 1 17.298174993381526 0.712251300570199 32.25748982237154 0 0 0
1540 2 18.12413580669777 2.3925718783114602 30.511420468434345 0 0 0
1541 1 20.225972475517487 1.0157588046979134 33.03505977520439 0 0 0
1542 3 18.453137311864968 1.7615847861268934 34.11548745645261 0 0 0
1550 2 18.98417831469414 5.192591943232262 30.66844696819659 0 0 0
1551 1 18.474398374127468 3.538703335493021 32.727252459321875 0 0 0
1552 3 17.04545118244181 4.532958746289413 33.795763021659184 0 0 0
1629 3 21.02663031951103 1.4492592152318682 34.864238738986614 0 0 0
1634 2 21.69046645967685 4.975432799909494 30.806488480485548 0 0 0
1635 1 21.69587759542609 3.7373025412832916 32.99682387014428 0 0 0
1636 3 19.89858871381224 4.554461621232159 33.81045888938892 0 0 0
3739 4 20.353573675375078 2.8891579183288543 31.34920432667488 0 0 0
1716 2 26.237468773274575 2.7450897415145756 30.63337453657855 0 0 0
1718 3 24.97883714252216 1.8327858770826893 33.93617253851187 0 0 0
1725 2 24.95006812345664 5.053640145186486 30.712264715659067 0 0 0
1726 1 25.035833271548757 3.5767559254306636 32.939373070093524 0 0 0
1727 3 23.48301726137316 4.4795848851381805 33.989808918294614 0 0 0
1804 3 26.66149182728524 4.616818006292111 33.88521305497487 0 0 0
3742 4 23.365056591259805 3.44551510819192 31.47007793387813 0 0 0
3809 4 22.521689648072964 1.334530728395696 33.18949265483137 0 0 0
3818 4 24.926379313999092 1.2600276261348347 31.942946150145403 0 0 0
1717 1 27.077721341222347 1.506189163507325 32.61537403795899 0 0 0
1724 1 22.8849203607653 2.529153825890717 34.98682029964965 0 0 0
3817 4 26.610487682571957 0.04437606833510941 34.080310655381616 0 1 0
1796 2 29.348588398285617 2.774813657518886 30.297421033914915 0 0 0
1797 3 28.391874396931232 2.3781804655436685 33.96285566516076 0 0 0
1803 1 28.061457757046327 3.880733446772176 32.37137645245733 0 0 0
3752 4 27.31364528176555 4.911665944754397 30.440548017530944 0 0 0
3758 4 30.720537066740313 4.741373772579864 30.15809570994783 0 0 0
3824 4 29.48772529010104 4.413022957622326 34.083179825206216 0 0 0
3830 4 30.6183508029235 1.9993105628744896 33.95933172558858 0 0 0
3831 4 31.92033855432826 3.9243295308559336 32.275273387008866 0 0 0
1790 2 27.788593513880826 0.48907045769925755 30.259788945735977 0 1 0
1783 2 29.724557223197408 0.39637095790004234 31.868750043212643 0 1 0
1795 1 28.41466785718372 0.39607398670720834 35.01240826944153 0 0 0
1883 2 32.597470005679014 2.5819886846344664 30.461267494655416 0 0 0
1960 2 35.47154105424441 2.4041734906521945 30.594472403738862 0 0 0
1961 1 36.075586325191544 1.0874139673034275 32.86082733389631 0 0 0
1962 3 34.12069645771672 1.6323990006855071 33.863103100404416 0 0 0
1970 2 34.06686141145144 5.193725989501538 30.70587630358017 0 0 0
1971 1 34.1291043919986 3.323652905382928 32.534669577968444 0 0 0
1972 3 32.85222877866192 4.556361688934304 33.97944440950998 0 0 0
3763 4 33.95644091916177 0.8504895615055857 31.841820148526928 0 0 0
1969 1 32.72343967378998 2.8470193304030857 34.94118358032873 0 0 0
1050 3 -4.702709698119135 9.771086322574131 34.52639730024522 0 0 0
1987 2 -5.8215198178620104 10.614158322236666 30.89355343872073 1 0 0
1044 1 -1.509992697756174 5.8907221396089575 32.60257920834445 0 0 0
1045 3 -2.9645853889838816 6.879420941136549 33.893661490302605 0 0 0
1133 3 0.0006976295640255259 6.956865433641006 33.599955678276714 0 0 0
1216 1 1.4259883137906044 7.841047957028434 34.83463924318364 0 0 0
3713 4 -0.050821221436537556 7.20249274418505 31.403416449200293 0 0 0
3714 4 -0.8018412668288075 9.723709250990474 31.008026146310698 0 0 0
3767 4 -3.0200140552074073 7.440165732491452 31.707946826383022 0 0 0
3771 4 -0.10984376366011706 9.10060968435163 33.7235602305754 0 0 0
3836 4 -2.9145098469508453 8.946851682446516 33.82798705563056 0 0 0
1132 1 1.8069344722000427 6.3197383767116495 32.4010588936293 0 0 0
1131 2 2.176409351599731 8.200275283506038 30.887559698839915 0 0 0
1210 3 3.118828374551584 7.0457151998635315 34.14009128964885 0 0 0
1218 1 3.514261652787871 9.05721624106775 32.96161615255945 0 0 0
1219 3 1.8392698861295464 9.863477408475529 34.15861807434729 0 0 0
3722 4 6.306465839095776 7.537295710583634 30.737972612450548 0 0 0
3723 4 4.514262265118902 9.351014372220114 30.74995873399378 0 0 0
3777 4 4.352677445329725 5.985711050288961 32.82337213308974 0 0 0
3784 4 6.326114331386093 9.711653065529815 33.0384283924952 0 0 0
3849 4 5.22786302151949 7.56178005535219 34.84761927746988 0 0 0
1384 2 11.381413074902003 8.59981915703792 30.58084180467531 0 0 0
1385 1 10.70760477952536 6.4516537444085085 32.51202881201246 0 0 0
1386 3 9.411361376781334 7.38954042630614 33.905207001875816 0 0 0
1397 1 9.472258535997177 9.23110459269542 32.54083469745452 0 0 0
1398 3 8.142767863484266 10.055449774074912 34.00268475021822 0 0 0
1478 3 10.830338910188079 9.71666783875531 34.12859995916539 0 0 0
3726 4 9.284528590108376 7.5770103478595985 30.95442958320338 0 0 0
3727 4 7.877518101767488 9.951287476457283 30.72402158226734 0 0 0
3783 4 7.532070286972312 6.458496818333788 33.70577797462162 0 0 0
1383 1 9.363865609334322 5.434760214761882 34.952864704523556 0 0 0
3859 4 11.767113266983795 5.6477266084023094 34.93990101518184 0 0 0
1375 2 12.163779912630027 5.809059212447957 30.553772914845943 0 0 0
1468 2 14.33491321004005 7.5995679767254 30.433694625202243 0 0 0
1469 1 13.66808285940231 6.433049630009246 32.567289917344546 0 0 0
1470 3 12.306029736225849 7.399952294754894 33.886166424433334 0 0 0
1477 1 12.28741096694123 9.066286413128962 32.926378155576046 0 0 0
1561 3 15.404806029930239 7.024138068049154 33.73294442996018 0 0 0
1569 1 15.447644304121535 8.90450962537594 32.471221738301345 0 0 0
1570 3 13.911025227806222 9.880702700212801 33.87496719622252 0 0 0
3734 4 13.47972650345123 9.786159291095565 31.144796065375118 0 0 0
1568 2 15.595720087596913 10.718892108119666 30.61128917288505 0 0 0
1650 3 16.875084959978228 9.90525935669384 34.02424863166062 0 0 0
1560 1 16.94219546392968 6.116770085760932 32.43948591622189 0 0 0
1559 2 17.530600777254065 8.208813471751315 30.702522493455568 0 0 0
1642 2 20.623569584439103 7.347800916230543 30.090892621631454 0 0 0
1643 1 20.28036566437081 6.274153034326075 32.55573977019042 0 0 0
3743 4 20.088315442423077 9.53983219015048 30.868632776987127 0 0 0
3810 4 21.97194551078535 8.314131537586354 33.06215081510508 0 0 0
1732 2 22.83925651347465 8.38456426498501 30.844081789429154 0 0 0
1733 1 23.425296775432642 6.215303717663474 32.46779079645698 0 0 0
1810 1 25.225106833395095 5.575008064824944 34.97760132814777 0 0 0
1811 1 26.436830636908386 6.315207282759742 32.55606852975417 0 0 0
1812 3 24.954710250453548 7.31084146154534 33.7851215085087 0 0 0
1818 2 24.593451449161414 10.550517164792447 30.64382640567515 0 0 0
1819 1 24.62370269700608 9.044699516998444 32.67135565539786 0 0 0
1820 3 23.242569169038067 9.824019802734076 34.03047929368372 0 0 0
3753 4 24.977863785491977 7.44173954447554 31.00640937694243 0 0 0
3826 4 26.76560071624139 8.462387309453467 33.410049260757035 0 0 0
3760 4 26.686893637069815 9.57836060228666 30.963985707572505 0 0 0
1979 3 31.26494653373175 7.2658251438939105 33.934598594836864 0 0 0
1988 1 31.515957363237295 9.106777800139021 32.916542527431695 0 0 0
1989 3 29.78300663060075 10.076083798125943 34.15390416698375 0 0 0
3825 4 27.58829966007719 6.411361213291207 34.8088919260391 0 0 0
3832 4 30.476739516997778 6.219285981392586 32.32132480431666 0 0 0
3833 4 29.341560605297442 8.472758868570875 32.80124161799311 0 0 0
1977 2 31.747160907465258 7.428786682178965 30.677263514503238 0 0 0
1986 1 29.56843587733608 8.00488126617566 34.95625504392895 0 0 0
1978 1 32.71829581154353 6.141245955166047 32.72485652868244 0 0 0
1059 2 -4.921238541179013 13.249117482019624 30.57890146311005 0 0 0
1060 3 -6.250173043906021 12.535104906955961 34.537902748279485 0 0 0
1994 2 -7.447442784384831 14.02691149765773 31.11338514500141 0 0 0
3716 4 -4.193651999432747 15.526190388647894 30.10278011350225 0 0 0
3837 4 -4.578921433149547 11.662406593387772 33.72932539877319 0 0 0
3838 4 -5.797706571491668 13.822070318497067 32.92251411908318 0 0 0
3774 4 -3.7039886093136607 16.014861022073486 33.45755902480055 0 0 0
1227 2 1.4168024268630388 13.49517721461886 30.85447912992261 0 0 0
1228 1 1.5237325505136008 11.647518639858637 32.924489727238644 0 0 0
1229 3 0.14695928228570043 12.695447521408811 34.234222397079826 0 0 0
1237 1 0.09858635603370303 14.557492294860458 33.02423196431902 0 0 0
1238 3 -1.6167643557458495 15.324666572094237 34.0019879144595 0 0 0
3772 4 -1.3991678175696132 11.410085633127494 33.893854825800034 0 0 0
3773 4 -2.7167536662300478 13.594968842631687 33.527202114292464 0 0 0
1217 2 2.813641638978871 10.886879836588228 30.85333280667441 0 0 0
1311 2 5.095647318731991 13.634183746995772 30.52118266086486 0 0 0
1312 1 5.265836900318481 11.359718087354073 31.751608571150584 0 0 0
1313 3 2.9298766502170093 12.600333604923504 34.09114150082207 0 0 0
1322 1 3.299285915301162 14.054480506027504 32.39160570928243 0 0 0
1408 3 6.42755832477601 12.045659314013214 33.433015463147335 0 0 0
1412 1 6.354725528832914 13.989523972129758 32.80936790607267 0 0 0
3785 4 4.497775733100209 11.21916154909663 33.840453533179364 0 0 0
1321 2 3.2803226498955507 16.120146428848138 30.63724356340331 0 0 0
1396 2 9.949387908815336 11.193863356077747 30.71903332105113 0 0 0
1406 2 8.110463195184934 13.40480197554238 30.76166895374427 0 0 0
1407 1 7.99979648822499 11.566751522854702 32.45169616410486 0 0 0
3736 4 10.571636284018377 14.375341421432152 30.824542528562176 0 0 0
3796 4 10.063856725388947 11.417143292480242 33.253967383693286 0 0 0
3797 4 8.758413350117184 13.894380042834426 33.020579401252796 0 0 0
1586 1 10.785370931111883 15.488724226018 32.8818725832116 0 0 0
3869 4 9.257413621269682 15.594387645846142 34.92481210987332 0 0 0
1573 1 12.117415609183634 11.430448164709542 34.420861236170154 0 0 0
1574 1 14.134300054161407 11.610106313487956 32.593391816741125 0 0 0
1657 2 16.78802791377496 13.4482918807234 30.615613047058446 0 0 0
1659 3 15.583761591473268 12.482602209614065 34.035297972195764 0 0 0
1667 1 15.633025192174868 14.275195868483655 32.82494825176125 0 0 0
1668 3 14.218306790354765 15.277884679773258 34.04902836902367 0 0 0
3735 4 12.058482233906467 12.066893819403743 31.495785766338507 0 0 0
3801 4 12.348903907320715 14.01057477787635 33.78758868071121 0 0 0
1666 2 15.580629507985364 15.941662528373207 30.717165282776662 0 0 0
1580 2 12.506149504923105 16.06596003751156 30.97125818570799 0 0 0
1658 1 16.990997620926557 11.668014087661286 32.60741019082043 0 0 0
1649 2 18.34777486083528 11.197496982274886 30.489604397656997 0 0 0
1747 3 17.13114976629232 14.95132382853125 34.277758300989866 0 0 0
1835 3 19.84936345848618 15.330898433386578 33.71117314199213 0 0 0
3744 4 18.751326188195705 13.106473083779724 32.11147596556944 0 0 0
3749 4 18.951802156043936 15.745946722097367 31.619144567180967 0 0 0
3811 4 18.179006791388318 11.71248318887873 34.681400543157025 0 0 0
3819 4 21.63898713676477 11.201847874560555 33.4081471419097 0 0 0
3820 4 21.687175081006025 14.150283031067413 33.63309169017373 0 0 0
1737 2 21.939884509765715 11.081287878450603 30.94124846440384 0 0 0
1834 1 20.002335788836604 13.469157979867443 34.98538960041397 0 0 0
3754 4 22.642272803197415 15.284642142518457 31.567709551691323 0 0 0
1828 2 23.78983377053056 13.29523765776371 30.70203747921566 0 0 0
1829 1 23.774105805032498 11.748874811100542 32.682890031835434 0 0 0
1906 2 26.610523080353225 14.381617311496402 30.472905536048295 0 0 0
1912 1 24.815858324413764 14.588445733878642 32.53094355147752 0 0 0
1913 3 23.293880391825454 15.51369225330672 33.79315798208804 0 0 0
2002 3 26.238127351776214 15.441787030578466 33.899372112425965 0 0 0
3761 4 25.893142302573732 12.470880433768682 31.823518371972867 0 0 0
1995 1 29.95478966838509 11.891634519998236 32.87431987088973 0 0 0
1996 3 28.316925166230853 12.62166995576269 34.104613641102475 0 0 0
2001 1 27.931341086727926 14.385037829027784 32.75620888776748 0 0 0
3834 4 27.870310465828524 10.780008972453246 33.222034699432754 0 0 0
1083 2 -9.528422046268222 21.234302865998917 30.7916756260545 0 0 0
2000 2 -8.962820959291031 16.356751446349445 31.016655455432925 0 0 0
3841 4 -9.56139499275778 21.51820340197948 33.39840606491237 0 0 0
3840 4 -8.85656767223934 18.686422152419627 32.77935619989334 0 0 0
2016 2 -12.288640889546876 21.401607468484013 30.818665565353996 0 0 0
1088 1 -12.293338526829306 21.463164448291412 34.967709826267125 0 0 0
1075 2 -7.802174441951271 19.11089508633823 30.733054561558774 0 0 0
1162 2 -5.628912955997606 21.165768628074268 30.72578333742021 0 0 0
1163 1 -6.626189893596381 20.112145589645216 32.94425400969319 0 0 0
1251 3 -4.628204200379447 20.654087477832714 33.84287831358478 0 0 0
3717 4 -6.000621559437657 17.682096603046233 30.161566104628825 0 0 0
3775 4 -4.932854177058921 18.576239837257354 32.9105261939377 0 0 0
3839 4 -7.134122347890879 16.37184847614992 32.51273347531999 0 0 0
1236 2 -0.23440718098289892 16.173682473808505 31.045605199581125 0 0 0
1244 2 -1.233585547286724 19.202310217381292 30.19404443933918 0 0 0
1245 3 -3.059982737921583 17.98707210573654 33.987744238402115 0 0 0
1250 1 -2.998489253182404 19.679871354615578 32.53929301087565 0 0 0
1329 2 1.2671383926816837 18.325119620522432 31.171008243284632 0 0 0
1335 1 -0.15122560033151622 19.94548190924174 32.38020999178308 0 0 0
1336 3 -1.5261017043945504 20.53133409233081 33.85428099130197 0 0 0
1424 3 1.1833493792225003 20.476913027058618 33.92337721873631 0 0 0
3720 4 -3.138881529707782 17.887809332367283 30.960855079049004 0 0 0
3778 4 -1.2271380080775618 17.3570423381181 33.09757915387836 0 0 0
3787 4 1.052526628699935 18.440133739673144 33.56101640266082 0 0 0
3786 4 1.8311961973465394 16.153298781401574 32.48546787894378 0 0 0
3798 4 5.776033086578822 18.609264205401896 30.39024313955987 0 0 0
1411 2 6.311652192983621 16.343674718598397 31.066494999648896 0 0 0
1422 2 2.4589394398780886 20.731091461994847 30.36343825559308 0 0 0
1417 2 3.7480280448942906 18.681266422539675 31.203834103590168 0 0 0
1418 1 4.730684610991506 16.338224878862825 33.027399770705934 0 0 0
1423 1 2.6626399493850066 20.13720771092612 32.74636432892594 0 0 0
3792 4 3.572004374449808 18.22815187407976 33.56895034756087 0 0 0
3799 4 4.523541933100699 20.910626083582407 34.185565131069175 0 0 0
2744 3 5.407128743945007 19.06588349174467 32.426129050058215 0 0 0
2442 1 5.061957395625722 20.95905153872256 31.561943968711013 0 0 0
2589 3 6.565275006222969 17.9991199241222 32.24246905134428 0 0 0
3990 4 5.899036655168013 18.93483743185362 34.371202231492326 0 0 0
1490 2 9.07673369544799 16.099306494019576 30.660704071015616 0 0 0
4325 4 7.021738958495865 20.320573448400115 32.40701431142174 0 0 0
1496 1 7.93465759443356 16.18258510378474 32.98181366701307 0 0 0
3862 4 8.251890525681624 18.214116158913615 30.832383693855647 0 0 0
2443 3 9.566730665730935 17.424092590068483 32.321280947209 0 0 0
3930 4 8.282774379590423 18.18323783755173 33.72539457945438 0 0 0
2577 1 10.111797243986656 17.79047223368999 35.13487427708496 0 0 0
3992 4 14.879966115111111 18.3545326735237 30.068915624630826 0 0 0
3993 4 15.967012493457014 18.738086837499306 32.389273384412746 0 0 0
1677 1 14.311651458058536 17.064586348142342 32.781843551617804 0 0 0
2656 3 15.777209421225923 17.84842729737041 34.231904371182885 0 0 0
3812 4 16.541696922693834 16.34362531631039 32.896515580699635 0 0 0
1947 1 15.147065347062792 20.791412786276123 33.81432457095162 0 0 0
2655 1 17.615888130703098 19.960475989486692 34.50999531014574 0 0 0
2664 3 17.358264463133118 20.262450344377633 32.09449246276046 0 0 0
1755 2 18.117243183108776 18.445527362246285 31.490371290822175 0 0 0
1841 2 20.556565730268183 19.057125691102748 30.80582302261611 0 0 0
1842 1 20.06999961302335 17.490955925643927 32.97056728682453 0 0 0
3821 4 18.084091322162266 17.801987918441974 34.25783682287811 0 0 0
3827 4 21.273352261890594 19.654483015336137 32.968509721569426 0 0 0
3828 4 18.999681244393074 21.105474351633553 33.21498140874699 0 0 0
1850 2 18.69185907155589 21.219325600659076 30.884438167413713 0 0 0
1911 2 24.656516544818384 16.244417628747374 30.580399324891374 0 0 0
1920 2 23.491617251230913 18.84700184660819 30.657827067380197 0 0 0
1921 1 23.190886598907955 17.197414116897573 32.73032682112435 0 0 0
2007 2 26.39018410610771 18.739970071654724 30.713066247356274 0 0 0
2008 1 26.379801124927614 17.065426574145185 32.62464448203186 0 0 0
2009 3 24.838933342486772 17.89686655377704 33.78241045209595 0 0 0
2017 1 24.802028717041573 19.694997723792785 32.758699542484266 0 0 0
2018 3 23.243911075658236 20.511550285916652 34.05801954551941 0 0 0
3887 4 22.184356829010127 18.2088056960579 34.89681520456904 0 0 0
3895 4 -10.080006212267486 17.511496152365726 34.80547261868366 0 0 0
1096 3 -14.112612789039913 25.91974976005638 33.9662874790289 0 0 0
1089 3 -12.552031124639557 23.366113200896507 33.92475444945294 0 0 0
1095 1 -12.834318464061855 25.1582275960777 32.68882694189712 0 0 0
1173 3 -11.18107935997564 25.97475474600119 33.8585844465351 0 0 0
3719 4 -9.132839505406615 24.836050377981845 30.861551487703522 0 0 0
3768 4 -12.599342511819621 23.707064778809976 30.86494519813077 0 0 0
3842 4 -10.77570774488788 24.021031837344662 32.925530785724916 0 0 0
3769 4 -13.463294167681497 26.824919192526888 31.002627707811683 0 0 0
1258 2 -4.667392050367251 24.253273589704634 30.786026288740842 0 0 0
1259 1 -4.525764491822439 22.595186144744392 32.765440768081284 0 0 0
1260 3 -5.763548113743378 23.664730407924445 34.301160366993614 0 0 0
1268 1 -5.92623479762651 25.148590966273666 32.889250181294926 0 0 0
1269 3 -7.765470907447918 25.76153058015759 34.09313650343734 0 0 0
3776 4 -7.717438251064031 23.620138787653694 33.41800246813722 0 0 0
3789 4 -4.1357282027060105 26.889962359865713 33.078781320224124 0 0 0
3724 4 -5.328672908560117 26.557460675827574 30.172946906724277 0 0 0
1249 2 -3.0084944865114895 21.70062499987343 30.781404090938352 0 0 0
1334 2 -0.32629639978483205 21.933571616477824 30.40626430707308 0 0 0
1341 2 -1.7406812320728573 24.494662725802044 30.76618194815658 0 0 0
1342 1 -1.5744717764802 22.471261445014175 32.71302249661618 0 0 0
1431 2 0.8632147393981917 24.47665641887575 30.519425822816373 0 0 0
1432 1 1.172843804242751 22.46612974355327 32.288359772506766 0 0 0
1433 3 0.021187009603998774 23.32283288610708 33.904395771421804 0 0 0
1437 1 -0.35871452651281466 25.06158848634876 32.889160559662 0 0 0
1519 3 1.3545276623501348 25.986318503090768 33.635468976011374 0 0 0
3788 4 -2.747826330138004 24.432927842083785 32.94570863860505 0 0 0
3732 4 0.07785346898336698 26.564037416103627 31.26069671479887 0 0 0
1516 1 1.3900233961357618 24.204513380393802 35.00245295747713 0 0 0
2663 1 3.9461693822528012 23.15385638319862 33.18583980524602 0 0 0
3659 4 3.1491832544536464 23.542465208988943 31.013675251353057 0 0 0
1518 1 2.6473700467546806 25.20193502395359 32.47185942405741 0 0 0
3803 4 2.0280556976419586 22.26592761056566 34.3276129632683 0 0 0
3999 4 3.3465023977256596 24.70536762815636 34.9503674758607 0 0 0
2604 2 6.205887000538819 22.098237295816325 33.19351836155687 0 0 0
2435 1 6.115341004949293 26.55262003866525 32.30682927509108 0 0 0
1613 1 2.7101721144318685 26.914700449937936 35.19620692008907 0 0 0
3991 4 7.836288680167806 25.90339068077166 33.70288179781986 0 0 0
2517 3 16.705803232597525 21.603809090162052 34.52432879871334 0 0 0
4308 4 16.731362262056447 24.75795796443359 33.11700828401292 0 0 0
2666 1 15.747478759279405 23.32076437655821 35.15035410546934 0 0 0
1860 1 17.38885826663961 22.5157827129474 32.723690107824446 0 0 0
3823 4 18.053852033044123 23.86128390799813 30.758481401814088 0 0 0
1931 2 20.33600143512276 24.3068139405491 30.60751599255419 0 0 0
1932 1 20.440874644627563 22.604448700168664 32.39848713758842 0 0 0
1933 3 18.969154568258233 23.339351994143534 33.954446524294035 0 0 0
1940 1 18.971557421648434 25.077455426644544 32.58850177950958 0 0 0
1941 3 18.244781726597026 26.37889690017829 34.03622120464401 0 0 0
2024 3 21.804594569538565 23.412480693110655 33.75654192102931 0 0 0
2032 1 21.60713646689497 25.25929962284659 32.91325065203003 0 0 0
3892 4 20.01522346516665 25.361204048352338 34.62634329984581 0 0 0
1939 2 19.191301693237293 26.831013339443636 30.919075313612282 0 0 0
1927 2 22.051735209497078 21.524145051067382 30.680857821364803 0 0 0
2023 1 23.3837162307152 22.350018325704763 32.71741060007275 0 0 0
3764 4 22.362974389273514 23.794434334263364 31.42041138764185 0 0 0
1101 2 -14.11250297731044 29.386862146146193 30.595756900123007 0 0 0
1102 1 -14.188240568649363 27.822880183905514 32.86544267107001 0 0 0
1103 3 -15.618370055447219 28.83578405060308 33.75459433997882 0 0 0
1109 1 -15.62018311857181 30.483789380803348 32.41221976551118 0 0 0
1192 3 -14.406717440394035 31.507038462007667 33.89718398341415 0 0 0
3765 4 -16.074391790462062 28.1111746686704 31.65117332246909 1 0 0
3899 4 -16.796954569523294 30.340390233707843 34.750524926156544 0 0 0
1180 2 -10.834437501262546 29.528212324957146 30.701697169232602 0 0 0
1181 1 -10.966735951997453 27.67912138958201 32.44083470382066 0 0 0
1182 3 -12.606800802270534 28.618639394545095 33.77119774886279 0 0 0
1191 1 -12.590273792862142 30.444214271259618 32.46558614376328 0 0 0
1278 3 -9.54086961636249 28.539285710832143 33.909228455565824 0 0 0
1284 1 -11.191486967114198 29.370449060986108 34.89118506277108 0 0 0
3781 4 -10.136409445942324 30.57653406314318 33.38695756649298 0 0 0
3721 4 -8.8225909987351 27.596537993369523 30.457928105843273 0 0 0
1361 2 -6.0579210260611625 32.24823033905432 30.595689890571876 0 -1 0
1355 3 -6.644721328155645 29.01831902707922 33.95871193924573 0 0 0
1362 1 -6.497949444101073 30.96079591979311 32.76932642675805 0 0 0
1452 3 -4.8191023820679355 31.369586910997725 33.834310061952436 0 0 0
3725 4 -6.49240653352704 29.256791509681445 30.126756973893457 0 0 0
3729 4 -3.917574829094278 29.7830666157652 30.3916174304131 0 0 0
3779 4 -6.867372971487912 27.22756306044942 32.896242402835384 0 0 0
3780 4 -8.165413417342476 29.359495869082693 32.48756650171156 0 0 0
3790 4 -4.991449541684952 29.344968882022123 32.728943877754496 0 0 0
1360 1 -8.096988286754915 29.757140507636752 34.99879057466886 0 0 0
1443 3 -3.1698948235631565 28.79691054237725 33.6899358312815 0 0 0
1450 2 -2.9977023931478435 31.995658950236937 30.589089404898097 0 0 0
1451 1 -3.1748592221010448 30.653939305827333 32.719020332990645 0 0 0
1525 1 1.2186164156072614 27.919980409405564 32.83191157291052 0 0 0
1526 3 0.11060381490636573 29.164856316886997 33.87511263887416 0 0 0
1534 2 0.27211518797913925 32.02323484718587 30.51422404350459 0 0 0
1535 1 0.19218910895764907 30.739244311249227 32.717164497397434 0 0 0
1536 3 -1.535415717941536 31.407241564598962 33.61917700767277 0 0 0
3728 4 -2.770505550939106 27.13752354878718 30.252394134455955 0 0 0
3793 4 -0.7714149971660955 27.15817827474912 33.624313828358 0 0 0
3794 4 -1.4578300762469176 29.258230443024296 32.36879747350985 0 0 0
3871 4 0.11793769856631187 31.19220442065913 34.91910649466501 0 0 0
3804 4 4.827294215607674 27.22866041693156 33.88887857178334 0 0 0
1615 1 3.8610309574803203 27.81230975713003 31.972970110524514 0 0 0
3738 4 1.699520988378918 29.64262893241399 31.493742680608293 0 0 0
1517 2 2.070000365306173 27.397977924254295 30.51534104059334 0 0 0
1614 2 3.7257615797855763 29.973142805005814 30.376130383207347 0 0 0
1616 3 3.0964069991733076 28.636834897505928 33.85078246378841 0 0 0
1621 1 3.329040725731332 30.561180314587684 32.81209881134141 0 0 0
1622 3 1.9073687945721716 31.34476036315429 33.81788427919771 0 0 0
3741 4 2.793392474900106 32.101172643200044 31.178052341146795 0 0 0
3807 4 5.083471421632105 29.517178670199183 33.28714324420373 0 0 0
3808 4 5.219109459460032 31.775102862129508 34.09910212197028 0 0 0
1701 2 5.473801004986267 31.334967957808388 31.714713068885047 0 0 0
2590 1 6.072045110880289 28.732507125670622 30.021638164972508 0 0 0
2671 1 6.6954582194769365 30.492339010418387 33.77401786977122 0 0 0
2597 1 10.353942363377932 30.206762838876266 30.87702505277457 0 0 0
2654 2 9.372407795259218 30.298196560145584 33.090431950338264 0 0 0
3806 4 6.798655151523871 29.214402891883232 32.054172219027244 0 0 0
2673 1 7.9361268557393 31.498840412167066 31.64238920596504 0 0 0
1791 1 11.60681574908104 28.655894558584194 33.72471519354359 0 0 0
2676 1 8.718959562739183 28.067923201948144 32.83950193656993 0 0 0
2681 3 6.786323856220555 28.200972097136763 33.787565907337296 0 0 0
3757 4 11.123984665856106 31.45157517827299 34.150959184572535 0 0 0
4311 4 8.324736256172734 29.033409495309304 34.837027412017754 0 0 0
4340 4 16.470113820847224 27.303199749317344 34.66954603068156 0 0 0
3883 4 12.050244039638294 30.227673943155 32.23300630927468 0 0 0
1868 1 15.209012261212987 29.091339686396548 29.9885688194763 0 0 0
1778 3 12.59609807029031 31.86001433459044 30.588491049422146 0 0 0
1696 2 12.836607796319896 29.805179641953725 30.33267727469766 0 0 0
1784 1 13.313147825645753 32.04616668068884 32.41740616278464 0 0 0
3756 4 16.063460045340953 29.33963275569075 33.54016252350818 0 0 0
1776 2 14.624752342122306 31.36501585194502 30.446825601556192 0 0 0
1949 3 14.189096905628144 30.06374773804493 31.85955115612738 0 0 0
1956 1 15.924738137661556 31.113560209294683 32.5061075112254 0 0 0
3829 4 14.589456595038818 31.8726889475884 34.10056894661867 0 0 0
3882 4 13.914638035266513 28.317836849373606 33.508137798807034 0 0 0
3762 4 17.238227521942854 29.999885777183334 30.953642264162106 0 0 0
2046 2 18.348067814706635 32.21028754908329 30.661608766774442 0 -1 0
1948 1 17.503969652686383 27.987711111496715 32.60500838142228 0 0 0
2039 2 19.910962060039893 29.822038258491553 30.574617032258644 0 0 0
2040 3 18.581778152413428 29.08761233142077 34.02162693861529 0 0 0
2047 1 18.694797038573622 30.72230346867785 32.82650870430198 0 0 0
2048 3 17.03186363193668 31.557853351606504 33.985306216387244 0 0 0
1043 1 -2.9845501135426256 5.249178136545274 35.20611557901572 0 0 0
2050 1 0.35302361807863225 1.6727364608467532 37.17968087823535 0 0 0
2053 1 -1.3872737269588704 4.3806632676063435 37.36384669640196 0 0 0
2121 2 1.4646873415370196 2.73503164080527 39.323779557349866 0 0 0
2122 1 1.5084595373295975 4.682543972822589 37.55166763554817 0 0 0
4028 4 -2.3343030544979375 4.468726403283383 39.55929325556196 0 0 0
1203 1 4.406949518135441 2.6962548698712845 35.04496820931455 0 0 0
2116 1 3.159452713614776 1.7901094441878957 37.61181334608059 0 0 0
2189 2 6.233524743679877 0.14322802501711698 39.435144730603646 0 0 0
2190 1 6.374778621242296 1.9738254639742927 37.57884744342116 0 0 0
2196 2 4.7200884776088685 2.8844476180741476 39.36336586318799 0 0 0
2197 1 4.397487230627248 4.581281071660829 37.246577744620296 0 0 0
2198 3 6.000586233873502 3.60257336894218 36.26535736219169 0 0 0
3847 4 5.871316950033517 0.8398709261525467 35.47867226622634 0 0 0
3901 4 2.0058917116542903 3.0273192470062544 35.899388850993056 0 0 0
3905 4 3.4212840517369623 0.2664427893920727 35.70378018268584 0 0 0
1302 1 6.106854819637102 5.381374036740513 35.16631863312596 0 0 0
1374 1 11.206689698541972 3.1175661979526454 35.04470017560656 0 0 0
2272 2 7.865089714709011 2.692962765785237 39.60510852959253 0 0 0
2273 1 7.58346618845123 4.598459252869832 37.71737017882566 0 0 0
2341 2 11.063709735139359 2.6846287424853106 39.53246169701179 0 0 0
2342 1 11.007135691236254 4.551162251922292 37.58517744764842 0 0 0
2348 2 9.418387093988025 4.86539293318106 39.48658997395828 0 0 0
3848 4 8.06546035643288 3.747898447184101 35.693113230727846 0 0 0
3853 4 10.5019452391173 1.0404072729567666 35.50690266260766 0 0 0
3914 4 8.216817529185013 0.675435952071731 38.24835320198575 0 0 0
3915 4 9.38141368553485 2.9944484786029686 37.760925282899336 0 0 0
1367 1 12.540835099709858 0.09161269584582836 35.13569823987073 0 0 0
2333 2 12.652272960126293 0.26134656348544183 39.521517456086016 0 0 0
2334 1 12.499887170430469 2.065469654249124 37.40866187797468 0 0 0
2335 3 13.909980710178584 0.7424682058777505 36.49472490719714 0 0 0
2343 3 12.48463297751804 4.028246653739752 36.28458033888346 0 0 0
2404 1 15.613395121890466 1.754943689947325 37.31778279169057 0 0 0
2409 2 14.13272621712279 2.8142777298901924 39.2122198857016 0 0 0
2410 1 14.395491771026464 4.364408207325118 37.125729308134304 0 0 0
2484 2 15.38884608588051 5.351888059986582 39.46942892178695 0 0 0
3858 4 13.807561017251286 2.580718047143037 35.46521721863438 0 0 0
3865 4 16.707076744695993 3.6915874192749376 35.764350607683404 0 0 0
2415 2 12.509004487735412 5.340545579444462 39.652181391224694 0 0 0
3872 4 16.60513895082908 0.5806256162226724 35.2042716527401 0 0 0
2478 2 17.048424054104963 2.108835753223371 39.707910214728315 0 0 0
1633 1 20.021850911736976 3.1196969507431773 35.22710536906325 0 0 0
2479 1 17.227526979590483 4.561651207117821 37.829506645387916 0 0 0
2480 3 18.745439992327093 4.060333940942795 36.44803401869329 0 0 0
2546 2 20.074321506505157 2.7631588355736816 39.11461315046671 0 0 0
2547 1 20.312431854044533 4.8143633383548625 37.735713740576195 0 0 0
2548 3 21.776638927219114 4.058922694205958 36.17340040745765 0 0 0
3932 4 19.33465490976129 1.147842782601258 36.12443520083316 0 0 0
3937 4 21.50866556530563 0.4256518108526235 37.31180613526873 0 0 0
1802 1 26.943120718822918 2.8869600102774573 35.10353968261146 0 0 0
2626 2 22.208126359682456 5.215799470630737 39.53670496504821 0 0 0
2540 3 23.4166730481649 0.9075592584076915 36.26690016981124 0 0 0
2615 3 26.953601832990206 1.036741233120584 36.06924155125253 0 0 0
2699 2 24.89428919733464 5.039376015992 39.68795827684415 0 0 0
3878 4 24.822234995292863 3.4006436806329554 35.28110812217384 0 0 0
3938 4 22.903819736356194 2.7148037382912764 37.332582405474504 0 0 0
3945 4 26.246801342007554 2.5886260414506594 37.265247717120154 0 0 0
3946 4 25.151729733885887 4.972543091097452 37.2966210131693 0 0 0
4003 4 22.149802606961337 1.941558211537076 39.93810998756423 0 0 0
4009 4 24.721387277131942 2.430157959465294 39.426409044271736 0 0 0
2684 1 25.85714073885298 0.38249343009780434 37.872211413964166 0 1 0
1715 1 25.104687492975017 0.7389148525287778 35.42004992297474 0 1 0
1878 1 31.241040412777735 0.13585145329949982 35.03227647841397 0 1 0
2692 2 27.80343866405273 0.10080976750989437 39.615639595958235 0 0 0
2693 1 28.321257193136365 1.6879453166803446 37.63546228378137 0 0 0
2694 3 29.8636601923878 0.7490468987594783 36.43734483485876 0 0 0
2758 1 31.379076085325973 1.797043570736106 37.228641127829945 0 0 0
2764 3 31.105475662353825 3.518322962714529 36.030547712456766 0 0 0
3884 4 29.11657736807366 2.697230220766545 35.910707232113644 0 0 0
3947 4 27.88080931723749 5.207308009579031 37.17251780484001 0 0 0
2757 2 31.611508061898444 0.6449187705204937 39.45831761519297 0 0 0
3894 4 -1.6952573898694707 2.9637050885441583 35.29109189830822 0 0 0
1959 1 34.603609784265416 0.34021423640549187 35.44925777565136 0 0 0
2759 3 32.63277231363284 1.1403486940893734 35.68018904347382 0 0 0
2827 3 35.83814500769793 1.2049058432068318 36.64103494194435 0 0 0
2833 1 32.6539590043039 4.437674209073624 37.53644694210321 0 0 0
2834 3 34.02853860239269 3.600004860613905 36.50034186318901 0 0 0
3957 4 33.82584204089115 1.5482734793715438 37.30251133998975 0 0 0
1049 1 -4.540368513129663 7.889348892986916 35.199651597051385 0 0 0
3963 4 -3.839584295060074 10.420792401888008 37.188972029886166 0 0 0
4029 4 -3.780002813455681 6.63330988063974 39.6335118091775 0 0 0
1058 1 -6.077698996750109 10.752479673644988 35.593052758055315 0 0 0
3958 4 -4.663085233782289 8.176934275256137 37.42033563053522 1 0 0
2129 2 -0.12207016379566094 5.527195677784808 39.443313698032824 0 0 0
1137 1 -1.430377608865054 7.795023438505888 35.042456379542806 0 0 0
2057 1 -2.8446420656443467 6.990408356732639 37.568265680991864 0 0 0
2058 3 -1.5272673192875383 6.220536119897435 36.400646522303624 0 0 0
2061 3 -2.946405708719576 8.793809617836375 36.150878834977846 0 0 0
2130 1 0.08445286758508441 7.301169910004149 37.572235863117626 0 0 0
2138 2 -1.5895175431174198 8.29213205881913 39.395372999926806 0 0 0
2139 1 -1.6047189715670331 9.76678086125274 37.30053715058851 0 0 0
2140 3 -0.01276806636837069 8.797563645964606 36.114873379621926 0 0 0
3902 4 0.36905684331091626 5.9544431836952825 35.55426437776952 0 0 0
3906 4 0.4970026870888411 9.784703207790605 38.03026768047159 0 0 0
1143 1 -3.050628006477002 10.731056522511789 35.115021167212 0 0 0
1226 1 0.22749439276542205 10.72501615693038 35.29670688643584 0 0 0
2211 2 1.6955251796653767 8.057770577605687 39.30418834665757 0 0 0
2205 2 3.1440330537346695 5.501136376349227 39.352477936548446 0 0 0
2206 3 5.093184640564195 6.435064191793883 36.70386148640194 0 0 0
2282 3 6.2319682070722076 9.015631949905707 36.05086713341476 0 0 0
3844 4 2.980992823868915 6.22603387345393 36.18903898958045 0 0 0
3845 4 2.0969688617761753 9.187089438051599 36.372008429760484 0 0 0
3909 4 3.8901678419256127 7.541779010370287 38.201001099642866 0 0 0
3917 4 5.421612024539078 10.23269557974088 37.498726830516894 0 0 0
3916 4 6.9482643364529615 7.481231059387316 37.26257895419896 0 0 0
1395 1 7.810023571243929 8.129725083569152 35.126311333336794 0 0 0
1476 1 10.750992062163334 7.962313742225751 35.22375915817407 0 0 0
1484 1 9.452019986854271 10.644655527403785 35.38656631660236 0 0 0
2279 3 7.87322982256695 6.066703761232398 36.076073544303995 0 0 0
2349 1 9.145141352117939 6.85286963600156 37.625038035433334 0 0 0
2350 3 10.699746970239183 6.383450990849672 36.593457611381496 0 0 0
2355 1 7.629240869917974 9.689215024505778 37.64123193238443 0 0 0
2356 3 9.094730982597031 8.70846938534216 36.48436160458484 0 0 0
3925 4 10.99220951041983 8.436084001307632 37.42198935179921 0 0 0
3987 4 8.89653721889416 8.528905483359235 39.09185835543033 0 0 0
3981 4 7.507337102114369 6.137690067345819 39.52042954156541 0 0 0
1648 1 16.812902105658374 7.933264142119696 35.05713133083024 0 0 0
1567 1 14.043142614627733 7.833631615414255 35.043423682976375 0 0 0
1656 1 15.319915352396597 10.685619799691615 35.28030117346729 0 0 0
2485 1 15.784290711861377 7.2800983994706865 37.840261421368226 0 0 0
2489 2 13.9813175352452 8.279153674617481 39.57166080117527 0 0 0
2490 3 15.580660714231644 8.776019735554899 36.30341482731566 0 0 0
3866 4 15.531224969141538 6.156957451235672 35.79185186462654 0 0 0
3867 4 12.492158109315806 9.433675084962115 35.33575519614513 0 0 0
3924 4 12.732016061296182 5.916289771636388 37.308685116135464 0 0 0
3928 4 13.785513755749676 8.104845443972478 37.22470947963656 0 0 0
3929 4 13.10232879084794 10.475315669369888 37.57470421761698 0 0 0
3933 4 15.685808805556121 9.843613045547238 38.15488930139294 0 0 0
1641 1 18.30590742239621 5.445029787172161 35.05921223878303 0 0 0
2486 3 17.426721533359803 6.496753230425822 36.654977860072925 0 0 0
2554 2 18.630967011057933 5.63431646550848 39.67865631433099 0 0 0
2555 1 18.898751364096807 7.333160337384553 37.844338098118044 0 0 0
2560 2 17.23704627684845 8.479998396469755 39.543932715499054 0 0 0
2561 1 17.7067144760056 9.770065016707429 37.114790532158345 0 0 0
2633 2 20.192216369103292 8.297039460194153 39.885981165537636 0 0 0
3875 4 20.425967056041017 5.604797607468073 35.62475527277349 0 0 0
3876 4 18.90461872433457 8.084331684788586 35.77897812866946 0 0 0
3880 4 21.906099585460996 9.26980574008858 35.80832500043877 0 0 0
3939 4 21.249090405245425 7.011462574417011 38.06604343387393 0 0 0
3940 4 20.049668552360835 9.564360906815969 37.83695238338292 0 0 0
2637 2 18.61284809863254 10.756591461441886 39.36137689249207 0 0 0
1817 1 23.45174515187194 7.908348185858897 35.01037905649663 0 0 0
1901 1 26.12439793483899 8.076364795916062 35.425272544487484 0 0 0
2700 1 24.712208269510665 7.160642120172072 37.76508464296608 0 0 0
2701 3 26.34904719891947 6.542047170069159 36.548704611846695 0 0 0
2704 2 23.12475189327637 8.17904699477905 39.54402919460274 0 0 0
2705 1 23.11504188511546 9.911352087555752 37.60289639816215 0 0 0
2706 3 24.621625890028902 8.869565250364081 36.54161654345838 0 0 0
2777 2 26.45452338076096 7.907434225557844 39.44834964492311 0 0 0
2778 1 26.012594656199084 9.942616991839243 37.930555472735854 0 0 0
3879 4 23.102827631589726 5.724486965911656 35.76719568587189 0 0 0
3885 4 25.908937827610934 10.284717281788083 35.55720669814552 0 0 0
1976 1 31.223050974509515 5.440644995750776 35.09796651888121 0 0 0
2771 1 28.045523430872628 7.597807684700013 37.40661120120581 0 0 0
2772 3 29.39219510851013 6.203079191879475 36.05307686139889 0 0 0
2779 3 27.90230836471727 8.81421831246615 35.69656205040517 0 0 0
2840 1 30.801472723396504 6.885287636911884 37.47764169634299 0 0 0
2845 2 29.730739756845157 8.07685265402894 39.53939724624223 0 0 0
2846 3 30.957956983814462 8.670345617024465 36.24457428805235 0 0 0
3952 4 28.25521382424241 9.920671019772488 37.53782789110561 0 0 0
3959 4 30.76129665852052 10.051309771078577 37.81657984332615 0 0 0
2841 3 32.71934489320488 6.216597650268339 36.45625114018396 0 0 0
1149 1 -4.495348322130981 13.627481821900915 35.03507973273015 0 0 0
2065 3 -4.311496383383545 11.949909724277505 35.94272365917778 0 0 0
2071 2 -7.631761954491989 13.679736927696078 39.799562951212415 0 0 0
2072 1 -7.62366087363379 15.165797353055703 37.73603315763632 0 0 0
2073 3 -6.071761179299747 14.588350941156676 36.16551700138739 0 0 0
2150 2 -5.08831617420912 13.251026295787653 39.451229852380344 0 0 0
2151 1 -4.534517367095825 15.112992223024749 37.78280897115174 0 0 0
3964 4 -5.937841012047163 12.703924317014138 37.00566141149319 0 0 0
1235 1 -1.4628356227645112 13.508139303230132 35.35688295160635 0 0 0
2145 3 -1.5245306995647683 11.428592145174832 36.1194637996171 0 0 0
2152 3 -3.0066356996836543 14.617581206374128 36.3413380982315 0 0 0
2217 3 1.5165335632024286 11.395531424104101 36.483169412635746 0 0 0
2222 1 -1.4162955144797431 15.246014398665473 37.80088469354771 0 0 0
2223 3 -0.029453491006748322 14.530799042654476 36.3463733696611 0 0 0
2293 1 1.4940867188241214 15.395409157828073 37.359346295381165 0 0 0
3907 4 -2.75819245242209 12.789219422438313 37.1980190586001 0 0 0
3911 4 -0.08426524132054425 12.591263466349476 37.06284819997301 0 0 0
1320 1 1.546042383524557 13.344708212313861 35.46060570777224 0 0 0
2297 2 0.41164226926425584 16.13309215320129 39.61520961295921 0 0 0
3968 4 -2.8585832697986184 14.452177734287547 39.52251672769289 0 0 0
1405 1 6.389437002772238 10.772641124978954 35.081810480779176 0 0 0
1310 1 3.070413345273554 10.876947077169701 35.414107088128254 0 0 0
2288 3 4.8290522568056575 11.767166685425105 36.087437091307265 0 0 0
2294 3 3.05296151975573 14.089446842835205 36.64438329168199 0 0 0
2361 2 6.44991259485612 10.907708088905226 39.565281147518135 0 0 0
2362 1 6.212555648079244 12.485678253424304 37.55808281897206 0 0 0
2369 2 4.694680489729403 13.569456098665336 39.67063283033009 0 0 0
2370 1 4.725338427950584 15.290091031301442 37.46529999315176 0 0 0
2434 2 6.41233899465869 15.472912820563879 39.28942335082006 0 0 0
3861 4 5.3723152157641945 14.828193075364709 35.03840139481071 0 0 0
3910 4 3.203728969752798 11.40397027521296 37.71292092209518 0 0 0
2363 3 7.7876674686876 11.321799403658574 36.56718449304156 0 0 0
2423 2 9.637842488373206 10.774602590630922 39.47626443096209 0 0 0
2424 1 9.474769929917837 12.37152791843394 37.51945846431414 0 0 0
2425 3 11.2603414505924 10.889653738162194 36.47043120551031 0 0 0
2429 2 7.962262030206528 13.208916721848134 39.4770078548565 0 0 0
2430 1 7.872635921407511 14.827082605642106 37.30915180921836 0 0 0
2502 2 10.919242946300301 13.381557230103367 39.52155920958631 0 0 0
2503 1 11.012079339951603 14.997736975482223 37.528398357743235 0 0 0
2509 2 9.058722042540877 15.811406329454753 39.425254534888225 0 0 0
3860 4 7.437760708278248 12.923267817351903 35.24762548829459 0 0 0
3868 4 10.657752651972782 12.731594184087093 35.585704139089756 0 0 0
1665 1 14.084807154588837 13.493199853866242 35.21021157852072 0 0 0
2495 2 12.592153332442283 11.11235871841028 39.75162805994555 0 0 0
2496 1 12.43193829353434 12.664827703621091 37.36774309383981 0 0 0
2497 3 13.454669116072782 11.592805936104503 35.849174271064086 0 0 0
2504 3 12.147190149311369 14.146639544696002 35.90470961677649 0 0 0
2570 3 15.527357874995639 14.28642051810009 36.388392179200245 0 0 0
3934 4 14.954713936344938 12.410315560533109 37.044723636472 0 0 0
3935 4 13.66898475463276 15.068029560813214 37.043784889403206 0 0 0
1754 1 15.717326751658305 16.042377468651907 35.310431230670375 0 0 0
2566 3 16.79446991590797 11.533391900681545 36.5599269825732 0 0 0
2576 2 12.814803262394811 15.244508671249863 39.39994503843523 0 0 0
1675 1 12.711026803065938 15.948127308594483 35.18022584382316 0 0 0
3942 4 17.286571708305303 15.154308093984945 37.09992400226111 0 0 0
1746 1 16.959408574146455 13.33848844913095 35.47980541427608 0 0 0
1919 1 21.563945111512357 16.002233164783124 35.04494037750815 0 0 0
2644 3 18.798212909209436 14.125398611333248 36.15431220699782 0 0 0
2710 2 21.604726480615884 10.788538018761232 39.405396849124145 0 0 0
2711 1 21.836416728978655 12.68415536019615 37.777274730456405 0 0 0
2718 2 19.86140754729503 13.105524810100846 39.49580083257167 0 0 0
2719 1 19.851966585525677 14.83979560429783 37.71893822778966 0 0 0
2720 3 21.47481743663775 14.322409382409749 36.327603160815094 0 0 0
3881 4 20.945916263633514 11.691016557575814 35.99432276958312 0 0 0
3941 4 18.317767396474615 12.670459882441998 37.58350371613429 0 0 0
1840 1 18.702390721746717 15.950574076659016 35.298646476937996 0 0 0
2712 3 23.10467875855519 11.542259493629548 36.37326278339731 0 0 0
2787 2 23.531576382729945 13.49271275000093 39.46359506953592 0 0 0
2788 1 23.12327948652468 15.277054196648956 37.49149631348918 0 0 0
2859 2 26.424264823338234 13.391514706903266 39.63830686557506 0 0 0
2860 1 26.39062904569904 15.047443283179591 37.592740682466804 0 0 0
3886 4 24.05229294373853 14.257861820402187 35.56859476594302 0 0 0
3953 4 25.952141536392762 12.524202571451328 37.35267887215983 0 0 0
4016 4 24.82160236323263 11.34546887489954 39.55392196927128 0 0 0
2868 2 24.845038415454177 15.990960724379757 39.50392615939243 0 0 0
1068 1 29.577874644501296 13.283982302073758 35.60081214226624 -1 0 0
2077 2 27.98154062358794 16.048064980404707 39.55820398715713 -1 0 0
1993 1 28.164111325259668 10.862011889667682 35.47169259547904 0 0 0
2853 3 29.604713697127725 11.476345849299838 36.68827501735303 0 0 0
2861 3 28.14608171983444 14.59124834439994 36.36389311987555 0 0 0
3960 4 28.597699531661902 13.025527904308662 37.74035707021522 0 0 0
2078 1 -9.347424676279983 17.947155193725283 37.52316279464523 0 0 0
2084 2 -10.814292889571893 18.766691857493544 39.57177319819793 0 0 0
2085 1 -10.78910968233854 20.685820487129664 37.87602904654602 0 0 0
3896 4 -10.49245912394378 20.19382101545342 35.6704930557935 0 0 0
1248 1 -4.465585402178552 18.869847662559035 35.128970084496885 0 0 0
2156 2 -6.179652526434962 16.211680287764597 39.691528607867205 0 0 0
2157 1 -6.142880064739279 17.95700583036859 37.78614037964595 0 0 0
2158 3 -4.57340467174061 17.083661165252693 36.42843377280025 0 0 0
2159 2 -7.847919442986644 18.895279611193295 39.60571509567903 0 0 0
2160 1 -7.6246805756655665 20.791029822813687 37.93534876674558 0 0 0
2237 1 -4.691622334935441 20.591657615807513 37.748078545824306 0 0 0
3903 4 -6.480791952514341 17.934646351251008 35.43221851936705 0 0 0
3904 4 -7.740688369386164 20.517733615617253 35.54924349809938 0 0 0
3969 4 -5.47677102716265 19.337043193553576 39.684486502544196 0 0 0
2308 2 -3.3956615471038063 21.431827240254254 39.79970183641729 0 0 0
1243 1 -2.758803520625441 16.391541843720024 35.44324605677032 0 0 0
1340 1 -3.0737224644021843 21.238195813986074 35.27163988592572 0 0 0
1333 1 -1.4297657581384193 18.66399547449981 35.06275195278024 0 0 0
2231 1 -3.213381930061443 17.994323927117645 37.63752164969068 0 0 0
2232 3 -1.536541183008838 17.280353151279762 36.886382651371456 0 0 0
2238 3 -3.111800609698685 19.54172086978772 36.3456214354366 0 0 0
2381 2 1.1018980648217749 18.95775326169154 39.34559836083346 0 0 0
2382 1 0.9321036466335126 20.562383458815326 37.4169461387914 0 0 0
3850 4 -0.38702509984529243 16.342042198462487 35.417631814506 0 0 0
3912 4 -1.6683986351089999 17.10229293619332 39.126152456534534 0 0 0
3918 4 0.6605019188577668 17.493206408692348 37.576777346324434 0 0 0
3919 4 -1.1502085725918274 19.387163718920082 37.238099526229796 0 0 0
3988 4 1.3881396153906689 21.37609029974072 39.91828633349056 0 0 0
1602 1 6.3733755627062045 21.79215064287311 35.9860772247644 0 0 0
1497 3 4.8910687701699676 17.026142078157402 35.02475883610082 0 0 0
3854 4 3.1934347249667336 16.200656732616928 36.03372791997276 0 0 0
2374 2 3.0298485731016793 16.284447183460653 38.97132454098274 0 0 0
2375 1 3.050803648052092 18.152902027066975 37.46930067602535 0 0 0
2441 2 4.7956404706535665 19.892897736495343 36.379514747862025 0 0 0
3855 4 2.280969119752541 19.449118225940467 35.75605413378986 0 0 0
3870 4 5.384285606737821 17.41223066048899 37.104610842610775 0 0 0
4070 4 3.2834854288530497 18.63184071661357 39.93773751299966 0 0 0
2451 3 4.0634833393483785 18.151571801570892 35.604782260913424 0 0 0
2594 3 4.6772161661599885 19.063141674735512 38.13023996957309 0 0 0
2450 1 2.992565981735071 20.44059108889719 38.50077511286819 0 0 0
2593 1 5.098619922428357 20.87289977310575 39.09352959820498 0 0 0
4138 4 5.950738553957642 18.553758288025623 39.681761211618735 0 0 0
4315 4 6.895338410989181 19.48128566952795 36.584879186171136 0 0 0
2521 3 8.302486062615305 18.033025075212045 36.35788781340123 0 0 0
1592 1 6.919591435418409 16.661550572515505 35.40873600982543 0 0 0
2511 2 9.812777795115208 17.226479706574434 37.50600857739771 0 0 0
2510 1 7.253631230926992 17.416564360594208 38.368805262856945 0 0 0
4309 4 11.02456843308604 16.815882791042437 39.2766909221181 0 0 0
2513 1 9.150511330985653 19.63894352441502 37.35870252153217 0 0 0
2526 3 7.631082878042587 19.41987487785417 38.89108002913987 0 0 0
4306 4 9.024404504207332 18.153431717602174 39.06989308625125 0 0 0
2448 2 10.963197310643016 19.283405483350137 39.408956899038145 0 0 0
4201 4 7.155351673548369 21.185727937183096 38.41195804550206 0 0 0
4063 4 8.993338216139884 20.71993515459933 39.75273222862879 0 0 0
4327 4 12.411695786614505 17.895533030891123 35.970721941166424 0 0 0
2737 1 14.446352356516151 18.661192485052887 35.33446524026168 0 0 0
2601 1 13.018518411426598 17.103140142140642 37.89889183573594 0 0 0
3814 4 16.557191864719382 18.852228750200318 36.058228123323524 0 0 0
2578 3 14.379807194752436 17.063688023805465 36.48583856612883 0 0 0
2649 1 15.894951966208055 17.54289636618628 37.99437983117733 0 0 0
4012 4 14.29584242983055 17.215706433348803 39.593825114434665 0 0 0
4006 4 14.401280712141258 19.068289401858305 37.52872352893593 0 0 0
4077 4 15.726305357418601 19.880503818029283 39.75959508609893 0 0 0
2752 2 15.726231107785697 20.945565100550148 36.221721606995246 0 0 0
2732 1 17.291677033020356 20.14588287264344 37.77006335471547 0 0 0
2650 3 17.274948377428395 17.046143846521147 36.335557258771686 0 0 0
2727 1 18.89467064194093 17.89373995039218 37.45690366109081 0 0 0
2728 3 20.057040933476483 17.650220008788608 35.32698182241215 0 0 0
2731 2 17.544407006488505 18.48704144832266 39.66476096454255 0 0 0
2733 3 18.644186378303267 19.690018606130238 36.43619103548293 0 0 0
2796 2 20.170298889904203 18.827600945485802 39.501687864588376 0 0 0
2797 1 19.943182775109204 20.823408900968232 37.69950779894855 0 0 0
3888 4 20.332144117209985 20.361504845474737 35.37390485412573 0 0 0
3948 4 20.974495744284482 16.698338046808693 37.07023271579703 0 0 0
3955 4 21.636041442318586 19.256688383326424 37.57942047607716 0 0 0
4011 4 18.88755231100086 16.594696200649054 39.9307342939764 0 0 0
2006 1 24.68271629662328 16.405524927782906 35.1015515364372 0 0 0
2794 3 23.136685700900586 17.068044316455786 36.42902433150223 0 0 0
2869 1 24.967981753394987 17.857255147501803 37.727371687871994 0 0 0
2870 3 26.153654514676035 16.99481916666524 36.52001595802139 0 0 0
2876 1 23.648779857125284 20.33581745344195 37.53901591569645 0 0 0
2880 2 22.044285230511676 21.054165001595027 39.36706344227096 0 0 0
3889 4 24.56524924512953 18.75034281173518 35.688745524393305 0 0 0
3954 4 23.02663263585312 17.290643475460715 38.5825267682264 0 0 0
4025 4 24.162485355587084 19.312270963981756 39.70675259390231 0 0 0
3897 4 -14.478023879643045 25.860832071996036 36.07635554325437 0 0 0
2100 2 -13.778523930875572 23.927375519807374 39.68879477187596 1 0 0
2105 2 -15.271978899865324 26.90334808233385 39.63885337339281 0 0 0
2093 2 -12.425903666498378 21.52495916664019 39.521763483472405 0 0 0
1179 1 -12.639089142788151 26.80879706512825 35.07569743397352 0 0 0
1172 1 -10.924562434051133 24.20727606362485 35.19069403939375 0 0 0
1277 1 -9.53002387792311 26.838009141578386 35.129927606112666 0 0 0
2094 1 -12.525443078012547 23.098437634434667 37.46165477308176 0 0 0
2095 3 -10.869318717288358 22.33207016391693 36.37855799329806 0 0 0
2101 3 -12.52425628126368 24.899730344007242 36.191060954814695 0 0 0
2165 2 -9.263044395156218 21.585953764205808 39.70794845430798 0 0 0
2166 1 -9.385504135127945 23.33758573184039 37.711551797574764 0 0 0
2170 3 -9.286607950467925 25.087054758558814 36.4483111712341 0 0 0
3965 4 -12.301943543426743 25.258866781576163 38.2570608391538 0 0 0
4034 4 -11.003703899524117 23.363591597516514 39.75194085651337 0 0 0
3908 4 -10.097358282365773 26.759618875445874 37.39138561125404 0 0 0
3851 4 -3.8212968936747362 23.283430502670747 35.01194667456073 0 0 0
2243 2 -6.115968505295455 21.65777653646435 39.81019614866207 0 0 0
1257 1 -5.933407192997114 21.872410180182865 35.235892179837826 0 0 0
1267 1 -7.49163979357644 24.39017985045505 35.523140584672234 0 0 0
2167 3 -7.619784637622073 22.555853931824895 36.55043041647571 0 0 0
2244 1 -6.223202693710227 23.385262242088928 37.832684630182335 0 0 0
2245 3 -4.603640526024439 22.342640288754765 36.6949253695482 0 0 0
2250 1 -7.893747265520626 26.120071543429333 37.75860726219045 0 0 0
2251 3 -6.381601134459547 25.456424758321873 36.813238463068195 0 0 0
3852 4 -5.2749835844625 25.548351690997826 35.06964537153879 0 0 0
3920 4 -4.424800086666174 24.698989425099224 37.45301847301581 0 0 0
3970 4 -7.767994889902527 23.452789588440684 39.57042639793465 0 0 0
1430 1 -0.10174863409579693 21.60777483551385 35.07485623849569 0 0 0
2309 1 -2.9373898698375775 22.974959930314512 37.69377491948406 0 0 0
2310 3 -1.7605990323109761 22.746018340311426 35.87846216635748 0 0 0
2386 1 -0.3044906997523782 23.373072694016304 37.355058486105584 0 0 0
2387 3 1.300535529230153 22.388586836340778 36.36620843267401 0 0 0
2391 2 -1.72446870231059 24.184764313875498 39.63683318749257 0 0 0
2454 2 0.9109637878539125 24.175240176188314 39.428462391249745 0 0 0
2461 2 -0.5205584600065496 26.840368609936586 39.825868594505145 0 0 0
3856 4 -1.7321450457293626 24.803418103943876 35.65568609088289 0 0 0
3863 4 0.5414737599743198 26.136813243416245 35.507982934215654 0 0 0
2455 1 0.7316942797893091 26.22705780425641 37.74176182634604 0 0 0
2525 1 5.232944056503113 23.441395585311263 35.058823957904316 0 0 0
2516 1 3.3154099653267295 21.512365869938147 35.843065751046765 0 0 0
4307 4 1.7285292749959087 24.29811015639863 37.159934445513414 0 0 0
2599 1 3.30494292383616 24.72763210267543 38.57511176860085 0 0 0
3805 4 3.0148304915787296 26.544163900499598 37.429435580422776 0 0 0
4332 4 3.5287254788298217 22.433828877056804 39.49713979642498 0 0 0
4064 4 4.488607922340984 22.263907857768206 37.482807683874306 0 0 0
4262 4 5.326006006388591 25.680322878738473 38.09761092724494 0 0 0
2658 1 5.601787422698845 26.23006407253715 35.737584433324436 0 0 0
2532 2 5.756471094200565 23.56434091097216 39.212927393227346 0 0 0
2686 1 6.62268137432272 24.208686418285684 37.053132286958984 0 0 0
2456 3 4.36046047678272 26.737685375889974 39.47167681296176 0 0 0
2453 2 7.338318358942569 24.0370401351342 34.50887639102925 0 0 0
2609 1 8.179424855113927 26.32006253660605 37.93585772033597 0 0 0
2459 2 7.174632184596588 25.285702115845865 40.22541619682385 0 0 0
4345 4 8.934156889437517 22.922535616028714 36.04989390267828 0 0 0
2657 1 15.638330239396545 21.900242783620598 38.55701060550161 0 0 0
4328 4 16.04073136068211 25.615397631650172 36.25576296191302 0 0 0
3994 4 15.851022469392698 24.940464232350575 38.63534141365943 0 0 0
2738 3 16.787491168954908 23.424320964327094 39.538785796171084 0 0 0
4314 4 14.371669193184623 22.65508718552381 36.849446062123086 0 0 0
4014 4 16.829265492062078 23.191760178216416 37.099246600242 0 0 0
4336 4 11.928065239263708 25.68070468780819 37.2457239305998 0 0 0
2678 3 12.979039126200595 27.19466392891758 39.25877727927873 0 0 0
2747 1 14.606212044287908 27.202001788644658 37.86040927075915 0 0 0
1938 1 17.7005316276476 24.62123738172817 35.037552963945735 0 0 0
3822 4 18.275324196121712 21.88268766078047 35.82143961983317 0 0 0
2749 1 17.7658373571938 26.216366447771456 37.6465753971835 0 0 0
2803 2 18.176274797985116 21.990844755965806 39.27328527517737 0 0 0
2804 1 19.06224256364986 23.376121283841805 37.44465892459806 0 0 0
2811 3 18.844976196552405 24.96870159174204 36.493159050101596 0 0 0
2881 1 21.89163547087829 22.933172410575697 37.69533145704242 0 0 0
2888 2 20.461386472752118 23.954042912323484 39.517196921348265 0 0 0
2889 1 20.363647573979 25.794901513145582 37.10281586066082 0 0 0
2893 2 19.451497679792517 26.68363574142581 39.79553076139504 0 0 0
3891 4 20.589047248138904 23.267867760927043 35.638404256961856 0 0 0
3949 4 18.347414995939964 24.650378430550525 39.27316487959631 0 0 0
3890 4 22.884744646717014 21.81329371104961 35.81759072636759 0 0 0
3961 4 22.126363763162242 25.06687697149419 38.310723444996846 0 0 0
1094 1 23.302259565905985 23.984924784309698 35.05215126953181 0 0 0
2115 2 -15.523466414011105 32.154384302071506 39.33598552795975 0 -1 0
1189 1 -14.16567878627713 29.736704539624043 35.023566824373844 0 0 0
2106 1 -15.252608853250313 29.305303363510752 37.89199315905251 0 0 0
2110 1 -17.243966291700904 31.292578723545198 37.3273448034495 0 0 0
2183 1 -13.805822654022482 31.618310206105427 37.42584722171739 0 0 0
3898 4 -15.604784965918245 28.095564302767137 35.76029944227795 0 0 0
3966 4 -13.691455907687963 27.56899995507824 38.02211975285729 0 0 0
2109 2 -17.018157388221315 29.635546494886196 39.5590188544893 1 0 0
2176 1 -12.184419204010148 29.144058068924405 37.356173105262144 0 0 0
2177 3 -11.28694830897085 27.81923385432924 36.07442475749632 0 0 0
2182 2 -13.467883336688296 29.570595261218575 39.579750991128165 0 0 0
2184 3 -12.54107700372429 30.62761846544428 35.969572779844675 0 0 0
3846 4 -10.582621285355387 31.41641902947901 35.91374464152829 0 0 0
3913 4 -9.68468745735139 29.082441042892313 36.51023103420892 0 0 0
3922 4 -6.824787331270853 32.207161548995224 37.31845317630955 0 -1 0
1354 1 -6.725873866660503 27.14405997732015 35.20929269533461 0 0 0
1449 1 -4.8578798732712745 29.51223834889267 35.00423047700136 0 0 0
2257 3 -8.042705322952955 27.82976669574649 36.3991418374236 0 0 0
2322 1 -6.454647880741856 28.84207675838816 37.42642906253162 0 0 0
2323 3 -5.116750790253109 27.690762617960416 36.238987552112995 0 0 0
2329 3 -6.373600054393382 30.508345311134388 36.14706558536821 0 0 0
2397 2 -4.8250608144034235 29.419427360969816 39.52051788396952 0 0 0
2398 1 -4.763257869046223 31.270345420663908 37.5887245568789 0 0 0
3921 4 -5.501058339741839 26.925227462334746 38.27543781122402 0 0 0
2475 2 -0.16907182005233423 32.21173704707323 38.88201333332764 0 -1 0
2403 2 -3.194070601481309 32.2124797380804 39.286422029211806 0 0 0
2394 2 -3.3439401471535337 26.987213427716927 39.78457174765144 0 0 0
2399 3 -3.3116240597866966 30.367731679749262 36.25227740541494 0 0 0
2469 2 -1.5822721832155064 29.462663995834003 39.83786744426873 0 0 0
3857 4 -3.1141269584807727 28.2509704170024 35.760152535646306 0 0 0
3864 4 -0.39314947081849283 28.64136630788211 35.83469692223908 0 0 0
3923 4 -1.793891446220174 27.094114165483344 37.84255183057011 0 0 0
3926 4 0.59438573028077 28.38378002385472 38.345824508946805 0 0 0
3927 4 -1.5999138287001529 30.5372301436905 37.62781729639279 0 0 0
3931 4 1.3960557786022143 30.50502959156779 37.18274879710545 0 0 0
2462 3 1.4489002936028896 27.86217531748677 36.42247169967769 0 0 0
2614 2 25.118357625348228 0.054283818871982935 39.87972081990469 0 0 0
2600 3 6.573883397327716 28.1654053919249 35.325193606084284 0 0 0
1710 1 4.731835420081378 29.219969098436266 35.428354016607294 0 0 0
1620 1 1.8096646562867917 29.583578813570927 35.089406959591976 0 0 0
4144 4 6.226729014301046 27.519605740992233 37.66888135692036 0 0 0
2529 3 4.15024034018173 27.47356102701515 36.15877200692061 0 0 0
2527 2 2.005837602580696 27.08344878940469 39.43780166252499 0 0 0
1628 1 3.3416236168346423 32.08393262540623 35.183914833284106 0 0 0
2528 1 2.8527580020115266 28.789786319204516 37.54397869456518 0 0 0
2534 3 3.39734128328881 30.482120053127208 36.43805463861481 0 0 0
2607 1 4.779197014639944 31.622981575037052 37.52065306205911 0 0 0
3995 4 2.802044627004051 29.482596648410908 39.80228241344164 0 0 0
4002 4 4.288810182642724 31.60794832399783 39.72832020147979 0 0 0
3944 4 4.902654906802592 29.5668848388808 37.487801871547894 0 0 0
2608 3 6.363968816293102 31.04880905358149 38.37583756018461 0 0 0
2606 3 4.361605825065908 28.013636382361963 38.73407883930483 0 0 0
4346 4 6.467188964523098 27.145404979043782 40.20902197433441 0 0 0
4008 4 8.220814808033595 26.788720949905446 35.75036934269773 0 0 0
3877 4 6.977421918026106 31.204675352155554 36.15633202331549 0 0 0
2605 1 7.348501893995092 29.40775791563253 37.1431703680019 0 0 0
1869 3 9.488637814272906 29.47312624612592 37.20302185649868 0 0 0
2522 2 10.406062062040398 27.753402471456457 37.48652401925099 0 0 0
4000 4 9.3749156706955 31.7355873759786 37.118441284456736 0 0 0
2753 1 11.535402325326363 30.55089439562789 36.70001029722257 0 0 0
2592 1 9.65350030280569 29.290727143004954 39.2055580536117 0 0 0
4001 4 10.61016249211541 28.916823986636242 35.63758644589332 0 0 0
3943 4 10.542137268503339 31.042326232087742 39.18625013136034 0 0 0
4347 4 12.03975632311915 28.819410061550315 38.61411873613844 0 0 0
1955 1 14.471794721282187 29.775601318463977 34.83861775422197 0 0 0
2588 3 14.503948943166012 27.859799869841837 35.82562230045745 0 0 0
2665 1 12.558812722549021 27.80676872465836 36.27973822653856 0 0 0
2603 3 12.470973384785285 30.01588767814285 35.257289211522185 0 0 0
4020 4 13.74482522320362 29.334576544527287 36.832728859591754 0 0 0
2674 1 15.983979143504595 29.686192568534924 39.44925577773142 0 0 0
2754 3 15.291092855632499 30.99703419938702 37.793849393998016 0 0 0
2822 3 15.446322780770124 30.840847541971144 36.389881104917464 0 0 0
3951 4 13.511062906801968 31.900633722221038 36.92719024966101 0 0 0
4026 4 15.378002664637552 31.907654739537744 39.71460904304748 0 0 0
2816 1 13.638988496521517 30.338454874345935 38.94169941092271 0 0 0
3950 4 16.234706692496157 28.743601540613998 36.94439533941242 0 0 0
2667 3 12.840427376679344 27.978266797372903 40.6124309792172 0 0 0
2815 3 17.2982298962689 27.982064577632883 38.520502033397925 0 0 0
2045 1 17.05820510451911 29.873754332741807 35.22079800719349 0 0 0
3956 4 17.326512828926973 30.70324900503402 37.46673362873341 0 0 0
3900 4 18.3969191957776 31.979231768342064 35.52418630356236 -1 -1 0
2049 2 18.59660279574547 32.13988729018229 39.36905748894078 0 0 0
2894 1 18.67877035327313 28.8960216483903 37.7467091739071 0 0 0
2901 3 18.826249487001874 29.854254676304656 36.23222833224812 0 0 0
3893 4 18.908975469776767 27.70925734824542 35.708242889202914 0 0 0
3962 4 20.49158934367338 27.770431463714264 38.050024279132174 0 0 0
2051 1 0.34259568966654297 1.8326862863863649 41.5680886019117 0 0 0
2125 1 0.06876036943258956 4.9145586856203405 44.384359773186006 0 0 0
4093 4 -1.10486433342649 3.4809212138556513 42.28575386808268 0 0 0
4164 4 0.10708336617849845 2.3461315843692354 44.41483085007163 0 0 0
2123 1 1.5143343866775547 4.623147665035091 41.13118364228317 0 0 0
2117 1 3.138590770451718 1.839325158104232 41.09637148735752 0 0 0
2191 1 6.209573684519382 1.862664315557879 41.31313867315236 0 0 0
2199 1 4.4562791886126405 4.291820722724175 41.473383464034896 0 0 0
2201 1 3.250936551948666 5.203335561074252 43.89636808811752 0 0 0
4036 4 5.500370038758895 2.6898846123886675 43.293050869393234 0 0 0
4097 4 1.8820523725349552 3.621441893390236 43.11707829819576 0 0 0
4104 4 4.020315984921829 0.5549520720445141 42.96632095924189 0 0 0
4041 4 5.812855793691989 5.16059309295164 43.16257421280038 0 0 0
2202 3 4.769307267908298 4.303438719683941 44.908038293892105 0 0 0
2194 3 7.393156474132213 0.902227050460055 42.80911915272153 0 0 0
2269 1 7.6929415109941885 2.5743863730854093 43.97296563938422 0 0 0
2271 3 10.73009442047031 0.6734588664326695 43.1255535024117 0 0 0
2274 1 7.7597919256351595 4.516447760912885 41.51800448781281 0 0 0
2276 3 9.251784093237465 3.5889805438945794 42.85904424701171 0 0 0
2337 1 10.71657721619765 2.4896082030330073 44.12652541074726 0 0 0
2344 1 10.852067752675882 4.4827841573107765 41.54085279957964 0 0 0
3985 4 9.146524120188884 1.661605579934067 41.93467306891021 0 0 0
2330 1 8.952606911122956 0.03274003202612004 43.83119627600367 0 1 0
2411 1 14.126725046044015 4.470730889067939 41.554546113124246 0 0 0
4050 4 12.369484470568153 0.5303797801816746 41.87042063423959 0 0 0
4051 4 12.982576569183037 3.0519848523873008 44.04973288592586 0 0 0
4057 4 15.370999210052116 0.4953663710334226 42.288079760639796 0 0 0
4058 4 15.456855389349913 3.2177692221976484 43.167210158699454 0 0 0
4133 4 16.40027856818662 4.821122005009595 44.87733908851382 0 0 0
2406 3 15.6006856028627 1.861343890422766 44.97013921609092 0 0 0
2476 1 19.196533882552433 1.3593003465400542 40.910128711159246 0 0 0
2477 3 20.198666491129227 0.860820041833136 43.23070621161863 0 0 0
2541 1 21.70003391308799 1.9205481187070115 42.12024820280425 0 0 0
2543 1 20.17445619197042 2.5375727218189223 44.52802568400913 0 0 0
2549 1 20.403935212278704 4.453828600133376 41.07250964760699 0 0 0
2552 3 21.574873436620365 3.623653701720144 43.04702980972084 0 0 0
2610 1 21.662915417951567 0.11997091748502596 44.64962490727115 0 0 0
4065 4 18.18573817050755 0.41988543104731607 42.689732986139965 0 0 0
4066 4 19.52328364210717 2.8768329548641893 42.511561710718844 0 0 0
4132 4 17.757888193157726 2.3405780733465624 44.76718740251151 0 0 0
2545 3 23.290802837226153 1.259245422643785 43.21694624525443 0 0 0
2616 1 24.71114247523677 1.722503009854774 41.63173537804849 0 0 0
2618 1 23.0828781341605 2.884293035540864 44.39918241765421 0 0 0
2620 3 26.335872748508564 1.0913587742738553 42.80933119208468 0 0 0
2623 1 23.505966196105987 4.39917530758207 41.80644913817101 0 0 0
4010 4 26.40412125648436 3.6521671052513605 41.176333992897696 0 0 0
4075 4 24.985900457607414 3.1640833437802898 43.30929393896926 0 0 0
2687 1 24.72191023596696 0.2478410644013843 44.20829545560512 0 1 0
4146 4 23.811090939847215 5.277439805466695 44.56334512956225 0 0 0
4021 4 31.909674750128296 4.001539347953953 40.79209203408893 0 0 0
2695 1 27.978564724305823 2.0066492866840973 41.52937385323687 0 0 0
2697 3 29.433885662333424 1.3644472322047358 42.71846242225457 0 0 0
2760 1 31.216476365750747 2.041438310441629 41.621473676435265 0 0 0
2761 1 29.79181528560739 2.6555823149621625 44.15088610734511 0 0 0
2768 3 31.332527597158702 3.3879200454818075 42.95015395011982 0 0 0
4015 4 29.456251945910303 3.970303164925668 42.32897208974623 0 0 0
4078 4 27.583136073139528 2.7218973116540983 43.61797949013241 0 0 0
2836 1 31.17565236948415 5.2136332438943835 43.631087231919594 0 0 0
2756 1 27.96736415691865 0.3329271953975285 43.82326454499829 0 1 0
2767 3 29.56592463561385 4.4473088216580585 44.72893849717634 0 0 0
2766 1 28.157666718207334 5.359994930071238 43.61632526553062 0 0 0
4084 4 31.254548383173734 0.3159748897503598 43.10217345979604 0 1 0
2112 1 37.26515976865667 0.0169324678889235 43.68022849242158 -1 0 0
2052 1 35.25436721045632 2.7562593153797197 44.171515973181236 0 0 0
2763 3 32.96927314585644 1.373742463798172 42.72356860885363 0 0 0
2829 1 32.50423122294181 2.5209655421245745 44.38820118885009 0 0 0
2831 3 36.0373499775102 1.2630654546791167 42.75065046644487 0 0 0
4027 4 33.330987826477845 1.7390789790032672 40.720218119660004 0 0 0
4090 4 33.40595427186975 3.7873624178423286 42.872285800690165 0 0 0
2904 1 34.57447697919821 0.33095091932064596 43.7098695461095 0 1 0
4166 4 -4.190094264654454 9.87390576447194 44.155923896481355 0 0 0
2063 3 -2.764421420924139 8.55872461928289 43.22004277213181 0 0 0
2131 1 0.009193297672861256 7.569321482323355 41.054499395432224 0 0 0
2133 1 -1.1046057708489232 7.486999456634993 43.6483968651502 0 0 0
2141 1 -1.5983534775028412 9.740383825122532 42.00191357699608 0 0 0
2143 3 0.07003015406985202 9.043852868015549 42.827281278653416 0 0 0
2209 1 1.5729048141282052 7.951095202125362 43.94260942124438 0 0 0
2212 1 1.4692326512929874 9.902768984299575 41.50769382315919 0 0 0
4032 4 -3.371445424943628 8.970731886866668 40.9997740226037 0 0 0
4094 4 -2.5146917499197317 6.705167693767329 42.098820699152924 0 0 0
4098 4 -0.042613105445235 5.819947584697373 42.38936464601891 0 0 0
4106 4 -1.2971281729567732 9.58805512258788 44.45595187366945 0 0 0
2055 1 -3.083367612547498 5.492483331179965 44.14521655773949 1 0 0
2135 3 2.013812945541387 6.168938408141099 42.63021266631568 0 0 0
2207 1 3.091338321332878 7.222966669404429 41.34050290042582 0 0 0
2215 3 3.0842125448444113 8.949672543337597 42.58810643333078 0 0 0
2281 1 4.468836613349103 8.16746655388024 43.98915317899016 0 0 0
2283 1 4.985537256569058 9.797370385339017 41.80849151996305 0 0 0
2285 1 2.904926980287218 10.455484864170192 43.95122597158233 0 0 0
2287 3 6.28332596384739 8.950686149924854 43.66090789014861 0 0 0
3973 4 5.027001363951941 6.345841879697156 40.56190118137411 0 0 0
3974 4 3.36182678386459 9.323496015646713 40.37873989868013 0 0 0
3982 4 6.104991942273061 8.67172708407784 40.020632748895466 0 0 0
4116 4 6.243351544534407 6.956451207068548 44.833549790389405 0 0 0
2210 3 3.288794423583818 6.857822452982274 44.94534392766115 0 0 0
3986 4 10.656885160794388 6.663681215384074 40.37335251518108 0 0 0
4043 4 9.818308686629122 5.496984991420734 43.52834599826152 0 0 0
4044 4 7.346681743346208 7.510493540624157 42.34403395095304 0 0 0
4052 4 11.107300964729095 7.627248526467211 43.257006733700905 0 0 0
4120 4 8.184322608649481 8.492240620882088 44.643483008122786 0 0 0
2413 1 12.558853301643673 5.392849040825067 44.02507734993838 0 0 0
2416 1 12.747652026191744 7.074499339090807 41.61290610353153 0 0 0
2418 3 14.482924530301142 6.199110709383829 42.944658024276464 0 0 0
2420 3 12.658728620966814 8.942555032904929 42.70611316081411 0 0 0
2487 1 15.583884609855968 7.241236910696468 41.17245336844721 0 0 0
2488 1 14.112768761913742 8.124745550493062 43.79621891488551 0 0 0
2491 1 13.955007244511815 10.04335003929082 41.71832229324824 0 0 0
2492 3 15.339438103432784 9.901220408851927 43.28079688299453 0 0 0
3989 4 11.96146643929606 8.99432278423796 40.63251340179777 0 0 0
4068 4 16.550482551849598 8.075229568135509 43.087112682441806 0 0 0
4135 4 13.481253565935425 10.19257715826586 44.32730179674144 0 0 0
4141 4 16.791081583352167 10.121433568783548 44.9109997612138 0 0 0
4067 4 16.937056403669363 5.632698542343116 42.03791333577091 0 0 0
2562 1 16.978658212915278 9.906000407996533 41.751118333032885 0 0 0
2556 1 18.57670993461212 7.357373920153818 41.546689771295505 0 0 0
2624 1 21.593821324269154 5.499748524149405 43.958657976774 0 0 0
2627 1 21.8580841498645 6.997916482112733 41.46422729261117 0 0 0
4073 4 19.55128561693836 9.229447673240449 42.89699205233354 0 0 0
4140 4 19.05981802157587 7.693790491218943 44.92329138742855 0 0 0
2630 3 23.56830530960385 6.228671810721669 42.71632852803367 0 0 0
2702 1 24.824006802804615 7.0711832569411115 41.121042481827 0 0 0
2774 1 26.640642825661534 7.76171553524737 43.96714577034518 0 0 0
2780 1 26.127926014069313 9.661578919103498 41.33847597576658 0 0 0
4076 4 22.4806419695686 7.690052018629443 43.79674803597193 0 0 0
4079 4 25.97740127670784 5.965251744044238 42.76229053563681 0 0 0
4080 4 24.758451181061293 8.416770697590207 42.94245968115503 0 0 0
4152 4 26.229638742962337 9.76200326509763 44.895051246281746 0 0 0
2703 3 24.59221410032368 7.386099034715688 44.84280797581539 0 0 0
2773 1 28.104400270261387 7.36686491039942 41.471202729670594 0 0 0
2776 3 29.53637479235909 6.306724237444364 42.81493300598565 0 0 0
2782 3 27.8292932305931 9.133497194076782 42.799561941295394 0 0 0
2842 1 29.557181754147305 8.011080034371263 44.021187478960975 0 0 0
2847 1 29.447812667187264 9.999872521607267 41.793050408562536 0 0 0
2850 3 31.039569337253784 9.041856921173322 42.95853717358448 0 0 0
4022 4 31.055238841350597 6.641441693608406 41.46843686716336 0 0 0
4023 4 28.0036263658411 9.432196157216808 40.23364889589006 0 0 0
4030 4 31.399783511604447 9.292604976504492 40.926725798208906 0 0 0
4161 4 31.930579731372777 7.321791178731907 43.93749089256228 0 0 0
2848 1 28.3228318620525 10.601709951588298 44.46851815559813 0 0 0
2062 1 31.007954424135367 10.74603733722558 43.95441242394273 -1 0 0
2843 3 32.79313648667304 5.855814383793389 42.44980834203752 0 0 0
2068 3 -4.657016483619834 11.17414470152873 42.5699216783111 0 0 0
2074 1 -7.554500691630104 15.351233988261228 41.74598273103313 0 0 0
2076 3 -6.044107210041659 13.972128109065814 42.56390771422167 0 0 0
2146 1 -4.528423251833663 13.01938537171779 43.529623455845666 0 0 0
2153 1 -4.504169497831858 14.880244709208338 41.18556848632953 0 0 0
4031 4 -6.405050403337116 12.06799644803723 41.814408088457085 0 0 0
4033 4 -3.4146923779400953 12.71358144420813 41.60611156042515 0 0 0
2066 1 -7.540765910109392 13.357787955210494 44.08687105703386 1 0 0
4099 4 -5.2184965266609 15.763078374624596 43.168413639973124 0 0 0
2147 3 -1.7333402378576208 11.446026274638678 43.141282414211894 0 0 0
2154 3 -3.1361557350972706 14.502300134277425 42.75251020463468 0 0 0
2213 1 0.16082403109262078 11.041331055287852 43.83287652366584 0 0 0
2218 1 -1.4754364302637146 13.56927706627711 43.65263034658558 0 0 0
2220 3 1.6210306173696756 11.48659594436051 42.66630090325573 0 0 0
2224 1 -1.5550091283464331 15.339481644507277 41.29131785137802 0 0 0
2228 3 -0.10540196990742068 14.643562841468704 42.7111182080707 0 0 0
3967 4 -0.43802396287237855 11.67926575247786 41.4884775192559 0 0 0
3976 4 0.4075049916678015 14.062433702509585 40.78264078860361 0 0 0
4118 4 1.3452721399164922 15.624583841690571 44.86593666144433 0 0 0
4107 4 -2.6148208341371646 12.089775185192597 44.910399317464424 0 0 0
4042 4 1.4693468254903275 13.419142119240721 43.44261984589765 0 0 0
2219 3 -0.0771099549562102 12.788653418106598 44.93686271820136 0 0 0
2290 3 4.352716226238169 11.481761350066014 42.635061857325034 0 0 0
2358 1 5.93898650039419 11.077740483182946 44.131099982049605 0 0 0
2364 1 6.242198177365214 12.464269099643232 41.466262860475894 0 0 0
3975 4 2.6145202331045363 11.883026009445286 40.86328024457031 0 0 0
3983 4 3.0757904882812 14.934218958551462 40.97792336257554 0 0 0
4045 4 4.752959987161811 13.519814359252969 42.67419266310579 0 0 0
4117 4 3.951145914348973 12.143334143440448 44.67976678113604 0 0 0
4053 4 5.644288250699557 15.849277550194396 42.07029782440157 0 0 0
2367 3 7.576937097973773 12.256214305842663 43.0789041630093 0 0 0
2426 1 9.487431813324513 12.5100995368016 41.48655958348106 0 0 0
2431 1 7.6058170981823086 14.893201952855266 41.350507256050804 0 0 0
2505 1 10.875940654892425 15.288487713343473 41.20987219019553 0 0 0
4060 4 11.192805104299453 13.737838344588951 42.68106955822365 0 0 0
4061 4 9.28482484519684 15.657008473000625 42.67172630925631 0 0 0
4127 4 7.541283204006337 13.644619151495561 44.90721334670861 0 0 0
2433 2 8.653134799774756 15.783849665722888 44.960583054253235 0 0 0
4137 4 10.707190028843451 14.67438726174496 44.98918560253809 0 0 0
4059 4 11.903454881975922 11.030475374254506 42.18788100201927 0 0 0
3997 4 16.71563463456878 11.721273109267138 40.31123462867278 0 0 0
2498 1 12.763242836813369 13.022600116241444 41.27985158065135 0 0 0
2499 3 13.703434292541072 11.922293372826593 42.936341429713394 0 0 0
2567 1 15.360645733411493 12.46927130963185 41.900752961018874 0 0 0
2568 1 13.982635140884799 13.8154415195922 43.77860055741625 0 0 0
2571 1 14.07813550379032 15.511332640363717 41.48172956842498 0 0 0
2575 3 15.545033977085438 14.37448281616131 42.575510842643034 0 0 0
3998 4 14.656040850380323 13.743250545372979 40.13515692432485 0 0 0
4136 4 12.353926009133392 12.494236381010825 44.62507120017791 0 0 0
4142 4 15.470487790422935 12.185515506417408 44.19190269543022 0 0 0
2573 1 12.510738060522511 15.864173329128043 43.88159400166371 0 0 0
4005 4 16.188512893258924 15.945314978184138 41.01627567675666 0 0 0
2635 1 18.6027248821409 10.920118360485953 44.00183291640317 0 0 0
2569 3 17.042308761033198 11.674297615515007 42.823819351155386 0 0 0
2638 1 18.63804072774806 12.217806075902043 41.56439621982179 0 0 0
2640 1 17.20119347253434 13.564949418737326 43.736413184340215 0 0 0
2642 3 20.165619359928826 11.52898946938155 42.69764175752794 0 0 0
2648 3 18.732156757167168 14.18010427080883 42.57586473291924 0 0 0
2713 1 21.806110484584803 12.627504081171821 41.16487185777551 0 0 0
2715 1 20.268007095283373 13.312258883404594 43.86149848917073 0 0 0
2721 1 20.065779191663086 14.940809047941359 41.222910029772464 0 0 0
2723 1 18.735139866166676 15.983606269774658 43.63131760302368 0 0 0
2725 3 21.783631773742712 14.218562711610565 42.564760459591334 0 0 0
4004 4 17.87531342486951 14.092403749605086 40.62867350018082 0 0 0
2790 1 21.696227489882485 15.85826651883722 43.85395404006493 0 0 0
2647 3 17.19193758143203 15.162481114237524 44.98335564223306 0 0 0
2784 1 23.32866837765739 13.683708134523904 43.9391266890152 0 0 0
2789 1 23.3580149488047 15.327881602392482 41.501428823871485 0 0 0
2792 3 24.900589582904363 14.706741547155907 42.95299150696578 0 0 0
2862 1 26.44572599650059 15.175085918830447 41.57323411398716 0 0 0
4081 4 22.18033802776985 11.876400692954727 43.28860968874696 0 0 0
4085 4 27.0879181923091 11.22290725504969 42.79075091800858 0 0 0
4086 4 24.14986313474353 13.112907178955313 41.74223498237115 0 0 0
4159 4 26.770220930464784 13.748292040394524 44.24693987637748 0 0 0
2075 1 27.8559713558723 15.984457527199778 44.09224609896921 0 0 0
2856 3 29.26864765118043 11.573758983399163 43.070611155617236 0 0 0
2866 3 28.1767793133867 14.18255066680559 42.71459350844811 0 0 0
4024 4 28.39231652682084 12.015129233472504 40.897686885118816 0 0 0
2079 1 -9.442385329869715 17.948248562677982 41.51855020935071 0 0 0
2086 1 -10.906364821607106 20.601330364706396 41.4162428167616 0 0 0
2090 3 -9.377613579783425 19.753910713685308 42.5545050721059 0 0 0
2081 1 -10.809162694977571 18.814039576711057 44.01630963033198 1 0 0
2161 1 -7.635213136639168 20.774865521899756 41.61533962917452 0 0 0
4037 4 -3.4441169253730086 18.456137681192622 43.102311147955085 0 0 0
4038 4 -5.295353810286804 20.533528836259226 42.69006672556823 0 0 0
4100 4 -7.19485850111896 18.36672585966066 41.836112394899516 0 0 0
4101 4 -7.927441837983386 19.74356197828018 44.14611054913412 0 0 0
2226 1 -3.1472404140786887 16.22473602581626 43.88364483334873 0 0 0
2235 3 -1.769287055160346 17.178922277374447 42.5697766164857 0 0 0
2295 1 -0.47470369258462597 16.277047709288475 43.866508753873845 0 0 0
2298 1 -0.09154673079244446 17.84605908076521 41.46776844905153 0 0 0
2300 1 -1.4144596875773239 18.918086935633642 43.91145713825984 0 0 0
2302 3 1.2478774676405582 16.62998658401035 42.853987507500264 0 0 0
2304 1 -3.358606419282113 21.346176648179966 43.890546101622476 0 0 0
2306 3 0.268967583452703 19.50188805197691 42.64981299805867 0 0 0
2378 1 1.5780368458754843 18.502709423114872 43.86769890614039 0 0 0
3977 4 -1.940282289606932 19.03228685369716 40.985891608003584 0 0 0
4046 4 3.2822060684089482 16.54868153130773 43.35895364323052 0 0 0
2376 1 2.384899940677345 17.056509786296143 41.22232830199759 0 0 0
2385 3 3.168502412454419 18.47827059701197 42.328646481485 0 0 0
2436 1 4.92332686964175 16.951877387750667 40.352479573262166 0 0 0
2438 1 4.696176308780739 18.158352558511233 43.72137818550352 0 0 0
2444 1 2.011972144471125 19.93657003675611 41.481860959014845 0 0 0
2447 3 6.000939211595213 17.828068917016097 41.87230990644064 0 0 0
2514 1 5.167269947749299 19.322181622363654 41.61253977964969 0 0 0
4054 4 3.1514030543137466 20.123184064672866 43.551235458167454 0 0 0
4337 4 6.610720127261375 21.17397224576975 41.25436956865749 0 0 0
4310 4 6.808005513267931 19.308137925181573 43.19981083393059 0 0 0
4324 4 3.780089394241285 20.962656953631086 40.92184636784786 0 0 0
2670 1 7.542799059077879 19.1948539253625 41.124974865310655 0 0 0
2587 1 7.082482889577735 17.014980467760225 43.29905666430815 0 0 0
4261 4 7.485472817160998 16.9593064631266 40.6702336463474 0 0 0
2445 1 10.007994688041082 17.486618689493707 41.0919887049463 0 0 0
2439 3 9.610842163800221 19.364301879995534 40.942154986351525 0 0 0
4344 4 8.82075037923877 18.283042345732046 42.89098216709469 0 0 0
2449 1 10.320810639215633 17.195289447871343 44.15909177930776 0 0 0
2446 3 8.43515737414959 17.723793211109147 44.79025091119615 0 0 0
4069 4 11.780861679279067 17.1073112026375 42.31515404200933 0 0 0
4343 4 11.713270924661392 19.609170613557616 41.451383828449984 0 0 0
2743 1 13.934257420803785 21.002196537485936 41.16505089374844 0 0 0
2646 1 15.515074562854576 16.23220535027066 43.99818719275762 0 0 0
2512 1 12.55050948723727 17.74580476386488 40.55179446105075 0 0 0
2668 3 13.801245864724299 19.15721989883282 40.62419535454597 0 0 0
2582 3 13.987898933957172 17.159517074924416 42.61223250858352 0 0 0
2651 1 15.476497389416256 18.093279743295444 41.22651272734973 0 0 0
2652 1 13.583835065345294 18.910472901624903 42.95320639607766 0 0 0
2660 3 15.472704971205472 20.04175422885681 42.20461463818596 0 0 0
4148 4 15.640263085104475 18.42232266222341 43.43946925897123 0 0 0
4194 4 13.395341498481843 17.7494783653666 44.67128107965092 0 0 0
2653 3 16.992893367244733 16.951282102068784 42.665629526149594 0 0 0
4279 4 17.243032255795008 20.33994097191346 43.3688760177934 0 0 0
2734 1 17.337051992733528 20.5537212160424 41.15892527744248 0 0 0
2798 1 20.07621247111966 21.16999322902308 40.859734630396034 0 0 0
4017 4 21.574268833534568 16.42603195920698 40.45765124900699 0 0 0
4082 4 18.342377802518037 18.43770579778077 42.03459942025783 0 0 0
4088 4 20.47558163109811 20.459335850702047 43.05618847096275 0 0 0
4154 4 20.270922373022863 17.206751130180997 44.97719305700042 0 0 0
4147 4 17.488254872074407 17.367070533921954 44.88293111719501 0 0 0
2088 1 24.826168385459454 21.444523537363793 44.25582411869623 0 0 0
2864 1 24.787947897783127 16.40391706408552 44.07770916120944 0 0 0
2873 3 26.56456857806335 16.895285216188405 42.977658299967835 0 0 0
4087 4 22.86146746252231 17.491406273981855 42.86852680964593 0 0 0
4091 4 25.307817672783546 18.319103016290196 42.09147569702191 0 0 0
4160 4 22.36719033762153 19.396836337331752 44.82508021242635 0 0 0
2102 1 -14.209854638697642 25.68505326735731 41.525676648454706 0 0 0
2097 1 -13.87452582756711 24.080920772407946 44.056394287300016 1 0 0
2096 1 -12.50440840786993 23.0550507143315 41.65400819079824 0 0 0
2099 3 -11.13178516985945 22.174544232107525 42.909777056364995 0 0 0
2103 3 -12.503865909142506 24.930419310680037 42.69052784425026 0 0 0
2168 1 -10.979824616909589 23.968245576188863 43.740583093015616 0 0 0
2172 1 -12.217003155659821 26.67050090326707 43.790778738098076 0 0 0
4035 4 -12.13416923946535 26.61232637388647 41.3563036735725 0 0 0
4102 4 -9.37170128796016 22.539216462954226 41.87376745043015 0 0 0
4110 4 -9.043570398206935 21.99857573295583 44.876653058206585 0 0 0
4111 4 -9.434978054706793 24.83831518272823 44.97089651236409 0 0 0
2240 1 -6.40857781996639 21.61662585066535 44.365574660282114 0 0 0
2246 1 -5.766201485654908 23.832160115425783 41.086545302544145 0 0 0
2248 3 -4.830976455103462 22.630076982605267 42.86279821009746 0 0 0
2254 3 -5.821824695665708 25.04277005695073 42.94287196033129 0 0 0
2313 1 -4.3894064190656685 24.183039642062806 44.063273416756765 0 0 0
2318 1 -4.356221292510094 26.12417307506478 42.19660872962849 0 0 0
3978 4 -6.355108190991485 26.353833758796846 41.288794182363695 0 0 0
3984 4 -3.7643395953456267 24.804488050035317 40.573217206661816 0 0 0
4039 4 -6.928846943172377 23.086834019109617 42.787086551119984 0 0 0
4040 4 -7.817072876428376 25.635200797552596 43.24104822714984 0 0 0
2319 1 -6.137837592004674 26.83643705200862 44.21937297380717 0 0 0
4047 4 0.20763876503650458 21.576372194288417 42.25907400823023 0 0 0
2311 1 -2.9083461096835137 23.151051184222638 41.78051668003074 0 0 0
2315 3 -1.6014687858491676 22.44514934546463 43.21528043925841 0 0 0
2321 3 -2.912207815600718 24.890093118494732 42.88894571963983 0 0 0
2392 1 -1.8620989214875827 26.217340464237118 41.73760862069096 0 0 0
2457 1 0.9083470386147763 25.6960704978542 41.61368150531622 0 0 0
2458 1 -0.22976415249808646 26.514063559319318 44.29645505161855 0 0 0
4048 4 -0.8620556515859299 24.17972083245386 42.02484565299883 0 0 0
4122 4 -0.23298396219430373 21.694192939775004 44.788075686879175 0 0 0
4123 4 -1.698935022148813 24.212809228630622 44.52130122601106 0 0 0
4055 4 1.4040722531144514 23.8323794402659 43.13339382621476 0 0 0
4124 4 -2.939513948115609 26.592106208763767 44.1113377115127 0 0 0
2602 3 6.616419703336559 23.39953349771677 41.21365801533597 0 0 0
2689 3 5.27954241314548 25.74390837567309 40.46521419839773 0 0 0
2452 1 1.7988921956732078 21.848262243377945 43.93337251000916 0 0 0
2519 1 2.312486612369515 25.526397024908942 43.586432735888174 0 0 0
2520 3 2.3506119444874347 21.762009478736417 42.15375686481792 0 0 0
4071 4 3.3367995689379413 25.335955962073452 40.57696835583954 0 0 0
2518 1 1.9034666873420445 23.171439178984876 41.235347814635844 0 0 0
2683 1 4.458059090932524 23.53930838896958 41.26516354058259 0 0 0
4338 4 4.623582813037428 22.249610827322964 43.03031807471153 0 0 0
2735 1 15.420492864263684 21.676214548027172 43.50165175690832 0 0 0
2750 3 15.974174701810696 25.377240043982642 41.203969050116875 0 0 0
4215 4 16.142976472712903 22.08446796635025 40.72892937569146 0 0 0
2806 1 16.727087310463332 25.052732355963574 43.6642530607233 0 0 0
4206 4 14.984718536917503 26.000972874544978 42.91072402289926 0 0 0
4013 4 15.509812407958034 23.785748338889853 42.447027648192346 0 0 0
2672 3 16.62149758441537 24.174407337689072 40.840320522547756 0 0 0
2675 2 14.003554845025532 25.642677149254244 39.769210720887486 0 0 0
4270 4 17.101166607394262 23.10393350755877 44.82113557752212 0 0 0
2745 3 17.378747087255295 23.824130103862863 41.90740827689475 0 0 0
2742 3 17.403777205722882 22.560486243447947 42.63852637964561 0 0 0
4214 4 18.790810628229664 24.25647784058296 43.4599703265698 0 0 0
2878 1 21.809370239748908 21.70418347088763 44.447275138869166 0 0 0
2800 1 18.731162984405067 21.9048979952554 43.601359111300376 0 0 0
2808 3 20.304767581445397 22.737736478023514 42.87570025793245 0 0 0
2882 1 21.777882722845373 23.18178792088271 41.54261796383471 0 0 0
2890 1 18.658576708802173 26.707082125446867 44.03128778951252 0 0 0
4018 4 18.86609774868849 22.90449905740681 41.24965612759329 0 0 0
4089 4 18.088734344177148 25.87649747861958 41.64364211894507 0 0 0
4092 4 20.720330394767714 25.329330627187005 41.540222070120706 0 0 0
4162 4 21.02441126954606 24.212159745356995 44.359820673503194 0 0 0
2885 3 23.213076288208487 22.412267958576304 43.08091300353999 0 0 0
2107 1 -15.308269274069726 28.79049743137047 41.22529024157541 0 0 0
2111 1 -17.136180244702516 31.33112611280917 41.40880797329782 0 0 0
2185 1 -13.873604862484981 31.450793397321657 41.251221161462816 0 0 0
4095 4 -14.297544763101484 27.396530116022 42.97019076661443 0 0 0
4103 4 -14.425171795003301 30.134622206950173 42.991474869292624 0 0 0
3971 4 -9.38506522130638 26.9574630451309 41.63673824111634 0 0 0
3980 4 -8.653893226704408 31.75119105617596 41.036632582769045 0 0 0
2266 1 -12.554736909491055 32.244375610941155 43.83539208795798 0 0 0
2178 1 -12.78429082036949 28.733027824029573 41.98283149757752 0 0 0
2180 3 -10.961739568737757 27.773772914228683 42.75675144024269 0 0 0
2187 3 -12.316098033329547 30.567861597721446 42.65586348184942 0 0 0
2252 1 -9.432194296502239 26.961012549041822 44.13358119993846 0 0 0
2259 1 -10.660987155328673 29.635642388509936 43.74183065117984 0 0 0
2264 1 -11.002319651306461 31.60002484764535 41.485202282409 0 0 0
2268 3 -9.396010322466896 30.590407936660394 42.654454680026504 0 0 0
3972 4 -10.74104989587551 29.405856178319954 41.441403256321344 0 0 0
4112 4 -12.546349366701374 29.782049946412528 44.727463295975404 0 0 0
2261 3 -7.640204963069438 27.70294000148685 42.81937274618663 0 0 0
2324 1 -6.031268412235878 28.565589372927935 41.670798160410484 0 0 0
2325 1 -7.704990145709024 29.618669246257923 43.77513181222872 0 0 0
2327 3 -4.548684978616141 27.786209712446663 43.14803042231183 0 0 0
2331 3 -6.688772721445515 30.689922920825964 42.11421950241804 0 0 0
2400 1 -4.685758339478163 31.22539624118182 41.29466197872023 0 0 0
3979 4 -8.174727015614687 29.265378340714733 41.50470734303666 0 0 0
4049 4 -5.111146404892077 29.808134098821782 43.2525469529158 0 0 0
4126 4 -5.437411874241658 32.1932127382831 44.235879500538104 0 0 0
2395 1 -3.2734932765587246 28.738461697346338 41.665710961224285 0 0 0
2396 3 -1.5630825277525044 27.95802590968714 43.10107257126895 0 0 0
2463 1 -0.0827926847397471 28.695422618022334 41.871440008278846 0 0 0
2466 3 1.3429142242383758 27.492214944636338 43.129589130053816 0 0 0
2470 1 -1.5130642850220326 31.70113170934697 40.9774640543529 0 0 0
2472 3 0.07774198208911187 30.59931099904555 43.23629772017226 0 0 0
2531 1 1.4188074990629609 29.35614967814367 44.309539198492466 0 0 0
2535 1 1.393168804059382 31.259518076329552 42.18260378862571 0 0 0
2537 1 0.18178557007017204 32.23196683029464 44.72259113166438 0 0 0
4056 4 -1.8513515824341784 30.130439480211255 42.63486299807381 0 0 0
4131 4 -2.2441350619243003 32.09776752431064 44.82380245250609 0 0 0
4130 4 -0.7297107319609069 29.903477746746876 44.96227694922831 0 0 0
2680 1 5.346878918467539 29.86025715309904 39.70363039722173 0 0 0
4202 4 6.70021255139978 28.136267271139673 42.53189312290824 0 0 0
3996 4 1.8293028885331637 31.96784808323595 40.1317207317837 0 0 0
2530 1 2.9174333759059685 28.134489310960834 41.579924806184025 0 0 0
2539 3 2.997969879992848 30.12874271239573 42.63990697020629 0 0 0
4072 4 3.339276709510159 32.11966106911737 42.42850124621139 0 0 0
4074 4 5.741846701783679 31.830629224762276 42.03673089935386 0 0 0
4145 4 4.573212846016407 30.686400431773798 44.126374869462275 0 0 0
4195 4 5.120433969994849 28.23503939344687 40.90110605231781 0 0 0
2688 3 4.2236658979201955 30.160959205104373 41.871453395133926 0 0 0
4348 4 4.702464706537221 26.404161611176026 43.78361206266839 0 0 0
2755 1 11.037924458496978 32.08898935513587 41.17751142855166 0 0 0
4269 4 7.363749942633294 29.721380327733044 39.527066878703884 0 0 0
4254 4 9.393831940828019 29.945621010599204 41.13325040568449 0 0 0
4281 4 7.601113732968269 30.862273159168513 44.20001499194022 0 0 0
2685 1 7.912494124207704 31.504657934749176 41.79053095663569 0 0 0
4083 4 11.921843684083427 29.941566668043468 42.203835751080284 0 0 0
4209 4 15.165030477235032 27.53093097873088 40.528449270929514 0 0 0
2669 2 13.235548779846926 27.447121024143406 42.3751675540448 0 0 0
2741 3 16.29087521888156 27.353340581223968 42.443015077450056 0 0 0
4313 4 13.934244055208428 29.769870960202674 41.195896631822045 0 0 0
2814 3 15.045468990604622 28.15098085811015 42.59365264512962 0 0 0
2818 1 14.016808644942476 29.766157171757587 43.29442928886162 0 0 0
2823 1 14.044116215657994 31.830196670110475 41.504208027234306 0 0 0
2825 3 15.55392365559296 30.896942345512006 42.65819966869645 0 0 0
4156 4 16.55215649214134 29.322743971622547 41.80273820086672 0 0 0
4157 4 14.606122714059133 31.278181679921627 44.68372632919318 0 0 0
4280 4 16.45204866749265 27.354175690031298 44.51347809025781 0 0 0
4210 4 13.965008810776833 28.074029598080408 44.52237752282452 0 0 0
4019 4 18.097439401153412 29.59894262316199 40.03230040394816 0 0 0
2813 1 17.35261558493812 26.971801234620873 40.14072041808524 0 0 0
2902 1 16.974834228969822 31.580539721535335 41.34034759839708 0 0 0
4096 4 19.31156098183754 30.111455208481924 44.03126562469521 -1 0 0
2820 3 17.572002307355906 27.79393361909194 42.87930014658275 0 0 0
2895 1 19.021260126398086 28.49916819695253 41.85497764291964 0 0 0
2897 1 17.139148575350415 29.59706066074096 43.9584159867562 0 0 0
2906 3 18.319918980874256 30.546228820492804 42.29326157686095 0 0 0
4163 4 20.62541027823388 27.807334894480032 44.27781320746376 0 0 0
2905 3 17.36007686281689 31.4128591788677 44.97871911028503 0 0 0
2054 1 -0.03150327240285833 3.069665915170518 46.54008071975112 0 0 0
2056 3 -1.558809254153314 4.336724233459175 45.49523036448356 0 0 0
4225 4 0.9538274967930587 4.84071087285149 47.278825513442214 0 0 0
2126 3 1.6569053111095768 4.160487621497877 45.30781614032534 0 0 0
4294 4 -0.8299282385568503 3.943205338612179 49.758544460955136 0 0 0
4298 4 1.2229654287839686 0.9146385961148743 49.86077209750133 0 0 0
4169 4 0.9176690346423794 0.0580696098661144 45.72952989970552 0 0 0
2907 2 0.21127750597413358 0.031747324836484986 47.97370529874396 1 1 0
2118 1 4.452482445676245 1.292132665629278 46.93148059532063 0 0 0
2119 2 4.234114058648889 2.9646490178228655 48.65621164720957 0 0 0
2124 1 3.0506283970743775 3.852042550359937 46.68556615111551 0 0 0
2188 2 6.218033654763226 0.3004234164598785 48.42764859234079 0 0 0
2193 3 5.857127148058041 1.6876448818659402 45.092318682947194 0 0 0
2200 1 6.2153395995723475 3.5453911798512325 46.12803693534329 0 0 0
2203 2 6.014903537953861 5.17792270427067 48.06076422325911 0 0 0
4105 4 3.710619243933768 2.4588239891473904 45.07677887169514 0 0 0
4234 4 1.9149216258231356 1.9282529830567467 47.26143932719835 0 0 0
4299 4 1.9855486900094665 3.523119264524729 49.268106794683206 0 0 0
2204 1 6.301040768831189 3.576877051055102 49.987676761964245 0 0 0
4115 4 7.967762099914129 4.671251733396698 45.01080125808867 0 0 0
2192 1 7.315576853829563 0.9661287812836304 46.21898927802416 0 0 0
2195 2 7.832679503277367 2.623526303151327 48.1955345074698 0 0 0
2270 3 9.101525979098971 1.7221603903149039 45.254423383240415 0 0 0
2275 1 9.286943967048062 3.6807190600508553 46.56160295605658 0 0 0
2346 3 11.017439907928285 4.247940378667015 45.26288670560848 0 0 0
4119 4 10.662632029146222 0.03107339704500648 45.197932951573115 0 0 0
4187 4 10.787973402155435 2.117313168582148 46.55162517055801 0 0 0
4243 4 10.715013299541068 3.672384843270245 48.535330962198756 0 0 0
4242 4 9.197323655344247 1.4497396274971368 49.76271588949672 0 0 0
4180 4 8.85065426779583 0.14672383599415187 47.50874151913313 0 1 0
2336 1 14.1495201867481 0.8951645645678467 46.13737673448241 0 0 0
2338 3 12.31344397675579 1.508380856298494 45.3165404934928 0 0 0
2339 2 13.97696750657146 2.4858826044073106 48.17411142961898 0 0 0
2345 1 12.606276700588886 3.460936388033859 46.322602496943 0 0 0
2347 2 12.481807501212337 5.158516213223873 48.124436801764865 0 0 0
2412 1 15.530066724584778 3.356767241221626 46.372141045519236 0 0 0
2414 3 14.198339530194643 4.4126230411887 45.08857592733251 0 0 0
4250 4 12.097628108686347 1.0446489760767836 48.958682901287894 0 0 0
2408 1 16.910813854486424 0.8775823411845444 49.848451353819385 0 0 0
4251 4 12.995506504768375 3.681751406674784 49.99408927541788 0 0 0
2405 1 17.076344566909086 1.0713480413737129 46.59062843376987 0 0 0
2407 2 17.22246639975323 2.873296237824139 48.31727622263554 0 0 0
2473 2 18.648229640144642 0.19849590501088255 48.274281826416725 0 0 0
2481 1 18.279606372527393 3.9720260589597403 46.41066686690893 0 0 0
2544 3 21.76057757700927 1.881949719859306 45.6762511935421 0 0 0
2550 1 21.39590795614124 3.692379642077995 46.5697949805435 0 0 0
2551 3 20.05250736698505 4.431496515278442 45.321439291113535 0 0 0
4197 4 19.519083840276657 1.5672749404036284 46.435895062140766 0 0 0
4203 4 21.778003489962806 1.7828567521932552 47.762484966714766 0 0 0
4259 4 19.79376981556036 3.5423537268095284 48.23630662435213 0 0 0
4264 4 20.299312773079794 0.9069915311808329 49.74836574943685 0 0 0
2542 1 23.6687689090391 1.5365895855288787 46.66001069350135 0 0 0
2617 1 26.45836736509962 1.461490867917207 46.31930065848324 0 0 0
2619 3 24.858301469655174 1.938017594574138 45.09201798105977 0 0 0
2621 2 26.80144114084369 2.688680052363778 48.32288688315738 0 0 0
4204 4 23.57142010950126 3.9136834911236162 47.29305309218593 0 0 0
4207 4 26.054479531909273 4.884535724371296 48.13829178315328 0 0 0
4265 4 22.33294980570044 3.815408797780234 49.688663276945995 0 0 0
4271 4 23.468466036011435 1.351719974922752 49.50544032304412 0 0 0
2612 2 25.298627417900484 0.620709127541418 48.38217606928654 0 1 0
2625 1 24.70540384473749 3.29462486285242 49.36029764686531 0 0 0
4158 4 29.8741502306013 0.45137478550601684 45.061784351668884 0 0 0
2696 3 28.28096027637729 1.797174392894963 45.316383871014 0 0 0
2762 3 31.06537947785406 2.103625123883464 45.53750599467965 0 0 0
2765 1 30.881546106519643 3.9988724677722747 46.30816325121981 0 0 0
4151 4 27.620100333250846 4.6211323525844685 45.641324148253354 0 0 0
4217 4 29.712220666898435 1.9945029679975768 47.12873964610634 0 0 0
4289 4 32.02483673432337 1.7628268761536547 49.1448081737438 0 0 0
2690 2 28.20917104928253 0.42489169326876064 48.14913832717021 0 1 0
4282 4 29.306947699239466 1.732007752210078 49.69179732813196 0 0 0
2770 1 30.794660924514538 3.6617865122987503 49.50055899376421 0 0 0
4283 4 29.196583919310868 5.364261897468228 49.19729863102207 0 0 0
2682 2 30.84434754666717 0.10954681092361779 48.073919787565934 0 1 0
2828 1 35.91783776859919 0.8382122145135088 46.20581202115971 0 0 0
2830 3 34.133470512841114 1.6327701744496992 45.385420496122165 0 0 0
2832 2 35.53536755337653 2.4022592264999623 48.24074942932146 0 0 0
2835 1 34.030348867198875 3.601179720086862 46.58989888339702 0 0 0
2837 3 32.5818887505644 4.506586911339476 45.07129042527983 0 0 0
4216 4 32.53345574648462 0.866387361208931 46.54877679315757 0 1 0
2839 1 33.77373362257967 3.4392262104076416 49.7057335042827 0 0 0
2851 2 -5.993465939441294 10.755166069546958 48.478833734801555 0 0 0
2059 1 -1.1491450930887668 6.046656350272124 46.7319403515324 0 0 0
2060 2 -1.32412969595573 7.944893497827633 48.298529144920565 0 0 0
2134 3 0.048726315570774226 7.043513514572533 45.27842788954173 0 0 0
2136 2 1.5366059554461167 8.051590263251043 48.233637858146025 0 0 0
2142 1 -0.13644790702395326 8.976081355859307 46.385202255706325 0 0 0
2214 3 1.2000703115715323 9.856771229479294 45.0837612685328 0 0 0
4165 4 -2.5464942450102157 7.453575695204142 45.3297765568435 0 0 0
4226 4 -2.385730289921064 9.723216516389591 47.21256644407806 0 0 0
4300 4 0.08774977592240907 6.311342921665059 49.08735290545452 0 0 0
2838 2 -2.7162140786742404 5.488805868026537 48.62402130606964 1 0 0
2064 1 -3.0412688756902755 9.137866770313135 49.57001624012941 0 0 0
2132 1 1.8529538783035289 6.506494041923359 46.29096511996655 0 0 0
2127 2 3.1173817962473303 5.636330576587956 48.37506560436971 0 0 0
2208 1 4.739846180727823 5.925560154886117 46.08813246591103 0 0 0
2284 1 6.118652615952406 8.918301724535835 45.90239292593558 0 0 0
2286 3 4.436968627703101 9.991756239156837 45.32056556592672 0 0 0
4175 4 4.7184576688306015 7.460383938999604 47.66904847078146 0 0 0
4176 4 2.811609292029531 8.659343400462554 45.91332868779487 0 0 0
4238 4 5.273024526589338 8.597040438789243 49.92390484369888 0 0 0
2216 1 2.918836730713833 9.263333626623702 49.87788318893183 0 0 0
2277 2 9.153370780049643 5.4994510069247395 48.33760099914496 0 0 0
4181 4 7.069300883043704 9.890201522811333 47.653238060208714 0 0 0
2280 1 7.603261335417235 6.474116663774768 46.6651898311452 0 0 0
2351 1 10.830320049451915 6.127125978991572 46.43608073793066 0 0 0
2352 3 9.10055165846642 6.736254064694433 45.328804933050336 0 0 0
2353 2 10.897605815499068 7.9149475359048145 48.304234187415936 0 0 0
2357 1 9.060595861073907 8.886119087031894 46.71546627098106 0 0 0
2359 3 7.509645965880056 10.241379038271392 45.51938886622949 0 0 0
4244 4 8.363392770445795 7.853301335220325 48.71826298021867 0 0 0
2354 1 11.029923955684634 5.8725302074289925 49.87772960380755 0 0 0
2417 3 12.388968967889927 7.281286287201005 45.00071457006034 0 0 0
2419 1 12.24999186606101 8.983560278129874 46.32571255387276 0 0 0
2421 2 12.381828779209933 10.642454519840706 48.29362350774097 0 0 0
4134 4 14.384752645577406 6.492007112400498 45.29465310560303 0 0 0
4191 4 16.628856656687734 5.991038575456267 47.15949693374829 0 0 0
4192 4 14.225130312856304 9.25230696012102 47.45117768410266 0 0 0
4256 4 14.6468454703983 5.582132940119813 49.03237357486314 0 0 0
2494 1 15.497342840446484 9.12339067033811 49.71787125391473 0 0 0
2422 1 12.730054847803949 8.700538760422306 49.777558747579924 0 0 0
2553 2 21.519807894757992 5.4231142147006235 48.26955216002716 0 0 0
2482 2 18.52653491888269 5.495182983683772 48.45546548893401 0 0 0
2557 1 19.947467796250177 6.26707957864397 46.523841435786395 0 0 0
2558 2 20.102573124231473 8.205958173457347 48.12531781677954 0 0 0
2563 1 18.457516727515504 9.209899710525304 46.56217512163975 0 0 0
2629 3 21.528982019084722 6.988793948145948 45.49517616916629 0 0 0
2634 1 21.60155230000927 8.993958647253939 46.28290162979888 0 0 0
2636 3 19.858657163407713 9.692080983097897 45.18102970885005 0 0 0
4273 4 20.66697205759708 10.53289120223019 48.33031509697741 0 0 0
2565 1 18.81113805745363 9.247424772798539 49.84862217565419 0 0 0
4272 4 21.56992623760037 8.36086143169081 49.988798078800095 0 0 0
2559 1 20.170353840679926 6.473234014911225 49.992954575732085 0 0 0
2628 1 23.191161853586625 6.310138223451419 46.52086544424874 0 0 0
2631 2 23.086706968555497 8.217338730919515 48.21597248485405 0 0 0
2707 1 24.8894239994883 8.685568372191007 46.5097289547778 0 0 0
4277 4 23.076202421219726 10.4356740193032 49.32515259449477 0 0 0
2709 1 24.958079412769976 8.981040460630622 49.6375455673489 0 0 0
2632 1 23.33218259289464 6.152830853841531 49.6863739436018 0 0 0
4222 4 31.92734157491353 9.178621323460792 46.638595596379496 -1 0 0
2769 2 31.347657523280443 5.627622848108056 48.11286969331073 0 0 0
2775 3 28.056509761961447 6.959357953102955 45.10806646160409 0 0 0
2781 1 27.86663259379952 8.889139642203597 46.368323625980906 0 0 0
2849 3 29.864209017358 9.60729469012009 45.476629231567784 0 0 0
4212 4 27.976451700354737 6.767611248940062 47.23976963836989 0 0 0
4218 4 30.089077319665808 6.281474189518337 45.53948167797112 0 0 0
4219 4 29.623698371370924 9.432907173434785 47.595849763294076 0 0 0
4284 4 27.459289019345093 8.79799000432945 49.00687957187107 0 0 0
4290 4 30.752244546588532 7.681394129258573 49.11661638504721 0 0 0
2067 3 -5.835450202560349 12.333217031477941 45.03127167278114 0 0 0
2069 2 -4.4630779884499585 13.583032957863926 48.208466701873185 0 0 0
2857 2 -7.684847074098895 13.573956776482687 48.46814904007598 0 0 0
4108 4 -3.729070088947462 14.412992169986248 45.06202394169931 0 0 0
4227 4 -4.777948759077743 11.752079180133054 46.73726704163536 0 0 0
4228 4 -6.472815836492305 13.742111759391207 46.46428569063538 0 0 0
4302 4 -4.910890051199188 15.608547113612062 49.523282927179054 0 0 0
2070 1 -4.422254005277152 11.823447413556023 49.97641957661892 0 0 0
2148 2 -1.2316941135965722 13.105031939489923 48.40214629099147 0 0 0
2225 1 -0.12439338050741888 14.287135442113755 46.301077037264044 0 0 0
2227 3 -1.7192640418919742 15.199748883443762 45.12010480466201 0 0 0
2229 2 -0.1810945181558683 15.911725825940877 48.17336794530305 0 0 0
4170 4 -0.40119886537665206 11.564748446269471 46.65638976131932 0 0 0
4171 4 -2.2347668201613686 14.890555942823093 47.21421674525764 0 0 0
4178 4 1.0030985989816203 13.72601277059336 48.19014803592573 0 0 0
2221 1 1.0700875460803667 11.84739566674922 49.518556902479204 0 0 0
2155 1 -2.8522448483300247 14.267627041214707 49.89295156631984 0 0 0
4121 4 4.83142645124483 14.503515687765988 45.064542530475904 0 0 0
2289 1 4.601328348685264 11.58321871088815 46.77434114113976 0 0 0
2291 2 5.021207305874743 13.321640549925286 48.5377745400231 0 0 0
2366 3 5.777478413849366 12.691293054902186 45.54780165418504 0 0 0
2371 1 6.351333384313536 14.472749528791896 46.831845010571115 0 0 0
4177 4 2.2277022923317222 11.113012720338805 46.44679756210923 0 0 0
4182 4 3.2999701743569796 13.650476643531603 46.99658219467996 0 0 0
4188 4 4.6841377849458254 15.586916854344775 47.9243214786049 0 0 0
4245 4 6.552495136359905 11.719220931175384 49.336007835738876 0 0 0
4183 4 2.178903700481044 16.0447117208695 48.32625904174476 0 0 0
2296 1 3.02740300110635 14.222629229825094 49.43061940352108 0 0 0
2372 2 6.74069772801538 15.948421797575117 48.89664073410785 0 0 0
2292 1 4.2064736851846645 11.54773848206826 49.935982968301346 0 0 0
2360 2 9.2250460917716 11.007306070507157 48.18845835119612 0 0 0
2365 1 7.461986328778918 11.858383584857691 46.618352219489715 0 0 0
2368 2 7.973414823159361 13.404115730836812 48.59434772641147 0 0 0
2427 1 10.969689984739581 11.559566057113244 46.4019677467125 0 0 0
2428 2 11.04107146397418 13.34461205605817 48.109307893249444 0 0 0
2432 1 9.20256167002293 14.070548392288883 46.65274250054423 0 0 0
4260 4 10.239178341389506 15.53305322455172 48.10897775331923 0 0 0
2493 2 15.399683505716897 11.120921466946603 48.31273326903334 0 0 0
2500 2 13.655473419373266 13.184806378905606 48.747632810547906 0 0 0
2506 1 12.554268212014389 14.029358533207906 46.36122150189732 0 0 0
2572 1 15.657955792903781 13.994321098549905 45.86889672705632 0 0 0
2574 3 13.982541779592442 15.288486789392197 45.26252207550841 0 0 0
4193 4 13.671325058437137 11.933871862870614 46.76359202702289 0 0 0
4199 4 14.340333337735197 14.823107333703641 47.3755921916438 0 0 0
4266 4 16.080056291789518 13.272588130125971 48.88736254295376 0 0 0
4267 4 14.370680347906722 15.244103086368222 49.83494087854788 0 0 0
2507 2 12.590989798753638 15.926625298085327 48.41034429991153 0 0 0
4205 4 16.308974341869295 16.128533318770366 46.59936831554541 0 0 0
4198 4 17.186362730484817 12.316267104941527 46.561927001443536 0 0 0
2564 2 18.30744309195328 10.99374374567626 48.22982980625075 0 0 0
2639 1 19.967273795152764 11.539840099802193 46.302037434177315 0 0 0
2641 3 18.59437503193591 12.61330201963954 45.03786781717842 0 0 0
2643 2 20.553298358767123 13.111618168486071 48.10455832692008 0 0 0
2645 1 18.60991281862443 14.264721740493972 46.35937057259358 0 0 0
2716 3 21.832512497518024 12.53310289008094 45.26225266332711 0 0 0
2722 1 21.866342125822207 14.291285224680642 46.33522413151307 0 0 0
2724 3 20.18232118481015 15.064682120674052 45.07138327470111 0 0 0
4275 4 18.45946213009678 16.025617125509733 49.084812827672344 0 0 0
4274 4 18.65695068018165 13.01609136400174 49.42638607634178 0 0 0
2708 2 24.990476117832554 10.843501244525951 47.95150150778909 0 0 0
4278 4 22.28242745801702 13.144848944560575 49.67558866870134 0 0 0
2714 1 22.5821151161951 11.706599000474414 47.44603866963561 0 0 0
2717 2 23.741183799299076 13.81064088532654 47.9867085066085 0 0 0
2785 2 26.511499683019842 13.221152734260771 48.30405201899472 0 0 0
2791 3 23.266431752970835 15.407307657853007 45.188647642988144 0 0 0
2865 3 26.363901477644312 15.554490254264765 45.35400285621889 0 0 0
4153 4 23.925044411186118 12.273151941747436 45.63286022186914 0 0 0
4220 4 25.41465608885671 14.120785883315143 46.42337176739401 0 0 0
4285 4 23.408750877600355 15.765824394880466 49.34328028326849 0 0 0
4291 4 26.372437392314048 15.619150455658096 48.385556144649875 0 0 0
2793 1 25.11944421283477 14.359769014343778 49.98869327642501 0 0 0
2783 2 27.950967610408618 10.904948185976155 48.157963836166154 0 0 0
2854 1 29.88376888735463 11.616204092238549 46.61824001593808 0 0 0
2855 3 28.286956828645533 12.582182805097062 45.44726014228136 0 0 0
2863 1 27.956634648228956 14.449812685558726 46.66802733955437 0 0 0
2858 1 29.522673999509472 11.551745664229564 49.94530715470823 0 0 0
2867 1 27.83518728603223 14.423439864802532 49.97477087514297 0 0 0
2082 3 -9.295924492536756 18.035912846344868 45.09514880917019 0 0 0
2087 1 -8.983010112776057 19.954678005834293 46.253208124050424 0 0 0
2089 3 -10.692703491320952 20.524072692414432 45.12650950362812 0 0 0
2091 2 -8.735038195422705 21.353830156968115 48.24605672734977 0 0 0
2874 2 -10.303817620315362 18.62092110819558 48.26635014871287 0 0 0
4296 4 -10.845812461873585 20.62784510293002 49.275663815072384 0 0 0
4295 4 -8.41426558767467 16.155464829854335 48.74596839610028 0 0 0
2080 1 -7.732935566821608 17.284283877485723 46.0900092579501 0 0 0
2083 2 -7.707901026250329 18.71596701460909 48.17328835145958 0 0 0
2162 1 -5.847238783487276 19.357892320720136 46.81998325489666 0 0 0
2241 3 -4.9105137408685815 20.406821544188304 45.15284210090585 0 0 0
4109 4 -5.042737084236751 17.998120628112847 45.03910055878574 0 0 0
4172 4 -3.5091218666057946 17.342273468329978 47.08939868981312 0 0 0
4173 4 -6.933756250988654 21.323945586380816 46.476307607213215 0 0 0
4229 4 -6.091981896659668 17.01125841201487 47.61858623315461 0 0 0
4235 4 -4.043391408043665 19.013831181027804 48.948147512477945 0 0 0
2233 1 -1.4576474257846321 17.000108561719454 46.342747502974554 0 0 0
2234 3 -2.877395796117935 17.89608662160986 45.125913463687226 0 0 0
2236 2 -1.5340646149916868 18.869449351963226 48.13441095399519 0 0 0
2239 1 -3.222602886685001 19.596645711730662 46.385631741911524 0 0 0
2299 1 1.4632671229354415 17.146022626478548 46.50613677978949 0 0 0
2301 3 0.04046119602240594 17.89288677412118 45.182867231709416 0 0 0
2303 1 -0.18945361834535213 19.8381067942393 46.14398005448823 0 0 0
2305 3 -1.9315139127230143 20.579573154700736 45.24267863657362 0 0 0
2384 3 1.5895332129692026 20.324603030580562 45.19959938076497 0 0 0
4062 4 1.554882663701278 19.24530034596687 47.26419255765308 0 0 0
4239 4 -0.36548576567145297 17.624413205144723 49.78588950054059 0 0 0
2307 2 -0.13709986435079813 21.444415632790562 48.07806150191882 0 0 0
4247 4 0.07250858389203785 20.26706610796297 49.994171993120794 0 0 0
4128 4 6.43006066278655 16.352139708029902 45.318027851913556 0 0 0
2377 1 3.971611702310339 16.407915319821704 45.873845695367926 0 0 0
2379 3 2.975933045438561 17.902707110077795 45.17251977472852 0 0 0
2383 1 3.3224759049832198 19.684672195445575 45.880829931059374 0 0 0
4246 4 2.2266694248100087 18.2685574222762 49.60594196864203 0 0 0
4253 4 4.240180213343214 18.12780533709697 47.34772751332402 0 0 0
2380 1 4.453526962570779 16.536883050403667 49.97478425402853 0 0 0
2440 2 9.933100789941792 18.213196055479788 46.1701753514497 0 0 0
2515 3 10.11415311424898 16.200697108328892 46.27331851600701 0 0 0
2437 1 8.019841976497654 17.00071269889584 46.957513231747214 0 0 0
2659 3 15.962483740127 20.994213218535126 45.89380030260344 0 0 0
4143 4 12.110434806161617 16.242534164436076 46.1956229870714 0 0 0
2581 3 15.48064722742977 18.05527351493147 45.51478090667576 0 0 0
2523 1 14.43542344092861 19.620857234287026 45.47174807848081 0 0 0
2580 1 14.182991424724374 16.846855299751073 46.580264574320026 0 0 0
2583 2 15.98886847643422 18.283472577097555 47.39125180698442 0 0 0
4200 4 13.460978400092642 18.611842687370824 47.409212022482194 0 0 0
2584 1 14.437555699762866 17.4988394869487 49.122292279364345 0 0 0
2662 1 16.516123930072595 20.421877421994694 48.414224592797964 0 0 0
2586 1 17.036655505926873 19.483233119415154 45.372536083704794 0 0 0
4276 4 16.98027001237697 18.26994663106554 49.471456407550235 0 0 0
2726 2 21.56659151525681 16.202658513018505 47.922034793548306 0 0 0
2661 2 19.031890245821987 21.19057477192297 48.36461143856323 0 0 0
2729 2 19.363043393652404 18.28813294674851 49.05296407692757 0 0 0
4155 4 19.452653106011706 20.62653712456045 45.513611111441186 0 0 0
4208 4 18.100342729739925 19.34209157759453 47.342265713811436 0 0 0
4213 4 20.775454726800657 18.356166186456594 47.20081227076445 0 0 0
2802 1 21.284767827191573 19.75354191723166 49.62407893488112 0 0 0
2795 1 22.635282208570008 17.39549045336118 45.9499209739172 0 0 0
2799 1 22.276506709460783 19.978428869863325 47.00670007954455 0 0 0
2871 1 26.57523026804119 17.0970270669191 46.44925508397303 0 0 0
2872 3 24.823420166715756 18.02132515317331 45.39882269111995 0 0 0
2877 1 25.09682966559242 19.625062777342755 46.7371981145667 0 0 0
2879 3 23.584130470174458 20.893036454633215 45.81627757981767 0 0 0
4221 4 24.417658234598434 16.402109233630938 46.807758337354635 0 0 0
4292 4 24.746395418749522 18.19089767719788 48.97902755142584 0 0 0
4293 4 23.840729760925065 20.77432855068006 48.48588593091794 0 0 0
2886 2 -14.184262428767818 24.6322114238822 48.42677786800484 1 0 0
4223 4 -13.523208546625392 24.713124117444526 46.145888634716165 0 0 0
2098 3 -12.282368604083903 23.1790300096034 45.180189074108256 0 0 0
2171 1 -9.445072096624752 25.660031653618 47.01513929720938 0 0 0
2173 3 -11.098851045760668 26.188818679222237 45.61993393354059 0 0 0
4230 4 -10.935781343507784 21.5577379464135 46.884001370474465 0 0 0
4231 4 -11.135571114272842 24.106768905889737 46.65133988867977 0 0 0
4232 4 -11.622930015312454 26.28924969790306 47.76007445245649 0 0 0
4297 4 -12.356757261913653 23.210733463479805 48.8251511656478 0 0 0
4304 4 -9.82578892435279 23.172578335636153 49.414060227739526 0 0 0
2175 1 -9.461874876726977 25.445988689631307 49.60171773611945 0 0 0
2104 1 -12.397276072344617 25.47333313874525 49.81496705563232 0 0 0
2163 2 -5.944600039268226 21.685760195154224 48.49230586872244 0 0 0
2247 1 -4.674969597907481 22.30422222737097 46.42559808838831 0 0 0
2253 3 -7.865266180435249 26.136345187408708 45.42558399769535 0 0 0
2320 3 -4.5002653794285195 25.699941157465965 45.392521591912306 0 0 0
4114 4 -6.332340272756205 24.583716028758644 45.09435897795111 0 0 0
4174 4 -8.010226527970552 23.67802350635762 47.66670756217416 0 0 0
4179 4 -5.473675857733092 23.950646774975006 47.87175516812817 0 0 0
4240 4 -4.483759199200135 25.567318517647205 49.620945251485544 0 0 0
2256 1 -6.792284025917107 25.045965774389067 49.54872458471149 0 0 0
2249 1 -4.44256339752333 23.120750094066345 49.78751284364425 0 0 0
2169 1 -7.64075641100623 22.691206925052455 49.97416900375734 0 0 0
2242 2 -3.0858203397026642 21.564675902387812 48.2839493352633 0 0 0
2312 1 -1.6659458147584694 22.51852892873072 46.378249559855064 0 0 0
2314 3 -3.2640880054220585 22.89164775171351 45.12112219029574 0 0 0
2316 2 -1.2815749617636563 24.139856190520337 48.24878381830252 0 0 0
4184 4 -3.2294758054430464 24.310332003257276 46.67920284415396 0 0 0
4189 4 -0.7882161681101696 26.15334251974473 46.89491329147827 0 0 0
4248 4 -1.8706487205814888 26.12704703661989 49.44288222748535 0 0 0
2389 2 1.186614932874459 24.336593939987353 47.91849014204376 0 0 0
2388 1 1.482062003484046 22.279945064445045 46.438413671281914 0 0 0
4129 4 1.1375854498940772 24.696496950152582 45.60474613070417 0 0 0
2390 1 1.198133927713048 22.610985615765433 49.69820880431963 0 0 0
2317 1 -1.4346189715928723 22.403097954191434 49.978628695794356 0 0 0
2393 1 0.1588845949127773 25.20538463191439 49.98613285161984 0 0 0
4268 4 18.796525626970542 25.983823996538355 48.424944002353115 0 0 0
4341 4 18.212505146458007 23.252833616057156 48.06053530137735 0 0 0
2739 1 17.779244530900655 21.928173664618143 46.305356284613275 0 0 0
2801 2 21.75978103047536 21.85718653581255 48.48360148102594 0 0 0
2805 1 20.372009230519375 22.505614248252634 46.535899307157855 0 0 0
2807 3 19.100166680975867 23.060199395280588 45.189013288762254 0 0 0
2809 2 20.228786028220146 24.23819061727056 48.297663875402044 0 0 0
2812 1 18.926125539949854 24.887934404110542 45.95070166712298 0 0 0
4224 4 21.40121847098498 25.58196349534647 46.85007512186357 0 0 0
2884 3 22.22995699128642 23.28438433849713 45.682971987773975 0 0 0
2883 1 23.804889240708757 22.527302788230237 46.9028967221542 0 0 0
2113 2 -15.6881599678794 32.27292981832652 48.36640379609496 0 -1 0
2899 2 -16.918873234253386 29.806395280451127 48.210188439180136 0 0 0
4168 4 -16.314630191464772 29.814945196066127 45.98983114141358 0 0 0
4233 4 -14.221181215949143 29.166852484217383 47.66390467399193 0 0 0
2891 2 -15.515340207922833 27.43564869585555 48.61850394738685 1 0 0
2114 1 -15.163769501464957 30.161668099605656 49.74902810063087 0 0 0
4113 4 -13.512047399241741 31.939958368665913 45.72343529639984 0 0 0
4167 4 -13.142543826153169 27.255436444971338 45.72799901685934 0 0 0
2174 2 -9.779422008153755 27.73520019518725 48.444923070557145 0 0 0
2179 1 -11.074546922825226 28.093259045501263 46.33035536480477 0 0 0
2186 1 -12.105855201320965 30.664818571386544 46.84628048868841 0 0 0
2260 3 -9.307234411214438 28.797449852933358 45.16004214439152 0 0 0
2265 1 -9.293964980230687 30.606610917260095 46.234831300898335 0 0 0
2267 3 -11.050789075223127 31.36965708226484 45.1461092781625 0 0 0
4236 4 -10.917077779140914 30.443031301416287 48.842746106882814 0 0 0
4305 4 -12.30493531964257 28.207870743777896 49.15739628489151 0 0 0
4185 4 -4.1551349045837025 27.1163750277849 46.96486997982047 0 0 0
2255 2 -6.03556769129341 27.06095212300108 48.35441933658417 0 0 0
2258 1 -7.753614416167565 27.94082271723944 46.47872181784913 0 0 0
2262 2 -7.541295213869654 29.902050322714437 48.02363173786672 0 0 0
2326 3 -6.1303643790052345 28.85806722188683 45.07088981552672 0 0 0
2328 2 -4.6026087450662985 29.608964781954317 47.94173665309722 0 0 0
4125 4 -4.157839889816637 29.576990843794814 45.63138039333837 0 0 0
4186 4 -5.946054080081128 31.549549040748722 47.1383461725715 0 0 0
4249 4 -3.7524663190624334 28.129517854429213 49.5215228271961 0 0 0
2332 1 -5.8792489838506015 31.023777404201056 49.468743735976076 0 0 0
4241 4 -8.319245497315986 31.174387157868075 49.82769548705935 0 0 0
2263 1 -7.705566166398322 28.189760535647036 49.82318064749025 0 0 0
2401 2 -3.357223008406617 32.06216640054197 48.110658288845514 0 0 0
2464 1 0.8742747780487434 27.800569474122085 47.106262337299654 0 0 0
2465 3 -0.2651349535078076 27.968449674110268 45.579813118639215 0 0 0
2471 1 0.05548347027205125 30.49849544101709 46.990433164403846 0 0 0
4190 4 -2.0985137542475876 29.818867308478048 47.659187356377956 0 0 0
4255 4 -0.41028650010254175 28.38988890437852 48.86715004413055 0 0 0
2538 3 1.5402385664979512 31.032991273923855 45.46688292092144 0 0 0
2402 1 -3.016657355272807 30.32250982827729 49.77660789153254 0 0 0
2474 1 -0.1986380796114986 30.543791220022378 49.773608492610194 0 0 0
2468 1 1.521074744784034 27.724363983635733 49.93497422480015 0 0 0
4139 4 1.7754309571090285 27.166912408399515 45.14695497887168 0 0 0
2467 2 1.7510306303237364 29.729446666821218 48.501975110331415 0 0 0
2536 1 3.353756761198486 29.53869398429597 46.45128116443784 0 0 0
2611 3 4.451961045344788 31.829212165688258 45.87191677740496 0 0 0
4196 4 2.1966038526465397 31.783152480422604 47.281279232852725 0 0 0
4263 4 3.319605624364307 31.12000665107656 49.564474219103936 0 0 0
2533 1 4.675014903828 31.559673287311256 47.857639976351614 0 0 0
4211 4 6.4870365035983575 31.873505161266618 46.29378999356167 0 0 0
4150 4 9.09030442918623 31.92024950800572 46.03853433576306 0 0 0
2613 1 7.652421652531668 30.778140462296115 47.95027278419457 0 0 0
2691 1 10.669320716642673 30.795785678539584 47.618612374753944 0 0 0
2819 3 15.501459570227862 29.136358245111186 45.22777646390708 0 0 0
2824 1 15.89379439311059 30.61015986551618 46.32058121841447 0 0 0
4288 4 14.884563610079237 31.080694049129022 48.32053358396253 0 0 0
2751 1 12.872644293716242 30.8781217937339 46.126031801050864 0 0 0
4286 4 18.79295559032374 28.279570492395138 48.163456184852784 0 0 0
2817 1 17.262294851915176 27.885391820431387 46.51732450378566 0 0 0
2821 2 17.19843019370235 29.870430990484298 48.242349111777614 0 0 0
2896 1 20.2906852298287 27.686751079690577 46.64601221883431 0 0 0
2898 3 18.736795845930807 28.46618713025465 45.277457439137294 0 0 0
2903 1 18.776289898471088 30.346889849586862 46.3656792855335 0 0 0
2908 1 18.850469255242142 30.747811271432223 49.89613089188973 0 0 0
2120 1 4.319692808543116 1.0440666512393673 50.12341797560845 0 0 0
2128 1 3.680777261838035 4.364613555744699 50.58683537743938 0 0 0
2278 1 9.021340235098219 3.7622509828817923 50.07743180564514 0 0 0
2340 1 14.137241245404693 0.9125175296239842 50.07284946367495 0 0 0
2483 1 18.529695806141625 3.7371092479998618 50.21956773665257 0 0 0
2622 1 26.94570282453973 0.9907439313341361 50.14265797786271 0 0 0
2698 1 27.907766276083837 3.594773126403607 50.144405981651225 0 0 0
2144 1 0.05132048152725499 8.801687858044238 50.128954521124065 0 0 0
4301 4 -1.8098240784339716 7.254822391172995 50.486642071903425 0 0 0
2137 1 2.0220174351478732 6.651163391463172 50.313438931220574 0 0 0
4237 4 6.45127513314967 6.063263307339734 50.1343044854184 0 0 0
4252 4 8.772763899019818 10.649788447340441 50.44652700554316 0 0 0
2852 1 31.584613735844385 9.36314323454119 50.46150453732413 0 0 0
2844 1 32.66635150764969 6.426145564397229 50.0240007311422 0 0 0
2149 1 -1.4921214329557877 11.481582908243803 50.23564487753331 0 0 0
2230 1 0.0027148248052455415 14.457005829659312 50.167028647764965 0 0 0
2373 1 6.3057981886215995 14.031097251713524 50.377479758854264 0 0 0
4258 4 8.637025807740875 15.08447346078515 50.051906068792704 0 0 0
4257 4 9.960250497812382 12.885174219270109 50.01571623071603 0 0 0
2501 1 13.787442152553389 11.355647148381687 50.274685162845294 0 0 0
2508 1 12.033883450254962 14.269465999411555 50.17335415418955 0 0 0
2786 1 26.413606608923693 11.402356358963925 50.02431791384935 0 0 0
2092 1 -8.893567580823246 19.600568393808437 50.102274372887074 0 0 0
2164 1 -6.100929267147757 20.135404400396308 50.18334442104898 0 0 0
4303 4 -6.577842430857845 17.937057004596333 50.04723645193755 0 0 0
2730 1 20.670136782154223 16.56481865544028 50.1507242276532 0 0 0
2736 1 18.243136418390762 20.032010852659628 50.35729574764209 0 0 0
2875 1 26.640953988101735 17.069349917112415 50.11887387453846 0 0 0
2810 1 20.079610401381185 22.60977709466843 50.11636030991238 0 0 0
2892 1 21.56102963378992 25.425066423588206 50.12009612836565 0 0 0
2887 1 23.173231643972997 22.71810747076048 50.17176547907237 0 0 0
2108 1 -14.039310141624904 27.692883393424797 50.56842343549545 0 0 0
2181 1 -10.738450626620079 27.63745009408396 50.710301623761914 0 0 0
2826 1 16.09199972871925 30.41206962685503 50.34425138438057 0 0 0
4287 4 17.705857480852046 28.7300896534532 50.32390821287558 0 0 0
2900 1 20.017290554501745 28.20100422894948 50.1373369407404 0 0 0

Velocities

2 0 0 0
3 0 0 0
9 0 0 0
90 0 0 0
2969 0 0 0
3032 0 0 0
81 0 0 0
82 0 0 0
2909 0 0 0
2910 0 0 0
2914 0 0 0
2975 0 0 0
170 0 0 0
250 0 0 0
251 0 0 0
255 0 0 0
256 0 0 0
257 0 0 0
351 0 0 0
356 0 0 0
2921 0 0 0
341 0 0 0
342 0 0 0
352 0 0 0
444 0 0 0
445 0 0 0
516 0 0 0
2924 0 0 0
2933 0 0 0
2992 0 0 0
2998 0 0 0
3003 0 0 0
436 0 0 0
511 0 0 0
517 0 0 0
596 0 0 0
603 0 0 0
604 0 0 0
2934 0 0 0
2939 0 0 0
3006 0 0 0
597 0 0 0
693 0 0 0
698 0 0 0
699 0 0 0
777 0 0 0
2948 0 0 0
3010 0 0 0
3018 0 0 0
3019 0 0 0
766 0 0 0
849 0 0 0
850 0 0 0
859 0 0 0
2953 0 0 0
2954 0 0 0
2955 0 0 0
2958 0 0 0
3022 0 0 0
3024 0 0 0
851 0 0 0
952 0 0 0
953 0 0 0
2963 0 0 0
24 0 0 0
3033 0 0 0
16 0 0 0
17 0 0 0
25 0 0 0
96 0 0 0
97 0 0 0
104 0 0 0
105 0 0 0
106 0 0 0
189 0 0 0
184 0 0 0
190 0 0 0
260 0 0 0
261 0 0 0
269 0 0 0
270 0 0 0
2915 0 0 0
2916 0 0 0
2983 0 0 0
2989 0 0 0
262 0 0 0
357 0 0 0
358 0 0 0
364 0 0 0
2925 0 0 0
2926 0 0 0
2993 0 0 0
453 0 0 0
454 0 0 0
523 0 0 0
530 0 0 0
537 0 0 0
626 0 0 0
2935 0 0 0
2999 0 0 0
524 0 0 0
610 0 0 0
611 0 0 0
617 0 0 0
618 0 0 0
708 0 0 0
715 0 0 0
792 0 0 0
2941 0 0 0
2942 0 0 0
778 0 0 0
783 0 0 0
784 0 0 0
785 0 0 0
875 0 0 0
876 0 0 0
882 0 0 0
2949 0 0 0
867 0 0 0
868 0 0 0
869 0 0 0
877 0 0 0
963 0 0 0
970 0 0 0
971 0 0 0
972 0 0 0
2964 0 0 0
23 0 0 0
964 0 0 0
119 0 0 0
120 0 0 0
127 0 0 0
2970 0 0 0
2971 0 0 0
111 0 0 0
112 0 0 0
113 0 0 0
121 0 0 0
203 0 0 0
285 0 0 0
2917 0 0 0
2976 0 0 0
2985 0 0 0
277 0 0 0
286 0 0 0
372 0 0 0
373 0 0 0
380 0 0 0
381 0 0 0
389 0 0 0
475 0 0 0
2984 0 0 0
374 0 0 0
466 0 0 0
470 0 0 0
545 0 0 0
550 0 0 0
2927 0 0 0
2928 0 0 0
2937 0 0 0
538 0 0 0
627 0 0 0
637 0 0 0
638 0 0 0
639 0 0 0
644 0 0 0
2936 0 0 0
3007 0 0 0
628 0 0 0
725 0 0 0
901 0 0 0
2943 0 0 0
2950 0 0 0
3011 0 0 0
3012 0 0 0
3020 0 0 0
883 0 0 0
884 0 0 0
892 0 0 0
893 0 0 0
984 0 0 0
985 0 0 0
2956 0 0 0
38 0 0 0
986 0 0 0
2965 0 0 0
3025 0 0 0
3035 0 0 0
39 0 0 0
44 0 0 0
2972 0 0 0
40 0 0 0
128 0 0 0
135 0 0 0
136 0 0 0
2911 0 0 0
2918 0 0 0
2977 0 0 0
2978 0 0 0
210 0 0 0
294 0 0 0
295 0 0 0
299 0 0 0
300 0 0 0
396 0 0 0
406 0 0 0
2986 0 0 0
2987 0 0 0
390 0 0 0
397 0 0 0
398 0 0 0
486 0 0 0
2929 0 0 0
2930 0 0 0
556 0 0 0
557 0 0 0
558 0 0 0
654 0 0 0
655 0 0 0
2938 0 0 0
645 0 0 0
646 0 0 0
656 0 0 0
728 0 0 0
818 0 0 0
2944 0 0 0
2951 0 0 0
3013 0 0 0
3014 0 0 0
729 0 0 0
805 0 0 0
806 0 0 0
807 0 0 0
902 0 0 0
912 0 0 0
913 0 0 0
914 0 0 0
922 0 0 0
2957 0 0 0
3021 0 0 0
43 0 0 0
903 0 0 0
991 0 0 0
2959 0 0 0
2966 0 0 0
3026 0 0 0
3027 0 0 0
60 0 0 0
53 0 0 0
54 0 0 0
61 0 0 0
146 0 0 0
150 0 0 0
151 0 0 0
2913 0 0 0
2973 0 0 0
2980 0 0 0
222 0 0 0
223 0 0 0
224 0 0 0
229 0 0 0
315 0 0 0
316 0 0 0
2912 0 0 0
2920 0 0 0
2979 0 0 0
2991 0 0 0
308 0 0 0
309 0 0 0
407 0 0 0
497 0 0 0
2922 0 0 0
2990 0 0 0
2995 0 0 0
408 0 0 0
562 0 0 0
563 0 0 0
573 0 0 0
574 0 0 0
575 0 0 0
2931 0 0 0
2932 0 0 0
3001 0 0 0
564 0 0 0
659 0 0 0
660 0 0 0
667 0 0 0
2945 0 0 0
3008 0 0 0
3009 0 0 0
742 0 0 0
743 0 0 0
750 0 0 0
819 0 0 0
826 0 0 0
827 0 0 0
828 0 0 0
2952 0 0 0
3015 0 0 0
3016 0 0 0
923 0 0 0
924 0 0 0
930 0 0 0
931 0 0 0
932 0 0 0
999 0 0 0
1000 0 0 0
2960 0 0 0
2967 0 0 0
3028 0 0 0
1001 0 0 0
71 0 0 0
75 0 0 0
76 0 0 0
80 0 0 0
163 0 0 0
2974 0 0 0
3036 0 0 0
3037 0 0 0
156 0 0 0
157 0 0 0
158 0 0 0
164 0 0 0
236 0 0 0
2919 0 0 0
2981 0 0 0
2982 0 0 0
237 0 0 0
325 0 0 0
326 0 0 0
327 0 0 0
334 0 0 0
340 0 0 0
431 0 0 0
432 0 0 0
2997 0 0 0
424 0 0 0
425 0 0 0
433 0 0 0
498 0 0 0
504 0 0 0
505 0 0 0
587 0 0 0
2923 0 0 0
3002 0 0 0
499 0 0 0
580 0 0 0
581 0 0 0
582 0 0 0
588 0 0 0
589 0 0 0
675 0 0 0
681 0 0 0
682 0 0 0
692 0 0 0
2940 0 0 0
3005 0 0 0
756 0 0 0
760 0 0 0
765 0 0 0
841 0 0 0
842 0 0 0
2946 0 0 0
2947 0 0 0
835 0 0 0
836 0 0 0
837 0 0 0
843 0 0 0
939 0 0 0
946 0 0 0
2962 0 0 0
3023 0 0 0
3031 0 0 0
1 0 0 0
74 0 0 0
1015 0 0 0
2961 0 0 0
2968 0 0 0
3030 0 0 0
4 0 0 0
5 0 0 0
12 0 0 0
91 0 0 0
93 5.616217636195627 -4.578101375988216 3.6112594564336855
3105 0 0 0
3166 -0.09573021235197995 -1.2955879224998286 1.9899212764449516
83 0 0 0
85 0 0 0
94 0 0 0
171 0 0 0
173 -2.8841978281714975 -2.49849600534841 1.5531486837698076
174 1.823260292270429 -0.17613275316792082 5.884761093527184
177 0 0 0
180 3.8950659708466677 -1.4488709013052623 5.568978821667585
181 0 0 0
3110 0 0 0
3111 -1.1623579612900146 -2.2029378425456243 0.9833898208993165
179 2.828533527113226 0.9177246123828974 -0.07293977073057192
3170 1.4747571765702268 -1.9087783653245278 -1.6737763520390383
175 0 0 0
252 0 0 0
254 0 0 0
258 0 0 0
3044 0 0 0
3049 0 0 0
3121 -1.2896102127429256 -0.5493632720925303 -0.9322647028939083
3122 -3.401746087404298 -1.7352031905221736 -1.702753489541983
3123 1.1736944501170201 1.3678417967194145 -0.033129531185432604
343 0 0 0
345 -4.977779298586167 6.107729327894703 -4.861318515621914
346 0 0 0
438 5.508401691025841 -0.943416474107172 -1.8365490047170894
439 6.409814427985324 -4.714835716622672 5.952952342961701
449 0 0 0
507 -2.5237671583326375 -0.006751653320285872 0.7294518822310031
519 -0.83428681053274 0.524388206378122 -1.2024969085825143
447 -1.8098078658896046 -3.2695912313542204 3.951504728212688
435 -0.804773350526527 2.119253617807109 0.2422194410310971
513 -0.9573876059908243 -5.509326458215636 2.641712617154178
514 -5.685474545234827 -1.3910017732192919 5.3575529884900845
515 0 0 0
518 0 0 0
520 0 0 0
599 -1.1209507168913535 -0.2764246353821457 -1.9644121429438777
600 -2.8570554730372737 -4.135774112181009 0.6651909561728581
605 0 0 0
607 0 0 0
702 -2.1156070758063192 -1.1860117402459973 1.16163362751847
3063 0 0 0
3137 3.4724326654634714 -1.300933647686767 0.5522505165568863
591 3.8700594776128647 1.1358192312300588 -0.2495701852010252
694 3.359647809987461 -1.026395968535722 1.396845938310357
700 0 0 0
703 -2.436825308980862 -3.8527517275140175 -7.657559556959835
768 -0.3298692112924628 6.038789320849432 1.9024681477942174
774 4.595046054481315 0.43955745059542833 -2.568918791582191
3074 0 0 0
3075 0 0 0
3082 0 0 0
767 0 0 0
769 0 0 0
775 0 0 0
852 0 0 0
854 2.0404080340799853 2.641479066343413 -2.3290877900842757
855 -0.8996807029717087 1.3138234897518497 5.462550589265196
862 -8.334989506333585 -1.1301862621255356 1.4669559235792842
863 0 0 0
949 0 0 0
3150 -0.6446768707778394 -0.4912787165942148 -1.1171849768875164
856 0 0 0
954 0 0 0
955 2.3546511797107126 2.3826557626169778 0.4809490966633094
959 4.090901247114394 1.8259724638066774 1.8811162006152222
960 0 0 0
1024 2.3316562857282435 0.5811562684045185 1.9484082071636608
3099 0 0 0
3162 1.327632601022391 0.23222355852079057 0.7623323690713842
26 0 0 0
28 -4.791072532838928 5.289078678906113 4.637429381631765
3101 0 0 0
92 -0.5264929067276045 -3.1531187808559307 -1.0222194669947782
11 4.632002866304797 1.9871207115000762 2.4783516628349074
98 0 0 0
100 0 0 0
107 0 0 0
193 -0.8714598688694181 -0.1379471232243042 7.780120803553085
3039 0 0 0
3100 0 0 0
3106 0 0 0
3112 0.009345721650470828 0.48976036043199556 -0.2582017780296872
3167 -0.9232459563915103 0.3253727816516615 -0.7880357385491866
185 0 0 0
187 0.4769914080249412 3.0738282694231414 5.024129703991239
188 0 0 0
272 1.5191452404748491 0.5172161093752379 -0.23709080416307263
273 -9.49047718161934 -2.7854480907154673 -0.3092701539276506
366 2.895797802258242 0.39668351118906653 4.078719978732238
3038 0 0 0
3045 0 0 0
3046 0 0 0
186 1.4919621147636846 -1.2832484630270184 0.5243512042310343
264 6.041127475613837 4.304911247181131 3.372948454104526
360 -4.686665210735505 -0.19063153152768747 2.1097212996986636
367 -3.465720185393995 -0.26247502936153555 1.7194680998231102
368 0 0 0
455 -1.2241722605156264 0.4559689741989428 -2.6426898419893705
459 0 0 0
462 5.364357972540654 3.6578060401907035 -8.420335468777175
2994 0 0 0
3050 0 0 0
3051 0 0 0
461 -2.366091198507346 -2.0040992996425135 2.8040632243022054
456 -0.6504099713109013 0.10675314940524407 2.069908059686619
457 0 0 0
463 0 0 0
525 1.6374906114551098 -0.6686632185513011 0.5407596884886269
526 11.039592548816586 2.0783455034767626 6.327756751163797
531 0 0 0
533 -2.3317332281538508 2.536008819811506 -0.014529884043466362
534 -12.870447060147793 -5.383309878323713 3.1850141128795495
535 0 0 0
3000 0 0 0
3004 0 0 0
3052 0 0 0
621 1.9054651977385653 4.093209962731316 0.8194076041732047
527 0 0 0
612 -0.2800812328829159 1.6140292861475105 1.855620554773665
619 0 0 0
622 0.16783016897490496 1.3941461282645549 -2.9416465214147474
716 0 0 0
719 1.2781547481527096 7.23734314645615 -5.800383597420727
788 -1.1773566678837373 -0.22756244309053694 -2.4647043684636936
3068 0 0 0
3069 0 0 0
3141 2.339090738589973 -0.8678957203098462 -2.5712755853060325
773 1.975714244402416 -2.7259737398024058 -2.1711449898134014
710 0 0 0
779 0 0 0
780 0 0 0
786 0 0 0
789 -9.22170865515749 -0.9184914203473675 1.701629703082784
3076 0 0 0
3083 0 0 0
3151 0.8144202971331956 0.3198860949100913 1.599213348755621
958 3.131346480905076 -3.6092889664117 1.4451437483575769
27 -2.0653198959376047 6.251054628037354 1.9521498168700435
861 2.2998883558228895 -1.4829794877737463 -1.470521874620644
870 0 0 0
872 0 0 0
965 0 0 0
967 -4.978236626670063 -2.504324684019583 -3.1504646357135813
974 0 0 0
3087 0 0 0
3156 1.8833141600481533 -2.41157470650922 -1.3190544900705974
3157 -0.39735329538169306 1.506008104172552 0.23796811202626178
3093 0 0 0
31 -3.75525783198871 2.6032365486778835 -1.825352166697577
32 0 0 0
35 0 0 0
36 0 0 0
115 2.490505794546447 -3.8715114187264636 -0.9940455323603593
122 0 0 0
3034 0 0 0
3102 0 0 0
3114 2.550571927861945 0.6583503791267227 -0.7884597443991415
192 0.39151839911892994 1.8396302478498634 -2.0582372562166262
108 0.800927503994069 1.2884426144241286 0.033093825941014926
114 0 0 0
116 -8.67137038157354 2.5151110079130694 -4.677829175473976
117 0 0 0
123 0 0 0
198 1.3559839335257524 -3.177767753082883 0.6891964375318085
205 2.0827486656453034 -1.7209069408361293 7.6830876429494355
206 0 0 0
279 -0.47025287826185447 -0.663630871544513 0.6192311721225476
287 0 0 0
290 -7.294509532937603 3.789086891421609 5.7251696324216885
3040 0 0 0
199 2.1895848121794708 -8.165437402098567 3.5910459198893396
280 2.718943566173888 -0.05211361978689473 0.4823245951738847
291 0 0 0
375 0 0 0
376 3.7638116888714093 -0.41398860377984575 2.265189010505892
382 0 0 0
383 -4.875978142862764 -0.8075471664082358 1.6999321484067644
384 4.575462286838502 1.8005868754178445 2.417726068880716
3047 0 0 0
3054 0 0 0
377 0 0 0
467 0 0 0
469 0 0 0
471 0 0 0
472 0 0 0
546 0 0 0
3053 0 0 0
3125 0.1805865284891914 0.30107222092496005 0.06003928525321259
3131 -2.3386013065151956 0.5349971728400886 0.1966550503629903
3132 -1.7450600837180852 -2.1359502884695694 1.2528730296728292
539 0 0 0
540 0 0 0
629 0 0 0
631 4.655510266336895 -2.54172255489047 6.315775504235441
3064 0 0 0
3065 0 0 0
3070 0 0 0
3071 0 0 0
3142 2.4124401323964357 0.36908879389927274 -1.9826544623398017
718 -0.5474278956848584 -1.8058180374663435 1.0698325710388144
632 0 0 0
720 3.5971859084988917 -0.8352400178190628 -5.072543902236642
721 0 0 0
726 0 0 0
793 0 0 0
795 -1.1272551937212456 -1.729390781980216 0.49642736446894686
801 -6.498376763234285 -2.6538317248809964 0.3828363837677997
802 0 0 0
896 -2.149278828979193 0.6665726516784398 -2.484175475194465
3077 0 0 0
3147 -2.7865005186742358 1.5623213045133253 -3.7307288691767297
800 3.904077501070948 -0.7046431450506319 1.7872846865449312
878 -2.995495951421777 2.4482670580246846 -3.856379198710308
796 0 0 0
885 0 0 0
887 -0.9534459883456189 0.9932390256028589 -1.7742183810212628
888 -1.8414484125030166 4.480747184004879 -3.3493063504284577
894 0 0 0
897 0 0 0
979 1.2385646289921568 -0.25638388987413896 3.646704163489996
987 0 0 0
3088 0 0 0
3089 0 0 0
3095 0 0 0
3152 -0.27147615660706736 0.741190953797106 0.3058024517913356
30 0.7060416451272699 3.4627166873466684 0.9876010498430262
980 -7.723045565752537 1.4871383013406454 -2.689400896869214
989 0 0 0
3094 0 0 0
41 0 0 0
45 0 0 0
48 2.1423738015507263 -1.6477584367612104 4.798928651272277
3103 0 0 0
139 -1.2707737099320657 1.3900884459103882 -1.7400180715300746
129 0 0 0
130 5.1626567121440585 -0.5793156666758387 1.500858553975373
137 0 0 0
140 -1.9162601696279926 3.714365310142832 -4.620729106441419
141 0 0 0
218 3.229463091774971 -2.755559919106913 -3.894980421435416
3041 0 0 0
3107 0 0 0
217 0.28973027213241537 0.2678531645728912 -2.408477904718626
3115 -0.8190845925251531 -0.5530694228858217 -0.5971742482065031
289 -0.1930749559942038 -0.17633776955467861 0.33257003784134986
296 -3.1952614260137144 -2.1043898357499975 -0.3034881981326847
297 5.864268364354613 -4.125055800597236 0.5040211007238315
298 0 0 0
304 0 0 0
393 1.139764740629433 -0.3822563546709163 0.046628219014101205
399 0 0 0
3048 0 0 0
3118 2.1071368786959996 -0.23943477678905695 0.964510613121046
400 2.2272701064699345 -0.47040315357776064 1.7032029169427867
303 -5.115770495203239 -3.9841247857419013 1.193399771519909
391 0 0 0
401 4.807963842457315 0.4251620544759598 -3.6687137465066217
402 0 0 0
481 2.5727607576951144 -0.5951229703391638 2.0902354850020988
3055 0 0 0
3059 0 0 0
3126 -0.6426905159084786 3.256677675148707 1.448979794361815
3127 1.7050514765762261 0.4161670552374419 -1.9157893773147785
547 -1.640206974062491 -4.544214437254452 -3.9168526499237903
551 0 0 0
553 4.735743611739276 -2.5882323162805165 5.280814941107873
554 0 0 0
559 0 0 0
560 0 0 0
649 0.2923443052275745 -3.2248075811584274 -0.9478991506327253
3058 0 0 0
3066 0 0 0
3072 0 0 0
3133 1.1990577119088832 -0.8006386753042976 1.3797613494606922
647 0 0 0
650 0.17273194731297858 0.3666340829323532 -1.4010132544119314
658 0 0 0
731 3.0851780172019128 4.353045291397997 0.28096345468081063
736 0 0 0
740 0 0 0
3078 0 0 0
3143 1.3808543658938257 -0.7409701134300047 0.9794342557766533
732 4.894824562990215 -4.22094321282036 -1.2065085933494495
739 1.1285925940377182 -0.5328810680515115 4.874319546368745
809 0.00023025424405972994 -0.22326464541253854 -1.7777457151702827
810 -3.926525982713857 -2.9835348879783696 12.826158188584612
811 0 0 0
817 0 0 0
904 0 0 0
906 -0.37841512146726186 2.652020313134084 -3.108567628578504
907 1.5314359395018946 -2.127465548009759 -0.568265550137613
915 0 0 0
917 -0.3997177807060855 0.2437925326284172 2.401195270962965
918 0 0 0
995 1.5606159703871032 -1.144589616609098 0.3152485670318109
816 -0.917735808610904 9.419934698424402 -0.5345274719672104
916 3.0884948732155575 2.5203635308121233 -0.36771698930323676
3163 -1.6556507315656068 0.00204694152477021 -1.4659480730798884
3090 0 0 0
3096 0 0 0
3164 -1.7914191626582565 3.004164871272799 -1.6176602009626644
3159 -0.5046744556101656 1.0685543461779983 -0.9721181875242784
3158 -0.15911740016081907 0.5087772723257016 -1.5486491824766886
62 0 0 0
65 -0.6446203774492612 0.1208456412378627 4.311097614738504
47 1.2457907723654849 0.7697794245922223 -3.8882513200478455
55 0 0 0
58 -0.8809120916534866 -4.588815480104936 1.164152049107979
59 0 0 0
66 0 0 0
147 0 0 0
152 0 0 0
3108 0 0 0
3116 -1.0582631875594097 0.03864830279557835 2.0666327516902854
148 0 0 0
225 0 0 0
226 0 0 0
231 0 0 0
311 2.192057369222782 0.8178263472430316 -0.0529762122973058
317 0 0 0
320 -0.9855253159027323 -7.407737372124221 -7.8270814580542485
3042 0 0 0
3119 1.1727941802023834 -0.20736350093469347 3.180629567818717
3120 -0.6506646712641511 -1.5359694124036603 0.7133966884883696
319 2.071163621358782 -1.9515485274294477 -0.686290957372355
302 -0.4571920616566407 -0.6596525795078725 2.1990696839467576
310 0 0 0
312 0 0 0
321 0 0 0
409 0 0 0
411 -2.110478291537121 0.6538229566349383 -1.413890609664486
412 5.874312438341204 -6.411855356516969 0.4051967263562931
413 0 0 0
420 -3.8544973261646307 3.2283543441502003 0.5408060236894778
421 0 0 0
2996 0 0 0
3056 0 0 0
487 0 0 0
488 0 0 0
493 0.5112914425844973 -0.3992243747774506 -0.02237164493017519
565 0 0 0
567 2.3625206324948196 -4.863086542485819 0.8335700044086918
576 0 0 0
577 0 0 0
3060 0 0 0
3128 2.3885562610019515 2.187878562636902 2.2407403951899023
3134 -2.6515827507313054 -1.118507601163222 -0.5533008347845373
3135 0.7086378089684996 -0.04229433019682702 1.1783480269010436
3129 3.576102526255704 2.3364465470135807 -0.5788287063511811
568 0 0 0
662 -1.0991229115037295 -3.592700019515496 -2.306983650043632
668 0 0 0
671 -7.02184983395099 -0.07708901769497689 -1.1599594727243574
672 0 0 0
745 1.4499088696198106 -1.2840735409721478 1.8793798648037108
3017 0 0 0
3073 0 0 0
3140 -0.5136454231542877 0.41991066156725293 0.15473913264181602
3148 0.1373633356569145 0.4541002418427147 -1.4788968722692042
738 2.482088034424992 1.022082465882417 2.63479150078225
746 1.109955444198759 -4.113492802067042 -2.182825111899666
747 0 0 0
815 -2.6587644834852218 0.6254528052418648 1.9404688493411206
820 0 0 0
821 -0.43207644941697493 0.013636666609920703 -2.8347266131354134
830 0 0 0
933 0 0 0
3079 0 0 0
3084 0 0 0
3153 -0.45929351083713504 -0.6145218335350803 -0.7608246282286554
934 1.7151461633681524 -0.23501038814563166 -0.9669824870982091
822 -0.11327544605387747 -3.763195037275507 -7.743813702554778
823 0 0 0
925 0 0 0
926 0 0 0
3029 0 0 0
3091 0 0 0
3092 0 0 0
3097 0 0 0
3160 2.3458335543944018 0.2107172168367491 -0.010624656987536146
3161 -1.295003509861977 -0.5929180848373188 1.2648368302846038
57 0.6650664009741898 -1.6957261194932771 -1.7405906887019145
1002 0 0 0
1004 0 0 0
64 0.6774279923141174 -3.9902633850901523 -2.553424498356552
72 0 0 0
73 0 0 0
77 0 0 0
3104 0 0 0
3109 0 0 0
3117 -1.0221659521170965 -1.0931037651754174 -1.5464891742442974
3169 -0.9083373236993066 -1.4814149388394386 -1.5481647603137392
245 0.04096615261291851 -0.448334943549251 -0.8636420026917183
336 0.998075368526123 -3.0092136846452737 2.3930068170736107
153 1.4274354786286838 3.611238043364327 -0.6951943401669812
160 -1.9133492109048527 2.653090211306311 0.5136086195383578
166 0 0 0
239 1.6357779249241333 2.0409887665081974 6.6604655896836835
240 2.8319114030758645 -0.38570211802823495 1.9030510668464482
246 3.2587301485668023 1.3112294052997713 4.385372875897767
247 0 0 0
2988 0 0 0
3043 0 0 0
328 0 0 0
329 0.841310049082752 0.28310522613907346 -4.015396712395055
330 -8.965730069728894 -3.603436590653843 7.549457388809389
331 0 0 0
335 0 0 0
337 2.2786594406356757 1.7750711256805065 0.37200059877363734
338 0 0 0
434 0 0 0
3124 0.38100859627404954 -0.3414451773774026 -4.142342277207929
419 2.8323934484320223 -5.401532233885576 -2.1417559991079376
426 0 0 0
428 0 0 0
492 1.332981578270643 -2.793255789531263 2.5157607010054424
500 0 0 0
584 2.7231022244325134 -2.2695992840481725 -0.9875500218620002
592 3.3282493966178657 -3.7221494208877495 -5.438540510612394
3057 0 0 0
3061 0 0 0
3062 0 0 0
3130 -0.1884888930752715 0.3227276298977831 1.0462336061497959
3145 1.6456000073544055 0.8847612821639701 -0.39911233138305574
670 -3.9796692792218047 -2.1401661609853178 -1.3067455614254508
583 0 0 0
593 0 0 0
676 0 0 0
683 0 0 0
685 -0.06517277542282084 -2.9264610558658126 1.4442863701437496
686 0.005049386229164829 -2.730167661835621 -0.9546733983661994
687 0 0 0
3067 0 0 0
3136 -0.4908751935875041 1.0572647351774358 -1.1670020159957917
751 -3.6781376768202803 0.9494178967222355 0.23551470981706332
679 0 0 0
757 0 0 0
761 0 0 0
844 0 0 0
3080 0 0 0
3081 0 0 0
3144 3.5151870315674527 -0.6499554249823835 1.8953242002273074
3149 0.5096770712418633 -2.10690330823463 -1.6154670098477146
3155 1.1196711989078194 -1.9508228953470896 2.205069165209173
838 0 0 0
941 -0.15042342584615373 -2.3759931540234875 2.4204726767993456
942 -0.5218996901097295 -4.019094598913093 3.246779609925012
943 0 0 0
947 0 0 0
950 5.60666507049733 -1.3618106247096544 -1.586422891287398
951 0 0 0
3085 0 0 0
3086 0 0 0
3154 0.2065221152737359 0.427297183575856 1.440226509300407
1010 -0.8747175110080272 -2.1550975987585215 2.2397557233267174
1016 0 0 0
1018 -0.8357093605803371 -5.0989541378563 -0.6852817770044711
1020 0 0 0
1025 0 0 0
3098 0 0 0
3165 0.42508492340605314 -1.0223251634616581 -0.18528389724298397
10 1.3339338967214096 0.033651414033850455 2.411642895974151
3230 0.19010430175512444 -1.0384834627381805 -0.42599903074774925
3231 -1.1222007185922445 0.20698445692122638 -0.8327687651262831
3296 -2.387721302454202 -0.5766029213832713 1.9202799828799784
1026 3.1271213539942435 1.5367823384725627 5.202645965382846
7 3.850596626385323 0.08249010718330377 -1.59369659706216
84 -0.3314228222222415 0.7284490843460616 -0.9686152396275294
87 0.24222447772160405 -1.4134671288981018 -4.312529014213653
167 3.6795007752299362 -1.9665213388190608 0.7774803460723316
178 -0.20162300260321644 -1.523193917714088 0.4715389291283084
3171 -3.822243986781758 -0.7530742577036489 -1.1902521389906087
3239 -1.1801732701440566 -1.0621328173611224 1.1772679038914053
78 0.13823248838558866 0.5158759173073586 -1.1899443361373698
3241 -0.43104382387130824 -2.3952455063724467 -0.7865447240582395
172 0.36435975152644806 2.5709897149012253 5.454948290537041
253 -1.6515981249731622 0.26006260853038704 -2.8415553269338583
259 2.707089701251296 3.5831713906900835 -2.7302745849042145
3186 3.4162458644999387 2.9497221932957114 0.5540719968164727
3244 -0.22798778292229283 1.2433006860772542 -1.2078678763579154
3250 2.9572142312399072 -2.0731578296436983 -3.2543243077766344
448 9.326200850582467 5.3645207468606735 3.5027170240737595
344 5.453266389597937 -0.7861424338444496 -2.8974780646154406
348 4.172455634645226 4.050130119442926 -0.3322157479396727
353 1.3471893710627991 0.4698027753307021 1.6320474539749743
354 4.3990645450864525 0.5523106821032944 0.9453092333409385
446 -0.84612290601717 1.818774281651408 0.09812752155204456
3256 -0.03022148853942532 2.963541951121221 -0.6396174165375561
3260 1.503239138920472 1.0762430606290967 -1.9247215545361196
349 1.4934431979536464 -1.7951343525663257 1.0691476835738194
451 -5.80729576664781 0.5535744677700384 -6.904470154489459
355 1.299117183768387 2.268791210937511 0.6480302666933156
437 -0.5357534949350842 1.8401980562274434 -5.127882314118959
441 -4.605729669616385 0.8311789749348782 2.4153707546759775
512 1.6580453878866883 -0.6579394829984112 1.086607794658244
606 0.5616028925764261 2.45316452232213 4.0897219192022
608 1.1802653711531164 1.8828866987507886 -1.727592716748367
3199 -0.8123404102260491 -0.22130208756586797 -0.7630170463621035
3208 0.19611726687418135 -0.9131629725348465 -0.07051153760562362
3209 -1.1471608559895787 -0.6419009086177175 -1.6039421839882937
3265 -3.249192791369792 0.815001635126232 1.0950808297674464
3271 -1.0428395254771363 -4.371482662719372 -1.8698436225587436
3266 -2.252885930168749 -0.3454961548058138 0.3685940860327711
598 -5.2438803460773915 3.1771747841581512 -2.410538104696525
601 -2.2307609404882567 1.9299328515621095 -3.3792176775976452
695 0.6392953358364485 1.3926215346229704 7.026817185607854
701 2.6932693998530985 -1.35221284674219 -1.9658705512211228
3146 -2.0938666197012443 -0.7695934482944745 -0.6409122042837657
3212 0.873899311869039 1.6922775059836865 1.3784249452811732
689 -1.6034398294059815 5.245791896911275 -1.8361831075871846
706 0.26495321132273125 -4.645553714217306 -2.9151553674699304
705 0.18714901367031772 1.8736301305372558 -1.1157602269892097
602 2.885667495102161 -2.137563455885238 0.5238893577335277
762 -2.110022880020909 3.549943808263199 -0.6577368952640256
770 5.230402240729848 -0.5775111931820126 -0.10460435188124656
860 -4.904636467148352 -0.89687862233982 -1.1395642838583973
865 -0.7661435961293714 1.088668323262337 0.4809424558338263
3219 -1.0120571101960791 -0.9066289099537886 1.1495270700785962
3279 1.7411138755743736 -2.00954415258896 -0.9777416885508375
3292 -0.03320074624950706 -0.5203001135997307 -1.6779987527327704
846 2.457331566836707 -1.765357365935065 -2.1906830154302086
853 0.5832327048368419 -3.9923514948374526 -1.588693246913192
866 0.5676660470544794 0.08458817452733056 -0.2830458645952722
956 2.6089137604892314 -0.8414478830086854 3.0653303367130005
957 2.912266489878661 -0.9406301688922966 2.8596740736976343
3227 -3.643926449259659 0.43765016590330375 0.5019793480337958
3293 -2.0343509029793037 2.518901161960161 -1.7909463583020613
3295 0.3486387878404348 2.2670982124721424 -0.32113755705456404
3232 3.0192731460166082 0.92974037555347 -2.6830901091252204
3113 0.4836378945381253 0.1452198496635219 -0.9229886371415144
962 0.9473482276455708 5.812484461518201 -3.245599145014927
14 1.069570075987217 3.3957359835621146 4.187650512691716
18 -1.2460801771652081 1.318717172233681 -0.5026285465399402
20 -1.4741116400995362 -4.209635731095093 0.8704493639714711
102 -3.73591128952584 -7.78422378582503 -2.718741584555209
110 -3.905096475392522 1.3079715990967462 -1.7097956814894428
99 0.09939109845050545 -0.29439672488910723 1.6279644939826818
191 -1.3621393056975692 2.8809310808638218 -0.12001530900675823
194 -2.6589678524554845 6.860264621472668 6.362070341198138
271 0.4143969363523809 2.9905488952416133 -1.395364903811884
3177 -1.3083085577875504 -1.906164284459069 4.4471412162333035
3180 -1.322993807613051 -0.32109034497800454 0.5308418608387894
275 2.8096059531054958 -1.9274768303007068 -1.459047616980845
263 -2.4258634823899734 -3.015760625932173 -5.571977245336392
266 -0.7071467443507946 -3.31687931359725 1.926362444865071
267 0.5422785845718876 -2.395055560812845 1.1611552119732855
359 -0.13744810260411205 0.520247983880743 2.667766456415359
361 1.872402591146208 1.8832088539321863 -1.207545424244256
362 1.8324242537473505 1.00770270551385 -1.5235220329223813
365 -1.387879787142111 -2.2150193085071797 0.7271143099933468
370 -0.6304046280242198 5.441991357634031 -0.11174358423347061
3194 0.8308430834527247 0.3023312588397466 0.05595838458270478
3257 0.8200567153083843 -1.75185229961539 1.2779620670761263
460 -4.722652042464624 2.003835177983168 -1.6777469260482067
532 0.2530580145299026 -4.034738139590518 4.3822846392276364
3193 -0.27543113236881456 -0.6941653737746402 -1.3775431365551574
3200 0.47410409990872454 0.20465828838146427 0.6099354045970136
3201 -1.9949539580270066 0.9804993227729956 -2.2797170221792427
3261 -2.1256458554443554 -3.239239096390723 2.2586148402114534
3262 -1.765854677554974 1.321252547461823 -0.27492549201613536
3267 0.43814172467223994 -1.0127896280763393 -0.086743437272007
614 -5.28131404788995 -4.271689867697103 -4.983278561014746
615 1.5745776314482802 3.9574847758341285 1.983301854635788
620 -3.0511829562077364 4.2279356268985095 4.571499059325312
624 0.11156360676645483 2.764668659669282 0.3362520835472823
717 -0.04024525170760759 -0.6016856731952857 -0.7237204504499907
3210 0.42165474019571825 -1.5028518788579848 0.706659720823577
3274 -0.39798288861161085 -1.047893484054394 -1.3408807641367084
709 1.5341739914061971 0.16028394193220258 -1.5492736217070988
712 0.06337738554914094 -3.1427798475674766 2.7938912739677275
713 -3.0306695691967325 0.008525205192824178 -3.6012643485136615
787 2.4736873272993094 0.5928544367874706 5.037830877040567
3221 -0.5304678519940648 1.0822304713546815 1.2113922307720275
3280 -2.1099179869233042 1.7939690778780044 0.8101971413761092
3281 0.3032532898395114 0.5192972901636471 1.5983405873163299
3288 0.7255355741989044 -2.3848660018904164 2.3068787781511597
791 -1.2203525561301685 1.2805887915388179 -1.7715656563811595
975 0.49196889651565695 7.9774991286545855 1.0423891660919502
871 -2.3370300778592963 1.4370013741425918 -0.42142693373466733
973 -0.5777461821755252 0.6021705345659568 1.9470913233725928
3220 -0.035728156160112795 -2.64011083625298 1.787438950565554
3224 0.6153268686672492 0.5043121065692716 -0.2600742381133103
3287 -0.6630601701524962 -1.3768515753885646 0.42211921212022036
976 -1.9880756286757817 -0.658014789561195 2.51639897341287
966 -1.9985523929245106 -3.435306501038479 -0.06365900584772981
968 -2.976914188678337 2.0796747098460435 -3.599562465796084
969 0.7642980468435643 2.672154383076405 -0.9025168622706263
29 3.687441461252613 5.245484252986873 7.089953474713211
982 -3.2456111658217366 2.87483880240253 3.013228663476435
3234 -1.22787987240747 0.05203683101194073 -0.5946283228733287
3297 1.8062702059502935 0.19363367972918258 -2.1511667968184427
3303 0.8335457730085037 -1.9069641973238431 -0.6047487163790952
3304 -2.0497773442289366 1.0379846721748667 0.9633477107668158
3302 -2.9989205871398297 -0.09972704985561454 2.481737904420352
125 1.0426936820623558 -2.8625467545147676 -1.0496217957894103
204 -2.0239561932675794 -3.2150986161179014 -3.059975120323103
208 3.270308296785533 -0.5067302560446153 1.1264151924324226
3172 -1.09792132369607 2.2133319114801235 0.17198063099957867
3173 -1.2439599923053166 1.4948507536797278 -0.5726407760229703
3233 2.605863360198055 -1.1630335764938935 2.2872056133707064
3246 -2.745904495704079 0.0005350226394878338 0.5497844373953718
200 2.514740253875414 0.41853983777721415 -2.1213002498861417
197 0.4163127283740212 3.8537785363939383 3.354560121479411
278 -3.0533249187637996 -1.1175857346999882 -0.46772264137873676
282 7.26303958535017 -0.3598003722384389 -0.27521044756835494
288 2.831846054276589 -1.1734473020546339 -1.9274367689352172
386 0.37540142242691 0.29789175946984603 2.338076131507944
3181 2.011028832649153 0.6660223341489986 -1.4708061125086764
3188 2.149063767804811 0.5889004785844616 0.47728933160770787
3189 -3.2847033104882706 -0.5302459391135744 0.5224616386070084
283 -0.07477349794364734 3.5267526357718655 -2.0899979627705405
3251 0.017186661197776322 -0.24350727779967285 1.4756460657990926
468 0.5095986623296076 -1.5959693470493912 -0.5951775802433009
473 -0.8838579050584289 2.8905579257140848 5.1366029992073345
3187 -1.8453575121880832 0.7845862787808351 0.6770566590176919
3195 3.0037868138374306 2.765784787133244 1.1123644874349
3258 -1.6942447969924574 1.1762064071232006 1.0147156957516574
3264 2.3738520141239996 -0.011860053197439114 -3.0753298913174194
3203 1.901680566273284 -0.7727528200907223 0.09695016373792512
3138 1.1808326467750208 0.885944391354939 -1.385605348777893
542 2.983716616981632 -0.021521173310738384 4.659213099957515
543 -1.3205238396110417 -0.6534763120673133 1.0576771215937806
642 0.2363888531488381 -2.713902068900464 -0.2593569335914655
3202 -0.399682226100622 -0.5933982010014831 -0.10606232947380766
3263 -0.7958121549464323 0.09745149767431871 0.7739230377264339
641 0.8355320885542163 -1.1941102103752124 0.4068527201324339
549 -1.2600159749569095 -2.244881678394305 -4.83133556795967
630 -0.43242188565249123 -0.5255560795110008 0.1678891700533809
634 0.20154294822511276 2.153650683866352 2.0982924487994117
623 -0.9675243791851886 4.724993227329573 -1.447470467666661
3213 0.7638378459239441 1.3427145095021027 -0.47428640223265806
3214 -2.084306030217102 3.258831189399215 0.1006601532501927
3275 0.24316542098109534 -0.6817715548640785 1.5514516011853994
3276 1.5237818775837495 -0.30444585755429776 -2.294330931948151
3283 -1.1559703175089744 -4.401713959004346 0.5228422983801732
3282 1.2128006580368436 -0.8488852787482084 0.8005427257031174
790 -1.2216789456573645 2.479803253455296 -1.4826779407707495
794 -3.3654609461387213 0.7372582089471365 3.3088926652110557
886 1.1500260489624547 -4.648331511863077 0.32928623177002053
890 -2.2467018196344863 -2.9032770587134737 -0.38293946321910693
895 -1.0176202446195246 -0.9732435896510191 1.7768926031832162
899 -2.924994271018309 -0.9456554629172891 0.4915412624455042
3294 1.5108922952983863 -0.817498664186566 1.672674325799727
891 4.177753433424103 -0.9569069819745604 1.0382781784025403
978 1.16384514224579 -3.18152914652946 0.6215467057701625
983 2.2253404845961415 -0.1379924205256009 0.21562188211648087
988 -1.5200083683985595 -0.6501298205067675 3.01585561760478
46 0.134497228149204 -1.1189997020414586 0.7795953421049795
990 -2.888306929705636 -1.8406596315168215 4.298770867811125
3298 -1.2865277981300216 1.5385021011519666 0.3697668237090724
50 -4.034648445693189 -0.43420400637902734 0.780792639236629
42 -0.5063946719345552 -3.4031571930743887 1.7376349343692938
132 -0.5469621787513393 -2.8143801791656253 4.213746901151933
138 -2.4013750237407194 1.7539771950652925 -1.5545569340613605
143 4.1248467783559795 -2.3005507907508482 -4.393868507183125
144 0.7251379205216216 -1.2479489532291173 0.5166108520092021
3168 0.3738905424282907 -0.6135672669543046 1.272243909866835
3178 -1.0256870762611525 0.7641499965829397 1.3250352814928135
3235 1.165846793610201 1.2118411007904273 0.7292689447364508
3242 -1.0121329774951857 0.1377778586668163 0.17517336826463167
3174 -0.2012858918169036 -0.02146271782126777 -1.8113049963728007
211 -1.5444035654885366 -0.39253699404305725 0.3364111688948434
213 -4.245746996140925 0.23190542546358303 -1.4028914190729858
216 1.7730222621039136 -0.2782777615035597 -1.1563477703350953
301 2.595736462501954 2.44889968904849 -2.191713396777248
306 -0.7651459293735724 -0.030086206296367338 -0.43726490951202646
3247 -0.7010252941339619 -1.9879375731744002 -0.9361250021153819
3254 -1.433695514945427 1.7056829590719995 0.2026499016493902
3182 -1.4762839984709717 -1.4932700101906746 2.887208994059665
214 0.9352676824179023 2.5843332942699795 0.49025181262480017
3253 0.4292736629724423 0.013360988541631421 1.327189325503348
392 -1.7988982248438528 4.352750903123268 -0.5812338785678628
395 3.5295526190321427 0.9146462434375063 3.7165989120145873
3190 2.6417883863352873 0.3934148195118088 0.5538644330600693
3196 -1.9606047379225098 -3.2051673576097226 -2.2917305628139695
403 -5.027998691297621 0.19322870240552203 0.44632790022213203
478 0.5662018993362108 1.9290766765421556 3.609470146007099
484 1.2324282692154624 5.910220395403508 0.7262390976269648
476 -0.4061556442294856 -0.8086069281854779 1.4490699224170074
479 4.734077063670158 -4.364820012563738 1.701175471074642
552 -0.17431821265227837 1.9693144395226505 -0.01625868372280248
555 12.884391891063268 0.6110239802462831 2.990190793697942
3139 -1.4104284218206493 4.359116852361735 1.1579023898789749
3204 -2.0374715660495935 -0.6256975397978602 -0.419033073600043
3409 -0.29935996959657 0.008672164310856094 -4.334268890530244
548 -5.234163769869589 1.6270613075725993 0.03395925820433021
648 -3.0134306087217477 0.30510018438546155 0.0435324330766311
652 0.14273622842565714 0.23116831387539571 3.2040288268075825
653 0.2370409233252125 -1.8821273448271751 -0.9782274643017649
657 -2.014710144941386 1.513698926749146 -2.550287056779358
737 4.09010237580029 -1.5846935568329124 0.48986738596210944
730 -6.030802057122939 -2.2903676001987945 -1.209859894636406
734 3.881601860278706 1.25053983676723 -2.8902154509056928
808 3.3632985548789853 0.770561613094475 -1.340893666359272
812 1.4009638789223227 0.33614126643285286 5.400679950343236
813 -1.7995050150969545 -0.815945962344091 -0.4272128202084694
814 1.9108778813195855 0.010528116792173865 -1.2312545961139305
3215 0.4715025340201381 0.2064353144712466 0.9657720389181446
3284 1.2145261507031417 -0.3677686817350082 1.3103544879142301
3289 1.6073172008118195 -0.8111366441625868 0.6687399003247408
993 0.166839263613966 -0.8132672440401676 1.1258540896326843
905 5.597938796659962 1.9981368325634714 -0.0023775285376874764
909 -3.6186060699092577 4.390052808739521 1.3468598349769012
992 0.41307799011850976 -2.5409837545205227 2.670369647487987
994 1.7478983797004817 0.7135945429858461 -6.529985761657545
3228 -2.520274230580964 0.09462385693137067 2.886711721711615
56 0.3433687902526429 2.9429508608130375 2.880460757619664
63 -1.2094277617101366 1.0710955811926428 0.9310622076812199
155 2.983021985427225 -0.3377717799061204 0.5799595169562929
3236 -2.3285660195355957 0.5989836684334668 0.8860973405766818
3299 1.2017210280216482 0.12526852957191606 -0.9137264366013249
3305 0.042473764932824475 -0.07694155093764846 0.9106776537612709
68 3.004111971150458 0.5144099618083472 -4.841688672322798
69 2.5575296370106053 2.5431600557209673 -0.4576157980120251
230 0.4031483273589002 0.11928441459736941 -0.6628049229715004
3175 -1.3424126672943908 0.7274526021684373 0.5555297110986258
3176 -0.43323030566624376 -0.9195021969932042 0.33244228284389976
3179 1.881809342257873 1.2527472556468346 -0.01487779431660527
3243 0.2244789133940207 -0.28578890701149506 -0.27691516144842215
3248 1.1683732236844304 0.044146795846643 0.10040300914538351
233 1.6094460672671 -0.1584312749946779 -3.658724168201835
305 1.732639966149788 2.6329988673599525 -1.8355947346194
318 -1.0772528269665256 -2.3176564736034115 1.916256878090258
415 1.5738839060326748 -1.547482393846998 -1.9893733677814975
416 1.2312717951511458 2.5438709063721725 1.3312587807622558
418 -1.4664247578292657 1.3995722390445087 0.12810607276618327
423 -3.3227224362606846 2.410255745823339 0.8746132901855217
3183 -1.0266563639039166 2.405241592479504 -3.621733141859425
322 -1.173185901788891 -2.971574272502768 -4.093192331280818
313 1.4103539553821336 0.8624502075791826 -3.5250258068394245
483 -3.58775250868889 -2.3905657748251916 -7.12392755892601
410 -1.178452257587034 2.1064647107446137 2.7786336220175962
495 -4.511011146064569 -2.0089292216346126 5.205182343110578
3197 -4.532169131708769 -8.87137931416197 0.07678094759902834
3198 2.395265818223483 -0.7489051144398494 -1.4695543648722582
3205 -0.35870782015167907 4.124467562462926 -1.6303184022555002
3206 3.3612858030340234 -2.1878717845887916 -2.145943057683393
3269 -5.322824776499029 1.6512179832545089 -3.0786834653251423
663 -0.09081978327053235 -3.7595637934541335 -2.7124524745687246
3211 -3.458526764590031 6.023437338920351 -6.1815240812569465
566 -0.9074065899817094 1.7208824499294333 2.0891978490306995
570 0.84543571444188 8.257496838172468 -5.036798421275955
661 -1.4740727622657297 -8.422083701586518 5.10890633450313
664 -1.503992834195823 0.31809276464322195 -0.1796140442768244
669 1.52619249330017 3.162946322558266 -4.608032859090131
674 -13.532104994416182 7.799470319447839 5.507789789673909
3272 -1.2871644826536182 1.5729388582289376 -0.5019965299577125
666 -4.8933124946862465 -19.48037586718315 11.610969023192492
3428 1.684841395787866 1.7130603547273073 -0.7868558804539104
755 6.6828315126783435 10.042129439179982 -8.302920658222424
665 3.9352959297808607 3.800076732008606 -14.281008880288796
1769 -2.493007182473985 -0.2794676237900958 -2.0594587436429705
744 0.5773884886120754 0.7379799165436234 3.0185963592585594
748 1.0788737449766883 1.69494102558634 -10.975300955448859
829 -1.73618198435773 -3.705441246258948 0.5491434285592686
833 2.831936504284224 -4.542036012422355 3.841981320144554
3216 -0.8993866014318638 0.7302933653707544 -1.1657783678183629
1012 -2.2751464302120517 -4.758628630283914 2.1927855470589686
1009 4.94161413780068 1.4329350929544626 1.827671078041696
3222 0.5874412795338414 -2.323039011032512 1.537473952368934
3223 0.9688214482195104 -1.9279033197586783 -0.0002593347953357642
3226 0.6817418250109425 -3.7242150073365696 0.5375796439324662
3290 -1.5883162514959561 -1.4751493216890164 2.3529822714419697
3225 -0.2617527409892031 -0.46745542258140355 -1.7943272703558113
936 -3.175748416992916 -1.75664863912198 4.120043164452625
1013 3.4174689742725577 -1.8320439875099372 1.9579797626761335
1003 -1.3509928600804741 -0.7198222337331395 2.923584823465773
1006 -0.34899275155685267 -0.1069322237757501 -0.15849328012893155
1007 2.686688456599299 -1.4233153195631276 -0.017197576605641276
1021 -0.6272503273483376 -6.376929226831295 -2.9416048926559624
3229 0.9996123898886694 -2.185884761751215 -2.358842213338339
3238 -0.13545653109517947 -1.714912215887604 -1.20031474816603
3300 0.775103866740233 -1.3456472406372044 -1.5919639098656988
248 -1.5935435008097376 -3.382699051008724 -0.6496325591146691
154 -1.0117964443623224 3.769859349364965 -5.248877039252068
159 -1.8286568652552941 -1.903106406532081 -1.8837255656292407
161 -8.9685702940976 5.78362317718158 0.14416053690009129
162 -1.028222296839935 -1.1299209015040672 0.18410187651987114
165 0.41869240393006624 1.1048396573184145 -0.12033575783789588
168 0.8663986479543616 3.2043411902884698 -1.3285084073611242
244 0.8891936188990941 -0.4957256160104354 -1.0462394039028307
3237 0.12040299759643885 0.4609886790452336 -0.9989487731753619
249 -1.017750488266107 -2.523047615521389 -0.7772776403260756
238 1.9182902819471805 0.7316133020558286 -0.19284701375113522
241 1.494892018490375 1.2190097865389529 1.4200608828035408
3184 -0.24594845660737974 1.1424423414260587 0.08658003956356357
3185 -2.3130671086999386 0.2812369376813754 1.1002883439157365
3192 -1.6314195258931647 1.2084898489835776 0.5105042418494067
3255 -0.9734348215646154 0.24086531838204234 -3.510647543191346
242 -0.9249240534847374 -3.503301960906243 0.9617782764770487
422 -5.760080933442516 -0.19966248439665352 0.3361318001107
501 -2.395857117601582 5.004251874330459 1.1539203927210457
508 -3.2048820849799613 0.08171741560986398 4.834168212192296
427 0.06955947137922135 0.3841863729764906 2.186766609238333
429 -0.33522847121736826 -0.3267842947726376 -1.6270008388093062
503 2.290783372185105 0.9735685616725452 0.13383108009912953
506 0.7669157472643807 -2.6022885352044893 2.6748181584156225
3191 -0.4512247276021247 0.39108702735049683 1.5994015564370387
3259 0.9712845998942271 -1.5770448923794662 0.06966618175766143
502 -0.8582890328366702 -6.982394016137569 0.9495702991006708
678 -4.1568941384254146 -4.245622860883604 -3.614310454903194
594 2.9698763895959974 0.7051432475503563 1.2766828463991509
590 -0.1596334381045631 1.0009423126099795 0.8225781930402686
684 2.725595335368674 -0.1580626388856713 3.7818773523455773
690 -4.202227444659591 -1.6692058470128697 -8.9745255939892
3207 1.4643800936603781 0.8547659477151212 -3.4187785289463983
3270 -2.237584330987016 8.62793229608272 1.043916459209516
673 3.2020552966585334 9.80035996729989 -6.398404690803132
3435 -3.142191734426683 2.416775646762315 1.6530088726967367
677 -3.242351475850357 1.6058275397518742 1.722527660825206
680 4.2538540369385105 3.207915875250796 0.05938038430055326
3218 -2.428328902851958 -6.415061459982719 2.740831829304735
3217 -0.17368211227576902 3.6722381206585033 0.48395089872378355
839 -2.138516414319293 -5.293236056130775 5.514783020729612
3273 -3.06640832221053 -2.9923239354433617 4.703796793169752
832 1.9633111860726529 -6.645163725309379 -0.8223131498195205
759 6.050500283367781 3.7959321565821633 -1.6975142060845771
840 -3.09111494520005 -5.546976235864786 -4.169835782452507
847 -1.5777997223431677 -2.6333851647084816 -3.361678585432996
948 0.6894798464996561 -0.22878228633348655 -1.3467918950823115
3291 -2.3277500301312943 -1.3148013001146828 -0.22305613498196453
940 0.9310620809142367 -0.7808700815122072 -1.421381416119282
944 -1.2964526623086128 1.2388201069433595 7.108021831308844
753 -2.417001772550038 -4.048695258336454 3.3021343788467385
1017 -1.5045949928159608 -2.6244732379361495 2.5776178229852444
1019 2.057324461949708 -8.965977704295554 4.476631306670631
1023 -0.6751008539525648 7.180840571483559 2.606020076455286
1027 -3.53270825205329 -1.6634544691078124 2.302824966346965
8 4.327629953752271 -3.966961211655416 1.6763993730220443
13 -0.7560404847892999 0.708963515363453 5.294620588124144
15 -3.9457797532977534 1.7970741500105922 7.43020371653527
1029 -4.182430906084366 1.4203702612343536 -2.21192790685084
1034 2.122887410946827 1.9944535596914725 -2.2642524060888247
1117 -1.545198477113182 0.2606456006562212 -0.38332931932421777
3505 -0.7731526649139524 1.1338099643861788 -1.5884315070696238
19 0.17143604440757265 0.6320016342652088 1.8890280289743946
6 -0.7236228886958059 3.1967885080768133 -0.9688044393532608
1033 0.10978030482824186 -0.44118892598482107 0.346540530017218
95 -1.1623391531201877 1.969650719126675 -0.13630526039403446
3240 1.5316520937238298 1.9743002054787575 -0.7038071840992148
3301 1.1610070249817088 0.4074065074201994 -1.6232507185349616
88 2.6025603635035943 4.070750658862054 0.4157892686897907
89 2.3431666477138986 -3.2164535129836875 -0.13753941370775272
176 -0.08440454557758648 -2.9445305073963945 -5.507068476419137
182 -1.6966575541908 0.8641089797132269 1.965178000570268
183 1.0315861137422553 -1.2906787613682955 -1.5902902506409815
1110 0.23528187001666148 1.4488271421914576 -0.2784292128734657
1118 1.7495630752212883 -0.18851164381235685 4.579439213341323
1194 -0.32182549894825935 -0.17807668555202233 0.010039639439266262
3449 0.4332358074103464 -1.902805751003187 -1.5390924493530542
1201 3.099665136623868 -5.351238076557155 -1.1747468412907467
1286 0.18134285533642455 -0.2933291585581912 0.004749002039525567
1287 1.7499984593879412 -0.8787292376377451 -3.2835226090039904
3313 -2.0768818179859028 -2.329354374740614 -3.525926363732702
3314 1.6574616007820957 1.0663718690287223 -0.4522038295235924
3315 0.6748902459803761 2.6196526602365475 -1.3266749851480402
3321 -1.4819815822678182 1.3140391337281279 1.5688797367123677
3391 -0.4392132687786257 -0.28266108069262486 0.2857856829329901
3320 -0.9612105817389219 0.09308667181513261 1.8960914185171256
350 5.032882835867608 -5.7645249613090765 -4.126383690515745
440 0.18671870690544123 5.096435647229674 -0.8914758558172321
443 5.991041311536849 -5.674392199446849 -0.8942549346343398
450 -0.1780098854480517 -4.110379939676743 -4.231998650539357
452 0.35534848846649225 -5.290407591570574 5.452678360741885
521 3.6098628000904283 0.2362532964767463 -1.5932298545095642
522 -2.107579254796476 -5.259885327038984 -3.0669606334685082
528 -2.06423755008142 -1.4528602836252849 2.9466024288708303
1363 -0.18067195308719744 -0.4830348381879001 0.2747389037212393
1364 3.87000737321223 0.36575114923138513 -0.7534801594477812
1461 -0.5281981473552464 -0.04303639130293502 -1.5208628257410817
3395 0.5533241874981886 -0.1091468960068339 -0.7843699511600041
347 2.4594447301431375 0.966601115847264 -4.634511423213099
442 0.4048575645295372 1.7930282149737538 -1.2331091674103167
609 9.655474917563717 3.0991530156862312 1.5763591666037209
613 0.07463254237706855 1.7068776271441803 2.506795095849327
1455 0.4883076299191025 -1.6683796368048638 2.35004606389246
1630 -0.8758153135287253 7.773730199351966 -0.652176164159261
3332 2.320512960636858 2.008325835922294 -2.1599438397795083
3339 1.606172648857169 0.12654461504539763 0.08539765195170623
3413 -0.20270998712186675 0.14277368483918895 0.06217530854528613
3338 -1.2632224339210563 0.3622271702807412 0.8010558461753708
696 0.8783392898593091 2.730829070340574 3.318899890916603
697 9.131530637377827 2.843993964680799 6.79320732158698
704 1.5818707885768675 2.4760985907201603 -0.46601249418936974
707 9.074459276244736 -4.27372955325452 6.67362778826589
776 1.240567788440465 -6.74996069773218 3.573002183635418
1624 0.6456652821786842 1.0540607981157328 5.86946752696909
1721 -1.6416153513523433 2.4802794395947476 1.545104467221229
3354 -1.418064938386835 -0.23001715524404504 3.1668471686130224
3423 -0.8703657460307076 -0.20064415441816166 -0.9049371863735955
3424 0.19667637179088152 0.018096005195079826 0.4634093789263799
3353 0.2692455205035667 1.6930981866771704 -0.20044457092703644
781 2.8169588638957355 1.7402265053615138 -0.9915938703452455
771 1.2441297711158887 -2.190503250385791 0.37384591401838274
772 7.314647003708604 9.788497162789938 5.503126492514657
857 -0.18331660121962196 1.2159947275254805 -0.49285583162941243
858 -1.695464689535747 -0.9597787285147297 2.965938441923333
864 -3.45240707267335 1.3472240617506475 -0.4096893775487108
1792 2.8992891718335563 5.428842582857063 -2.5572218963609235
1880 -0.41976116936317653 1.4994791991447047 1.3811120072792322
1886 -3.757526694616214 1.559553697752476 -1.2572520705892452
3359 -0.09426029744893671 -0.9554157039141421 -1.400056984314968
3364 4.275782404396516 0.5628316006595254 2.0349923903791294
3430 -0.1435503762099705 -1.1265921459701458 -2.3832065350317473
3431 -0.2948418502529617 0.02866958925788556 -0.018612500243443835
873 1.2783933411159405 3.141337998721487 0.7982019427118315
961 -2.3260812488247633 4.0980521291567005 0.7533714125034433
1881 0.9098803451492343 1.6634442608716447 1.8221458066159943
1957 -0.35701228795451395 0.11164594540219513 0.8857611862286718
1958 -2.6140174298858754 3.23910916095341 -2.4451183334450945
1964 -1.8705522105871848 0.04277362587674456 2.382825786011242
1965 3.3506368620279847 2.8557215657247093 -1.1297985408597757
3369 1.2602902142843082 1.3556644009001968 2.2375759961663295
3370 0.7434868260143788 0.11133083271728106 -0.18522573428145694
3441 0.5086392298617016 -0.4862167216343071 -0.1134805982129518
1046 0.5665308502393024 -0.696544979321814 0.2459823231804428
101 0.9338692934012728 -0.3106414650255671 -1.8401824735687002
21 0.38776571424243855 1.1116922239784552 0.2689696229985537
22 2.223383422069987 -1.8105691327011355 -4.301167395980844
103 -0.26333037053733677 -0.9276551484778747 -13.060287274485459
109 -2.2155810832757123 1.459442847996396 3.044165630648316
1041 -0.13293404203773881 -1.7230857875763457 1.6040266985237142
1126 0.37475214865832474 -0.7275176872513223 2.2942559062182966
1136 1.2368344198954457 -0.4385723936905658 0.8185067575655038
3306 2.394806884440653 -1.5012470925027261 2.6329892278664064
1125 -0.03814760829542179 -0.48494650195256883 -0.04945329554266697
196 8.128851035954732 -8.793260625624615 -0.14616915473014336
195 -2.9598060390098184 2.4422836782372284 -2.043377822263338
3386 0.37089156146576213 -1.5094512237572395 -1.5759629597583444
3245 -1.0195278543788577 -0.851082644715458 1.1750078438878429
265 1.8777276400831417 -3.4778232513766016 1.8851619631406071
268 0.5626079664813015 -4.0490551642493795 4.6372732925338
274 -1.9101438961944244 -3.923126546298679 0.47363706585810345
276 -1.0931941011883113 -6.084338897426978 -1.9870260722953674
1206 0.4277183102316344 -2.188581214239754 1.2051525171647757
1303 0.02517639509220995 -1.194325012809024 2.2921484571337785
3311 0.7562892506324883 -5.28457073874715 1.43993304437946
3385 0.1421343795562319 0.34059249246885404 0.17248356706206622
281 0.5939296255546931 -4.009654647062836 1.281129000965402
1299 0.043069039099581465 0.6879037917914983 0.1302747979326589
378 1.329040822765657 -0.19973904001489662 -1.040540425568785
363 -2.8419519987352535 -2.286866405661191 1.7174605436739252
369 2.828867421595233 1.0210073113675595 1.7014701618655796
371 -4.749057673936202 4.423280118039876 -0.14208087895744673
464 0.36088308056117263 0.7974587466514133 -3.1998613648379113
465 -10.88178443694485 -5.255394434332669 -1.6846674335728256
1300 2.057680589130924 1.004559975335508 -0.04437181431465402
1389 -0.0016153166700617176 -1.610274791174099 -4.422627539942964
1472 -1.4149114697134157 -0.04501043834034714 0.6395517072227499
3396 -0.5993315445455998 -0.002565839418481131 -0.0955485710346016
1388 -0.3751143036973702 -1.7908435099490558 -0.09245060435098702
458 7.390266853623532 2.7867074507632412 0.6468755252386382
529 1.4526950659302342 -1.8178266945113022 0.2882880146607852
536 4.113262729824888 -6.147170992723424 -1.2736407765347493
3327 2.2191137227912052 0.1540277706961165 -1.1539582484490118
3333 0.5438501935160033 -0.17683590437564506 1.3175930621737812
3341 0.3511673000121335 -0.5280457305102637 -2.049819046881906
3401 0.2954744936805577 -0.7966992924992702 -0.038416473423676906
3407 0.10957547163233203 0.27338004366874347 0.805070643040348
633 2.081518126967036 2.9618808357344064 3.634551948056468
711 -0.576955068728872 -5.280080546353133 -0.8911589605284373
616 -11.764296766471558 -2.0581830713522034 2.127881482999897
625 10.909974876742766 -8.80289502739539 -3.054956589447259
714 -8.720246181051722 4.013269298106871 -8.665724283336889
1554 0.8651726527363484 6.857249909529739 3.2478059243430324
1638 -0.14243311227151018 0.7814067129505314 0.860375579192597
1639 -0.5953857419009735 0.8483780015821195 2.8522618558464123
3340 0.9725075155347906 2.1709416621403435 -0.8874451645505097
3348 -0.616482533485494 -2.4557102360021785 2.3977454206140125
3414 -0.3062436405384711 -0.5079533070983641 0.08413281313643114
3418 0.40749524967946577 0.180655582376894 0.1991606951836664
3419 -0.9572744246163234 -0.5395187980579362 -0.5447334178371644
3356 -0.009839045650354613 0.40222811200600533 -0.4644822586741382
782 0.6721088956228884 -4.695975096743765 3.361643589283171
879 -1.090280859097002 -2.228329693982472 -2.33445631043628
881 3.181929908933893 2.7146980137659984 0.6309259718788307
889 -3.7090259417440694 3.9128987700171254 -0.6422181175881869
1729 0.8136370126618521 3.4729530957642427 -1.0764319655099923
1806 2.9074885059418425 0.36440086125575744 -2.2320283528308043
3355 -0.4839860531113747 -1.3590945602414808 -0.428415966181523
3425 0.24247074797843926 -0.20333583825862422 0.24567324934822624
3426 -0.04092294675974624 0.771283332578055 0.26600115413602987
3432 -0.3986909493139541 0.7296704727434565 0.10029460459728672
880 -4.755778119537106 1.1494237180431621 0.2653122118941231
874 0.7312613174462961 2.390970402418069 -0.7711021062587098
977 -2.2336644874787974 2.801061948841975 1.7246596137333685
1892 0.27442893950504305 -0.6364432914351551 0.35293569679044773
1898 -3.6274578271064617 0.748610328834307 -0.4324965603398811
3365 0.3369617271726473 -1.668406925792865 -1.3877163680821647
3371 0.846039975506332 -1.0001057234846755 1.554868037238473
3436 -0.5369261599675471 0.32970686559440554 0.7464403704302786
3442 -0.8985943887142473 0.652728720537926 0.10982804812021935
981 -0.8576504741517708 1.7806562186552217 1.7657073402658232
33 1.9450879293119814 -2.1507461938105927 -4.780404063504915
34 -1.1918901781782283 -2.843337663129447 -5.835494253032169
118 -1.345063900763405 1.968329694831467 -3.865733383651593
124 -3.013268936453117 -0.06172387508355942 1.5100790854584027
126 -0.7689110897280135 -1.0736105843060662 0.906866738497928
1053 -1.1346105779431217 -3.8452241570668395 -0.07236178939833435
1063 2.0264518300356085 -3.284380780716452 -6.034005272606463
37 -3.352150977055093 -2.257781944359108 -4.966600160257931
131 0.06850394841050475 1.0047306371076992 3.087523786955832
201 -1.1974513461311056 1.9690309551717833 1.449936246078934
202 8.600197079594903 -3.4079971879300635 1.113021916599647
207 3.113884497962459 -5.879675411114892 1.5405636366508282
209 1.800088040215348 -0.8419279912088076 0.09250534156385287
212 3.1344046759565534 3.661916568633309 0.4609007615081667
292 -0.08271124984678546 -4.2010402816556764 -1.441981508351527
1144 -0.0630895321879579 1.7024446957077584 -4.985424523868198
1230 -0.8438503924798143 0.9709689459403149 2.242403413430018
3307 0.416081828717715 -1.332497201658752 0.6269070549946292
3380 -0.2593867580563745 -0.7098319044097684 0.08944039667309363
1139 0.4946021432438592 -0.5926970196593718 0.551525929498741
387 1.1523635224938173 2.433750447404954 2.395610177345855
293 0.023878347405335586 0.522002018286674 1.377030813953944
3252 0.7854438596514324 -3.172911231616924 0.14496202082799461
284 0.45180893955728374 3.532975002224961 -0.8213457678757734
379 3.8796713081796566 3.625784902202705 -2.6840079456184753
385 -0.7919727568620898 6.458365094296857 2.1261096630507317
388 8.359509539085579 1.5291963598306388 4.861089135030035
394 0.3990250764396705 -0.5336974132633485 2.2126052483645857
1308 6.7266357884243275 -5.646599506719084 2.5424164062727392
1315 6.571096160162209 -4.1392967873641435 -2.482955317973601
1410 -7.9270124006167535 -3.6341836127024845 -4.479432029105877
3387 0.33710141826326184 0.0920809453808358 0.11384149876911105
1400 0.02586554676520961 0.5715064403852438 -0.9253683415301976
474 -0.14712291833778451 -0.47018695123580795 -0.9865677234494195
1401 3.830834734851829 1.6355449919613514 2.442343462920845
1479 3.6310719529055966 -1.4217228923956626 -2.553990106285523
1486 -3.369231024270577 -2.393913604241293 -1.8057636505202441
3328 -0.8280313569923184 2.28474694048602 0.46803144700337374
3329 -1.2513470619362574 0.04043893354423075 0.9610808051226467
3334 -0.8475313814857721 1.298691297398049 1.009522300593016
3403 -0.19985791842685852 -0.14618048271606168 0.35134154977952553
3408 -0.12136143231428956 -0.42710555891296975 0.31174802857455236
3268 -0.024720601828975147 -1.8583894968581987 -0.09240702252574101
541 4.664453329327226 0.02555231364455558 0.9023903430244485
544 1.756882515363059 3.3402168352338233 6.777762001665697
636 -0.4671480929373856 -5.8257155410908865 -0.5939665497422416
640 -2.0455661649474006 1.8898454770295559 0.28667687466723957
643 5.925963411777582 -2.1334978025271933 -4.219423858868096
651 0.6363992790250662 -3.546086880580777 1.2988698133588548
733 3.068583734006272 1.7408099384194176 -0.47600266664960217
1571 -1.01246236161616 1.6726878202763857 -2.7324452767382814
1575 -5.4974214271698125 1.274343224303235 -0.95431847199932
1660 0.7701534667557595 -0.1938023244518841 2.220450998554741
1661 -4.487877313954404 3.022996616552417 -0.8701541804068007
3415 -0.16694851588218354 0.08324996762688756 -1.2093001231761347
635 -1.2644266893779998 5.433661405200071 3.879010692547436
727 -2.188370039584901 4.002631045799547 0.056357941518597326
722 4.333355146366994 -3.2272456024726948 -4.212124815795661
723 -1.4888116475723943 -1.7245645800296845 -1.2097124965541757
724 -7.122974669882865 1.0194299721501474 7.9523526194808145
799 -8.548352674858464 2.3493161431741285 1.7281363351052086
803 -2.711929288136341 0.3702724266889643 -2.483511927077226
804 0.13102139457320933 0.49157667453972953 2.8039161911641193
1740 1.0285577538381467 -1.181907704415659 -0.9237635994020499
3357 0.7744727168802646 -0.05242910686434468 -1.0918570877144653
3420 0.2353236254582369 0.06588311618067473 -0.5604438996240664
797 3.2116620859165725 -0.926509807822585 1.1411384517575858
1739 0.40656062473976384 -1.9637451358542204 1.9068317860800934
1831 0.5635989616031383 1.3064574781126044 0.06429544133967244
798 -2.609065985039111 0.9242143602787087 -0.7865608424011236
898 -3.4691121891654357 -0.574852954660663 -1.2168190773766945
900 4.083368956332047 4.818117374765822 -1.3185337249681623
1902 -5.362926683337561 0.20628663576494755 1.374782407639816
3366 -2.2547044566122367 -1.6990057289386415 0.9284819167602336
3433 0.0656697257955954 -0.0099783906262989 -0.10721342613385527
3437 -0.2764082382291405 0.16438794419667277 0.10205969311935936
1991 -1.6793855097923025 -1.9982565193193929 -1.1511957474624457
3372 0.5738694412544526 0.41075094986232197 -0.047792588325126076
1990 -0.2868089805459734 -0.43492342460116584 -0.17175269879544552
51 -1.7456114572421075 -0.5379071851867515 2.4785421979631255
52 -1.8769610160432684 -1.808811447934376 3.308721431728988
1077 1.557549668567265 0.13941142772116866 -0.4711150392738805
3443 0.34661893208523437 -0.5055490652870056 0.7060371424589587
3446 -0.06560155518468319 0.15574291034917195 -0.8650335190743844
49 1.3851166296402735 2.486018339995829 -1.0401360800763608
133 0.6727597688636869 2.057441940475536 -2.259554092477357
134 -8.817852998614905 -6.052013092954209 -5.292201386070181
142 0.6335523819330933 -1.681460006643114 -2.9531102595666234
145 -3.742591360647977 -6.40607532959698 1.0492313447839807
219 -1.5250034440435702 3.7296662219130066 1.3686308776465221
221 -0.1684161916478077 -0.7886606226834811 -4.514008807488511
1150 1.0099075033758034 -3.434283772434177 4.035939676530341
1157 -0.4714608533503591 -1.426664753447802 1.2279269368078625
3375 -2.949348286141321 -3.1738465900573387 -0.07621912508737075
1246 -0.44789907623613007 -0.10243368290678305 -0.7083705039781089
1156 -0.04869265731095236 0.6536269272259556 1.0171454032523182
3381 0.5798514287437978 0.16280523596500868 -0.36052729780768367
220 -2.161696805386142 -1.6537913056301756 2.1260944006103943
215 -0.023197918517668392 -3.115201653546588 -4.5830828552984695
307 5.50952545537151 -5.1127518892081865 -2.192418055659779
405 0.17503705087525462 -0.8912554728044465 -6.65788519733473
414 -1.9516403006644576 -1.1393516338772907 0.5507376932452065
1239 0.99790509646568 0.9802323581347195 -1.0564264762833346
1325 -0.6053158364781946 -1.0950148627793561 -1.7874169305026704
1331 0.23509666362092962 0.4278310668164174 -0.3561565130246837
3316 -1.046535305043956 0.9456496339222168 -0.7975662661943527
3317 0.7504969379762222 0.08993051031028529 2.085623026133939
3388 -0.33418852354201195 0.16378318172138093 -0.5634503690097376
3392 -0.17894976350094555 -1.5960393364127041 1.7366350892211635
3398 -1.8743269962256477 0.325308402931626 -0.9402986576929842
477 -1.3877186235969121 1.3975786548193543 -2.0596693785614977
404 5.644719103541083 1.5831063377196886 -1.0268629472972004
480 6.994789495263888 5.414636823316126 -0.23146732514599705
482 -4.188759813488395 -0.28953829449014895 -3.3244202589638734
485 5.440146537239435 11.25635812271528 -6.264268234029029
1415 0.4570215516660692 -6.768631673749248 5.141597440827921
3322 1.8537675320557738 -0.6795617257228982 1.8830806814556094
3323 -2.5407317074931584 -1.1822534342568023 1.5565259271918879
3397 2.4784302865991066 -1.0368988175593554 1.5899532925312438
1414 1.9217489152629281 0.04742850292058781 1.0622867298278171
3404 -2.403091464048513 2.7876131693938797 1.9491806660157456
489 -3.513516197925962 3.0661000905957168 0.3119959614365197
1867 1.6475270321570434 9.64899957762761 4.569265478088104
3335 0.49964841117874625 1.660905304125865 -2.1760589436599127
1589 1.4680793143110125 0.9671587801998721 0.8268663827876038
1493 -0.7219414203690055 -19.224770927968738 -3.7530186732258084
3336 0.4781522883378098 -2.466921238944798 -3.4922515812025376
1684 -0.1129873985809175 -7.420911976700399 8.22215631181049
1682 17.308157657892025 -6.6278482849575004 -4.076974157396747
1588 -5.630867971114672 -4.575683467006566 5.004369003176122
1760 15.480842863781655 -6.845770846505442 4.226776195802564
3540 -1.5481611757746319 0.2332239622185185 1.8783217010437885
3607 -1.1886712294740271 -0.8436693593599778 1.1210954791566141
1582 -4.057185093110381 -0.6412414302363123 -5.4612260618990955
3278 1.8477819335834167 1.1026101690945342 0.6666448334293938
3342 1.7388903025144846 5.123347521781633 3.8821059972714393
735 -4.010253204007423 -0.16825948904544608 3.1557203209861298
741 1.0511311460104944 -9.736049086007398 -3.6360426509191397
1671 4.481915715757096 1.0331730614750627 3.542144855558716
3349 3.7587282330473 -0.6087543889207327 0.7034938633200708
3416 -4.0516342408309916 4.332229119422273 -0.04884186981382906
1764 -5.5650916669641335 16.405983934453953 14.994714435417219
1757 14.104981867048455 -8.877605443411435 5.336109522757433
1853 -22.915394500264636 5.349616627467914 -3.1086091969605225
3350 -4.924727624999126 2.614632112985882 -9.13141079151444
1689 4.5466530179849105 9.018093803711052 1.95200961397673
3285 1.062913390105933 0.6055963926438188 0.19914363516912365
920 -2.496259682607218 -0.6313995504965859 0.9053796357194451
1758 2.3330085657306743 -0.12408523050145213 1.1048836457454636
908 3.27437485473266 -1.9023954393416327 -4.792293153211202
1844 -2.629655771546778 4.910872489603636 -2.3489502648630607
911 -5.319049742531878 2.4067337627056755 -1.463176188564598
919 1.0597633366603614 1.944599542105659 -2.645383946156113
921 -1.9017961079445604 -2.61096385133401 2.594246122216385
1923 -1.032592321556298 5.870207224898078 -3.182936254580054
3358 -0.45417644550616615 1.2856437732631882 -1.6546558661810704
3360 0.9431377634858622 -2.272737212358271 2.591110637731981
3361 -0.14013289153244338 0.6577323605587796 -0.941341050425774
3427 0.8520551093141704 -0.6970201883399318 -0.18631635299683547
1922 2.0810330766250584 -0.29299574729690264 -0.8627991604636444
1005 1.5971703248410207 1.4072688906471758 2.3217819731496623
910 1.6783779666821272 -0.8158395671617981 0.6943760191388869
996 2.462442904751653 1.7849417652569939 5.039793134067494
997 -0.21415908233999112 -0.9137425319804467 1.4082849338951693
998 5.512972918127361 -4.137594842375262 1.1602686347165405
1916 0.7190417101874642 3.373720312111761 -4.505502217298944
2011 -1.25893846731795 -2.374675287856816 -3.011396102468795
3373 -0.7507099562194769 0.5820317284356907 -0.388721307743759
3438 -0.5853642361798364 -0.5484247740276662 -0.352897867947938
3444 0.33871007141054504 -0.058024734500233884 -2.0707011477515693
3496 -0.24704118547923365 -0.033550290836162136 -0.036864414948902455
70 5.068424930662835 3.5824295988168307 -7.8442067562186
1091 -1.38634253207331 0.8998323824979314 0.4505457286728958
149 -2.6537965160204817 -2.0208475773528245 2.4525003894139594
3308 -1.9256122717498148 0.7786800869272114 -1.4557820773424723
3376 1.2102338832195214 0.3008142636476562 0.6408029430608784
3377 -0.7880037206026096 1.3268297625232148 -0.6998170479706379
3445 -0.1417031598338041 -0.33502648827892845 0.2269619362625614
3447 0.16194435228031828 -0.31746772203340534 1.0460006008998541
234 1.5527958196105933 -2.7038163299219438 2.310961221335916
227 0.6519344480146504 -0.16044692655125814 1.3226608072060682
228 -1.31759063289722 6.5795458233214426 -6.91920173554339
232 -2.4991111885761366 -2.7298343941975283 -0.728147278986683
235 -3.911059895715793 3.6716110385730065 7.817523375950731
324 -2.2803239356021274 -2.775500914477925 5.571344869519668
1165 1.8340652562229947 -5.222703407209357 5.701343710633564
1254 -1.4798571542563874 1.4794714824514845 -0.7858665131502152
1262 0.3488169985817624 0.4614936227843031 0.33417255989178846
1263 1.076317703441955 0.9522964431046733 -2.44419971298616
3319 3.7825755660872677 -0.868463266568495 1.1230269765644736
3390 -0.22662968296973898 -0.11916886509643325 0.5647257696544483
3394 -0.003585448891275551 0.2258613507306935 -0.24445181303323685
1253 2.1678886274514664 -0.2140520245063681 0.8586227764262285
323 1.8305319136972322 -1.1929368442069206 -2.3815616896030476
314 -2.0109107193893854 4.226406845540238 5.355801243325287
417 -1.6876862466964444 5.244319154980615 11.571803847336955
1427 -0.7883575809868756 5.727509025059925 -3.758656104298768
3318 -1.2838724761790776 1.237214838539553 1.9624337518612136
3324 0.26724183933812096 -2.3534898303784355 -1.7523449796687194
3389 0.22790620753342075 0.7790318103343331 0.44552065113562933
3393 -0.25372365983589457 -0.1958067751274802 0.06377738343220775
3399 -0.10090521086165646 -0.2234340491186035 0.34355579895979926
496 -0.07503870454645309 0.6845618146302097 5.477126674988096
1511 3.3867488694613654 -1.7833942720246188 2.3096457864139444
3468 -4.996816416624386 -6.0760162635126935 -4.814952435928098
494 4.404446999949046 -3.3823757142502004 4.391146195013277
490 2.423032617586173 5.68630072099595 -7.7648177523127115
569 -1.3381197614992162 -2.6080957951155073 -0.4830435214429681
491 -2.417656762002188 -8.875097043642596 -11.989543426106117
572 -6.227251589329001 7.92654572948522 6.190330771026333
578 7.0099144309709045 6.434455668116478 -6.883739231169068
579 9.259995881635483 3.3824610643189335 0.4011259778363893
1512 -4.8852133824275095 -13.147137210929447 1.0609326374205041
3405 2.535202437099253 0.5473677822437328 0.5217029728391652
3411 -1.08771358179703 -0.4123647102065177 -4.020813578678519
3469 -3.15488230251801 3.755614257494854 -0.6386391734750576
1604 -18.109460542426472 -20.18821483420696 -2.911960563017669
585 3.7836052211058546 -5.263887949983698 -8.60121255084399
3343 -7.820224041981667 -2.4790739970533138 3.9453775987227595
3545 2.2529168279643637 -1.6795885592932658 -1.5365763895742521
3277 5.764369179088213 1.772923549203532 1.8844776369021172
561 26.915113331925067 -8.172483487959598 10.165082994315851
3345 -4.173978288892401 -0.7257311822146466 -0.413164920558144
3410 0.0376634232441277 2.7855481238928057 -1.7541110869958079
571 3.179171813046632 -5.9284772250434274 -8.81885825575431
3344 2.7197189542142355 0.9817511856587523 -7.5714566230350355
752 2.945903676540694 2.1757254697915585 -5.008666316333995
1770 1.1281892633179456 12.881461692078139 -6.561816380991904
3351 0.8172720653816938 3.4871370481463586 -1.0785910898138378
1683 2.5842340170830647 -3.3387650614785764 6.367906495470819
749 4.248253290255036 -1.301515454018641 -7.2166005788328595
1692 -8.712933948033601 -9.75891453810475 -4.482461565370926
1779 -7.138255708837952 9.653567816709137 4.643630157262813
831 3.7690058157794533 -1.763354744442617 -0.3841725253980131
4342 1.6175104814192718 -4.856601931979536 3.7670113245536956
4320 -2.962448939600691 2.209974182718114 2.8737970297727724
824 5.370789811512229 -5.607627861294068 15.845290517995576
754 5.1095334501363885 -1.9548415529941325 -6.961454549105312
3286 4.001312923402533 -5.164474131526816 -0.9448442484045478
834 4.674339973401974 3.7252309081313095 3.064815676605394
3362 -2.794480058144638 -0.0013341968965271938 -1.956979402933172
3490 1.89433443981335 7.483764235826894 0.43725542788239924
1763 -1.2492040133279922 0.7528455116908268 -0.14965141275065097
938 -6.002013659750861 -10.778257453445164 3.072454978812948
3549 -3.218072861254295 -4.383152944332373 -1.7137777548043749
927 -2.8850761554670488 0.6117235541117898 2.6583620462648394
935 7.222612132494316 15.590981877362216 0.0824992359198474
928 1.2603585878894257 -2.600026849908603 1.8299727275433526
929 -2.646358516424679 -4.179921630958999 -2.45677403773696
937 -1.0738057649086818 3.186205846527364 -1.3493657224822684
1008 -2.129049859413084 -1.0893319819728444 1.2228329848151922
1011 -2.045500244022858 -0.877603537249124 2.835440972958938
1014 -1.292898313459 -1.4263143361507573 8.818094754419995
1929 1.9839482105854571 -6.6205007505811055 1.3570998937673822
1934 -8.248868289557844 -2.961651427681771 2.7114356781855595
2027 -2.0951488604490938 -1.1679297522922354 -0.7211282795028054
3439 0.7281355530397005 -0.4652691971869247 0.4968476180368811
3497 -0.2690990560325755 0.22981587060338385 -0.1972888860961423
1928 0.1310545484630268 1.860107130198961 -1.5758994219727671
3367 2.2330864317362513 1.8259586101655065 -0.15670211742923543
67 1.588668805648233 2.0959373595886563 -2.811238766581542
2019 -1.9648451469240795 0.9866043233869402 0.3692759958923734
86 -0.18336741000939874 -2.1610284178516515 -0.5505347849476505
79 2.6396531153132825 8.915189608431431 -5.868173303920964
1099 -0.5484948414187093 1.1056891446977213 0.4664957940056067
1105 -0.36793370526559427 -0.7280060530261501 0.7071160758833814
3378 -1.0150360375188014 -0.12021707945857882 1.4921141651291736
3379 -0.4483654202263665 -1.342352589951247 -0.049532807107846355
3448 -0.007143746847238367 0.07590526190094285 -0.5538077346118151
3382 -0.7031822313302323 0.7252482342254643 -0.541231151456778
169 1.4280649597031225 1.2331775694107692 -0.7008244657717184
243 -2.433661611816739 3.583152565783848 -2.1125300133349363
3309 -0.2376761404413988 1.1024473704331692 0.11435582497283807
3310 -0.5090434647709362 -0.7616385140512808 -1.1093012301199408
3312 1.0866490868889778 0.3223275454757345 1.6582914159321436
3383 1.0991981207637553 0.31838680359151394 0.7868278537645458
3384 -0.3149871476189248 -0.48726161139669105 0.10354785796322914
1175 -0.6117159632476827 -0.20810559678455332 -0.016480253354071113
3249 -0.9118579480231199 0.8677450605089783 -0.09491130693634314
332 1.4305096261456876 -0.09240414055380519 -3.0097126830134253
333 0.4538560763719882 -5.718045282318195 5.9117060794103
339 -3.135298344944876 -0.10033213980801584 0.3754821707517691
1272 -4.995614393713689 -0.42143468584532967 2.138391043093854
1350 1.9339329257044322 0.10572215086819013 1.1383833589159682
1356 -0.730249425123914 -0.24230006684410302 0.26214098814809866
1357 -1.720570756642165 -0.5249677694674377 -3.7821512588961426
3326 1.2721307436875056 0.2651825698184087 1.9266211383902057
1349 -0.4400426995185516 -0.15228513317578535 0.9439071886688308
1444 0.26458390701730733 0.02216528846095509 1.2845079831377741
430 -0.46732134065838354 -0.5820044223444135 3.7225796430136313
509 0.19743317212699102 2.862848721340082 0.7601779608828887
510 0.5136532851187314 -5.533109057179212 3.263042020963987
1445 0.6084076975900803 5.779585982607623 -1.8441046159411025
1521 -0.6484453597261268 -0.0989392779888821 -0.5352072908153026
1528 0.8604727161716077 0.24793429257623023 1.0000138955090403
1529 -0.5113719190570669 0.3521405339951261 -0.28147285485569307
3325 -0.5119972160117771 0.5506961295948143 2.5112598739218632
3330 1.003560143127695 -0.7351907312310032 0.22058801035846584
3331 -2.5132364479832665 -0.6143164086932393 -1.6575012967328104
3400 0.08016762220176615 -0.14691180536040083 0.18403893052924214
3337 0.5858676918574253 4.327713417676247 1.015830911262936
1603 -2.014817906337892 2.3904475101142255 -3.6815764760090843
595 -0.8964244514905642 3.501967119193849 3.3264477331629716
3412 0.42639935556016534 0.32624527134246073 -0.015206129239377617
3347 2.005652092077567 -2.0609238384070885 -0.6810581944094375
586 10.597142301390283 1.810943598844265 -1.539065075616275
688 -8.92507711123918 0.4003838785550797 1.9400398779990375
691 -12.31210342874263 2.8158554270697294 -2.4775654696195932
1609 0.11684932179660128 -5.399264865971322 2.024010046799144
1610 1.7622467555073882 1.3523157420969696 -0.5273451948879435
1617 -0.3483428979512747 4.9899201152655746 9.6468936395424
1703 1.4382468808702247 3.335038390539634 2.4967635681436255
1704 -4.965775530270479 -2.725106415599691 -2.9211359092867952
3346 -0.7915707535593876 -1.5180898476654345 3.0283984568373343
1697 4.6995264646037915 5.552523553012819 -0.8017122428698634
3352 -7.291508857690622 0.10464231176497153 -2.2926971251535475
763 5.61462148390877 -8.358303920664058 2.1749238329267415
4331 0.5988458598390883 4.287679095316515 0.6260460285565557
758 0.8510777711293656 -3.509527826506233 14.021969951449663
3422 -3.221287464008177 1.1592224266070317 4.361011850599013
764 10.816020400314331 -8.807299023135736 -13.705784749390796
848 0.9979772858400635 7.485020338059672 4.545532846703293
1780 -1.5275843041711425 -3.617722612192657 13.389141279795165
1702 -0.5791076511955079 -0.3697734418567958 2.352218533873443
845 12.835090338608463 -4.563038404061807 -7.057745227705319
1864 7.882317294931302 -2.768418142745019 7.94240317682958
1781 -7.8127286958231466 16.92115833933872 4.1607895461449065
1768 1.456946659244849 13.245569817268507 2.808598991687921
3421 1.610445498806379 -5.2469849056473485 -4.038982694824257
3429 -1.1725462489622496 1.4892882282010802 -2.2095815852166094
3546 5.2359430591188225 1.360411684915188 2.227654644370765
1871 -3.7873459984558524 0.3154816510090092 -2.568633667060308
1872 12.039538916719842 -5.193843701597497 -0.008766092066247157
3363 2.376365688638326 2.4808790728869945 -2.1850772485472003
3368 -2.1014610411864862 -2.896802819481015 -1.6550561893658333
1857 7.022401467614841 -1.4166603495678443 11.195168834190294
1863 5.206303801579067 -10.289707465059372 -0.7023292323203509
3550 -0.13958586157305283 -0.8829285561599776 -3.5763899463527764
1028 3.684955473859069 8.07211829632705 3.332161198354303
1950 -0.7300785777621681 -2.7920555326277468 4.515816656117674
1766 -2.7478086868175278 -11.466458811276194 3.023919338882976
945 -2.219985242284958 -1.2496657398009945 6.282764162777592
1022 -6.201332682317522 3.5957128163989607 7.308415657549762
2042 0.18850651988406195 1.821017053287466 -2.0204755609760494
3374 -2.5047106438111397 -1.5938219684216712 0.6853472508712743
3440 0.8206440796780056 1.6512237704494623 -0.8025038484584082
1032 2.6404230581824972 -0.6863985210024802 -0.2643562393845722
1035 -0.5068110438183645 0.5245054151674838 -0.7005743391500843
1124 0.10351253243123189 0.2616603039139584 0.1777321381372303
3570 0.46668626768410815 0.22910688574607724 0.029253455688000213
3569 0.7141534047760666 -0.10001622079771096 -0.7447996952760993
1193 -1.459088515176728 0.5420013898514208 -0.4332354337824538
1195 -0.4064429117016035 -0.1830772704148599 -0.5197511601553976
3506 -0.3112913800232966 -0.2676545950448921 -0.4480061662363774
3509 0.036576516731251923 -0.09569376079565889 -0.04508992042664039
3510 0.3934475287782165 -0.28196595069742814 -0.14083256545317835
3511 0.18402652055323748 0.21814482160089557 0.05691119851681079
3516 -0.36294999207327666 0.07855354153814473 -0.5433662631889062
3574 0.01921814627990332 -0.09587364913874066 0.22108032082556991
1122 -0.25217648847350504 0.17451491862912402 0.20992496199202698
1285 -1.6113301372694364 -0.493262558966841 -0.19594282097205667
1288 0.16791747000815255 0.20505229319440338 0.2826782966960263
1291 0.09308772492293385 0.06859934794106018 -0.017534247008019567
1292 -0.3320799901878765 -0.14802117916601348 0.10954830726251133
1293 -0.021160304404249305 -0.007191628944747102 0.057874296737720064
1370 -0.2626907762724545 0.32551277109610827 -0.230937548084126
3459 0.27425719154404626 0.23565964176324156 0.4965511266680446
3528 0.33901632991192804 0.4397946855141835 0.058389735332553705
1454 -0.6799002409510194 -1.323820035131996 -1.2922734284717168
1456 -0.3007582338495182 -0.8122611271824515 0.6280514450058023
1460 -0.37525700457592553 1.0405834388699977 0.11976436194261936
1462 -0.0818669991152261 -0.04788903668553745 0.2535520190478747
1465 1.0557713771622612 2.116308166857083 0.22607755076742198
1553 0.006799432270103578 0.2866385669180327 -0.2164010598415515
3462 -0.007650836803222712 0.18892296553563878 -0.12472593287838939
1543 -0.5045815136309203 0.3234312891244951 -0.2213736376437463
1458 0.18845071304091607 -0.7623359505273022 0.352047780100851
1544 0.2573332155158167 1.1252966304415062 -0.3626421599183685
1545 0.5336837519595474 0.3661052788702501 -0.11933016519647531
1625 0.6956172765728257 0.033655400275556684 -1.477140215264745
1631 -0.0312628529908123 0.34622822210251225 -0.5030156305636584
1632 0.6864941683638813 -0.10350543408223961 -0.49701207571947403
1728 -0.40536591217700224 0.16050166052912232 -0.9534037023438688
3472 -0.03939550004895643 -0.11071389523767035 -0.013534237634700656
3473 -0.2873990154288728 -0.0473108009556028 -0.36250756286702374
3477 0.097068903892535 0.23399614973553118 -0.3107457627586469
3533 0.028805780894011583 0.05751983719824917 -0.13228255798228544
3538 -0.22691804360434062 0.49540753282311023 -0.11450440745195581
1720 0.06102597933131422 -0.42618967821835113 0.6944418880981198
1712 -1.154060570224989 0.06144918190770299 0.7516987693150111
1719 -0.7777341072223477 0.9155300326586322 0.13500984144869488
1722 0.01735693569991615 -0.5952758074360274 0.6975044700067188
1798 -0.04382206249144748 0.21930193226614275 -0.3279430776202962
3480 -0.1832537104113582 0.24730655348815514 0.1346789217015433
3484 0.599900840516534 -2.7214264324744866 2.0088574345568198
1711 1.0653678348416706 1.1992680855511082 -0.21707045867363323
1714 -4.480893038579415 0.5065310097492932 0.061197164779798835
1723 -0.8429149472132089 0.12440415954209026 0.5542936487775206
1801 -0.25465502563721104 -1.2468486929229512 1.1680470216749017
1879 4.820677464564442 1.4382911119774435 -0.6496372102574931
1884 0.4462341900083249 -1.7216016378364003 -0.26672269087959477
1885 -0.11350211307711867 0.6183665581519644 0.9242360126090915
1887 0.1682429129649759 0.16406996461735232 -0.10124997955923962
3485 -0.38913358558503475 0.16673590403669994 -0.015845841977884877
3491 -1.1776602812925734 -0.045823463921061895 -0.34361781050351087
3553 0.6863018738697605 -1.3260708032074187 0.9039471587214412
3558 6.406452481169141 0.32835507222127264 -0.1288369430811683
3559 0.3164173066131234 0.4623424176527869 0.5803915519420886
1782 -3.6762033656300055 -2.1356466290718323 1.42255150779683
1963 4.200281198659622 -0.7172829363904479 1.5621824340087955
3499 -0.046072563354528896 -0.20693810450322303 0.8025590069714463
3564 -0.6567095608020909 -0.14349156326574428 0.9649998877657769
3565 0.6591295533209812 0.11927911005771921 -0.11179482491319712
3501 0.0214082254118236 0.3473927425453566 -0.08456257465639457
1042 0.5768093244272346 0.6712721294785029 -0.8447835172391759
1127 0.009501590878972321 0.10979827277405152 -0.06060030830268571
1134 -0.008058745162128145 0.14583634771420917 0.00867925715745726
1135 -0.28761894728317305 -0.19348566601604955 -0.09814725417326842
1211 0.07952146978649252 0.3201722678865247 0.19205861607105162
1212 -0.18375390370688208 0.11015543009132073 -0.47679955364347243
3500 0.17379389733173634 0.20430021406624582 -0.38339172057624477
3571 0.3547609352078348 -0.10891263437020887 0.3108612536935959
1304 0.6303384788733805 -0.21346820851146225 0.06903812263196388
3450 0.09534142405645815 0.08106219277372732 -0.8367821494238157
3455 0.05366533932174476 0.23249755327088828 0.28578344290705904
3522 0.23266136842722365 0.05962529700419939 0.03436292635787115
1377 0.4729308838094994 0.32441970068447407 0.2875116144800355
1378 0.13270036620241177 0.15460037845574642 -0.028111281809055894
1379 0.01137151603020382 -0.25134874697642423 -0.2362317882991435
1387 0.2949307809959103 0.5682461403549832 0.3685254209534958
1390 0.45796269249323857 0.28676145569305733 0.5606120912597344
1471 -0.6987275856984778 -0.005415828497193373 -0.14650092180400456
1473 0.02184651988983713 -1.1580026978742193 -0.09729004550994343
3463 0.02371743989248715 -0.07467363014016239 -0.04623359210462259
1394 -0.36251781507050423 1.5629415704804235 -1.494028492830582
1466 -0.1806783195480783 0.06082982155535582 -0.1078352873114604
1555 0.0735155852605521 -0.172854736884465 -0.10575908243704941
1562 -0.7131681003012509 0.3593811862382966 0.5749868909347988
1563 0.19214772933745344 -0.4961741768251382 1.8801444548081168
1564 -0.48670780427591487 -0.15515248141422494 -0.20827435382575282
1566 0.9744729162874348 -0.1324840086077169 -0.4700948616805434
3406 0.36926334880278344 -0.04435359978883288 -0.13952518533540345
3466 -0.08847244727695547 0.017330210019675343 -0.24381440567732868
1475 -0.757726712767398 -0.34981505637224636 0.2821117390648879
1558 0.6974291970885655 0.17657674894924566 -0.39156750577447985
1637 -1.8963494996197252 -0.2152069785737338 -0.6614426727719998
1640 -0.15115216610441576 -0.1033561534831667 0.12878506136174375
1644 1.9752822348353234 -0.17655292886880591 -0.4095119042401045
1645 -0.17492498278917867 0.07948833696542934 0.2764241640142679
1734 -0.8984905355002195 0.05133902888207545 0.35110694173825097
3482 0.06777618215004437 0.16014116248535193 -0.08853946038566747
3542 -0.14451701883617724 -1.4188142979579355 -0.1918605298862962
1805 -0.4326615828034467 0.7375472039502554 1.4615944069847941
3481 -0.014422292713009965 0.0704452455750106 0.24453856530384369
3486 0.5803817944619245 -0.0957338246353194 -0.0028510112271478813
3547 -0.023930948812433628 -0.46586391344924066 0.1070400302404861
3554 -0.005287409927971943 -0.010916740010644618 -0.058929934963134645
1981 -0.6186926179617984 0.9411052845283668 0.16654388518229007
3560 0.37059550427048327 -0.4869570330647804 0.22934507268404253
1891 -0.27404415435296076 -0.07604768322785205 -0.14249865301103182
1893 -0.21033027754434916 -0.23452541197529603 -0.22842353916603694
1897 -0.19603745781252738 -0.7734878730539075 -2.099921985276259
1980 -0.709463188174117 0.3153361803573437 0.35250049640331094
1982 -0.1836342496634084 -0.27567520934255463 0.1180039439618335
3495 0.2193677553300583 0.13196621591213695 0.29417564530960116
3561 0.022609514718917402 0.30028678933898056 0.022361907758165257
3566 -1.2214390722363262 -0.7847916724301068 0.830649171117503
1069 0.012414969349127994 -0.3724843397266978 1.5817750995258981
1051 0.27570559089451413 -0.2387777760163384 -0.06792364681227596
1052 0.1278788070846716 -0.7452888918092729 1.5634955757747597
1054 0.47010270555373035 -0.5504319722614568 -0.11031346843937496
1062 0.5306030345639898 0.4723543146072387 0.11275356515614342
1064 1.205927162848065 0.2807672490322443 -0.6511730134149311
3507 -0.7751635264107357 -0.24474337023445514 -0.3671466710492118
3512 -0.2613014283766474 0.18253821259281164 0.3133635552923686
3572 -0.7322598112667267 -0.09669635417802848 -0.34883391115266466
1067 -0.21576808591012542 -1.1222827559619988 -1.2750578224719038
1057 -2.616473119836646 1.2691524563990244 -1.6320141990556878
1138 0.25495425163084995 0.325176988225131 -0.0869270835378856
1140 0.05397741273671999 0.6914721329067561 -0.2462948564140771
1220 -0.05486966580503765 0.21137589842447058 0.03157521211201661
1221 0.659900769241009 -0.023698445071304364 0.2189945224104543
1314 0.315635666535563 -0.10196516400639519 -0.5298662835797354
1316 -0.20038072859592695 -0.6619611471398844 0.060482762714324304
1323 -0.4699313578476399 -0.11827801490310484 -0.07605492267681649
3451 -0.2763516125109613 -0.3317025268838013 0.21285606841521237
3452 0.27306779992735275 -0.6039183161352697 0.11040037774960086
3517 0.22656205976658536 0.9366675366726079 0.8164570499252275
3457 -0.07562988118007885 0.233693950572179 -0.2606690622569639
1399 0.4740263169662731 -0.7568322071789987 -1.1571059491728057
1402 0.3611237307906266 0.34514127071946493 0.29694806845216676
1409 0.21111194671588623 -1.0083740284005394 -1.9310195382874942
1413 1.3930169717621945 2.6717091856606414 -0.2842457777782818
1491 -0.16830545182850706 -0.025346092598211446 -1.5199122429404779
3456 -0.0181579594114443 0.40103875807859335 -0.28978878453857937
3460 0.1987035399352599 -0.20313858200621068 0.11070882504732824
3523 0.049219885910118284 -0.39092298786508833 -0.19556918732917197
3524 -0.8184003597745386 -0.9156439203700818 0.3295607328727628
3529 0.7423049254192485 0.2078355076760012 -0.037116704185347626
1480 -3.609657535740262 -0.9488278237683171 0.7461396576662349
1485 -0.4600882382020913 -1.2632032506823336 -0.46329536675204297
1487 -4.927508636743877 0.9499177645612533 1.5601302163587867
1576 0.7392264895862867 0.09305459142425952 0.977954094211297
1581 4.324795464581991 5.025601759673266 2.166396920997958
3402 -0.2649555602162558 0.28507454103323954 0.20910425544309474
3467 0.3314082537905788 -0.8143164581633738 -0.14199653804766182
3534 0.42022840904245007 -0.7318665511674404 0.45991029307750597
1651 1.1814117856667588 -0.6608568516375981 -0.3946661374267025
1652 -0.3728839213604716 0.02642339115780503 0.18461961119550335
1669 1.6425202752372645 2.0357541605798475 -4.6331746261620035
3474 -1.1313313465822377 -0.22897176428493585 0.21932016927051848
3478 0.40046986231279996 0.41037121952943356 0.1944509835904509
3539 1.5589663190856635 0.3243314566216948 -0.09725930662158738
3543 -0.802872735239518 0.12872713880133033 -0.40872741998951273
1738 0.24339043438101943 0.07564757597393561 1.036127312066039
1741 -0.1496575543911429 -0.07455875892424384 0.3439566608415276
1821 0.3437588210198927 -0.025695152993327707 0.20331832096907032
1822 0.27305243774157734 0.1832813427015688 0.17055896722369884
1823 -0.22938735223845916 0.15719777033041227 0.2586032116331814
1830 0.2856863883733183 0.07528135801882443 -0.2850859988879086
1832 -0.27145921335343803 -0.618035993297897 0.3010945361418451
3483 0.047056181960968835 -0.10626904462229425 -0.17914610429503153
3488 0.24997443071753578 -0.11339520397143994 -0.28833077078469826
3548 -0.3043678650907543 -0.011532595212303702 0.1380425748997258
1903 -0.044946098540930644 0.2405143863988713 0.13635785537236772
1907 0.17001720931246633 -0.1545275444822511 -0.017249534055925126
1908 0.21441901098780725 1.0296080351245906 -1.370889356957758
1909 0.0626092577763045 -0.7057927055081924 0.40286355507123345
1997 0.15102779200572544 0.07621966749718335 0.34894224396576434
1998 -0.0026408299395788387 -0.7064743199053768 -0.30313591359588676
1999 0.580046321409076 -0.49299572315111345 0.040615306206752376
3487 0.0019526977491966854 0.3602538274670245 0.1820224870411042
3492 0.07093049694636845 0.3154158109316283 0.11851913005895115
1910 1.1574491378955538 -1.1561249263492266 0.026183369374052474
1905 0.031933876246250804 0.15690200069251922 -0.13296197550820696
3562 0.133559824974063 0.564506145664144 -0.09388326856445554
1061 0.29912566986106703 -0.5184254365922196 -0.1281033842562087
3567 0.031492198614579296 -0.561534203198113 -0.3970807673699967
1070 -0.2648793261331255 0.42788613579635104 0.4587456229836088
1071 0.5841458069573289 0.19072374122300392 0.6753096554768739
1078 -0.08368079354093884 -0.10836143652311081 -0.23171229417981065
1164 0.8107827088564555 -0.6021873753541986 0.27656788039162516
3502 0.46425756041897953 -0.6860957253739935 0.1373871032934183
1155 -0.7063549712724176 -1.5581926623415534 0.9749256230074819
1158 -0.5219462708937866 0.03888220962866371 -0.0821869666582504
3453 -0.26675764051456574 0.2753672210632072 -0.3729610655601785
3513 -0.21804732535038307 0.018321510230317296 0.12593575101712803
3519 -0.5398648829614388 -0.020639830603470605 0.14830855798679177
1074 0.134748372002259 0.786037996231623 0.3685423967807844
1324 -0.0724696329783683 -0.3431628989001198 0.3134388746278652
1326 -0.1915938498466173 1.2393968781104752 0.27252544735040674
1330 -0.8242883040810555 -0.47800981046264995 -0.05801990057692504
1332 -0.4803458094176572 0.49674329511592585 -0.1957670827172411
1337 0.25703318464053637 -0.4425866209212629 -0.3379315320831509
1419 -1.3655583119987855 0.3293617178964098 -0.8902741603207798
1420 1.006060054275696 -1.6372309159103995 -0.42124059886487364
1425 -0.802948168558896 -1.7038890682774457 -2.9582739376998095
3518 0.03645972335953818 -0.3798890855361001 0.5219589378342159
1492 0.21692246155087333 -10.169858466135471 3.556711680460845
1499 6.107748509810975 -3.567290924128862 0.16055997053497567
1416 0.9364204529926032 0.7982124368982515 0.14621692965573185
1498 -0.6519091206487494 3.426771646859161 1.944203810185349
3464 3.5507272543528843 1.8091412285129602 -2.243687925108142
1503 1.3309699102543342 7.476519323558164 7.690471668035096
4317 -1.9602943532422656 -1.3125386697964987 -2.5299655960730854
1495 -2.939682454034016 7.115415289020084 1.5296666152370235
2585 -0.9965633254674497 3.7184905072704653 6.7431390485741725
3745 -0.35250775358555364 2.4998047788000526 -5.324914371487085
4318 -0.811207673616248 -4.2842479905440065 -0.7266044015984108
1680 11.975370882309363 6.639384856699384 -0.5810182937041823
3802 -5.272699503171188 2.3641692864733703 -2.648676180144392
1494 0.7513686379805148 -4.404421671847549 -1.3904936916070014
1681 10.839946380315327 7.555439550050783 8.288324821002234
1583 4.498505436385635 10.493188302586095 -3.118166494795675
3475 -2.817961731426535 -1.5203976105578219 5.714667529739525
1584 -1.2044477374280258 -2.0279364378716043 0.20594692481291949
1593 -16.396977568151254 -8.442418572068897 0.025058892105495226
1587 -5.070627179853839 -11.502335229368635 4.738006635844961
4335 0.6090283739140221 0.2541900761450278 -0.5719476132807684
1767 -14.274309083326743 -24.546521568553246 -0.19673770819455685
1676 -3.5696114106630503 -9.770069042243025 5.674920708038482
2596 7.045202093536384 0.3407409267297696 -2.765171618680331
4333 -3.0240263211149516 -1.9774298823799807 -0.726544189965043
1670 5.2276939948095835 -12.129655483594075 2.3706536349878227
1672 -4.803705688739164 6.07432037785642 -5.312187286005184
1748 0.20585992177260642 -0.38551210441335143 -2.379560115407568
1749 -3.807405247603096 1.8912094306024954 -2.475223101498226
1750 -0.02784313644318996 -4.255253846967479 -0.5960589128579891
1756 -5.944988004537572 0.8691889124919638 -0.14188340550382597
3479 1.8858629941885579 -1.6253434841344763 0.09879170677262857
3544 6.798277311605553 -5.633400227930319 4.095821640704479
3873 10.118707971846153 -0.04765623418612428 -1.0354656532383282
1674 -4.153030972307475 6.038316631783831 -2.2150642618096144
4322 -3.2301960422671305 1.9996420982286074 0.8917444661746378
1845 7.799015863073617 -4.890761363824527 -1.7791400627393623
1839 0.0495840605287414 -0.250435449060418 -0.7804906808718616
1843 0.553972172196141 -2.521617022399063 0.6409689871391262
1914 -0.18171132389490013 0.1045458952893605 0.21243774104263302
1915 -1.051919412896057 -1.305055425903132 0.6085934540410083
1917 0.45653278230512306 0.108749371098185 0.40337671555856897
1926 0.8424600038862657 -0.5163011109220013 -0.3460392720322552
3489 -0.010900531869445824 0.2135505391951065 0.2772558857855124
3493 -0.16404419999846914 0.6073143160540593 -0.049009493541983785
3555 0.7325491924998557 1.1132063708093631 -0.7899628551596416
1851 -1.3758125275237656 0.894542901841998 2.756240254503373
2003 -0.14566141153586024 0.49553168303595874 0.1828155997010147
1076 0.08244693985253294 0.23400247494774462 -0.2626475603304521
2004 0.06368872941081132 0.12722386714228615 -0.1094143796560143
2005 -0.027034593598169773 0.3249275163221879 -0.21987601123176737
2010 -0.08742885878101703 0.4239879721021811 -0.13987313262865123
2012 -0.06672274259909287 -0.3588773446797758 -0.023030009370195795
1092 -0.4901400345044684 -0.12702018678868365 -0.07417588524174823
1084 -0.25059413127089053 -0.027475301772285833 -0.005974219702461058
1167 1.1559087422426373 0.19853913205101945 -0.2509656551670868
1168 1.04998251512823 -0.10082268944522514 0.13857457597093767
1169 -0.015915041808301125 -0.2413405166053374 0.7739986832344845
3503 0.14805424780348797 -0.38037449053992795 -0.07825074181243623
3508 0.5514096811034072 -0.3093940081868313 0.17423860196223867
3515 0.06164512198317536 -0.07925435882565456 -0.021236511759286182
1270 1.0124189194761817 -0.2112077407262154 -0.16399292947971336
1174 -1.2081754269320726 0.0885568524947831 -0.05371637730684049
1252 -1.2487902754627789 0.24496844282375885 -0.26067875599113194
1261 0.464642756306675 -0.5781352986749806 0.028251411571076558
1343 -0.00937372739399592 -0.8016500772661579 0.015494566674108312
1344 -0.8743696633239475 0.11790209436290028 0.13916750856732035
3458 0.020644661349906567 0.060628650988400874 0.16931220749497283
3514 0.27314799137805057 -0.11598423984695357 -0.31491226279952367
3520 0.20131418115994018 0.32538917797327127 0.06963373654435732
1338 -0.9656723863309992 0.10003346333701438 0.19381319775659456
1426 -0.41052158360773217 0.08329336749432042 -1.3000196658440164
1428 0.0689535142907259 -4.766683096691178 0.8160750485715821
1434 1.29531309229312 -0.7064813449184871 0.15874329578140337
1435 0.34488226888893386 0.09183674525863057 0.09424681411154687
1513 0.662310794919646 -1.3978637766829636 0.24573893705316308
3461 -0.05616174847589751 -0.17940430255952017 0.13581625480853962
1510 1.84158507821552 -6.0268977680497535 -2.4845153128617152
3602 1.3234003164084576 -0.1431494028781798 -6.227599831878515
3465 1.073019797228355 -0.07945194387890668 0.029662937665018704
3532 -0.9662110877854053 -4.15154928502606 -6.067654194896345
1509 5.960058378600875 2.814789596012527 -5.829254218778002
1591 2.4697530867154014 -4.0469015031973425 -7.725408218793213
1691 3.341485484068406 2.611130155870229 -6.188566543029908
1601 20.277495953807364 -2.7071228782126857 -4.161188357338112
3673 2.23880804620896 -4.083853783585442 3.4859028595928714
1600 8.03988080337827 1.2870667908250915 10.99707795339673
3535 -0.9260789686629122 3.5603084972930334 3.740375700787966
1685 -2.437331389007783 -8.903879708548228 -2.25514929835266
1590 7.180134541652385 3.4606319788707967 -0.6296471591180877
3936 4.696814313236474 4.330847911853516 -5.03832830814948
1596 2.3421096400654053 -7.325428096349305 -4.098533853109453
3612 9.403727842199313 2.447173450390845 -2.2336055114312012
2740 2.437884803921791 4.638669679420314 -4.806119143613802
1688 -9.441302975837768 -2.0250406946780486 -5.790664406800243
1500 -4.029452846844547 5.9106837303792 -2.5952162924899045
4326 2.0303071995580546 -0.6175631426169432 -7.835677577166686
2677 -3.526129350415624 19.550152166774605 10.694773437510486
4339 -0.015268485566498402 1.589670825943962 -0.5300672900715632
1687 -1.3208025364505123 -5.4470174232228725 3.4503751044663673
1852 9.309152915857297 -0.8279493204602824 -0.236478101145112
3746 5.2087899313953985 3.5000421202904666 -1.3114959947167235
825 -8.58514744748496 6.396086352305994 -3.3535810245499
1679 -4.568362824300671 -1.3434344662417743 -2.1367734482657617
1762 7.341573225250507 9.379235555317067 -10.602013421013874
1693 3.2111442581398606 7.501026299232076 -9.574281426850678
1761 -4.088507253096783 3.6298776370475436 -1.6582372914831331
1855 -4.266612427955734 9.49743013624498 8.204431989653104
4323 -6.208282398428658 -1.4026582867795911 -2.745003828418802
1859 -1.6656979087197707 7.580562966496647 -5.258678447004776
3618 -2.325138179726919 3.8971026299952416 -0.5039248278883981
1847 -5.439907349975307 2.4837270013292936 -0.9652219526772328
3617 1.1038657863871242 3.9207455693676185 0.4551602436450661
3557 1.9993657172007226 -1.0908259789688606 2.217549382891233
1097 3.1298923615629763 0.19631611247444206 0.6584414804790295
2025 1.9951510462723527 -0.29170798599883174 -1.1935933711550641
2026 0.46356450561127854 -7.141975770062136 -1.0335607215459381
2028 3.551005604962594 -0.4483173592013727 0.30529942905623675
3494 0.34799029731657904 1.6151872163291867 -2.282121809025575
3556 -1.569765281109695 -2.5103626272787056 -5.578362715076686
3563 -1.3654581245382986 -0.03718071856060542 0.05202424884872224
1774 8.505090437156246 -5.249516879051668 -13.40350879001393
2033 4.085111181315557 -0.9208890816851713 -5.001634589697714
2031 -1.4260523880756446 -0.26053757695243285 -0.5326472224811599
1090 0.5846467591268597 1.3347480902351003 0.6952903748215334
1098 -0.549287165352377 -0.5910911935705595 0.6677466082214853
1184 -0.5505735528683109 -1.2051647821976725 -0.4584085029719939
1100 -0.15601939028906536 -0.7695752283110794 0.2882625899224364
1183 -0.6610465259605238 -1.1897287887399703 0.9621234529146305
1185 0.17809681582630352 0.3227325403893962 0.2378142762763401
3504 0.14119595267912763 -0.024746491623414295 -0.1940144714249485
3573 0.005506103852217605 0.06917392391337511 -0.14080847388962603
1104 3.7013842206577037 2.1347624177291826 -2.787916705008315
1176 0.08358391656637938 0.19453223363622033 0.2649788801140894
1271 -0.42857729190130134 0.6931910446120019 -0.9165966499954095
1273 -0.022940316108262145 -0.21331238324983842 0.6536243251886051
1279 0.5845794838558706 0.33366724824960864 -0.2582506273603746
1280 0.11716915378443574 0.0758188238772954 0.09017848040839506
3454 -0.008452042659797054 0.45591746205084277 0.04724853015989913
3527 -0.38241399516565616 -0.2501496820695916 -0.4216439613708595
1178 -0.7384433652305045 0.9713710604562534 1.3707477186482924
3531 0.06714490435995975 -0.1024971401294276 -0.0014033983067335658
1438 -0.16675620629260313 0.2833428366643661 0.05153598601020107
3521 -0.3153667830842539 -0.39025826261885194 0.3012784027479126
3525 -0.43950503416161124 -0.08217611552328773 0.3781148500116914
3530 0.298117228820369 0.042923483972829066 -0.19799702990964674
1453 0.34700988348285544 -0.7186386372806293 -0.6257870893988673
1439 0.01157009437454911 -0.19621640975289656 0.48525112817905125
1448 2.101808035931775 4.907670273710799 -2.4262224298728476
1520 -0.6152018539158205 3.39577781260658 0.09576722523592292
1522 0.5614182670967294 0.4313435337577532 -0.7791178712920449
1527 -0.8977952107163675 1.6262589880180336 -0.5035689401697397
1530 0.6586320899661828 -2.2378010271437114 0.650497603262635
1533 0.40264436776126944 0.5726320758331169 0.9512749432889879
3471 -0.11246681802917577 -0.2257858702090601 -0.3171574061940383
3537 -0.9170633760434603 0.44542004338374047 0.25085285235075827
3470 -0.5846634157442171 6.439820476203297 2.1150794563564763
1605 -1.7145221757785176 -1.9032510645043719 10.81743412382753
3476 -0.3923687630711794 0.37553488185852885 1.9431335296453935
1597 -0.2397373415547484 1.495226965885835 3.120326455312819
1524 -2.91070135281582 1.7680094903070245 1.869820720221911
1623 0.9786421435265932 2.1284323907971574 -0.997720690226361
1705 -0.33440597382906695 3.4869895348499447 -1.9378756617715118
3541 -0.21490640614331918 -1.2605697918855763 1.6371859956330614
1694 -2.777489195328884 18.68757155975309 10.875999769673557
1598 -1.7688939532924124 -3.3779296340181606 5.142844571450995
1709 -3.739651496651748 -1.1259625750946656 3.24622418514288
4319 -0.16117070130457437 -8.064246745205617 1.264127533629466
3417 1.4520351684669075 0.8069749572785011 -4.277311078498543
3613 1.2322912785676676 0.7305930741507117 -2.540772786732037
4007 4.826541362971347 5.470147751417583 -1.638148310565843
3552 -2.8416910677698177 3.8460113153826527 -1.7088207984864263
1785 5.552516038520263 -0.386933001041525 -12.56111804735018
1695 -4.353406593651241 29.400578106930734 17.228013756987604
1771 -4.91924055598053 0.8739408760385755 -11.713064741481364
1786 -1.3153983916491023 0.6742504961336262 1.8243249422863481
1873 -1.8418491242422035 5.854719100188109 5.607796568239756
1773 2.6283539903476933 -6.078835558040042 2.6865714738166817
1865 2.5424116088900024 -3.7127447393755872 5.912126761352885
3816 1.3996360193441 -1.56290041051585 -1.1397186526286731
1686 -1.7628177645676368 -1.2726637793142848 8.740495711103529
1772 -0.15307907621835157 -9.67187006705745 6.625129195898995
1877 3.6256041540158743 -2.191675711130548 -8.220202501479436
1951 -1.5653229583788846 0.9239571747964774 0.48952216148103056
1870 -3.9676456234520883 0.24568273181690012 0.8521057386157714
3551 2.805685952211191 -4.508235357288332 -3.893214621543867
1942 1.6413823515462378 -4.853412620537823 -0.530527706621307
1952 8.427443046908802 2.461902433350562 2.397339643643361
1954 -1.0200354241733236 -4.5816557428637585 -0.3209777264021688
2043 -1.4707138110168039 3.046804682587824 -0.31609132011907937
3623 2.992015153152206 0.5195283545180848 6.9249089294768265
3434 -5.273457920942859 -0.8774203600326643 -0.5652263331558065
2041 -2.19021898815289 -5.028401861736461 0.051604089350456114
2034 0.9752732281489559 -2.259013388045505 2.6917250492831695
2035 3.0989404473422844 -5.672023729798163 1.647991888404678
3498 0.013398909463430347 -0.4784567344395486 -0.7714647720113048
3568 -0.4973620802293221 0.021486968118740377 0.340755907715123
2044 0.022084224091625144 -4.181522812795692 2.1909017170437983
2038 1.7071775748050735 0.10288587749873013 -1.7312966385958108
1031 -0.16610197190219156 -0.43486206531970484 0.7690098187025007
1036 -0.20755141255958773 0.07821237147759602 -0.07935341725444787
1038 -0.40159591507758563 -0.44262847885846063 0.0338901596702425
1039 0.15012313431917884 -0.7236164520220885 0.01989839683916232
1112 0.4904657888991562 -0.35938577327269994 -0.18147330599120406
1121 -0.20088848408438414 -0.9927844912674756 0.20737619723353687
3642 0.25259923665973644 0.18061955176985847 0.43491159467187096
1120 -0.003122733471605377 -0.18776321357080283 0.11473573902300788
3706 0.105922381457795 -0.16239259136836384 -0.509343643726639
1111 0.3603483674818503 -0.3495713578384632 0.372613095389912
1113 -0.5029787034419809 0.4692980751474748 0.14226944676404682
1114 0.3282128030811564 -0.83299604286093 0.5204912868894923
1119 -0.22647328993471377 -0.12323047851491703 0.3409144795413763
1197 0.09809803145667358 -0.02691789142521286 0.6006699483541897
1198 0.060242784123903347 -0.2386271106387508 0.08275653650866455
1282 -0.24409511607277984 -0.44507083070667763 0.0037260469661313154
3579 -0.052371368012970966 -0.003018497539314776 -0.325907352931853
3707 0.2779535665293584 -0.31733728785544113 0.15477301327327045
1199 -0.3461442475201687 -0.41668710213056026 0.2934715696705518
1196 -0.006082490015444514 0.2254177872235512 0.012833614276661912
1289 -0.05840821079610192 -0.1972637550018611 1.0551053127103038
1294 -0.1086722618939823 -0.09697194073371426 -0.0894066798823272
1295 -0.7853371237029927 0.38539902006528076 -0.6931854460762245
1365 -0.05120592314205535 -1.1231978144971717 -0.8347000027230095
1372 -1.136695452368622 -1.664996430273186 0.40724487544251187
3585 -0.06311145120620072 0.29494486952970583 -0.05677244095999642
3592 -0.07241855599008151 -0.0006225557850878504 -0.1302238054062885
1464 -1.4691590570349167 2.8269629965842022 2.198083063069662
1366 -0.9376601053228145 1.8958833181707846 -1.9139229352775224
1373 0.6577092130598817 -1.0701618711761065 -3.6678444932355467
3598 0.7699983622979524 0.7882882132096828 -0.7397683865688409
3599 0.12364166835514678 0.03429288724557209 0.4036910683585303
3604 0.03680969146246754 0.1883729639768176 -0.21702481610522456
3657 -0.37116996873878105 -0.4428769407503395 -0.3534617644213202
3662 -0.168880906573092 -0.3075597681219433 -0.062277802909300774
1457 -0.1090995399925809 0.30101303782632455 0.13360067689202224
1537 -0.4443117556772901 0.6660434526365756 0.3031728688968936
1538 -1.6414962109473703 0.39307735098278745 -1.8562469410460292
1539 -1.1819303594601733 -0.4475949945180344 0.9349336492553872
1546 0.03617718556997866 0.11972967031067822 0.3020218939487
1548 -1.0225356599640532 0.7476198286221095 -0.26646652025031425
1549 0.437294381258182 0.6695656958745474 0.12473858838339882
1626 -0.37571951273237447 0.5694881966507921 -0.879202347808955
1707 1.0293519081272786 0.8419236012359993 -1.064177072708153
3675 -0.14844537347973813 -0.035481292521044004 0.027728481218694246
3676 -0.5639024065722632 -0.3065454018493817 -0.011298050404594875
1618 0.45838578358959764 1.1218954689913931 -0.7361977489424881
3614 -0.618212934491429 -0.3919721555637611 0.2121120387746378
1627 -0.49419988940109255 0.5482146845577545 0.620101812092677
1713 -0.5666737097540696 1.3086471258613812 -0.11678409891084882
3620 0.7040920395219361 -0.33074042976391005 -0.7079158770048226
3621 -0.0015761118711085172 0.8761832731462829 -0.3317021629875253
3679 0.5072980907995714 0.24210499868067964 -1.3131073255235606
3680 -1.075397561678881 -0.036389644958107197 0.03804003157818493
3681 -0.265916052580634 -0.22153400881207366 -0.0987312813387524
3685 -0.08900818836656982 -0.5052850835927224 -0.3811570706000046
1793 0.4598775658904408 0.20923214738495682 2.760706864037176
1794 -1.0749657380144202 -0.4458243095887784 -0.5008177350453229
1799 0.033412436488955394 -1.7248262981093023 1.4239997979671966
1882 0.2099539582328798 0.5270095432207741 -3.7008542729062603
1888 -1.2461336866515544 -1.857387130122635 1.4258054505995643
1890 1.2449053303727133 0.7053547625357779 1.3932323772986557
3627 -0.25047018760810247 -0.17348855887206005 1.0147087634546919
3689 0.5955063382444105 -0.40206199467496795 -0.1359751584243577
1953 -1.7468912619969146 1.115346983880269 -3.215867779391289
1876 -0.8507644737524941 -2.4198665920582814 2.4258870753333324
1875 1.6118229223319929 -0.7725897948565933 3.430907323018359
3695 -1.2685225649047562 2.7121761219701006 -1.0817111607435272
1030 -0.14498402644355182 0.5717004236743428 0.23788592727955524
1966 0.14994796236712218 -0.22647975314166058 0.12909358915851413
1968 0.12099152879643901 0.28552699319809477 0.11912202940653567
3628 0.15098520404575286 -0.14172384478123565 0.546830136554929
3634 0.4762397802641167 0.3844528474612903 1.2002097903543825
3703 0.005762838243805028 0.40279693762665264 -0.05695937505355324
1048 -4.9417145960212014 -1.5056828122817816 2.0411558923095994
1037 -0.10620387571906628 -0.11514619728458939 0.15846478395079913
1129 0.4173066593162998 -0.1511210185025606 0.17604003952766484
1130 1.524277347856873 -1.4099735450870654 0.3932093489238052
3575 0.17838756539584122 0.274791335064933 0.012642168543543006
3643 0.23104334019633666 -0.13020999701846797 0.08906812657169101
3647 -0.2408032053616929 -0.0052413871566620975 -0.36889325303744147
3708 -0.46236640181647015 -0.9217496516632006 -0.0056034266881330305
3709 0.020775266510502186 0.26873852151507255 -0.9991920021422855
1128 0.0896080721734082 -0.027541789915380106 -0.11210880247295231
1202 -0.08885881683173542 -0.37867409745915026 0.09678079027173606
1215 0.8104456737331267 -0.24408260031210147 0.7227544943529348
1207 -0.40990168311293956 0.20602207230591651 -0.05568144635055372
1208 2.1949509421166287 -1.4445807450282593 0.833408968675102
1213 -0.12053677212063556 0.057034525471619135 -0.3248020915255775
1214 0.006528307403661749 -0.501712315951306 0.22637209449417967
1301 0.2666612722570713 0.22851245929001573 0.09988132020773206
1305 -0.3202388451928343 0.008980674043914848 0.3847744572293515
1307 -0.24614037507561579 0.30674610953044157 0.058480951120374554
3580 0.45190141342072415 -0.19332101413193123 -0.12077768964839136
3648 -0.7232882242314311 0.8037184722326001 0.1920033014544442
1382 -0.14554370533373073 1.0087375908060032 0.3197353719443132
1371 0.18943237096677623 0.19505690213683324 0.37132321530543505
1380 0.5202966465713347 -0.21968316192287599 -0.1538573235256566
1381 -0.42661160438332796 -0.4116696331495073 0.25790981478339386
1391 -0.5767089701063949 0.46471778650407636 0.15308487337667231
1393 -0.5144906188934453 -1.2289141747552654 1.7547432984043827
3586 0.5409811074332307 0.2370660614426124 0.02498904925632983
3600 0.23154561059040374 0.032191161953827804 -0.17106676430872828
3651 0.10346103835587932 -0.22836865983527754 -0.2116239393659232
3665 -0.9875088295707581 -0.06675062372921998 0.034753162414818066
1474 -0.8484932204862154 -0.652415584909741 -0.6343056680780648
1463 -0.15661706533904857 -0.026059099704015275 -0.10189892494350258
1467 0.3614907353460143 0.3218258600655478 1.668654377220861
1547 -0.325132183286333 0.43779654248309335 0.13508787750962112
1557 2.56940886028956 -3.3292769053578337 0.5855096653243618
1565 -0.44965030529187144 0.3765743487913799 0.5278964699124924
1647 -0.02946674901317795 0.8507324191890459 -0.6837604972614826
3605 0.6820582680711392 -0.21700301901673305 0.36076973406314755
3663 0.2285401439690954 0.21506111656045987 -0.01555519335882692
3664 -0.17366622950754887 0.26994829461904196 0.3014316374780896
1646 -0.06785548100984883 -0.3396744603133172 0.0954015801128112
3609 0.1851515604208039 0.21626293391525309 -0.34307807167745186
1556 0.040715851595962756 0.06604280871812623 -0.05111238786282511
1735 -0.10725836843009424 -0.006489541254716784 0.1219015398625534
1736 0.05664758520485797 0.9109834027670711 0.6058753687941834
3608 -0.3126712499821091 0.18905851463302115 0.5054701378934573
3615 1.009243833621655 -0.7440697795061615 0.08515853957307443
3677 0.033557874415326615 -0.1300908289071739 -0.04392183502970577
3678 -0.4567959832333781 -0.6913137885426568 -0.4259787783121745
1731 -0.3084158593647762 -2.5404777738590547 0.16021059130216825
1809 2.570295989591809 0.26594462210775766 0.17583338423449302
1730 0.10971470187305438 -0.29773052579332837 0.13602814230723131
1800 -0.21710114000181055 -0.05077113640643778 0.26844691199922477
1807 -0.37732173950399955 -0.43550877888713274 0.15557334661578726
1808 -1.0092265159365594 -0.5901738958521225 -0.48147538333342454
1813 -0.0041364615115308985 -0.16612636880447929 -0.15089669867102537
1815 0.16430834176713272 -1.8802300130192864 -2.02239266277597
1816 -0.28535710884973553 -0.8720643276982444 0.4669019521046461
1895 0.3025939488743927 -0.08179068150976027 -0.06524082277570045
1899 0.012286714842755283 -0.433827195431279 -0.01529816335992707
3682 0.1191584344836222 0.03217824495904546 0.05275388834690272
3686 0.24342294171079942 -0.3326662201852329 0.23556387092746278
3690 -0.0132528268288291 0.0023351094851332757 0.00944435518870352
3691 -0.05993227247487524 0.1858993015998828 0.08289542508854376
1985 -0.20096079645137874 1.2273666394571154 0.8958711578812552
1900 -0.106947582868718 0.2777468272433235 -0.0916612056103276
1889 -0.23636427392057022 0.29760717588756985 0.5246739614688571
1894 -0.0932896229787718 0.03352619156544614 0.010977463498486715
1896 -0.008764534512735345 -1.4989303879400357 -1.7651200486981853
1967 0.2895147401649411 0.536413401116241 -0.035540168705878145
1974 -0.05061134614636193 0.20604505933805145 -0.2281976515558922
1975 -0.13843555170694394 0.2639107081103442 -0.25096349163142356
1983 -0.18693250093148192 0.13476850060550943 -0.19586511983166743
1984 -0.3217632479359463 0.12277386009645926 2.7370044792758916
3696 0.12889041168549592 0.19822142198732082 0.2458394182403996
3759 0.23153865157926934 0.592382111503196 -0.09525047200789626
3629 0.07664060271022896 -0.2890280433210115 -0.01765113051221192
1973 0.11682833757348576 -0.43440453680930485 -0.2552569186261451
3635 0.061630470878519056 0.14782125741255445 0.19520125835639643
1047 0.3964157636011739 0.14043259005551814 0.7259380975529244
1055 -0.2537836919822568 0.013842623051104109 0.2977846063322726
1056 -0.6426215973295454 -0.8768272862423581 0.07968702288070094
1065 0.6495205368288818 0.13578311351979427 -0.057271776431713536
1066 -0.34971866404243357 1.2342950290209138 -2.5330004814258253
1141 -0.1796442372769732 0.724017771741881 -0.6921007113576446
1147 -1.2195163179917017 -0.49912513522411556 0.21364211188757382
3636 -0.1781797972357515 -0.13428849903495257 -0.1323954671418004
1146 -0.0940009948130537 -0.07430443996097824 0.0037581165091673365
3644 -0.7883110143795419 0.889326706845555 -0.12029071417097167
1225 0.1641851615740103 -0.011838865931922595 1.1826103333597442
1142 -0.715753818255786 -0.006256294133499942 0.5984819906744393
1145 -0.194217187001624 0.6418791141896266 0.026595642286613184
1148 0.582948622434689 0.2392588000622622 1.9712890154368128
1223 -0.22440489726501575 0.18388015417028394 0.048402327407304636
1224 0.05701469507137021 0.2884208158274952 0.09390117813344488
1231 0.4058890295194869 0.2732520193662048 0.2510010438965705
1233 0.44690403653808664 -1.308198684373979 -0.20130097848261544
1234 0.19375641480527683 -0.0850747273077266 -0.5935782919123946
1319 -1.7413178525088207 0.4748905799124247 -1.1116765449329342
3576 0.3269646954542887 0.1790135239451797 0.07641397375341318
1318 0.5423608149330068 0.258616014520237 0.161509872553102
3715 -0.5211128171875954 -0.0870328747812829 -0.21768407665129264
1222 0.02244591609971028 -0.33224574807051693 -0.1523321497910089
1306 -0.2656863243167339 0.2675348634762679 -0.22623508328557174
1309 -0.011013032744648371 -0.3361308513399094 0.7153783435249865
1317 0.3618853720652976 0.8884870558935263 0.4084577369921937
1392 0.26113149945106545 -0.40358348551309164 0.4588665338616306
3587 -0.8834323441596813 -0.7682288920800063 -0.02082366763179732
3593 0.5067567612100368 -0.4055522129782436 -0.3320872450145008
3652 -0.571475877657983 -0.10957200482900241 -0.35846651929572926
3658 -1.0640595390948695 -2.5016024586297023 1.311678873642729
1404 -0.8860641947758835 -0.13018448931804266 -0.29782362893076986
1403 -0.2672495902792159 0.47203916255960715 -0.5872489290201188
1481 -2.139722423466616 -1.4944416260866367 0.15534204755768122
1482 0.32191912458427996 1.1561618095111565 -1.8998083670920711
1483 1.701903541040376 1.3054177414002475 0.2239886624511697
1488 1.7258824422474606 1.4881220524058627 0.328339694277745
1489 -0.2811228574457852 0.49849726970082425 0.9525194764556387
1572 0.5341746533048842 -0.20544760921848257 0.7947914493915312
1578 2.7870671126238595 -1.894573485366923 2.96447805714999
3666 -0.06983456342528539 -0.17910968125740048 0.61246059580565
3601 0.6499196533233924 1.1369909557272242 -0.08627559307165303
1594 1.2998539530089068 -0.10111738903532685 -3.080242475228609
1577 1.618459558340787 2.034147774971833 -0.8932131619624032
1579 -0.9290300839233184 -0.601358899215278 -1.953933589709368
1653 -0.15059192473718278 0.9652255512605276 0.38773290462550575
1654 -0.3563389947530239 0.30682890050653117 0.5605629041017494
1662 -0.14041462620507403 -0.046106709022403464 0.2562116819190788
1663 -2.6537988907278476 3.182202684913054 -0.9821160089159444
1664 -1.6097231800062868 -0.20291802821726337 -0.701936563771295
3606 0.6749853600886911 -0.7879255137658906 -0.12090533209153986
3610 -0.32858037117758504 -0.006216474914307932 -0.30713424596622946
3670 -0.022276281945471228 -0.304547239637039 -0.2714818790180679
3671 -0.12733394027783976 0.655235751790097 -0.7740113825062309
1745 0.7179278521371014 0.3539209363705526 -0.2522359521069617
1655 2.098111659313336 -0.5840376383670953 -3.5507696014782257
1742 0.20758342028209378 0.42291404423729245 -0.5227632590091682
1743 -1.0468913074509403 -1.4258202519122365 -0.2648398342485932
1744 -0.46899666777200216 0.10669724800420256 -0.6772300388739081
1814 0.07937582352184787 0.33689817366301056 0.6772646247244565
1825 0.06264673961998692 -0.2999245921818367 -0.46180070840240434
1826 0.22885616411992787 0.7907032684648636 0.3812714568044882
1833 -0.2786165385513639 0.4210843020124485 -1.6022108330799154
3616 -0.20472013464903335 -0.6217377674973951 0.4458171551304518
3683 -0.10860523123635855 0.020203746674504176 -0.4877291673278321
3684 0.006143965426205348 -0.02948871508252325 0.3994511710528423
3687 -0.0371772111669066 -0.07812159368367284 -0.12598173413350394
3748 0.15997757340847177 -0.12860702098936633 -0.3000785952357887
1824 -0.10411684668850629 -0.08914576554167677 -0.026232446904124525
1827 -0.7998369291565779 -0.3305575309972651 0.25962354010165617
1904 -0.17364721720708787 -0.02378446546312098 -0.12764859577492965
3630 -0.3142833968280088 0.000520209753331868 -0.22695120913336014
3692 0.014445193276829284 0.20528031249880238 0.11574619068082213
1992 0.188121473243236 -0.5463939771399348 0.3867877139126124
3697 0.5648103874509046 0.27765226586456804 0.3034786088334864
3698 0.1648174311442345 -0.0506227973604735 0.32974033557759647
1073 -0.13274715008625068 -0.3600165969854887 -0.2881185172783967
1079 0.15261935816910674 0.2005521040299219 0.10044690259792732
1081 -0.8358654873420827 0.5305897767817164 -0.017802139523837465
1082 0.9639304473972988 0.023080586664767307 -0.5196270262890311
3637 0.14252825588068693 0.21583089156869698 0.12945622574347548
3638 0.6139195477065325 -0.6511445625225005 -0.15487031832122652
1161 -0.48134068309223144 1.2563691339938443 1.2099080121018722
1072 0.00553843565664532 0.29285645708405555 0.2331148168656963
1151 -0.2536545944689351 0.639686045005408 -0.3553595612419266
1152 0.6392084679426089 -0.8249845283048789 -0.5680736433345754
1153 -0.2838646125420372 -0.1937619647352083 -0.6354310766354629
1154 -0.29895481795618173 -1.2079804646641925 -0.32659265233866086
1159 0.24608027206099933 0.13866390726629335 0.3380254244547654
1160 -0.2068711918027696 -0.22885379941828912 0.05811178124416462
1247 -0.052820817599582126 -0.2491831553749151 0.02608774355484053
3577 -0.08866471033305193 -0.1318087952265667 0.007082921714225396
1232 0.20526649383208223 0.49119541554960505 0.3136453314968259
1240 0.751096938153771 -0.3105197980656063 -0.3720539112364502
1241 0.40297807845923705 0.40457263346443784 -0.513952249655986
1242 0.8168678412593536 -2.152240422739265 0.2670289837059515
1327 0.05282064535952216 -0.45669019960546975 -0.3693624479794974
1328 -0.46092124605946927 1.0232472186218409 1.2725119580412396
3581 -0.29908753794362386 0.22790004561407032 0.3592725797635466
3588 -0.7325958369345325 -0.4912606770357055 -0.604689451002464
3649 -0.1858729648761644 -1.121766234586866 0.19519663510467863
3650 -0.7733873614855594 -0.07293028892265231 0.5495100454891523
3655 -0.10264028279434284 0.9666939228459884 -1.5617539354613104
1501 4.155497463116584 6.262603408528094 -12.4676882803061
3594 0.6405348393050588 -2.8664586140611754 -0.5083282137575705
1421 -3.324301172743616 2.8095186087055217 0.4760303123994863
3595 -0.7722510741821063 0.2070597478266542 3.3937240592852396
3653 -1.3150138654885324 -0.6738674574339821 -0.9671276668862937
3654 -3.124925216379923 -1.648406850282805 -0.04332238943969728
1505 -2.0825698748859174 1.1174564506451659 -4.034714068831344
1595 1.6940131822462257 -1.453865405605059 -10.293276695767332
1504 21.13001115002157 -3.725447077822108 4.873942892157327
1585 12.752711239755978 10.406881169575446 11.366836450598056
4321 -2.7890693291795525 -1.6177049806067276 -0.08206836463745859
3667 -3.2287448953356304 -3.874235741946599 -2.060376553399778
1678 -10.40272086043366 -9.226555433574497 -3.4756675264211188
3813 2.0108075183082272 -3.9008094932556157 2.76379306133847
2524 5.589956232961336 14.038745171899384 4.684730730138555
2595 3.1567846015544516 2.6474464513664038 -13.807822786608725
4329 -1.168392954802122 3.281763548215137 7.655404711774604
2598 -6.543209172108878 -2.232523172624217 -2.6749886091994606
2579 8.156425524984884 7.119759618035219 11.589251166771568
2746 -1.7414830263149819 23.786077714215793 5.2347783380718935
3611 -2.4223516283228355 6.0408092623226874 -4.2132549544399085
3672 -1.2683605573073204 -0.9700906278285641 0.1356101873180416
1752 -3.5869377655509203 8.503496342758886 -5.234829468500677
1673 -0.2786302420981988 1.1449324754363097 -2.5230407001629085
1751 -0.4579377714941593 0.833211700625544 0.14811246281757404
1753 3.650283785846545 -1.5491313958517392 -1.2513578367611058
1759 1.2575961354734375 5.0019923386766925 1.5971457535000382
3751 -2.012128137430484 0.8497311110800506 3.2964499962004354
4149 3.4271206222765267 7.80818215390782 2.798397622078101
3750 -0.27620068232065115 1.7080589565835957 0.47276486739108853
1848 -0.19184004298681495 0.02451355333901467 -1.8623409827949462
1837 1.751378014630182 -0.9040482800285878 0.437178722950852
1836 0.8851621069692773 -0.057907274653045904 0.07684772440725797
1838 -0.6521476817383786 0.2257384222385324 0.6350438582259553
1846 -1.2446699265285501 -0.7087463156932194 -0.49232675220910055
1849 -0.2286973132913328 -0.32627357721799555 1.0252959851795225
1918 0.05606470300639846 -0.01875315034019092 0.28372606220825286
1924 -0.65600043398438 0.2755505154760463 -0.3445119186365416
1925 0.8339657506407608 0.9699101612631373 0.9463442836173177
3622 -0.04162633506794007 0.059864207827222474 -0.023764598381140183
3624 -0.13822999527602062 -0.014931118051247697 -0.47076380234369414
1777 -2.0054277629388033 1.4107915620571454 0.18473525856927145
3625 2.71516663147287 0.023628283567497067 -2.0297538067032557
2013 0.2878380837304739 0.12206166688807517 -0.3961180853047869
2015 0.660285754691139 0.7923972152738034 -0.567453089917827
3631 -0.38697011183710395 0.04227050454389031 0.023440449299364226
3632 -0.4920851153980689 0.7248063436878667 0.1503175490985102
3699 0.3557686885393742 -0.05702542327477007 0.3143613850527321
3704 -0.22683571868568175 -0.3134105467291455 0.012184583554504653
1087 0.8195982461767518 -0.45003989726814025 0.16594613078675038
1080 0.554590180011585 -0.22747859889349675 -0.5381838873416687
1086 0.24699541682236706 0.2997153871510019 -1.085508887884315
1093 -0.14915918942287285 1.519491984271234 -0.32006009217044956
1166 -0.06843680660858362 0.520056947916942 -0.35994997808421125
1170 -0.14331362538614026 -0.07388103299496164 0.12694348658874952
1171 0.5358862290755716 -0.055213355794135145 0.24778963268549675
3578 -0.30986967235145535 0.22928814735266337 0.005524058129235052
3645 0.8379054892724042 -0.09776883069631814 -0.4110370976430418
3710 -0.7920717493677389 -0.09347686156966428 0.1795063861343924
3711 -0.20247962523056323 0.3953246043975506 0.12370782736487605
3582 -0.3038769559536511 0.32502279500246156 0.16119648907349168
1255 -0.24714016399242145 0.13888259608548054 -0.6526478926419627
1256 0.3100510744702091 -0.1423158764302467 0.34796275373979446
1264 0.018374833170706574 0.6869432132288243 0.4875760439298242
1266 -0.6144514614340028 0.4604141392904333 -0.47926906632248556
1339 -0.1101529124043439 0.09890224450029476 0.8539862665397777
1347 0.5868605071403027 1.0974751298984649 1.0960599025379196
3583 -0.051601447270326235 -0.5092821001102888 -0.6153946849484326
3718 0.7949862120929226 0.7355383094876731 -0.7355116244867174
3589 -1.3731316468304593 0.7026602050811049 -1.0989638309221617
1345 0.4320279909729807 -0.21639318046388403 0.6038141383803083
1348 0.05500562631572565 0.5791204423921802 -0.24682388791044732
3590 -0.4702984365657744 0.1604970381115699 0.3016989201916537
3596 0.8762357548966785 -0.10701186156182033 -1.8347482166432652
3597 -0.5726141248253882 0.5606710467768286 0.04967917760902256
3656 -0.058228387440135504 -0.5967020723677551 -0.08461371448016262
3660 0.8416691625354473 -0.3973335746803946 -1.5464118869192744
1436 -0.7582829765942132 0.4636376657367012 -0.27958813867582827
1507 0.1667226187645686 2.3619186174871256 0.7814506962909391
1429 0.7347655893549838 -0.19430343898345181 0.918688082605793
4334 -1.4281436983691977 7.542475089830294 -0.6945693282219798
1515 3.810497251834541 -0.39183324679088705 -1.8634348375686791
1502 8.178742804596036 -3.9243538079267 -1.134345325367693
1506 -9.093249175620086 -2.6503809699497523 4.155239795270161
1508 -4.571500196200057 8.633905495188015 -17.71563847581745
1514 1.0264236996772755 9.247497605040948 -6.7243851250739
1599 9.810506058191827 -2.9445743054024542 -8.532078625382422
1607 -2.4522008394468946 2.98943360622146 -9.013636084866215
3874 0.7048972685653316 3.7284094769875633 -2.6461964569428913
4330 2.308950643889912 2.5379311915804648 1.7963040675393582
1775 -2.416219147991121 -1.0867504271338309 4.331340855501929
3737 -1.8448223119708234 -0.6265172231923428 4.434848490050009
2679 0.15565807421580108 8.78664654079397 -0.788148727789618
1765 -0.9136844133391239 -4.197434527362558 14.47409401987279
3693 -5.60265005692752 -5.754124528848085 3.031093344084298
1856 -5.816228417194051 3.086097444411307 2.300484887681957
1861 -1.6210802226800434 -8.795702981950047 5.818019540104663
1858 -1.2897834617397432 7.244982061489277 7.043008530256299
1854 2.0087338156219534 -2.8952348201720826 -7.593339519313645
1937 3.5165884351556636 1.9733944179246994 0.03531785868318245
3626 -1.9570125751322898 0.12479844992265766 -1.4391070692857042
3639 -0.35462809241314225 -0.08005230709141152 -0.001200822727061279
2014 0.9619320437530942 -0.37079377025701254 -0.1904277710243616
1930 1.0609811682380865 0.0371635572626316 0.8373169209674225
1935 2.8097088456493773 -2.7339786299675737 -1.885305699189298
2021 -0.5762304795128573 0.5934131016889239 -0.11278529432047793
2030 1.9678356308072822 -0.5927710804546811 0.05521984674849497
3700 -0.055646961959770216 -0.36070784445056403 0.6020617560277858
3701 0.22231358578142582 0.28029009008732103 -0.7033383145257843
3755 1.4331189805841118 -1.4373395709144172 -1.1978021207493366
1085 0.18178771506218352 -0.0723929323824388 -0.02637839803034573
2020 -1.4940343009486736 -0.9418553662900072 0.0256187467011346
2022 1.5443264677966864 0.6126595805031984 -0.9603810338005766
1187 -0.34103679264768 -0.15823046352076392 0.1795811436857684
1106 -0.3576528944842018 -0.039199041116256834 -1.906863962882241
1107 -1.2627252763234629 1.1548254388731714 0.7186118148487824
1188 0.5607343065172088 0.04328724851087879 -0.09268128281217285
3641 0.23155260540097453 -0.1863998085522332 -0.34634054721347135
3705 -0.41251555816249763 0.7012119744220652 0.17989152380594015
3646 -0.042571575426524066 -0.009628518186290222 0.8343913310466587
1283 -1.1690849248103652 -0.7977156098097761 1.4360058463614953
1177 -0.06666413875653211 0.021708616989534878 -0.5731054311011267
1186 0.12556577003782032 -0.13474107136035077 0.11701340429393733
1265 -0.4123922409147172 -0.1188439354225325 0.1514391372863658
1275 0.15113315888340303 -0.25729845820948405 -0.625995745226041
1276 -0.5419641906577117 0.049514141382071546 0.09722093320740359
1281 0.01489111302698691 -0.05471394955397691 0.20476545941034682
3584 -0.20434457452656704 -0.12873424166304778 0.08776394892043174
3712 0.05325459012466988 -0.031054354730079857 -0.5582505621817516
3526 -0.2169742170189098 -0.7913654960185396 1.6488268645046618
1346 -0.16645853429626403 -0.25903477628591626 0.2889554489079126
1274 0.22188240806189136 0.09728745866573256 0.17968888028857338
1351 0.19211543768817926 0.6382104322452411 0.4700080951495693
1352 -3.376373260414887 -1.1785323706951638 1.5565457252960941
1353 0.4002328852245244 0.28798239162413164 -0.5773790887108604
1358 0.09525560028496989 0.324027939216176 -0.06018448968320477
1359 -3.5582437418660944 -3.128082566282353 3.841651801395226
1440 -0.1070666338134979 -0.603538247556878 -0.14297186057685185
1447 0.28603261128586827 -0.16388602654376866 0.6158732527395392
3591 0.15405009309273027 0.27955321802946914 -0.2963077310952934
1441 -0.2153693670957064 -0.38347583224177434 0.2910549159419966
1442 -0.16787000112649622 -0.14142002575694748 0.024620863973757925
1446 -0.03081408629390887 0.33548062276531876 -0.13176945124650544
1523 -0.2540160735383284 -0.2156639359799703 -0.4821346830239305
1531 0.4835125002545829 -0.1995562881399077 -0.2968944088823568
1532 -0.016846483574102414 0.023810112023035415 -1.3427965869152751
3603 -0.14633880577960612 -0.144778898936982 0.01235632729287061
3661 -0.09007099657723014 0.33040946263866183 -0.6467469356307837
3668 -0.3244866226301823 1.6292622748657086 -2.9392398856011273
3669 -0.5130802122679083 0.16719901413773453 0.6495882514556185
2591 -6.324971363470591 11.657574429057037 -0.2647210221694028
1606 -1.8764697920785192 -1.591314167257787 2.972332908122789
4312 0.9525963507454598 3.8141020486306325 1.7689169171953922
1611 3.4932971292993913 5.493409187275353 12.202697514436784
1612 -0.8590540558677194 0.06586587980870097 -0.5675123164205693
1619 1.2023139368558549 -0.32322010747956853 1.3031427918766376
1699 1.690100584660526 6.748910848515969 -1.6202846166325242
1706 -1.633175977916076 -3.133238318989596 1.1465201615305805
1708 -1.0043106184163748 2.6806359290638606 1.3410232980833603
1788 -2.565999617720399 3.420661010830006 3.9685026936504735
3674 -0.6547488247126536 0.09399742502726156 -0.04540462999976359
3536 0.49443838078857355 2.867867617037586 1.8143492767490883
2748 -12.29877281372606 -15.131931141798406 -2.5478255667686915
3747 3.7586046663912738 -0.5924102383374186 2.622367672552659
3619 -3.2309322500513775 1.8550756230927576 6.980958349311867
1787 -6.637008205968771 -3.8234503574846883 2.3681346514086608
3740 -0.09607700792721123 -1.8086064270150077 -2.4450221816245095
2460 0.051525720926789975 -8.651511124129524 -10.189103476562611
1608 -3.875971053255121 -10.422940446747138 2.207423711418974
1700 13.964835706971149 5.88115064293485 12.46129525110485
1698 4.279214002896426 -0.7608063684608071 -3.644477776638657
1789 2.8659721768287527 0.16658564079192723 -2.0728694135572576
1690 -0.2121174625554475 11.150959695889638 -3.3236385312986614
4316 1.3499371032613825 -6.856161026884064 1.0656231563732503
1862 15.802160417340987 13.604816965294104 14.071669911039825
3815 7.270061320381563 -2.734634563968284 2.123454823351322
1866 10.078243202839003 -8.644190938361536 -0.5326794189912288
1936 3.9411488280148523 -4.401535592354322 1.0935943039500964
1874 -8.834159630399554 -1.6931620670079928 -0.35031889853021864
1944 1.9292225838956882 -0.047354105015721244 2.6186630706554506
1945 2.623140252989811 1.5305800944633678 -4.064933380595168
3633 1.3615250469022397 0.4799219078884706 -0.2797107633784259
3688 4.7645419724830775 -5.11800245364656 -3.2166895263949957
3694 0.4059121035696632 1.1112843118304159 -0.8442854521103245
3640 -0.3072791948342245 -0.5122763235107024 -0.42161624886618826
2029 1.5338193012355283 -1.3150468151157753 3.173051929974282
1946 -1.8785214361552336 1.7659219174560625 -1.2775677550407607
1943 0.8572563580853028 0.9226244520611978 -0.09143710094373032
2036 3.516611687351913 1.4688328811478026 0.014997193673835797
2037 -0.036715306550546355 1.287307625184297 0.5463113751370366
3702 0.8832464482978918 -0.09557824493665386 -0.8242005734782439
1040 0.43674590516738176 -0.2434339007841551 0.2715262243384773
3766 -0.21412729337982925 -0.15856589403494079 -0.015038315183372378
3835 0.553411237392244 -0.057223274889869793 0.13195821692842277
1108 2.3898691401489303 1.001540312273558 -0.21764335024791356
1115 -0.8718812576953915 1.0528495511194835 -0.27970713765918703
1116 -0.4054627425913019 0.038393025306841744 0.47209451446635653
1204 0.1544168645849777 0.011075163063157154 0.24385133672239662
1205 0.09686640038469277 -0.7634638652649396 0.8880420910385308
1209 -0.510385628480165 0.27868728755843497 0.0432889868835914
3770 -0.3809726368804868 -0.27733179637394795 0.21596464386537867
3843 0.5301985537739718 -0.15028976778990996 -0.4181228885257768
1190 -1.6489600657344432 -0.3017907856186959 -0.29035460901576793
1123 0.921721394757526 1.478659861689505 -0.2426730367739149
1200 0.27754893314267853 -1.763569335257063 0.8175867903387805
1290 0.5003672572342405 0.008651393140054633 -0.6228680635563438
1296 -3.5669340249140316 0.8918483014868532 -0.8162474424804858
1297 0.057105221249910194 0.11768699991249106 -0.2740362782709406
1298 1.3896390787841528 0.26682796070785664 0.04279796654496484
1376 -0.3352952192365549 -0.4922968175496573 -0.42120697586399186
3782 -0.036811270555246974 0.11126891516507541 -0.15997273681510785
3791 -0.352832211811828 0.2888143076544787 0.5323594579912015
1368 0.022133350861969228 -0.0017400020257073044 0.14260624147755552
1369 -1.0496131995793763 0.3429480736201931 -1.023458345996996
3730 0.1915087377610257 -0.14255630407356185 0.3093297095133268
3731 0.4274541827715672 -0.0014526674971979633 -0.13813096705364938
3733 0.3565465593072116 -0.4025376726157852 0.3847289891210975
3795 0.1298249465288313 0.07266345402176044 -0.3936739633966578
3800 0.4254323517758798 -0.03161812029721281 0.15503907775723133
1459 -0.41375139508021114 0.845266887562428 -0.20021310222888133
1540 0.13849267503079146 -0.08257934710734824 -0.02907448258453649
1541 -0.9923224469059431 0.7206216432884218 -0.5692074695033643
1542 -1.2759941390976772 0.07335229392260335 -1.1874631099354005
1550 0.16044765035393133 0.16825106865089828 -0.033969553723047705
1551 0.3738516693911091 -0.015480130917300897 0.2517323147398536
1552 -0.3654922550570934 -0.5223360815894946 0.18101354210538156
1629 -3.56329110161193 0.7803996127262516 0.4969001866009769
1634 0.42487031334404235 -0.6531353888941398 -0.005518583874198354
1635 0.08777871586443642 -0.0353442641996322 1.006814567835604
1636 -0.22427397082047476 1.7803797748011292 -1.2147989609443357
3739 -0.10398831757520274 -0.22443201426721143 -0.00560034473574946
1716 -1.3818416593925165 0.35353586463141506 -0.8410173676441018
1718 0.040360586003992616 -1.4066840695985798 0.8972389100138959
1725 0.3505708434219581 -0.26810272735645163 0.26428674223584436
1726 0.11475933227327717 -0.3745313770212585 -0.3821862531389077
1727 -1.3824307946586667 -4.478171277365727 0.8746598901138327
1804 1.0426669527651717 -0.3629814061352628 -2.020925829182368
3742 -0.058053451827080764 0.09735581768104871 0.5338017430787108
3809 -2.464310333365687 1.477105959903253 -0.12288379811528705
3818 0.6909483441773757 0.9082963312541054 -0.4636631970863844
1717 -3.3403962936744027 3.4921667974356687 -2.1374556134405007
1724 0.8632426500012185 -1.1082883767893252 0.8177351340871811
3817 1.8394169340136288 -2.6866119094275667 -1.0623466088477833
1796 0.11713393912152231 1.4572576848219192 -0.662826136805284
1797 1.0536444654319908 -1.1891155146519437 1.0401598965501275
1803 -0.4027079652440432 -1.1225348755995384 0.13825020806254174
3752 0.28863969522099436 0.1297254801433846 -0.12176454115202671
3758 -0.44472778268795643 0.43168362134156696 -0.09578600556124085
3824 -0.053365757160039086 0.09219540479230089 0.5776785088687988
3830 0.39077034969525937 -0.23939305410420186 0.45616875604279694
3831 -0.4938780695454802 0.5670149921699305 0.24705855836543325
1790 1.2912002826598679 -1.715978922707042 -2.6431598540250607
1783 -3.780272155224304 1.6625785111165199 -3.223703477409614
1795 -1.3305618017448446 1.0622227914095859 2.5648521926594365
1883 -2.2613898452814096 1.3943149792321343 -2.5335184447446024
1960 0.5289935251371284 -0.2357116439056161 0.08742000766939671
1961 -0.1883264841213595 -1.5075083935589353 -0.6418482473563072
1962 1.650820997906636 -3.7396185362542447 5.8794355168612356
1970 0.46730622072762995 0.6304003670950582 0.04517208732005041
1971 0.31188980354802 -0.3669729339744055 -0.11851231208713642
1972 0.22540737497827776 0.6220397830460813 0.45689281742531324
3763 -0.8825093131572161 1.9859710645216293 -1.0262393433614425
1969 -0.3264570480207854 0.82420434087337 0.05409328697010743
1050 0.8351971403667423 1.1156301949906213 -2.264535824755727
1987 -3.8957076411848166 -2.175088558765799 -0.3374834194053301
1044 -0.2920457631522096 0.2774411611495244 -0.027878092959513486
1045 -1.8512567454679352 0.7147208034216646 0.8003956224810642
1133 1.2698523595730766 -0.006469810628765588 0.08433567581466866
1216 0.3375249226977344 -0.37074833027534543 0.16304083539531092
3713 0.10378283442852257 0.2182930976163273 0.07319662847794235
3714 0.12486556713230547 0.49581656555691206 -0.05239231414497689
3767 0.08054797778472958 -0.09178297558501126 0.2595018841533876
3771 -0.22733688182292713 0.0007646870409347932 0.4736230148963698
3836 -0.5162670816242384 -0.22654470568627413 0.023857336652478668
1132 -0.41256887082512966 0.13402253481343923 0.36338053118819763
1131 -0.9118532129335419 0.9178954793613309 0.3554044801527698
1210 -1.2587806943240671 0.6097999384401946 0.8834081604070719
1218 -0.08261944762652777 0.004837195492191342 -0.259900403177504
1219 -0.07678519188332794 1.745331084524184 -0.25025239913141756
3722 -0.30662498750247286 -0.037147474445164 0.2011015532016963
3723 -0.1463632160136859 -0.26201879821326185 0.12689655309968
3777 0.2925410376887705 -0.44763498539334384 -0.06555539126712005
3784 0.03992272261683998 0.060452224094987426 0.12409588155997793
3849 -0.1272036868809094 -0.4766767142354866 -0.043890692322108224
1384 0.015606208901952572 0.02969302789100457 -0.04216914233409111
1385 -0.1058792002218932 -0.25293702537847507 0.6817861004659471
1386 -0.24084195250266935 -1.1784659686240762 -1.055273418310898
1397 -0.29064947139170694 0.2057748508192423 -0.9328633741666575
1398 0.7324168217387841 -1.3215187323419237 -1.4690968984949746
1478 -1.1096036299329866 -0.024357287060683488 0.5346356850332136
3726 0.03513134309393977 0.08703065101864976 -0.2061052392629371
3727 -0.11484854742562177 0.15271110290045986 0.3238466728179945
3783 -0.07269961132554865 -0.049552726585122005 0.2608004603598254
1383 0.34629302201193973 -0.49031565887008677 0.41813712501783384
3859 -0.32046322293062346 0.13264932045528768 -0.11723386630098907
1375 0.054650684787232666 0.1423942452205892 -0.04409141559020635
1468 1.984279463161513 -2.0772166439246185 0.238662964559798
1469 -0.21064064895803214 -0.07753117580030072 0.34638916787824436
1470 1.6737912923642309 -5.004932722005333 -1.2152299015556662
1477 -0.3839517667047469 -0.06249896983540811 -0.0654971393032802
1561 0.02333457450334395 0.16968565975915806 0.13628803394148242
1569 0.1932990973265982 0.10619105773053246 0.25453501418598357
1570 0.4229375018258989 -0.10990880663045273 1.1119254041100584
3734 0.31304529102159884 -0.4895473128743828 -0.13925172853432086
1568 0.7038971611101132 -0.13871276204511643 0.1114572345914662
1650 -0.19674979461449396 0.09465524508784105 0.4944627629018673
1560 0.2770608989937924 0.01848719309648745 0.033026892852198564
1559 1.936890175310534 0.347969172826582 -0.84166743246344
1642 2.1502876659318635 -0.3433439829178732 0.5391850527674417
1643 -0.045423665854008394 0.034165811646225466 -0.22842046490133114
3743 0.17053955007379717 -0.2605157263773115 0.15770668047567343
3810 0.3780085039143295 0.4979414519567951 -0.4769202088423036
1732 0.5363841024961002 1.0881486394087008 0.019895709155046414
1733 0.1051393997743972 -0.05201172742075331 -0.3100277473873482
1810 -0.2884582015818962 -0.8756543547396887 0.6808732830809697
1811 0.021869304866464465 0.12772770487267607 -0.3229793634823438
1812 -2.5015778520327014 5.346923549056994 3.967471502813967
1818 0.03352907895541905 0.26261324032682265 -0.05869871847706266
1819 -0.0014298775771714144 -0.09671751033424049 -0.3487461810989614
1820 0.7389911321171763 -0.28195645990513274 -0.05074622943857151
3753 0.040294561646137504 0.024437978311436875 -0.20074313432386207
3826 0.1408185135083601 0.04694750538023747 0.05609122190852571
3760 -0.4750153312804297 0.6473958211416544 -0.1730312755399058
1979 -3.2917913232579012 -1.7948290354109107 0.6726163042632771
1988 -1.0196934084515066 -0.1300096903575811 -0.7000719834053815
1989 0.019053201270612077 -0.6387769399512453 0.4516232901737402
3825 0.17484815484806118 0.4600316002341828 0.12964462737015256
3832 -0.6367058180817603 0.26532067723542724 0.2476271105182238
3833 0.4767371223504507 0.5061170493416218 -0.24493419104794864
1977 -1.0104219316794973 -0.5936249988053887 -0.41328880139962065
1986 -0.1289771760663127 0.06562831655376987 0.02674143687138179
1978 -0.15412426778005936 0.6678901264111776 0.4580647582170653
1059 0.048576006061190426 -0.6369203606975109 0.2776503222013462
1060 3.0245086112466635 -0.8960885768375709 0.18510735860919583
1994 1.2847239879151078 -0.5185120993692971 -0.06168076959152085
3716 0.5208661872801164 -0.043292649376443816 -0.39069755409475604
3837 -0.8142638391184068 -0.4895067442542212 -0.23458403407472908
3838 -0.08806677503221001 -0.3067147033542163 0.034987403024240776
3774 0.2882214725246326 0.046569530824600164 -0.4826763923213001
1227 -0.0886752653860648 1.0637617105973958 -0.2122492304858947
1228 0.36529498212775663 -0.16887518997095638 -1.124255600173849
1229 0.04768198023125111 -0.0496947239705568 -0.30433235940462733
1237 1.2592620671361467 0.27032844066001416 -0.438459768782347
1238 -1.416661953496478 0.05661836858209254 -1.0286353487013051
3772 0.21683745928677392 -0.222509006850646 0.015773267936744127
3773 -0.3591273717054446 -0.46593858972110885 0.09997677658317887
1217 0.49559366104974756 0.5953954917825853 -0.008929952986956046
1311 0.39792360777756336 0.9460796509011075 0.11352990080319086
1312 0.051389749905996276 0.8408406892508841 -0.03799336407285951
1313 -0.5414946709674696 0.8295741593399542 -0.16474972594974935
1322 -0.5487854277251921 0.497418514264779 -0.014663715912747718
1408 -1.4917588430485214 0.08922201680809345 0.30013094195642886
1412 -1.327977818912082 -0.5149915898772095 5.63717929303754
3785 -0.1713123894116789 -0.2515573486301428 -0.4362094437691239
1321 1.2095887236735972 -1.8224873903400987 -0.8814378227873959
1396 -0.3567509408422216 -0.19144380800941835 -0.02064513971600853
1406 0.618855949162675 -2.5330407464958715 -0.18236752491393304
1407 -0.5075658494847699 0.37905978863059414 1.3114437820743392
3736 0.22905433723880983 -1.0336655838883597 0.02070034922613118
3796 0.016138411770396432 0.06228904316296515 0.2439941690867778
3797 -1.4492663707140467 -1.2930634239475625 -1.2109102740754036
1586 6.260331396591864 -1.03221523353304 0.0655788110780653
3869 1.7451660713347912 1.226925015608014 -3.287227850923617
1573 -0.36532524350293977 0.43766386319116457 -0.44669040286337885
1574 -0.7269720397269662 -0.18265437818509753 -0.23578200325479218
1657 -0.24007108441210062 0.25608572171148625 -0.14092999537074616
1659 0.8179907902789307 1.1999689287334951 -3.636906333875713
1667 0.328877608921449 0.8935447899946872 -0.885613066506231
1668 2.390613835048113 -0.7393151717791984 0.7797540699618527
3735 0.5864568559642681 -0.019675041385178817 0.19160139737547946
3801 0.17189705499660293 -0.05220283395579442 -0.3918833950226474
1666 0.3358223946824356 0.3805320147967319 0.5651145847611994
1580 0.4554790795347841 -1.2433268149985046 -5.314911796833086
1658 -0.7770697738392003 -0.32701846211818525 -0.21619066937790582
1649 0.6942813924316311 0.9388582362812662 0.2021213230587391
1747 -1.0561332908796153 -0.6960465018979014 -1.4794862154806727
1835 -0.2693581467348811 -0.32787334653235933 -0.8215846436968679
3744 0.2144135277795508 0.026329275110525224 0.19571159959845197
3749 -0.09027060934012351 0.09903886449749795 0.7686749110785565
3811 -0.056344800113332996 1.3027183709129004 -0.07577514996060455
3819 0.04673639319325596 -0.0903791836208728 0.02734368945038597
3820 0.2294280303681767 0.1888800350318879 -0.20126211476699984
1737 -0.41479960894042966 0.30020515813004733 0.059799841788228794
1834 0.5640144180519135 -0.1328053214119922 0.31088571237170437
3754 0.9202137885946213 0.41311886828835 -0.08829597108870474
1828 -0.29987574649342347 0.16724676397258872 -0.15540331241610528
1829 -0.528973303831722 -0.24036672957115976 0.11064365454150751
1906 -4.137551904680033 0.7072572820477954 0.3104550983902767
1912 0.13614351588187545 -0.26522758728343493 -0.5789991399861959
1913 0.4696728203615346 -0.037521655652403424 -1.0255886442065953
2002 -2.6220806737163014 2.4146154756249936 2.246164084094109
3761 -0.35062602537544557 -0.25914778087179724 0.19005168870988165
1995 -0.4055410474508497 -0.11064654232628365 -0.3922557069522463
1996 1.115015020257438 -3.1828688666462255 2.006481132953484
2001 -0.2144899352514366 0.11199974984088404 -0.36275046991067095
3834 0.5695887504947164 -0.2759223877744587 0.1695246849898597
1083 -0.41438217825411394 0.1768668598133533 -0.7423087022113763
2000 0.23632480309907963 -4.551143015155834 -0.7069542156585855
3841 -0.2717632805140367 0.12073067695240239 -0.0030227527548283392
3840 -0.43374611869098567 -0.18298559274781298 -0.3346306550713604
2016 -0.4840627226204361 -0.24943059023286301 0.2355404274878617
1088 0.340944713235573 0.6958542864655942 0.24346241592361495
1075 -0.5039871794135675 -0.8157599534600665 -0.2471115356770952
1162 -0.3512566264708136 -0.4274776787059212 0.30272444329310577
1163 0.48147188857761325 -0.2015337178653609 0.1551573685251716
1251 -0.3021981392215999 -0.48919872189347174 0.8848626496158519
3717 -0.09958558816140939 -0.33751417312194876 -0.004248600588797
3775 -0.26467807350668626 -0.45859645840471475 0.30555126307726105
3839 -0.012953840664421618 0.1105877535693291 -0.26169377315868914
1236 1.4884066619588283 0.4240597871572949 0.18255446097208827
1244 0.2284909757234575 -0.973018652895058 0.018764044253713256
1245 0.5785188059525949 -0.043612535522107164 -0.5519706031978738
1250 2.281777109310669 1.5053783315646563 -1.139172354375776
1329 1.7746472940635507 -1.8719946510846526 0.18200091072351587
1335 0.7978593001766924 -0.9677892640352295 -0.8650328219934593
1336 -1.955713312101487 0.3874930254618696 0.239507413633939
1424 2.3752774019926224 -0.5647005769404058 1.6995720621648982
3720 0.2438208785598481 -0.12378413698589262 0.514382538960492
3778 -0.8130956166834976 -0.3312457917368674 -0.5335727393118387
3787 -0.9057272673925045 0.619525057227469 0.27578392859887024
3786 0.4807461697865876 -0.5409159116850433 -0.5830388748856562
3798 1.8491548615727007 6.5685615807980176 5.248779036803866
1411 -4.446317986740811 8.366215642514327 -0.7649644831353016
1422 2.2708427168182257 -2.8507363629399545 -0.2401796094872766
1417 1.788249082687359 11.90013885631911 -0.566036546174496
1418 3.43451923758255 0.52455083852678 -0.7267699602079949
1423 1.0701167809006027 -1.3647522374918482 -5.409148913006359
3792 1.4565310000362683 0.13359843809240324 1.0563488238928669
3799 10.072761136081409 4.449295006030292 2.1543928167952964
2744 -1.9892019540876833 24.024007019030595 -1.374607214192812
2442 -17.1989865980682 0.8369167373587599 1.509033117862569
2589 -16.44894714438127 16.236565283352927 -7.589418801023399
3990 10.838894226765868 -4.665607032309944 1.6114718676511857
1490 -4.298951027742238 -5.771578287850962 -2.259767464909003
4325 -5.977543812054932 -10.446749724705814 12.801444966973632
1496 8.713591855630174 3.411589340784165 -0.6683451339925504
3862 4.825351458532002 -12.592615650378644 0.9080658001689701
2443 15.712165984422805 16.868490956923047 8.089747225479721
3930 0.6779336309283169 -2.68621912083318 -3.550261216673243
2577 0.3609660054929769 -1.7425569536676968 -2.5273022833969625
3992 -0.11543697118123639 0.5059076423217644 -1.521816270696365
3993 0.8260985786244698 0.08903322069339818 -0.8773176310482247
1677 -2.14808803553975 -0.3214600801972682 -0.42311732919771994
2656 2.43663954725035 0.4278087507817627 -2.640785750439643
3812 -0.8709118480184985 1.3541245730800717 -0.1417575932862684
1947 9.081308467140051 -0.06222879697296884 -6.842203552534039
2655 2.0776036867259795 -6.103907832675921 -0.794709387203325
2664 -0.7710926430611802 -1.0201680003217497 -1.6292485839269506
1755 1.2764515008748525 0.3549957959760824 -0.4356810575234994
1841 1.8982904136346554 -0.9223136464623571 -0.6157314460027709
1842 -3.173381775429604 2.7829946653865845 0.5457735395308358
3821 -1.0373237472634005 0.03488606073911235 0.5833080305112902
3827 -5.389140555066428 -0.542460961591652 1.9747010973386707
3828 -0.15120500853487837 1.4232577702824483 0.9101654488812091
1850 2.13584226185716 1.2135677652864965 -2.4889724797324786
1911 -1.1018151448964204 -1.3105901102234156 -1.316752054361758
1920 2.5809013324107437 -2.7570238373241485 -1.9508250260727318
1921 -0.3861937000855992 -0.7047702246956468 -0.48148391405488133
2007 1.8051015741214058 -0.2839241513384477 -0.2062453716107736
2008 0.037052709689556276 -0.02345358269765809 0.350683535035382
2009 1.0056275433198691 -0.6617532434057569 -1.2182236252623067
2017 0.0741883425135307 0.3937122913010028 -0.4394369351798298
2018 0.3111276824890739 -2.116768122087812 1.7499991415537952
3887 0.1273187606663995 0.4216824529742317 0.453777422575411
3895 -0.17770501955779724 0.3451255257566056 0.09817577364898078
1096 -0.2773501825469098 0.01794041504650989 -0.10659426157173797
1089 -0.44526422744479593 0.0048714311922351495 0.37160846902654965
1095 0.535971029471434 -0.12590676163712353 -0.12745877139559578
1173 -0.6200619187949635 -0.4660563802246445 0.36040846022812195
3719 0.38182809613758795 0.13340902743883998 0.2132806658101151
3768 0.36672728550714734 0.1007298518079359 0.13064199662412251
3842 -0.059312697456488435 0.26385383023737524 0.05458633262890299
3769 -0.28662395111223254 0.2429568852737852 -0.028559451608265063
1258 -0.10394195942601817 0.3102849638426276 -0.04438965586746542
1259 0.2669815488707212 0.4095311167964685 -0.7000524625825237
1260 0.1403405072453393 -0.08704777701930125 0.038526335458362676
1268 0.24812146546839806 -0.9721518041614081 -0.5439679982888571
1269 0.9876700850746954 0.5503262366601666 -0.12497168509511818
3776 0.08293974309274962 -0.012321902590382778 -0.04724517688130987
3789 0.14797223163473347 -0.21622554109984082 -0.2823795649033438
3724 -0.17575668157073526 -0.11092505539173778 -0.4084525592247434
1249 -0.19882407616365386 0.2756513282884738 0.14228463236469174
1334 -1.1305594765982716 -0.48107344258565937 -1.2929263066194205
1341 -0.0035238688903641907 2.283958570035144 0.6459795700480373
1342 -0.6739420647071611 2.275847802478511 -0.04876601692369186
1431 2.8666250140787617 0.34369930311601427 -1.5234506428345422
1432 -1.9683038768275805 -1.793139968416938 0.9499340113826991
1433 -2.5213605072548098 -4.247594691002718 0.24175743148136195
1437 0.4576836612966545 -0.529095803646297 -0.3868678621583119
1519 -10.510559730864982 -1.2774481321686402 12.33760775774699
3788 0.3825233092848214 -0.32205035965065154 0.6617228922307793
3732 -1.2829802505781551 -0.5443491957034247 0.5396837185368455
1516 -1.874521660052987 -1.6642529131277644 0.10540224575398933
2663 8.061042575252802 10.582975398786846 -1.7665842544528092
3659 -1.2644791341603296 4.0489539637073975 -4.401781772704121
1518 6.773880062013192 2.463535550978878 8.998648174673557
3803 9.374852892408738 -7.176682880576979 2.363184603263117
3999 -7.9463734676361755 7.259051431784832 -2.0084465652709675
2604 -8.098726274565955 -3.7713154052560487 7.428079410114947
2435 3.646641200119679 6.660834459956693 12.713820960692262
1613 -12.848715618269747 3.153927220465173 7.18436285149613
3991 -4.562386184548541 6.589475246227291 -11.182659294869982
2517 4.805415362846456 -5.55489250270572 -11.736126089059015
4308 -0.5558745005694131 -3.809916729964893 0.513564144416379
2666 -12.43877656875308 -5.87457303872478 6.821304267821183
1860 4.972749705956253 -2.4904303897064968 -0.636590068033152
3823 2.523137514046165 -3.2543498353551032 -0.23099743740365347
1931 0.36932289496937637 -0.5508238140440938 0.030640330398249205
1932 1.0175816151373325 0.40227021644720223 -0.531436135258263
1933 0.9405475476863802 -3.4544577812841686 -0.9962528531223906
1940 -0.012298151473460056 1.2105159521062225 -1.820447376498536
1941 -2.619544112798243 -2.185102366951496 0.3789539929966946
2024 -0.026247736625075024 -0.36749890730959234 1.11275522805771
2032 -1.322303292999435 0.8297297287953972 0.415937351596598
3892 -4.061461395490213 -0.39314217026841675 1.8829558187517161
1939 -0.5236889244407451 -0.3087696292147282 -0.8150539881594651
1927 0.1176077747825094 -0.6879415166308859 0.3296395954678763
2023 1.1130024231418911 -0.4596089835057886 0.5897283580380834
3764 0.46267740775126387 -0.3017217659811473 0.8020429274825482
1101 -0.5116814505225746 -0.6972548849007405 -0.19645163343730682
1102 0.008425827430172715 0.06793425286940881 -0.022011655124928538
1103 -0.7550396382560164 0.2181179449474814 0.8030063028940838
1109 -0.09221340449862753 -0.694207035972789 0.6513289899062884
1192 -0.8833472437872482 -1.3175228756288018 0.3246652026167547
3765 0.11621836087543988 0.16194703223604112 -0.13589527241619245
3899 -0.003923857280144442 -0.0720311685468991 0.15513835851945704
1180 -0.6719377949533476 -0.20624744759893002 -0.20133091607608683
1181 0.004100447045069473 0.011596733353939426 -0.14129689328946454
1182 -0.24107896364117756 -1.109014052576371 0.32720947106130194
1191 -0.15680664236187278 0.3821319724222326 0.2751068823713274
1278 1.19247031542531 -0.0415167996387328 -0.3035852427164335
1284 -0.37028313346237096 -0.41811987207447626 0.1584805741522225
3781 -0.4841075411232352 -0.29016298987005334 -0.25576343725431255
3721 -0.6423339377558004 -0.06871979988237883 -0.44067294603716495
1361 1.0926296901919506 0.2623825524543475 -0.2672340917127758
1355 -0.11484831330285067 0.057047689411266554 -0.3055615691728593
1362 -0.3839287314703731 -0.38123856603122486 0.2545987241645589
1452 1.5985714807941038 0.470054641293226 -2.402204013845202
3725 -0.3240922949432087 0.09070805741255318 0.2284376970104221
3729 0.09725287624807241 -0.33214151041234485 -0.2228544142481893
3779 0.046914738563524794 -0.026599273085308888 -0.15752357045247764
3780 -0.2350621418689002 -0.19440049332911113 -0.03777111870373533
3790 0.019793523898760282 -0.18180120068700778 -0.1607488184585688
1360 0.10439127896909542 -0.06326937999079865 -0.21094262904899166
1443 -0.04356050015774912 1.6929323372224556 -3.3255602779020634
1450 -1.7590518456087945 0.33489307940032753 -0.010708376331969862
1451 0.5371668818407928 0.26757640031120894 0.3592696240207103
1525 -1.2650308692322112 1.3907731654012725 2.1720051616100036
1526 6.639268527984965 5.089705615385164 1.7338331561242661
1534 -2.011469100956761 -2.540353924508241 -2.08905470378359
1535 0.29943275611642006 -0.6057846578551042 0.4466592161801961
1536 -0.23721967159905913 0.05463186106222563 -0.022442811807138814
3728 -0.059450033720181185 -0.2765089569210527 -0.6285853725054085
3793 0.6214609278094149 -1.241310568208262 2.1644122531288543
3794 -0.03912879712411254 0.31693749126209636 0.24201357028040302
3871 0.1682511736438096 -0.030490660593423383 0.004118173147641128
3804 -10.6455209759649 1.2074427798942153 1.0645320679100054
1615 -8.044970654896796 7.59300827663429 5.021709832574486
3738 -0.31949322865695706 -0.35918011569008224 0.21906369561421785
1517 -1.0144563242511635 -3.053701749272026 -0.100252780419644
1614 1.5598043299528979 1.0974049038937765 -1.6737742992278046
1616 2.050845716064265 -0.9514218448315105 3.6583304416914593
1621 2.9759721352770714 -0.17262398610090637 0.09884818200429114
1622 1.4063504729743643 2.293737640503387 -4.750069208445521
3741 1.6659948503078879 0.33250885751856557 0.8887184477442278
3807 -9.235666764892803 5.625697647782092 13.006402398774215
3808 -0.30476869132599865 4.281008693046465 1.8634974592043905
1701 1.3404378524972371 -1.4770917828815597 -1.7240701328152956
2590 -4.775251460815392 1.7541943254067343 -18.19173134270479
2671 11.887032823028763 10.955982430319894 2.1117584421285573
2597 8.95939473254795 4.945748099211003 -16.28106225357442
2654 5.0687113194990685 -5.619524935430462 13.640048545105214
3806 -2.388764227001405 2.696708706766015 -10.147208114843876
2673 -0.09480878023181114 9.68972442538905 6.481327432002588
1791 8.229350665677053 -3.4528195639309613 -0.5424489696860464
2676 -0.26510300472867776 0.6467167646100349 7.303096376835345
2681 -10.124916385671765 -1.1853170634730823 15.320758755871104
3757 5.652043937853917 -1.833102202986129 -14.626953717818695
4311 -0.16814447934071047 -3.0208862956543094 1.5918771381989751
4340 1.199575135661409 0.5236489368213023 -1.0152135412845644
3883 -4.776887189432524 8.903264576042712 -13.8016222471269
1868 -0.5937655560156118 4.373200367232087 6.482124666659415
1778 1.4840166485234 -5.816894600348791 -4.017775366428426
1696 -6.049604907954099 -4.848798438602855 -19.49830032614918
1784 4.162373290752857 -1.3375071086565817 -2.557368499261302
3756 4.06469113862589 3.1182942161098923 -1.9368232203992843
1776 -2.7327653733453765 -2.9793373407982746 -2.4423668628355593
1949 -3.815163111937933 2.624289528716343 -3.635702912567115
1956 9.643368628014127 2.029336329364231 -6.0143746890769645
3829 0.7281334317355279 8.115654691998584 -1.6012756508033503
3882 -1.8255184911729536 -5.181132258522971 2.1191855011019474
3762 1.4189744131002706 -0.283419496967931 -0.7417982129142819
2046 0.2600446741560198 -0.233903626172484 0.9601027223739432
1948 -1.6060640692301467 -2.132054932027646 1.1670410367534112
2039 0.027596401977308716 0.21778760434963365 -0.1024764208521314
2040 -0.7348185182053797 -1.0201726357646077 -1.6495559826271389
2047 -1.8184129367598854 0.9140565382790626 -1.4973262851123825
2048 -0.8846121463138321 2.101267231722136 -1.4498345881555579
1043 -0.279360411464431 -0.13645223939035114 0.26701860801023447
2050 -0.4774706808908752 0.33842090875399433 0.05485671628531277
2053 -0.08258610318845067 0.39184934409523964 0.050798750209145024
2121 -0.7907642480516199 0.5368377911753714 0.10885370163509023
2122 0.4092243721851983 -0.4826730466234312 -0.37828443227252306
4028 0.23240704043525257 0.04503956955646295 -0.07648548560659878
1203 0.24856324372269753 0.22708565477892512 0.01205131800444605
2116 -0.7639045453078246 0.060138419303762944 -0.391009843270754
2189 0.7697836953803415 -0.5080535536631237 0.04657508424721609
2190 -0.1228017701558242 0.11117783933700591 -0.2214019503438159
2196 -1.4073535427846584 -3.2348173942187035 0.3959001183015197
2197 0.14979900039593189 0.04724960588937741 -0.08194020215589096
2198 -0.8323499335312801 -2.7040584361107762 1.9399398090103115
3847 -0.13937123999481138 -0.2099069173675392 0.12182365789331305
3901 -0.30052797385256563 0.07079091525051515 -0.4042944542636328
3905 -0.1920081329452559 0.09451142500951905 0.04327582465849085
1302 -0.0068284635811871035 0.07079571712567838 0.08276642699912407
1374 -0.04799724210486679 0.1595841449419551 -0.009117595271396502
2272 -0.4079740095136548 0.36539467793796193 -0.48423140079742627
2273 0.3486390938127002 0.21267542784357377 0.056709289841670514
2341 -2.130121912183541 -1.9380345752786743 0.32779746301878004
2342 -0.046947243089421616 0.32399186874015556 0.00724434888900923
2348 0.15940602584163732 0.10922393114879785 -0.33583170506078497
3848 -0.2408556172401659 0.363829996516833 0.0013335542471748726
3853 0.8056910130699712 0.026928340752886797 -0.1769764786893277
3914 0.015454260964720771 0.2159925909957617 -0.017184676192048404
3915 -0.048383842195457216 0.14094270388947633 -0.1988942903242387
1367 0.1631877798855917 0.1121057813353669 -0.1758046621381842
2333 -0.13722364457888458 -0.0716953719982693 0.24415929394546365
2334 0.22093985647754744 0.04703645696092645 0.0451222906554694
2335 -1.5819475939630132 -1.6644921453324597 -0.6780942524124235
2343 0.5146900984811139 0.16511663855368902 -0.07826538591631628
2404 0.23369556396830055 0.18075422839141372 0.12233765249856883
2409 -0.2581354879182894 0.006533655021693475 0.07872943181763484
2410 -0.32343184766664795 -0.3764378938133099 -0.3475477754780618
2484 -0.7640810562406104 0.18724372648501714 -0.3153494842557786
3858 0.4227589927021355 0.04151852017895431 0.3751708013583108
3865 0.1937642989266446 0.13922592074266588 -0.10305029484727186
2415 0.08901710847630045 -0.03896534031956083 -0.2017108270936622
3872 0.8141392191985523 -0.14350331741553018 0.2820585752447382
2478 -1.2031519227810352 0.09206360445094712 3.625207478166509
1633 -0.2609665986229219 -0.06271496421120003 0.10524797366707585
2479 0.11601480174625951 -0.03893398415769433 0.21359457262462048
2480 2.302634681640407 -0.8633870312220938 -1.277115865028831
2546 -0.20693705628049022 0.07284673590620427 -0.2927269489930612
2547 -0.027416962852930948 -0.054148250726114205 0.16584223965249764
2548 0.7156858536751426 -1.4652059585110417 -0.30086190510354127
3932 0.4214522991205883 -0.4385683275407058 -1.0671168007803686
3937 -0.20132035056074768 -0.7877293493018163 -0.9127259522384611
1802 1.9490395693915674 -0.4686314656741225 -3.258697276702116
2626 1.5127269600218043 -0.7281148401024474 -0.16532169044802356
2540 -1.3854087418447754 1.7107571923296918 -2.2704411343146833
2615 3.81885584170456 -1.35294010928142 -1.0537112432958577
2699 1.039685793332582 -0.49490207118165463 0.018349837105187925
3878 -0.40541162225876876 -0.05440802575477073 0.07080216300467074
3938 -0.4471812416186225 -0.5907149493187889 -0.4645867897258261
3945 -0.6361651684970191 1.281170741203728 0.3958852298601908
3946 0.14721756570278619 -0.459324831010157 -0.32278073086997616
4003 0.2564834243704517 1.6503203664850266 0.4439253279791254
4009 0.693499827863931 -0.8695098254511388 0.1480557347919393
2684 1.2583327991863007 -2.69409792635133 -0.3539202280098077
1715 -2.9794838000964057 3.90806998528047 4.407762879240932
1878 -4.0238970073971885 2.419750724535594 -5.5491583672301825
2692 -2.22247172142209 1.0952298743514628 -2.536591905318262
2693 -0.9327733489772663 -0.491490146297467 1.4373094149707206
2694 2.4296623611045196 -0.9197149541180318 -1.4190268974361806
2758 0.7082191346519606 1.6662466349398743 2.704610613841889
2764 1.161054848309181 0.7815957126169779 -2.0745403750135574
3884 0.22346834588988307 -0.8911526777932708 1.0664223823805874
3947 0.06622449508147743 0.6599213144344593 0.36398342438344045
2757 -4.78585731333536 -11.984326236193585 -2.771448813941569
3894 -1.557378707144483 -1.4137838259211466 -0.774370634833794
1959 -0.9251714276293421 -0.18899458949706813 -0.5410007377009769
2759 -1.1656631669592892 2.2509958568316017 -0.20060603617417566
2827 1.5334854445550268 -1.3681738291270604 1.3967005144405895
2833 0.09584925530359648 -0.8984822583895592 0.12022758438025886
2834 -0.4317886227944739 -0.8545636335912472 0.49195969347297897
3957 -0.7594098853326454 -1.596296905271168 0.3780319015448206
1049 0.10844634262993182 -0.014274668349805727 -0.10173698532550146
3963 0.29343250526132747 0.15990510764146462 -0.13391728843396786
4029 -0.22081327224426697 0.09417965339964754 -0.16438910282399874
1058 -0.39044391793919553 0.1320423342478835 -0.17911188601257036
3958 0.13819175496067487 0.1318275810354737 -0.3021031711493046
2129 -0.020290286472509512 0.19901889131453876 0.10138272537500542
1137 0.026305440816132758 -0.441960019534682 -0.28003518579078845
2057 0.0649019109064191 -0.07821905295848879 -0.08255900007041413
2058 0.061282835344339 -1.196236109061638 1.074151463390919
2061 2.150345010038716 0.37444259539384334 -0.030452738438901943
2130 -0.013746394780944998 -0.6713864175605476 -0.14714598032101966
2138 -0.3225325798969148 -0.21933810401028878 -0.3153365292601145
2139 -0.7524201210703396 0.904950288259751 -0.2901814806317946
2140 1.5819472930228962 -1.6650829570902153 -0.616107975589687
3902 0.11023232827374449 0.39929528461041347 0.08080137046125865
3906 -0.5157266324930995 0.11414635139927591 -0.22083834426781712
1143 -0.15307773687517665 0.25510809686476055 -0.18512301571713494
1226 0.06645883852938171 0.7255808757325801 0.19822846697893515
2211 -0.3410583618837409 1.1075460498061358 0.34156879429046305
2205 -0.09723678266587879 -0.2894066116757515 0.16861393443243153
2206 1.5020091028838891 0.12223448731799468 -1.3917960990363922
2282 0.6036495904525695 0.5872171128503475 -0.7472024377607839
3844 -0.16813321784965465 0.10709589558860387 0.04322446783443304
3845 -0.24665085620605168 0.03786818934215429 0.1865516707038742
3909 -0.2766124532606424 0.23751599045533164 -0.08794914053147743
3917 0.5238944895346846 0.8367672901597029 -0.9266741354697134
3916 0.07058570572068489 -0.036544173087324855 -0.19815692602753407
1395 0.432448902053041 0.39571803177885423 -0.13540889112450855
1476 0.1694544215235351 0.2555628847503587 0.36594838612107733
1484 0.026375573012819554 0.3572398689026811 0.08189742855888138
2279 -0.823619547110125 -0.47266421959293453 0.11882874588231537
2349 0.2937935817583997 -0.6901030449791814 0.197078069626597
2350 0.6947422304495284 0.7980678849983229 0.07469723316975266
2355 0.39822854997597906 0.702773680178016 0.44640252247366535
2356 -1.0959496071741763 0.8652745432652584 -2.3048309733733516
3925 -0.05286107932046696 -0.05254864600532642 0.0684202748348985
3987 -0.44138766583241584 0.07999097276404588 -0.3939625031419218
3981 -0.05496091444068147 -0.13605597361363922 -0.1545210819642808
1648 0.1910124625732237 0.07507613602554353 -0.3356450620465752
1567 -0.04354467149025546 -0.2669245325173353 -0.06827944645689647
1656 -0.6478260353721159 -0.03950927551114563 -0.11665557631443868
2485 -0.2554095135642051 -0.2870628465970149 -0.3711997662141549
2489 -0.03666179432873464 0.42748801478664816 0.08473915889983955
2490 -2.9307056822042146 -1.1161084201674547 0.02534861705852989
3866 0.19486836590569806 -0.026236072033726413 -0.21050097960060862
3867 0.10559394957611681 -0.06165899864329363 -0.027796751816729113
3924 -0.17800246481984008 0.21994420124738362 -0.335822746993222
3928 0.08891830729691343 0.07198861089226055 -0.06917592173909723
3929 0.18388901394218862 -0.0670155181684225 0.1050705608399739
3933 0.1301202178425842 -0.13651738700211172 -0.07447700357331803
1641 -0.3880860127183944 -0.16232031967801544 0.2901885032676403
2486 -0.8551033343863731 -0.008645324692984445 0.5698276419140811
2554 -0.6267002249874213 0.019960265897079412 0.025553239114557556
2555 0.23303368630261354 -0.1830388399323411 0.5344841447515978
2560 -0.21972302531015633 -0.24251908876386213 0.09480904095270554
2561 0.2508493891140405 -0.03185656732098792 0.1818194998560708
2633 0.09564060073234401 -0.2937069391842526 -0.07288583329916976
3875 0.10669141198740885 -0.05592258396596371 -0.08427210686363143
3876 -0.16007386444277846 0.26671744852388957 0.19267406136886836
3880 -0.5515976738385518 -0.6227058784187339 0.3700479467885442
3939 0.2498927586817111 -0.03555141379018742 -0.023442232866802547
3940 -0.06886028702323918 -0.11071545653433358 0.08459582038926076
2637 -0.4799114532574836 -0.22737171347067014 -0.1288464501474283
1817 0.46461634788103184 -0.1404994594594925 0.3926065646796499
1901 -0.10711202567429534 -0.15418902175625612 -0.016554104034534063
2700 0.01842896669036258 0.4046416608180643 0.34255513952571853
2701 1.234028785159063 -1.206102947791898 0.7071299020549493
2704 -0.059515494775659365 0.12992910650162945 0.02428881549231589
2705 -0.14435428084127666 -0.029350290891722496 -0.27556416350553586
2706 0.3167001861900855 0.46062087779187655 -0.23339099433430727
2777 0.14373237023987764 0.07175350213007732 -0.21459005984570692
2778 0.2653540521066203 -0.0035192932011687303 -0.2642972813019476
3879 0.06470654526075666 0.033889069309908725 0.1714515989782294
3885 0.20429601897192173 -0.11705303320747976 -0.04706608563575123
1976 0.1854880561987429 0.5759773506053598 0.03280715694183652
2771 -0.029200299027699297 0.499424114527572 1.1448200990095512
2772 1.1098432727538532 -0.19016452743996728 -0.11053966919621079
2779 0.13378682718681315 1.0998363402847937 0.6177291703019678
2840 0.013749712566204178 -0.1457748138270086 0.021420247182861205
2845 0.17073761110212823 1.1777048116403162 -0.895661729896538
2846 -1.933195697382893 -0.027800015029496524 -0.2272984990255208
3952 0.30760778468184036 -0.8740939645210787 -0.40151290989402
3959 0.004060404184089219 -0.18023137845232662 -0.08888592963274908
2841 -0.7597152217571486 -0.20108623090296646 -1.5426273554425036
1149 0.45842284087828106 -0.6017501175741841 0.7375067711870447
2065 0.2440506102683171 -0.0006076792407938903 1.1620265088145314
2071 -1.9370652125546934 1.087869566701932 0.7726111454598138
2072 -0.2690353422508588 0.05465785331122354 0.12181112132879567
2073 1.9067144620125156 6.2986827432251635 -0.33580732927883067
2150 -2.119835395388514 0.6325360387196406 -0.18816075895204595
2151 -0.030427452511028158 0.008060555514520385 0.400875275434816
3964 -0.018706324582438715 -0.038151839596101265 -0.20267829030443985
1235 -0.10887814120874596 -0.17859149946380656 -0.42273942189484565
2145 1.1917262323848596 0.6311248271682101 0.4692539402168103
2152 0.10023114881012106 0.39140298643071164 0.669042032778739
2217 -0.33507186287309115 -0.23237397653091568 1.049646889289064
2222 -0.3985968496273379 -0.5990318289721943 -0.6249996526932715
2223 0.8917114030671475 0.3132031026587867 0.6631236395479932
2293 3.265124792493517 1.0800149364824896 2.2973408281114662
3907 -0.4325818010530006 0.04298602967684709 -0.26776723510875144
3911 0.025361210314415777 -0.35414236663807286 -1.5608018643547537
1320 -1.0027135691666171 1.0306428859960637 0.5337968560087037
2297 -3.6229510917081056 1.734859662189511 0.7492826456770899
3968 -0.28447902734923985 -0.5857202329072896 -0.38807739668525565
1405 -0.26446074776268047 -0.08378512550372302 -0.027574608328543738
1310 -0.377541534157305 0.7760139778054491 0.22153541906530355
2288 -0.3366496945443493 1.716882317023348 -1.3250652652110273
2294 0.16653056880458583 -0.16218684589186572 0.4981613095574192
2361 2.3082573054142443 -0.9416595715511992 1.5031849712995033
2362 -0.14318104456895703 -1.25445341500792 -0.6603016678242544
2369 1.3986798468816244 1.3848360411839629 3.569848518725952
2370 -0.7736840634154167 3.7912564068504633 6.853011769654487
2434 -4.952424547079665 -0.7290789117634342 1.0617731542781619
3861 0.9180523264691609 -0.19204713069734614 0.24548213593053728
3910 0.46806665101142353 0.18838893663673736 0.11665195818338023
2363 0.10972222395497482 0.6718520697025135 0.16199916626369718
2423 -0.7119436120141253 0.27849860721130115 0.5578941769041329
2424 0.743314552484601 0.5307483510449218 -0.5171017556137474
2425 0.8908262989104251 -0.24455310060331464 -0.2344303324647945
2429 0.8536482524239569 -1.3986848775537013 0.35974770364718267
2430 -2.458466031629865 -5.438226295807438 3.1531254957691184
2502 0.5373377053494088 -0.2609034790597477 -0.690077816148255
2503 -1.052100012216986 -1.7350057451443524 0.10001999611855558
2509 1.7122749510713509 0.09492567879746154 4.518081061805048
3860 -0.41217499990343326 -0.9983532220577149 -0.266120412466691
3868 -0.46525235011295735 -0.30662233560418894 -0.20584931721896485
1665 0.33070421927585836 0.11636780405888358 -0.28257048477157354
2495 2.1296113629198388 -0.6987644630503764 0.27322135725072205
2496 -0.2704364654709765 1.3913477651297443 -0.02316342485077814
2497 0.421316605257796 0.12145520541021378 0.060659582508066474
2504 -0.3090581177546776 0.8862368872028359 -0.14517034927031816
2570 -2.5270989821343215 -0.8659576081344351 -0.6677621457799958
3934 0.042549538504813814 -0.13677287429680535 -0.22607528786464384
3935 0.6561252659994136 -0.6283945040733736 0.022344841541033982
1754 1.4941850067860756 -0.5086245754369267 0.04108347632724014
2566 -1.721883255810988 1.1599963595704352 0.2079471128961548
2576 -4.621626472716708 -0.9752995075918224 -3.120875194731674
1675 0.8324171574906519 -0.7368399611153369 -4.793866050163225
3942 -0.01567863782720575 -0.6614027308406845 -0.4636056726741866
1746 -0.804945337819385 -0.4807094388272773 1.1137027610205572
1919 0.49159688102317267 0.39486685959793755 -0.47220158673726464
2644 0.257499756723896 -0.7154572631905337 0.36678018566983345
2710 -1.9837227177233314 0.28964367881779296 -1.0208921773548898
2711 -0.04497504357252094 -0.6202268260572337 0.2502189887654436
2718 -0.4362315949027791 -0.2743710135030577 0.2452890996695394
2719 0.3822179440256355 0.16234953735159782 0.17751905953794436
2720 0.48845012084645456 1.7373305481955335 -1.1853846015325045
3881 0.2183518357794825 0.2757598391060865 -0.21760446495067243
3941 -0.3741618019125738 -0.030341174569940895 -0.1720806142865237
1840 1.3784359641916903 -0.029654049542424798 0.03699056553734722
2712 -0.25677917219060614 -0.12365051343555239 -0.06921048589275508
2787 -0.14983404780251572 -0.26119266700739124 0.030361327098746765
2788 0.0013518596508446546 -0.18680233888383438 0.49368381533449807
2859 -2.5359031345024556 0.07310472018097335 0.5391322791420896
2860 0.14803519971736 0.005938068332159954 0.20800845285959849
3886 -1.69360721731386 0.9095973451406925 -0.4767822340842155
3953 0.3200447229907618 -0.5403886307220609 0.08552224524466594
4016 -0.40178827113972915 -0.13705459229220066 0.052260372046901114
2868 -0.4956554405528046 -0.5813732649175498 -0.4490269347433183
1068 -0.43198189908478424 -0.2664912842081482 -0.07897276550774211
2077 -1.050040460487941 0.694094426451075 -0.6339739075399681
1993 -0.3838497394759174 -0.12871344636188287 -0.43188705301290986
2853 -2.0461435198663183 -1.4739181003943747 -2.4015044871681055
2861 -1.5345545350459835 1.6287291205444616 0.47089664398826453
3960 -0.36830152553646883 0.10399496997219258 0.05216807893700032
2078 0.31871983305905965 0.044572504228679644 -0.261338403785336
2084 -0.4379630177255752 -0.28062155378757747 -0.03944303447994017
2085 -0.22294120639132556 -0.034515426748979686 -0.09642995435706549
3896 0.1838762523196335 0.024929352135418838 0.20754717594760916
1248 -0.3642278554335113 0.5907493463935729 0.03329634026497444
2156 0.21602787846775356 -0.3912041726377186 -0.37467773473071864
2157 0.10645244759941037 -0.08217152965230005 -0.43066877837552453
2158 -0.7717058288131197 -0.5323728546774468 0.8330549376214147
2159 -0.07840947796075623 0.4569652411919346 0.200604220560334
2160 -0.2424812751220437 -0.15226880806296408 0.33093035225269285
2237 0.06975140417716097 0.16926727831478156 -0.21305819640442644
3903 0.03516748679550528 0.2506846509579977 0.10508322384668428
3904 0.019802324884410794 0.20220717088001566 0.0028443729925544045
3969 -0.21238258444593205 0.20428729671949053 0.0734544925768384
2308 2.45997897315647 -1.763411200696331 -0.399787761796993
1243 0.5198144343814882 0.28179011192315173 -0.16581154031776754
1340 -0.04753586634506625 -0.4133123832643137 0.6680899428033817
1333 0.41989409614577045 0.5600613816324542 0.41634214020350435
2231 -0.02703276516706279 0.01976394582638205 -0.049291137410937755
2232 -0.35610041590877467 0.09636902721519684 -0.015832222866319363
2238 2.1792247575285404 -0.47512807416678354 1.373829206458876
2381 0.8405302663851852 -0.8961359558242801 2.374572471151486
2382 0.6941665020057627 0.4799466444192966 0.6747099711922839
3850 -0.6544820252207093 -0.4384457322684631 -0.30938019279623774
3912 0.4191156903071247 0.25452159230420074 0.48761612350789235
3918 0.16902827677770946 -0.045952016766810294 -0.7641154141457108
3919 -0.26548397470962865 -0.47787225051420434 0.4976533533896129
3988 -6.325557001885509 -0.7162285017880936 -0.9124060251102487
1602 9.075089191366029 -6.35331343110769 -6.416277538184751
1497 5.328831133908677 -4.0617854946095635 -11.41095552558876
3854 -1.3204278513238317 0.2796286498635215 0.9372284611870672
2374 -4.587031325503707 -4.807662089698364 2.350278188911091
2375 6.151776478674763 2.32646447009667 0.3357845584132239
2441 -13.26772209276783 -22.130678679373325 -14.406498783613653
3855 3.189914520839415 -1.4510494273002243 0.9564900593967363
3870 2.1108610823576393 -3.944401559711444 -1.093100136212238
4070 6.899537784025936 -10.992097232329057 -1.274848828287061
2451 7.709156711696411 2.032260776985152 3.2761255562416522
2594 -10.480743111541 10.569168351693445 -28.552545282133792
2450 -14.336723950211326 -4.748326782317959 -4.701003044519738
2593 6.681340078666418 2.421053885487753 14.489989280121415
4138 -4.60185625170339 -2.705955491931528 2.250180348094561
4315 0.8616351890083422 1.5249562178696974 -8.896943154485683
2521 5.437600604262837 12.83845264287521 -25.98857087367051
1592 -7.4373842908551335 -1.2319501052320316 -7.104804260320069
2511 -19.1071371553971 -20.857316020383454 3.7990214513144385
2510 -4.563322767886588 2.5427738798510635 -4.352107911896757
4309 -0.6834182710888831 4.057611819829313 -2.4354283337372897
2513 4.797988693425446 -10.650029259840954 -1.248379249729535
2526 1.9617553176597884 18.471504961535214 6.2482410852915296
4306 -0.2874276270727605 -9.333384994360125 -18.561244480218033
2448 1.7633365396821108 -10.695648984350678 15.257957364101062
4201 -8.626849241482477 8.923448836863267 7.768397656476272
4063 1.6891846750445692 2.1134274142272376 -0.013128057751302097
4327 -3.5934207174376342 1.9655128001632594 -3.6954669729961767
2737 -3.941637510850998 0.8269816198666771 4.346304209803866
2601 -0.5580028961890392 -5.674219640447303 -5.947562354887648
3814 -0.962034091634986 1.2537971582135536 1.0166285912184962
2578 -3.965381938494125 0.259295850952459 -3.4747087081112866
2649 -1.1914519892661108 1.6563116333131989 -1.340245433311334
4012 5.391862700984927 -0.3043473015360477 10.142070055113276
4006 4.220545469228521 0.8553466324827709 5.87470835074385
4077 6.6971010153233275 -13.14542107896447 1.5333625013355947
2752 -4.108263950874699 -5.0087264386167005 4.26712420359961
2732 -0.39124153267210865 0.983690289467017 -0.6252987750136135
2650 2.5471050813426173 -1.8080133324995458 0.8099749291394537
2727 -1.2813358447645502 0.9247584219473205 -0.8031515463763375
2728 -1.2529904043642823 -1.3204305257433158 -0.3107237843891309
2731 -0.3091163683526679 0.11620988116054455 11.88990435005704
2733 0.2146187506788832 2.9998023153536657 0.802387668479142
2796 1.5968576259900429 -0.26574429804217753 0.15321568399258292
2797 3.838558909978033 -1.5456229914659119 -0.3745486600596728
3888 0.7340434776342493 2.0052289428378614 1.878040315497711
3948 -0.05098245232810331 -0.6537768863362373 -0.5338348898654327
3955 -0.6972211133140681 -0.02281138638026845 -0.20171769804861123
4011 -0.07975160382061815 0.1881837118475166 1.9141635159891983
2006 -0.28461743625470876 0.7210495367221921 0.20731336181291263
2794 -3.9797057707498262 -0.15304283618166886 0.8341480208858455
2869 -1.303947162740249 -0.29876772795004236 0.8683730647278297
2870 -0.3997965383782558 0.43509097702717553 0.7135577358710332
2876 2.7273838491554816 0.23219943059721576 0.5631421472242089
2880 -0.35107201229777196 0.6284503729523683 -0.718611473763838
3889 0.018083013788731353 0.5230746702206924 0.032005547143544456
3954 -0.3752406066570912 0.19211207934282987 -0.19153406108574214
4025 -0.06291618929373623 -0.17591846307014958 0.13266165976044753
3897 -0.004276605185591096 0.08777273921295121 0.03266368974829315
2100 0.6811591097285808 -0.23424881218417723 -0.5369000865904126
2105 -1.7484552548345902 1.6097847570510104 0.43695523914672846
2093 -0.04899607113539945 0.3777190586364825 0.17903510520268792
1179 0.23075621344475733 -0.384431141409404 -0.44523054448486377
1172 0.07817667035126764 -0.11866623185083366 0.048982353006236275
1277 -0.1163537290350901 -0.02519462909343875 0.24246926926031684
2094 0.5951310266561598 -0.05198229302966014 -0.3767258452109602
2095 0.4338368576056073 1.0528784518615333 0.2575325269201918
2101 0.39441572118559765 -1.6345049574916595 -1.4603688397709775
2165 0.23625970482544237 0.024869518731424605 0.03167644911386076
2166 -0.12005980058956933 0.07564434293441137 -0.10485501846868002
2170 0.09672695046572821 -0.00023819209385983432 1.3169543527899015
3965 -0.14667962869302661 0.19086274764927175 0.08157711011806325
4034 -0.2753317683900441 -0.5387770626730548 0.6107613831644586
3908 0.08870500618770677 -0.3551182492531541 -0.7242292069686138
3851 0.4376389575415845 -0.1505586036899471 -0.08834413578305769
2243 0.6855440442406476 -0.18210808140565213 0.03289140298482698
1257 0.1001150050336263 0.3615944237910756 0.09454264393126607
1267 0.02649997797772929 0.24727773027029226 -0.11855663695581191
2167 -0.8102487468352885 -0.7807973842568653 1.273523194649462
2244 0.12068175165788202 -0.34081390236140474 -0.4546800964829019
2245 0.22945745661938036 1.0224826857596054 0.17895491825247214
2250 0.05297491330396849 0.007615722127871643 0.1909823941357433
2251 -0.24160270243847606 0.17111690289377401 -0.15501655602049638
3852 0.23265814179942 -0.18588886179740516 0.17355597275997586
3920 0.16044537568965353 0.01244867015243868 0.46476136655047884
3970 -0.1657631566661398 -0.3678010930683012 0.09005214332457953
1430 -1.2537473746359393 0.33584401023870064 -1.9842546679467938
2309 0.008072448308139149 0.23888375409329288 -0.10870681851143381
2310 -0.1680018409216763 0.06811671702600329 0.1126994186077162
2386 -2.1378970741728307 -1.1805164685770118 0.7049682851989492
2387 4.350108134118402 4.6509034647115275 -0.8217712451198586
2391 4.184196446208612 -0.8473268646180533 -1.838066767952439
2454 0.28810304066040465 3.1891099338446742 6.81670037244663
2461 -10.372319344729368 1.545620080855846 -4.089734081745947
3856 4.83411137545451 0.43803282808415006 -0.2519706024150398
3863 -1.4322144786603626 2.1980493812054442 0.9931265569006983
2455 1.303121804553282 -1.635295229974091 0.6035523163483472
2525 -10.916722595021985 -1.4462028704984065 -3.06835667266397
2516 -4.7308267367091075 -0.6175470081786237 8.665987990214562
4307 -5.4318795377873785 1.8949495239038292 -0.33378848745064144
2599 9.306259432203804 14.631223674606675 8.953862666740376
3805 -1.7034728778278827 -13.704363904054723 -0.24801100063339776
4332 -4.929200474526936 -7.527342521067997 9.590073381706045
4064 -5.2404886603493175 3.031899520818231 -0.4426810502263625
4262 2.8217523215261733 -12.843514756608483 2.4179857028782306
2658 -9.127523724314026 7.825902250268077 1.9564200759728765
2532 9.438553127412751 -3.9895584449478125 3.849021125156318
2686 16.441585917012823 -3.353203326878315 -0.6476637718595921
2456 -25.72540421801489 4.335247978035747 -44.07463687116509
2453 -4.861780017072515 -7.262927363180248 -8.222931612652514
2609 -2.722574947437195 -15.52513462955214 3.6074608596678934
2459 -16.1564957792872 5.0758773335521905 8.919009720340288
4345 -2.9320119616437443 -11.080370469015756 -13.66392534453641
2657 10.068806334951784 4.304426192999507 -1.0928754228365698
4328 -7.84875470376905 -4.574776734183245 -2.965385105187733
3994 8.636825250809009 1.7327672382230765 3.0017576922741944
2738 -9.451130684032146 -13.063424595552485 14.368088642232987
4314 -5.057403445360101 2.12248655683203 4.435364513383123
4014 7.626155820253435 3.596319587675573 4.16619360828243
4336 0.9707022251401528 -1.8124398541779612 -3.324391274225931
2678 18.7047352142108 -23.46024641535263 24.781704790934338
2747 -3.430596236956631 6.766567773758495 11.316490313129924
1938 -3.899262977959171 -15.424937701568437 -3.2329611382146117
3822 0.6802770392487859 0.4874306170789772 2.399732874131606
2749 -2.91116472031231 1.6567436259513644 1.443928540720334
2803 3.291110207493425 -1.8184393993706713 -7.362386934940384
2804 2.2501949809058877 0.12327547032687539 1.279111423753399
2811 6.992973506650793 -10.122264209636644 -15.784497721226762
2881 -1.850434145329181 0.9711235998080746 0.9833141518902075
2888 -0.33625397977579197 3.1349252084498254 -0.9385063719596844
2889 -0.6345711456382646 -0.2736735048825889 -2.187436218940275
2893 6.127166638998152 2.9334546725465493 -7.485595307411655
3891 -0.9088545338109132 -0.711150482579725 -0.5686469485707365
3949 2.7182266826751107 3.6348126159349037 -4.2791052703974755
3890 0.043423469623423964 0.751986284548454 -1.0509837151826515
3961 -0.3044796304477578 -0.1522100525031563 -0.052408536937771345
1094 0.09555129758135004 0.1313869139499143 0.046788321315743744
2115 2.166735943671344 2.400689964790635 0.2120317811626826
1189 -0.10622113754852722 -0.13705894553761722 0.4200683109978516
2106 3.588122099638637 1.3427376860486915 -0.4745998153649552
2110 -0.8087965320159642 -0.2480513551956067 1.0577370469593084
2183 -0.41801857934671893 -0.2985853361427706 0.19676087736988923
3898 1.1806872751987953 -0.2700236004292542 -0.4846563240995147
3966 0.6063452795771593 0.30250482270088525 0.005424621840033904
2109 -1.787330009108805 0.22522193246563388 -0.4756919875048742
2176 -0.24991435542938625 -0.6016958282855481 0.3365855551634855
2177 0.6930897583600479 1.2258126275497643 0.08722503649700815
2182 0.6143875343023134 0.30003499183736015 0.3684379574282933
2184 -1.1757143981035119 -0.641630717712566 -1.2738935197977683
3846 0.01267450914604061 -0.03787855581735769 -0.43095975376128454
3913 0.05636833016185389 -0.22287130576710842 -0.8425668947466292
3922 0.7282855338268074 0.16499892558437762 -0.25196322197278104
1354 0.2827027041989687 0.11692631300437241 -0.38293889161540623
1449 0.15513794403023876 -0.15930136005628479 -0.017631402504439106
2257 -0.2235935428845275 0.2926187168674585 0.24651304338876848
2322 -0.14474003235903038 0.22966736858612705 0.4079804609932363
2323 -0.6680985555341351 -0.02271718939728602 -0.4770026036268888
2329 0.45305390671301743 0.44999998967926813 0.9600049180953196
2397 0.47994596764444586 0.18753442847968677 0.10795326398423442
2398 0.024614654702187624 0.24519559360739526 0.6713359008851693
3921 -0.031246235312799756 -0.1205203058815004 -0.4222447743086232
2475 -0.5091922057515976 -0.093455949582779 -0.6693187699081414
2403 -0.7802720313986449 1.2155362102690228 0.7659451392852203
2394 0.6602407541284238 -0.5668920333819416 1.1210585916688405
2399 0.40156644528460284 0.6426631183000504 -0.5466393293925532
2469 -0.44780392619352 -1.7620706593004598 -0.18900618582096346
3857 0.19557918556883 0.14077019284184092 0.1031026808161619
3864 0.06577479913568977 -0.2377025497368138 0.21757566394769204
3923 0.02937277090385983 -0.4248402482176798 0.6522305951740648
3926 -1.8003349942515465 -0.03678401034684602 0.02793559681005219
3927 0.2197138514411604 -0.1566187909981007 -0.4578455068889862
3931 -0.8705895460652529 0.0975876878113658 0.12327023786560116
2462 -1.395346399084494 -8.464198357235967 2.460312610225467
2614 -4.2535174379964 10.169645297956018 7.082194844846956
2600 26.544670430999698 -11.927720563256079 -7.7846487025004105
1710 -12.363939989078583 -12.041040142697362 17.375000107203213
1620 2.0937530213579447 -1.4711998712384342 3.5047322781644845
4144 10.17111290467635 3.7787772084704714 9.029638739257237
2529 -15.532976250487595 -31.21391226227882 4.748105203696975
2527 -0.4399031031696564 -33.515242986517634 -9.100664177629573
1628 1.5158670267796068 -0.09645929917846842 3.370002367733363
2528 -12.698066440267667 -1.1804186901368259 -4.224015839782115
2534 1.5908190161499416 17.46188674159394 -1.742119499238792
2607 -9.833960019474455 6.226367862078139 -1.6145531776816835
3995 12.808848364775098 4.025473190283977 5.1572564071099665
4002 4.810903595289376 -7.348992555888184 3.499867640930716
3944 -8.321797909121209 3.398586090379731 -6.557530073366777
2608 -2.1251567083404415 -1.8683440580631612 4.750385729413963
2606 6.396574244967692 -18.798947616123552 -14.407843824236387
4346 -6.538478584870888 -6.864963583312565 -2.9840718054274666
4008 10.276021656657774 -4.743543181465086 -3.0114496178280987
3877 -3.398171113734083 5.242874531772011 -3.5466429970951445
2605 1.938190437278549 -0.6836510287097226 -6.19724607642837
1869 -32.087433918065315 18.29322275079269 14.113411096430687
2522 9.035793694303681 7.94477597717375 2.3812804534828262
4000 2.35856191435214 6.055057337734911 3.2192563289779317
2753 18.6158962583779 -3.5293367040203263 -5.403060158509894
2592 0.3670516086016857 -6.279188508744511 -8.808599138140215
4001 1.8851561834033705 -6.249899321172263 -5.775638986851397
3943 -14.165662238949468 -5.079362523218655 -3.04472942841339
4347 -20.253591105139282 3.0483511246870925 10.12746736353837
1955 -0.05962464369261278 15.466564213366333 -12.426720108850851
2588 -29.68136746952225 -0.9694804273097116 -28.330246015869644
2665 6.87390167400189 -3.382275268879317 -6.467470317803956
2603 -3.5139306395898915 2.841093290956517 -11.91176101512852
4020 1.9288415408726334 9.972037110555306 -3.086790432128645
2674 4.889837470794477 -0.1821538334743992 0.3133483417179295
2754 0.5739506844260567 5.438575789536518 -3.5610641472963276
2822 -5.539177354509356 5.349085751251701 0.38311839278116205
3951 -0.33311901646020886 0.5241453904510432 -3.432440738818911
4026 -0.5906117063470485 -1.1714058689825042 -3.531751181900306
2816 -2.74597650549245 -11.080015588121288 -1.3679710779542988
3950 6.833355466971914 14.807185634805457 -10.044832230793443
2667 -27.407296703178886 22.767565373615348 -25.62818198993533
2815 -26.523821171954896 -10.772546730272952 17.288725505537055
2045 -1.5199611761480432 0.9821876560492881 -6.289729340522274
3956 1.5656587324801374 1.7731387438915018 1.645176171143172
3900 -0.10058176055935067 -0.4806430206622701 0.33589049641140317
2049 0.5448425483750685 -0.5285881091805371 -0.016725482692515715
2894 2.7370028559227 4.944512142322512 -3.766641178506083
2901 -1.3297831314662192 1.6736844547947227 -0.18448926526125523
3893 1.9202132360150461 -1.073792681512694 -0.28733852205092425
3962 1.156973680087064 -0.5810515474608082 0.14383568819947448
2051 -0.18773870976556065 -0.6899562315301544 -0.0630142431119309
2125 0.7314989092579974 0.16666578454922848 1.0455420637877924
4093 -0.03327179282466691 0.34646229376512766 -0.5144078097592669
4164 -0.15425497152731385 -0.7640880991621467 -0.7691233666568283
2123 0.46469219986385546 -0.0218282226602639 0.27127012573329723
2117 0.13983117114006788 -0.028752986150935373 -0.0038026177235087437
2191 0.11300002543298321 -0.10000827304374725 -0.05669490999279689
2199 0.035851696450999476 0.19570995814079228 0.06067004905323254
2201 -0.28432646797876165 0.38827789915460154 0.21977252911967024
4036 0.2837030630057098 -0.4010527634733725 -0.18204552538211335
4097 0.06577045050452433 -0.20931623937295263 -0.07965837727315771
4104 0.11738082701663222 -0.29617418729147865 0.4604365587602914
4041 -0.4281553780919474 -0.12145683457407117 0.16567737046050732
2202 0.3537903959231091 -0.8153987848884783 0.07181388941163865
2194 -2.6388319180584117 1.8324873070520762 -0.10085127296590199
2269 -0.03182158301987873 -0.21371963460467983 0.21126517871142272
2271 -0.2900277263093548 -0.37161729081149253 -0.5000970518807878
2274 0.08221157187416465 0.01378050711439491 0.01084312511068108
2276 1.1218499554188845 -1.2658697215941133 0.2058137376936861
2337 -0.0421801152856862 -0.4734201830929501 -0.10404472468883995
2344 -0.0072647329008703725 0.03317530657264294 -0.18512894865985313
3985 -0.566092513099128 -0.20712096253586473 0.5769350342861765
2330 0.10129513511933437 -0.2564711972811866 -0.1694797343135457
2411 -0.05154628019062748 -0.07139770152508566 0.13011464527631128
4050 -0.2632242402694413 -0.45798713391291057 -0.23228002576259943
4051 0.7059162715980976 -0.7299113708036433 -0.15012402658966328
4057 0.019096592227612993 -0.2300158763946201 0.096270325231344
4058 0.47739270323257965 -0.1548911685051452 0.0498035288524712
4133 0.19044582505146773 0.1507648378140302 -0.2127383480876895
2406 0.11328993243191539 -0.28925558511078137 -0.1629163870731837
2476 -0.8316834711966986 -0.41073540756547056 0.15386757361884462
2477 0.9874924654487648 -0.059879929068281046 2.1055485775859224
2541 0.1427942649506616 0.3202189519540714 -0.30779895958254816
2543 0.7595709892370122 1.8887645026407553 -0.8417889371537
2549 -0.2543890332260008 -0.08014297905128183 0.62633554478863
2552 -0.015217385706153943 -0.6983219976122487 0.6008325765613669
2610 -0.12999335998192071 0.18901423651552532 3.8814360472134695
4065 0.35931078858800775 -0.456053992218595 -0.18288400376652436
4066 0.7128333500561923 -0.05566309889040297 -0.27282941621068124
4132 0.21677993520773475 -0.002854222806904897 -0.574457479437593
2545 -0.5877909921235985 -6.199162755390702 3.2735769589264443
2616 0.21134077039228424 0.23300636528084784 0.14112108678738067
2618 0.771897313509198 0.31820256877663655 -0.4975495254886802
2620 -2.4927835904844104 -3.164441377365219 -2.447152289461571
2623 -0.4362349321985614 0.3010646862729256 -0.002879724959818919
4010 -0.010029569123102624 0.35171625067599815 0.5796528409304841
4075 0.319828094221608 -1.0304904357220537 -0.405216202927178
2687 -1.1577321382186916 1.015416596688457 -1.2736704723141452
4146 -0.6298022631643906 -0.6406684609022968 -0.24426607864216676
4021 0.24467113911005334 0.9413926845840327 -1.174815425387322
2695 -0.4513453292460836 2.5218850836792694 0.8609625421985194
2697 -4.204610726379822 2.192176676344976 1.2518509978348626
2760 1.1529832656777583 -1.6672138505658347 3.275121914745111
2761 2.4598500088471296 -1.452974763446304 0.41007279369545935
2768 -1.8236477950776768 0.4080204268051365 -0.772469468332829
4015 -0.012883044614003039 0.016998955310216522 0.7486288566663463
4078 -0.727913907762577 0.28141158470466193 -0.4917582971097443
2836 0.12026919754768034 0.5104829404351225 3.282639286029117
2756 -0.09105251420643762 0.3896531310965215 -0.6235659278287927
2767 -1.4020514249950378 0.5862887543564511 0.3582103956411432
2766 -0.16746688627716091 0.167755247165718 0.6437812984412888
4084 -1.7456991468755767 7.412938624304542 0.3493789954910088
2112 0.27534497010251857 0.9729546182240149 0.8835640138340468
2052 0.9491181380397734 0.024201098682208603 -0.5637191373105697
2763 2.7600008235502256 -1.0295953531700477 1.936211816744466
2829 1.6157388158951504 -0.47017857151030756 0.15003056069919407
2831 -0.8355838768969617 -2.0011377895960125 -2.115214898401091
4027 2.0861124848395245 2.557756414378813 1.6526226562722495
4090 0.16947373745260344 -0.7412409063414105 -0.31192397218655266
2904 0.010754971540611644 1.7944526691631324 -1.064149214972032
4166 0.07964070999731049 0.08171020050508847 -0.2740748471088374
2063 -0.06643782400498682 -0.8073119812207098 0.4651443776013754
2131 -0.2966876550423332 0.8255725581623178 -0.17735453287363281
2133 -0.09284583907239877 -0.6079426732355295 -0.18289720104173934
2141 -0.006989445438897189 0.7206145138123713 -0.8857147547267704
2143 -0.8082137987560758 1.3887277343293645 -1.4862048400443422
2209 -0.13678012882935114 -0.15761604005538657 -0.8939318487151182
2212 0.1818336355400088 0.02070932836711539 -0.036033087148538166
4032 0.11500081984090128 -0.08202299372301593 -0.7000576510834776
4094 -0.06581732694231927 0.3404013084146343 -0.31232463556749906
4098 0.07293118440259815 0.4478016451770646 0.15802979758247648
4106 0.2743542267535998 0.04148913477738429 -0.09228849422779747
2055 0.14142748265338573 -0.4271045639400976 0.4456500329159161
2135 -0.5035787005352855 1.1109740669772754 -0.0663233047193012
2207 0.10918996605627841 -1.0953602900761847 0.256940516091994
2215 -0.15669176930199766 -0.00198102188671469 -0.6205488112537458
2281 0.20588940875641965 -0.3989651568008634 -0.0543973343753588
2283 -0.12811642299211695 0.43628691882894155 -0.0060841284563160946
2285 0.1656804506282978 0.37694748713594445 0.17353888508452098
2287 1.0347370142502075 0.03864430585474036 -0.1252884446479385
3973 0.17884601198622732 -0.6449027334444077 -0.09826021324635517
3974 0.12328068009605053 0.17970077040140794 0.013196466459328803
3982 0.30490018139802527 -0.31626080261715284 0.19203821068310922
4116 -0.17300580722468903 0.25316136246644233 -0.23400900047239928
2210 0.060056701299468634 -0.9670898680807896 0.08535334071617724
3986 0.45870687250560604 0.15679144734838757 -0.1921267123942262
4043 1.8228564064105355 -0.4899726568723283 1.5857579922760958
4044 0.23148823382361788 0.6343562769871847 -0.17210747495650588
4052 0.5036931570270224 0.40763189598865884 1.2947807003120844
4120 -0.004396360647452528 0.19289408168381744 -0.251986121365543
2413 -0.10377139375623604 -0.4221295576625686 0.15445256371714086
2416 -0.028863657108136806 -0.09617958548680468 0.41313444652424125
2418 1.4556408206890508 -0.13492393154500668 0.9102225859927312
2420 0.6774009897030452 0.04172101455731572 0.40952150932437686
2487 -0.6595845774335662 0.5240189690535316 -0.04394715128922164
2488 -0.4427336289776051 -0.19265056856196366 -0.11457027071357156
2491 0.502518981062112 -1.0081766301153567 0.14163736726508688
2492 -0.831943854507161 -0.3171585378271506 0.15493054724965047
3989 -0.0506620146413986 0.1761510100299437 0.12028905987410964
4068 0.33351221662568903 0.11289734297715891 0.30281235702033577
4135 -0.2897020834500185 0.509717320023622 -0.05318550501510947
4141 0.06732244222592755 0.23333241271207328 -0.0033177979020705493
4067 0.38360201648111997 0.8274352072471347 -0.032428543939935696
2562 -0.045078844243013505 0.6965617538254039 -0.5146470284085971
2556 0.3369876181767691 0.2085365962484338 0.06318744104344572
2624 1.0806150877598788 0.16232112222431258 -0.257169561506096
2627 -0.38290395695177715 0.08491323184873632 0.10110964183517306
4073 0.2039768680128359 0.06757879032049337 0.20796382660383925
4140 -0.42178554856285205 0.09556959348811792 -0.12088049386144957
2630 0.2709696614364029 -0.379223530509012 -0.380096618857993
2702 0.38880740355433974 0.3535711146928887 -0.5838426881266041
2774 0.06465432080052867 0.020654699699903127 -0.3144679468632531
2780 0.14848656578470956 -0.1165603351485042 0.25778501469569787
4076 -0.16984245275611115 -0.2358460426901787 -0.040593398519687234
4079 0.00925752041837451 -0.30052521721478725 -0.5870235931375961
4080 -0.19513858855671862 -0.635538867507591 -0.11038562415600629
4152 0.531052219349878 -0.4117023126915131 -0.3427254299396489
2703 0.670900751823074 0.14047922557813566 -1.4219610965647993
2773 -0.41366003567542553 -0.1339955295834341 -0.30232569899178496
2776 0.1076651684689822 -0.8247963264358295 -0.173874911521927
2782 1.2142430407180096 -0.9362594373070621 -4.155899091696309
2842 -0.07010244328530983 0.032752786603373586 0.42167705207421735
2847 -0.35585135017939395 0.4019983097245818 0.4285290916615716
2850 -0.09356023555349259 -0.07212547077438806 0.23833961468487033
4022 -0.027621598304344016 0.3121904717982494 0.3177499139901409
4023 -0.01892143057950858 0.15717073241615964 -0.196802479248191
4030 0.020982004455402496 0.5520163232290443 -0.04732331106741069
4161 -0.2505442203211925 -0.2815901477478713 -0.4122172481602655
2848 0.20121703621161754 0.7885434394631473 0.14562572233813856
2062 0.6244334082541443 -0.6457373985517324 0.34678957384978837
2843 0.6391032408908887 -1.7221903133408547 -0.22763663165357192
2068 -2.246140414173177 0.2142970094477504 -0.029295816144704258
2074 -0.04001475819443625 0.02300309164552804 0.10453074774848019
2076 -0.10457789939542915 -0.5574126370953506 -0.06173642976546196
2146 0.10492791649257042 -0.05540554703088566 -0.08702876844384184
2153 -0.042492394300175436 0.5883051432580237 -0.11617290521281984
4031 -0.0077010589714064616 -0.16142540162081292 0.3666324701204736
4033 0.03500404184944994 0.7622173082779445 -0.13044464458284902
2066 -0.13477639067982747 0.1581315994280622 -0.13959388487743762
4099 0.08911943191915436 0.17287546923148134 -0.4482607449127375
2147 0.14395957741854296 0.8215644824894477 -0.44268274137636476
2154 -0.3012557065844753 0.4869225279953207 -0.6130604314994544
2213 -0.17512728699478872 0.020600046920059716 0.1019291549180936
2218 -0.33104406318872737 0.7704240158815883 0.3877238576892776
2220 -0.3705700487210405 0.16021749036510322 0.04635124328641131
2224 0.5139864254293118 0.08591868479979474 0.5371946395494488
2228 0.10566371933744843 0.10761062224909121 0.7598647616942369
3967 0.6935987878748805 -0.6823633952215348 1.0160374739720557
3976 -0.7442278422919697 -0.7692302811063223 0.01444735444385497
4118 -0.4211531980083181 0.3774603768019965 0.020954243428269532
4107 0.02385005754742917 0.23887327299392583 0.108706300871157
4042 -0.32457879336911083 0.17038261922661926 -0.4244343544236629
2219 0.42103920294405695 0.23359706314658607 0.8782170476458632
2290 -0.37014041661949204 -0.8563308021687176 2.34460388336407
2358 -0.48496515539977353 -0.1709419039890504 -0.05201717654573162
2364 0.4273332020529864 -0.07262738041647751 -0.7295356367375333
3975 1.374964665589196 -0.19310958505270315 0.5115424563303101
3983 -0.16635876169422342 0.7983119290558439 -0.09868317309769739
4045 -0.16495288330192018 0.8814174351733806 0.4458813966982977
4117 0.0950843473235474 -0.006079591247347492 0.18218897881209306
4053 5.308180949594182 4.063295122204791 5.622476734726359
2367 -1.3217285864546917 3.3109631744539723 0.09114352325991207
2426 -0.6399741223161897 -0.07896216782210093 -0.5744099615093324
2431 -1.907259857597766 -1.8701649677836372 -2.3186458542999655
2505 1.2293765447589022 2.037820961153413 1.4401856435674316
4060 0.6489646209917272 -0.4254996121461772 -0.7790843137685072
4061 3.027473982791778 -5.030814379157092 1.3104105212155315
4127 1.2573971385191394 0.7260042046474409 -0.8550392887064954
2433 -13.959011423009127 4.187932948517258 -8.57973990967985
4137 2.2331894488432913 3.090796855666485 0.635303594096103
4059 -0.09886773486659771 0.19288545625475395 -0.2796476892309857
3997 0.002360420052333929 -0.09291417873866731 0.2974229061790965
2498 1.1197118649068858 -1.4664092657941468 -0.8550639100942055
2499 -1.8154561943246401 -2.1162424929907186 -0.35094638374275466
2567 0.5780332037299315 -0.16130446240734453 -0.35204054705111176
2568 -2.7869946264984127 -1.5477606804137587 1.6634432701017137
2571 4.23566825929295 1.5497090760108643 0.6174942212128913
2575 -2.8706493719295954 0.44989896528669465 -1.3341601251104651
3998 -0.024528759385113903 -0.3097932399586619 0.12907990356393653
4136 0.3779116369318606 0.38821569080411705 0.07132625741273557
4142 -0.180943550408084 -0.23918010912127038 -0.21884309930530285
2573 -4.131127055710362 -1.1782691433028938 1.741079850348362
4005 -0.981523136838544 1.0655063783341354 0.23357883099864712
2635 0.08469211852365473 0.4186417804174804 0.17038412281213783
2569 2.5989081763848496 -1.3995849872392423 0.5576090372126155
2638 -0.7293573172983258 0.9380415658446674 1.1347562378894611
2640 0.9229894667658861 -0.23424253990095875 -0.24664349513822775
2642 -4.737568554650275 -0.4665174502523314 -0.8807294000758511
2648 1.3075023664734164 2.022864311713215 0.7966048625857748
2713 0.17223711593369617 0.41457934925359397 0.11624967075546376
2715 0.311282326887203 -0.03522601362041915 0.010464739151079367
2721 -0.3688224292754141 0.6465793586062387 0.4407788415026046
2723 0.19750598695873814 0.6736867540893648 0.16351727326048343
2725 1.047593574275084 -0.9952685333801341 -4.123980336286631
4004 0.13257080185152872 -0.039504729312867325 0.3161337423037225
2790 0.0016908757783988312 0.10171602483096331 0.14103115267202465
2647 -2.5880339077590873 0.7342969550848879 0.7909773562895236
2784 -0.7299423280125975 0.9590001096607677 0.6636750782468019
2789 0.21854489715076997 0.10302212939039804 -0.4560903747845284
2792 1.5952739734633616 -2.2610659089586047 0.4866745729666518
2862 -0.2707432458480373 0.19576029825517247 0.00529506561541823
4081 -0.5219046812334394 1.2555725428546638 -0.2631464973384684
4085 0.19099374975362077 0.40014660153955534 -0.10162221174761166
4086 0.44755567356722986 0.2976288535142151 -0.32136021141551335
4159 0.6566840073576418 1.4187976639482507 -0.3249971355230502
2075 -0.213658518350056 0.12667734104323203 -0.5579355435755644
2856 0.10811651807374761 0.797766587974465 0.1832768732818039
2866 -0.3554334837907516 -0.5428085371831686 0.4521541515228208
4024 -0.010417517518403653 -0.1681171433838558 -0.18721651355107952
2079 -0.301071309716888 -0.12189864134133478 -0.26984351917042904
2086 -0.060973356716640024 -0.11202559036769331 -0.07271697936600328
2090 -0.12888138874832053 0.23017025968044186 -0.372637701669908
2081 -0.22773313373442225 -0.13217568010616682 0.10357276364874816
2161 -0.13896085068034195 -0.29017594903504323 0.20323283803698783
4037 -0.28672487832655175 0.24892090978198103 0.14831170225946635
4038 -0.22275263880882498 -0.08917572333820623 0.021740218328265434
4100 0.3509749008636434 -0.26493979522302497 -0.39902584535753316
4101 -0.09739454893466501 -0.5893556830410915 -0.19013014270275366
2226 -0.19797761691500843 -0.3885039584454256 0.3328288184163695
2235 -1.3120650385271855 -1.2232973322443481 -0.7952304478901794
2295 -1.5969203431923402 -0.6551145082624448 -0.4106309751437201
2298 0.16162643385833925 0.3892488072903256 0.3530145344543299
2300 0.6466093830839211 -0.28977418077871975 0.1585210652222394
2302 0.6191970077404668 -0.33266438249194175 1.4506458581206503
2304 0.01438884681355068 0.08292795477487905 0.3662176322750403
2306 0.23768928983357435 -0.6659129041554249 -0.5429707325607608
2378 3.012560884253505 -1.4303816229532431 -1.4790327151214877
3977 0.8589728637336332 0.010499257972888445 -0.44256035830332063
4046 -3.2120982950973747 0.15105570812390562 1.2444626432942327
2376 -2.5801670229734963 -3.9403705505844826 2.953251593702293
2385 2.5180545413580777 -3.7436454105881998 1.1056633590836638
2436 0.17987662171050692 2.892408175602086 -3.6515014867157745
2438 8.319829534614069 6.344272149819593 6.649568121714987
2444 0.6964011896458828 -2.0223758123213367 -2.833700243864243
2447 28.777607126755164 7.015098077423769 -0.44348567411615325
2514 19.421521716881053 -9.2743970699533 -8.13896099302967
4054 0.47757813512475117 -0.5883957365563349 1.3453381016210009
4337 0.9176937650842782 1.472775653633824 3.7919547145093966
4310 13.900504513931773 4.004521605182917 -3.5813195767470285
4324 -6.098962803473994 -5.399592564541884 -5.818266384674402
2670 -6.306153981864956 10.383013368414687 -1.801770631653226
2587 9.373205912253734 4.96924348270869 -11.874491216721037
4261 4.720268914700528 6.167792823695997 -2.4745724249367718
2445 -11.647551902069907 8.669213687942849 -4.901221616575716
2439 5.857870143225201 -10.852845347415123 -8.577851084661113
4344 3.423671312511462 4.270819333511337 1.7452470419135029
2449 -5.6786396022026935 -8.098458065871247 0.21437749449548038
2446 -26.819275618035057 -33.253331598176985 10.926905063367332
4069 -3.9399584871810407 0.23854445148017353 4.879942262332443
4343 -1.9999450416294784 2.264998753186274 3.582376210710384
2743 9.629012287405773 -6.184076577643164 0.5721111315574542
2646 0.11701697117122699 0.8795641827522734 -3.030058862415248
2512 -7.354489688877394 -3.7013628715127083 -2.031488021941161
2668 7.936007334706474 9.603850822894662 -4.391918873115861
2582 -5.110567490194772 4.091799566607875 3.155862761520958
2651 0.14114451332469174 -7.351833908857997 1.5550941013833455
2652 -1.1034298929423536 8.287243896468835 -6.804572934405891
2660 9.530294920713207 -2.6722487532696504 -17.363080406487466
4148 6.167611511880515 2.3415013534236637 1.5697599360901722
4194 0.06710231589171445 9.049634003958127 -1.5970731131925648
2653 -1.8492766531779927 -5.8137468698524195 -1.3461690521781635
4279 -1.9283911809825207 -0.3332967287877439 0.17785710441295655
2734 6.519944971578978 7.754662881556445 0.9744536983490596
2798 -0.06169074427756609 -1.054981288356481 -1.3642812246519889
4017 0.004760968014724741 -0.38301512106998814 0.13309031606076593
4082 -0.686732489067841 0.4887055896185775 -0.4881292102803294
4088 -1.1839180470674002 2.0544411969385314 0.014713667113819696
4154 0.7109337290770067 0.20772709366886274 0.026413493853448364
4147 -0.7800967851406866 -0.5231573453662272 -0.6704247343146493
2088 -0.08639067199624038 0.23012490272353275 -0.386731646232517
2864 -0.07960112417740275 0.0074746377704029785 0.11643276914781098
2873 0.10837138214262379 0.5986757316169321 -0.2758621257277881
4087 0.4265659645902494 -0.22504403113120708 0.5367406238502642
4091 0.5949936276323715 0.4640694116750023 -0.4246389391984952
4160 -0.2242770836351849 0.7421198572631418 -0.5067323385637709
2102 0.4321010033571368 0.2319281081687393 1.085465943589426
2097 0.04534500787374111 -0.007789515556114085 -0.17736422287422374
2096 0.04568365981823511 0.39884825039236865 0.4183121760850777
2099 0.05783381867394689 -0.9811141741058871 0.1186039746239995
2103 -0.7237631477506116 0.7155500783304829 0.6547301236337604
2168 -0.1445984986259188 0.23285730337735305 0.07900590457734498
2172 -0.6145325480583104 -0.15506939264386863 1.2180197262758679
4035 0.23557591520111368 -0.062125806529854506 0.6466835961850511
4102 -0.39133655902253467 -0.047035571493656884 -0.6672162187149742
4110 -0.48566537254750936 -0.20430764171909657 0.8140209250021238
4111 0.19986281904537243 -0.2253471591002211 0.2742621329237053
2240 -0.033985764215723434 0.2032507962724978 0.24767469744997733
2246 -0.33970731157869866 -0.42204507535689023 -0.047792185067478156
2248 0.32835418574402814 0.1363986680190367 -0.43084720754010825
2254 0.37110783102926953 0.37379099757930323 0.3775412907608817
2313 0.12569825576575933 -0.11304678492950253 0.09283241843097055
2318 0.9519027068582726 -0.12527528249979958 -0.14887354336722364
3978 0.12065330896202309 -0.283146966366275 -0.12864795004015214
3984 -0.4676993260903375 -0.1131215552273454 -0.029993379964748462
4039 -0.27545893087287465 0.13667609973170422 0.3236534688324319
4040 0.1833000711428338 -0.14924065561664443 0.0798591452431782
2319 0.14035109537130896 -0.5124799264442054 -0.3554719603553521
4047 -0.11226177925222343 -0.20627881718604288 0.9014277631907054
2311 -0.22624820474420174 -0.42716681495712955 -0.11585354830699607
2315 0.8503940198520673 0.8955546212466404 2.0863908729563305
2321 0.589623398986828 -0.3136471949238993 0.3640800099207825
2392 0.5803933228306741 0.9505393553943857 -0.970835140854558
2457 1.5999399225816708 1.8797586938429234 -2.0937322618708927
2458 -3.0801497621431593 -1.8716728821898168 -2.7793372898534594
4048 -1.3566042676119867 1.0770229628417622 0.1098793525923877
4122 0.5755006945395075 -0.44842472138362777 -0.5112791489182994
4123 -0.7105227709097615 -0.4868433143503238 -0.025340223963772075
4055 -5.508437315472674 -11.788671667254077 -1.4212142864485229
4124 -0.8179031453671914 -0.24286551197325418 -1.069995049603719
2602 19.796136340003613 -16.182625020717808 19.576112905909465
2689 24.634648144292818 -14.431319579824823 5.300702784202594
2452 -1.1798657022249468 -0.9261337093828705 -2.1509275016054925
2519 -2.8025458292630407 10.947111957485445 0.8083400295595957
2520 -5.728832957288132 -4.842488528733268 -1.0714246610295886
4071 -4.56833310957304 9.04251064029271 1.3350543088733577
2518 -2.4392622173175362 -9.387563534526501 6.550142028979637
2683 9.417893297984838 -2.078717469480304 32.224596759449405
4338 9.205807560790397 -9.901603574609648 7.159409005422048
2735 -0.7306654491193041 1.466794685429085 -8.685907613967329
2750 34.37587848818698 13.580459970428857 -37.60992109563181
4215 4.5001522802694875 1.723034374524808 -4.8306569210849934
2806 -2.8385303369976085 -0.8649417092743469 6.720686608388796
4206 -1.1848155076512497 0.880484980836571 -1.3123761046756273
4013 -1.2517999372327506 -1.6523915061640333 -1.5714245702926362
2672 -0.1662361512536457 -11.748340637445429 -11.519231821447892
2675 1.9049646381417806 13.482663830889557 -9.79583286216114
4270 -3.5456115455939443 -2.4852120951707675 -4.353827268255523
2745 16.773498208655695 -32.758158907057 -1.3907762285035847
2742 -1.6525998382530473 6.50216026068415 1.1939755647099293
4214 -0.8271220419415992 1.4823674145261434 0.8122090610852611
2878 1.8510073587501064 -0.4791609430708262 -1.1319757307503184
2800 -2.113201232108231 -1.5390331845128513 1.166361176055203
2808 1.1672806654443273 -1.2811763575745498 -4.60584790731653
2882 -0.5049433621329097 1.141517615308219 -0.39127504292395804
2890 1.4988148205597849 0.12725472215296327 0.28792911094304674
4018 2.072417257305871 -3.442250336844575 -4.7658846622863775
4089 1.7887939135497077 -0.5497183886501115 0.7204856899220231
4092 1.8188338963171524 -0.43807318460238776 -0.8732762837746835
4162 -2.0032739392881673 -0.51495609385068 -1.2609612102402425
2885 0.24057613264140165 0.12013111136585959 -0.6763097164800294
2107 -0.35610226367820325 0.34888853567354283 -0.3415853663790138
2111 -0.1344649124438969 -0.3493754032851201 0.15573030419165057
2185 -0.2035962627614313 -0.17012745802730117 0.24323993481704917
4095 0.3853605759992274 -0.4855848050617246 0.08196187896329919
4103 0.1589255217301115 -0.20982083760136896 -0.11672902053851944
3971 0.31779610251143686 0.775194204663143 1.516874216503145
3980 -0.11495730286119878 -0.1090122520858304 -0.4007036859914048
2266 0.4928220281686137 -0.032857987812700704 0.4453670457537912
2178 -0.2483588980723638 0.18556355172361527 -0.26637678137519816
2180 -0.9033853901867127 -0.5452632783423484 0.6232032064713072
2187 -1.189488373992204 0.6829642913736633 1.020440477492194
2252 0.29527954272882895 -0.05691842485551504 -0.00969251538188426
2259 -0.0035568139236840522 -0.32373483050632196 0.15491284775697925
2264 -0.5689218016831926 0.12182775247851284 0.37569169341929354
2268 -1.5669923948698634 -1.4261953140152566 -0.5564093193219443
3972 -0.13281062781460184 0.23814528963336676 0.3339310997685336
4112 -0.014779765460216053 -0.4819877702783904 -0.1846386447557794
2261 -1.9716505958009785 0.3576360424881193 -0.5978652856854973
2324 0.5256798672919973 -0.5179678027050629 -0.26698136990845883
2325 0.6843496345361982 -0.23716307758697852 0.12065658256308086
2327 1.7994755337472477 -0.22790223596463421 -1.3123077777642325
2331 0.4980835962976825 0.43306772126013465 0.13705052723649752
2400 0.31984939499935466 0.26760883412564423 0.3341230974530449
3979 -0.43987715768102575 0.19043915082808166 1.4017154539754073
4049 -0.09843894323971607 -0.09414535954708521 -0.3681511486444851
4126 0.19830640654853654 -0.17549813776117976 -0.11814213449943002
2395 0.6194836002631748 0.3746607316380844 0.16025301882353823
2396 1.918190750779545 2.3069515218152783 -1.535189988668554
2463 -0.15317860188651117 0.2267481636554272 -1.0178143886955315
2466 6.2017026537843805 1.7791283191313714 -7.53081117482828
2470 -0.42782751112040157 -1.2373931604336346 -0.09253973909568489
2472 0.4607476148463508 0.8276207162855722 -0.9312972995680117
2531 2.741735230896882 -3.9423015028722945 -4.325220923937489
2535 -3.275568471105321 2.913998147491648 -0.6915114642386342
2537 -0.5961186647593103 1.0633510551515652 -0.07479607260210862
4056 -0.024999143175514858 0.09258738764818288 -0.14334611533176478
4131 -0.27501392260046803 0.13577683865042375 -0.18458167315954618
4130 0.09392802330306094 -0.11412244066425785 -0.11775978431542333
2680 -0.6703608277292913 13.87497051876616 -21.764717743202088
4202 21.372533270089406 -0.8171297954924406 11.402466176351568
3996 -3.4952525843591515 3.4575870692332975 0.10357843377977993
2530 4.015867261431027 -3.187707515068867 -60.64399689711528
2539 1.7971101253963508 -14.853504229495822 -3.035159827450543
4072 -6.789974704916066 -1.0033962995162702 -2.1746029555483517
4074 -3.4790334918611108 0.09885016476401257 -0.3260698541652526
4145 0.05283703549483706 1.061162864780206 1.350057511839517
4195 43.729853748494236 -25.043339827673336 -39.74891073622968
2688 7.691913301097506 26.916875423330662 -12.150616171190089
4348 18.87910581196244 -21.399140007386872 -22.176139347967577
2755 -15.703944454532039 6.8700522351204905 4.62378771257097
4269 -1.9455259808882048 10.814405179478504 -16.210568957026794
4254 -1.7269514573738645 -1.8179204121685737 -0.20374443793805774
4281 1.062914890479623 18.355679761881564 -7.135615361116185
2685 7.878054307987343 8.413747235221887 -11.006913599755901
4083 9.276865408540731 -4.536182378974626 0.2545329080229608
4209 7.413992782080649 -5.237708228084244 -2.170882866603674
2669 -9.110700600315933 5.280997587536472 3.7708300714891947
2741 -0.17370341464040612 -18.97814969951625 2.1858063014693334
4313 5.459744178587893 19.141065281410537 2.8336171309042153
2814 4.079650377387867 19.39184016293316 17.911809268373975
2818 18.484775804286706 -4.597451533566622 8.731995552388438
2823 0.6092006118060961 1.0384557647787171 1.7287820468321167
2825 -0.17782465656534593 1.2204993236303967 4.040336822296027
4156 -3.436005404733003 -1.4738236040019308 0.8746396869937019
4157 -1.5433497340366271 -7.142705431277152 3.209544076128509
4280 -8.105670408629194 2.851344435704821 -2.1773913125425417
4210 -3.3711032163690926 -3.348954050207443 4.103124534158956
4019 3.034424431002354 0.6891433196296022 -0.6428122828244078
2813 -2.9937504992532413 -10.1440647324241 -13.69908515180108
2902 -2.8930193253182415 1.2247156561627706 -3.238359497021716
4096 -1.9502565956027424 -0.7048385860494912 -0.150624276273258
2820 11.414309259139024 -11.699009601464633 4.1749119860240915
2895 -4.092944085296582 -1.3818005010659038 0.21060024515480136
2897 -0.00656084861030053 6.282243696432376 8.210166215675056
2906 -1.600031346014707 -1.2405641261733555 2.864764560409053
4163 -0.4330219270274638 -0.773282626037707 0.6887419208724846
2905 -0.20384271240469556 -0.5122274161948331 4.4465440950496475
2054 -0.25280234883165537 0.5455370693437411 2.294091680764966
2056 3.107429087950151 0.6589959750255766 -1.7708903935069022
4225 0.20057576310056446 -0.2878372854586363 0.06941241058171899
2126 -0.26660673362175025 -0.960529916019127 -0.4120943700164474
4294 -0.7869959523352219 -0.34403847454191744 0.38333153487043914
4298 -0.590372728976835 -0.28515574128903887 -0.20721439572951958
4169 -0.008985389516477477 -0.1382697787344739 -0.4174720552562539
2907 0.4762826131810191 0.33374423828053706 0.8429641817575699
2118 0.2807858578215951 -0.6036392704997882 0.032828985257359354
2119 0.04774232993893255 0.0016740856180794258 0.6820254936448662
2124 0.6711992854597998 -0.5876016630635297 0.3819536435575139
2188 -0.442876525793587 -0.9420401615111986 -0.10611183578841447
2193 0.9660807505363422 -1.7326897054150938 -0.7113422688468938
2200 0.294654627858469 -0.421541515651346 0.17509016235356534
2203 0.1585184478045855 -0.059874673362317166 0.4156141469457751
4105 -0.08382595298864196 0.3978022298415129 -0.368245343524804
4234 0.23147213155212315 -0.27395911539239914 0.35291281430138904
4299 -0.17865876387210378 -0.2894942501689094 0.4561453070750678
2204 0.053318952496540326 -0.15587577867244634 0.2920644662606484
4115 0.08000081788546824 0.20819304555563672 -0.058530939797717695
2192 -0.20721556336189623 0.15190339375657877 0.42855376111346727
2195 -0.2631962729949779 -0.5107198251058624 0.14943273747569485
2270 0.1477848312925783 -0.1086360949792147 0.2381093330717422
2275 0.46546249248155097 0.8823058752668858 0.007095410553913195
2346 -0.2816311046743409 -0.700772649562559 0.6241726878527162
4119 -0.006697121743724875 -0.1406313453647532 -0.18572104316447383
4187 -0.010010044184737958 -0.026818493661985764 -0.1705526714295842
4243 0.1016262708752241 0.5288543160983395 -0.8790965693093531
4242 -0.21218765790023225 -0.12120893269325353 -0.20234064354378828
4180 -0.41802552470842064 0.024751450759139388 0.1685022605301602
2336 -0.2805455471667393 -0.38162735975341555 0.7995343401399327
2338 -0.08912767320158171 -0.14341651664062022 0.870916465987368
2339 -0.26418565470182265 -0.3446717193640858 0.07202799087217739
2345 -0.5876173448680294 -0.139597699694484 -0.4276072111602262
2347 -0.16497999214885264 0.7917717884107813 0.4969422197572807
2412 -0.13851147716859866 0.18421262693338164 0.08700890040123302
2414 0.5211253932316298 -1.1852538859475183 -1.3943407606339366
4250 -0.5060683258429307 0.22866594747187471 0.14824566797296065
2408 -0.6275475951984075 0.4758073292631216 1.4035442287029773
4251 0.6582545976115289 -0.024485247848238394 -0.9158857827463077
2405 0.1952957455892769 1.0729502484778541 -1.2527402276668576
2407 -0.15908351011317842 -0.020969149713274703 0.31283185263791957
2473 0.3401549167860509 -0.1721872132506707 0.04168571638210034
2481 0.6030844079727459 0.6355973030388499 1.0351392257669776
2544 -2.274592594323305 2.474135138164302 0.3652857380590175
2550 0.662264958078586 -0.6044281848614022 0.7348473798128697
2551 0.6008491778659081 1.0935158788393653 0.2512928172654823
4197 0.003468266048040595 0.7551049306831452 -0.18835523740305318
4203 0.07345463196407183 -0.3493470344363227 -0.6176758209853849
4259 -0.06303961714029711 0.5555621399276077 -1.2253037303227818
4264 -0.6937361666748134 0.33088359437208853 -0.01833242193378526
2542 -0.745320679908833 -2.185934248594575 -0.5980552940247452
2617 -1.1820388106076347 -2.008542466446484 1.8131363443773476
2619 1.180796455791881 -0.45949835495811975 -0.6233305892514931
2621 3.664397130929707 0.6048873065139395 -2.407026507767217
4204 -0.7882998884664015 0.06725949248475774 -0.054889278456961677
4207 0.29211232530297676 0.6431656281771121 0.08734787515430778
4265 0.17864630583370186 0.2553500503743174 0.2678114864881544
4271 -0.6860228005743955 -0.9957999798969928 0.7916857550502044
2612 1.2114669190453475 1.464784166109609 -4.26550948094706
2625 -0.9043209590506739 -0.40010340974832775 3.1303987089018515
4158 -4.497022117225167 2.6911803540445183 -1.0220108816086177
2696 0.9079100630439059 0.2096429619861765 3.444548981615792
2762 1.5520711006034684 -1.0349805252221016 1.9640767360315796
2765 0.10864521598673978 -0.11376225002372062 -0.9414135069994695
4151 -0.5580049644060002 0.884202292978216 -0.08448254848590159
4217 0.1810965602277668 1.2839088043176636 -0.21121152318779166
4289 0.027927281084372965 0.43431188245629804 0.9282854394204895
2690 -0.4294820122815012 -0.08589183032893533 6.760720138381646
4282 0.3866386131254932 0.3666026308039652 0.8734464989210492
2770 -0.13750959766896195 -0.8541706306710772 0.7823006089441281
4283 0.3934573954900004 0.6563805217954497 -0.11329776656945062
2682 1.4433784604521478 3.9374722627558807 0.7098305474844075
2828 -3.007249246260093 3.2086377474533485 3.8706472932885796
2830 0.7016981459141386 1.3349936279770944 2.8270137646951863
2832 0.0007227964650537246 -0.6072556759271999 1.0392108740950123
2835 0.3640092099809125 -0.939687489578066 -0.0059914217925847
2837 1.274056424534861 0.4155292607868667 -0.0556501309880118
4216 2.1403899672559104 -1.1495486075136598 -1.0755200519603145
2839 0.6253257809203343 -0.03855760207888877 0.6744546485748669
2851 -0.05076756758213983 -0.09534867393595231 0.23662854471503142
2059 -0.1431232637519322 0.030245431660587987 0.11245249441535939
2060 0.3336142250823846 -2.050020755406438 2.408917377018518
2134 -0.1774375756554497 0.7563807481554167 0.1856379969289759
2136 -0.25273008654291046 0.6865299404207184 0.36407508385673887
2142 0.2074971918939444 0.3832445014343511 0.0867944024198554
2214 0.3904318994548364 1.5289329877028524 -0.37250015830271466
4165 -0.19178534895791577 0.0051059768867770345 -0.28253859273568366
4226 -0.42594546631300423 0.7911430000989362 -0.4043547553131531
4300 -0.44848445192009284 -0.23765350678317657 -0.68108656761597
2838 -1.1042827024270485 0.11763720421538454 -1.5169820039474828
2064 -0.46650662020927935 0.3043192968602163 0.10017812510404026
2132 -0.08939677804636832 -0.010891768423381196 -1.0864440611231407
2127 0.029649536854156007 0.4079314843020412 -0.08922345188860471
2208 -0.07195848677831027 0.3749830643840707 -0.1520748550127544
2284 0.9301463855466722 -0.11710094945848155 -0.270872931070299
2286 0.40492243149290635 1.0385651549848587 -0.4046131884300424
4175 -0.5137215805172847 -0.16119439852946796 0.26479994104655985
4176 -0.4494257453906665 -0.01152800749063574 -1.1490093783772095
4238 0.29974712314033203 0.13686081536899813 -0.07804141259244611
2216 0.35789039382940196 0.455417663941501 0.26328165065618103
2277 0.5093009183525571 -0.46064048377150196 0.37144820983591215
4181 -0.01528834593073193 0.30806601221098573 0.14810202505856265
2280 0.5421047691072176 -0.10467537396878464 0.6839528441340796
2351 0.07848032030945634 -0.08567346435271642 0.916900221179897
2352 0.3448277547771005 -0.45760397172864836 1.2960848857095733
2353 0.4704203790073566 0.5716161082014584 0.3382849301282624
2357 0.18131402364928462 -0.5046736217497074 0.33548203968539425
2359 0.8000210884247663 -0.6935588447895945 0.4744276435742537
4244 0.6691484392435798 0.5099530510282919 -0.43689279853620755
2354 -0.4432603465490195 0.19341564940842507 1.420215247454398
2417 3.17930123675573 -0.8833139843692654 -2.466943771365812
2419 0.23011109180052547 0.6438302250101192 -0.00524977422824203
2421 0.10555038995603641 -0.6151694872058768 0.7607684386426274
4134 -1.3012187898575533 -0.7413098016052755 -0.3063421963439682
4191 -0.7353443480621038 -0.41712812650225517 -0.34177074915802763
4192 -0.20766533446264598 0.4369505636933589 0.14473771969724697
4256 -0.21389613248535522 -1.0720694226731369 0.2504405643316984
2494 -0.30218680348647997 -0.5067927608771604 1.229882311843718
2422 -0.9693380795640452 0.7857255915792926 2.6601434569837252
2553 -0.05326746303123922 0.04921672531400687 0.2437907636972914
2482 0.05476570949372922 0.3172954781231863 0.5091995038584709
2557 0.2442643694912789 0.11935283763560436 0.7659667569629716
2558 -0.35880072343780184 -0.133078060916946 0.5698842292559523
2563 0.064764266676664 0.18678338608731765 0.1354311952745254
2629 -0.15094079382957562 1.7258755515495803 0.5932254822247319
2634 0.12239547103210496 -0.131127309778579 0.3944905492266118
2636 0.6233235504958258 -0.9143189302082787 0.8051378968835855
4273 -0.18445351214546496 0.39486587578895666 0.21670196649383477
2565 -0.04375367557258024 -0.39649998044295165 0.7972698900760863
4272 -0.04921966552292866 -0.15699976407840907 -1.222517843747298
2559 0.17545172164636894 0.39413705795444365 0.6166286831304109
2628 0.1164011294260826 -0.19256479276319138 0.11281660434823249
2631 0.21141711542445527 0.30900718678690486 0.14834245722591374
2707 0.15539264996440685 0.28856770508424895 0.45260428747918513
4277 0.30738093691054164 0.11411697198643321 -0.32523910167087855
2709 0.08654731454724282 -0.26516198215735376 1.1912562439069951
2632 -0.5557837963115171 -0.011547889107440779 0.4555511234018461
4222 -0.34580063297968844 0.5021287274783152 -1.0114462170883396
2769 -0.8106482220197598 0.526004499470854 -0.3595743579060414
2775 -0.6444363782604687 0.2425769299707058 -0.1773988479498751
2781 -0.22448067827236037 0.40767992847989476 -0.28378874123089254
2849 -1.4608779119951183 -1.7898720615439379 -0.09006302340503805
4212 -0.49199897518035735 0.16555688024643883 -0.0011820864416056797
4218 -0.09831774019909317 -0.32877489370815843 -0.5281531481279369
4219 0.034104716774605776 0.08021951842455662 0.05495612936582707
4284 -0.4144643022461485 0.5811693559296456 -0.31971550807607557
4290 -0.13667097523036068 -0.18238444293810568 0.03447999963169439
2067 0.7355633886280158 -0.4707149700144151 0.7489667295868272
2069 1.7888113871425941 1.2725133419655499 -1.1360458496688686
2857 -0.79709573508435 -0.18763214677599305 0.13751372246009927
4108 -0.014481385625210482 0.17871310136542712 -0.25991569707035145
4227 0.22434568121888626 -0.28019167560290537 -0.7900417281699859
4228 0.29194680911125687 0.40966176410087946 -0.6226251053175988
4302 0.6206949531249202 -0.5445204779276225 0.09473019470778425
2070 -0.48980813041537274 -0.8471916741858126 0.7991160882804759
2148 0.5519443556082407 -0.562106450790947 0.46927924162159884
2225 -0.18052844032029822 -0.481703104792689 0.08216344374860955
2227 -0.7490927347162133 0.057939026636372 -1.0890204387675513
2229 0.577093540404772 -0.018070496469946597 0.15272449558749943
4170 -0.5906264858729898 0.940999709766889 -0.7000195823228181
4171 0.02094430344010472 0.33516764380231484 0.026770900996045604
4178 -0.1383760158443294 0.32877883261708096 -0.26851048351055523
2221 0.4028694951810462 -0.2703754270970341 1.7917430345941678
2155 -0.08926849176807569 0.027564967036488447 1.4105617195012203
4121 -0.8353087178093429 -2.7241793839874013 -0.4146999710369857
2289 -0.2612455287752193 -0.0970033910324718 -0.32059893255714844
2291 -0.5611449862163992 -0.027488305820139978 -0.3410987343000652
2366 -0.4574592802143222 0.6739178177848675 0.9449143986354611
2371 0.1472969737804689 0.46376099133390625 1.50486416551444
4177 -0.3928380706246479 -0.08794037792536416 -0.5240382950426327
4182 -0.6114448134506693 -1.070043007896219 -0.1047824702332706
4188 0.18864605523649863 -0.4506245817646734 -0.8073803109900284
4245 0.5105626162985417 0.8782949509145043 0.08321823674468637
4183 0.6235462962680622 0.4554329265552081 0.006769375613695189
2296 0.45792796222774423 -0.2426887307397321 0.07391424719392295
2372 -1.2593604271016738 -1.004830022345414 1.5139057276034444
2292 -0.08997013252342594 0.44200040911752675 -0.3713417982147247
2360 0.461136226882943 0.21836070399902108 0.6538793365340004
2365 1.0383496016494989 -1.3346432127766912 0.8692401875354965
2368 -1.6559013063649324 -1.7793506410300055 2.3198845307824567
2427 0.006130198378770576 0.04388128707002845 1.6536030093686167
2428 1.1452361184567954 -0.024115156044700655 -1.689856208096923
2432 -4.607623709822763 -6.888789393847039 10.065695433689287
4260 -1.5388659849294115 -0.44156796803716136 0.6298135560889309
2493 0.18044972884626953 -0.39404975607585957 -1.0656873926759198
2500 -0.21084314653163916 0.09218223549683324 -0.5209095010285211
2506 -3.274817596158584 1.2169258293170377 -4.116851834565422
2572 0.5282470257473161 0.9000025907742647 1.7534918020808077
2574 -2.399982407826377 3.9132190693404576 -1.8851388580671395
4193 -0.06082857774902128 -0.01752755138814626 -0.8536936883802239
4199 -0.8655899080817633 -0.15180941524252087 2.2275090118203456
4266 0.043779856791899836 0.23179835283980782 0.25896356622719235
4267 -0.07771954801980699 -0.650718988940842 -0.6659478573595559
2507 -0.4271551108680562 -0.09347173971841326 -0.6139832042179801
4205 -1.1144122781806896 -0.936943250656591 0.5057068347059147
4198 0.036743601427625526 0.47686587920205553 -0.39662613109826705
2564 0.22055934026007173 -0.12087311181017825 0.5844209215240694
2639 -0.22417309356899764 -0.22210367884581458 -0.03861898915330957
2641 1.6688782208460111 -2.33951380613971 1.5281718955074888
2643 -0.2246417420938583 0.20315770956163084 -0.06541238411744617
2645 -0.001496044034203038 -0.03894933081314847 0.5004730908519743
2716 0.5322714211848665 0.2762090842142684 -0.25057238942159177
2722 -0.0866229238567249 -0.6370261784395356 0.4221644816149107
2724 1.0021622859952004 2.9626688943005877 -1.057188718683068
4275 -0.49691669374455516 0.38562929868103646 0.06949678688717287
4274 -0.1911994797172418 0.021421666886293402 -0.45488822594130635
2708 -0.18738922719477075 0.3108168869443717 -0.920555093787784
4278 0.7476364671216801 0.039315014924894566 -1.223790009199919
2714 0.7542847762619956 -0.8930949740372108 0.245036366720741
2717 -0.3318688576693658 0.7578910575396771 -0.10116885096442782
2785 -0.19225164439073905 0.04464005345089522 0.6367120049570613
2791 -0.3121614405863578 0.2804585004620943 -0.5613309163563432
2865 0.016516728171099275 0.030661392670679424 0.3337206227582194
4153 -0.6265700789099868 0.211394071683919 1.2216092475551847
4220 -0.7572195296945661 -0.03407198669287034 -1.1674397094599271
4285 -0.7354390342027907 -0.14469478251020135 -0.20633358305109212
4291 0.6598926810873427 -0.00807705721638229 -2.1186360865629608
2793 0.4102571981339627 -0.046760360048547764 0.7418572274156318
2783 -1.3991281682212966 -0.6416538830927772 2.1317690623423715
2854 0.24545642285978603 0.2948931943825945 -0.03991954931414737
2855 0.43017900336437753 -2.3509739665145664 -0.5949562980616226
2863 -0.26582273303549575 0.020657233788609536 0.8372973482384004
2858 -0.313101561514219 0.20073351211945897 1.0642242330332556
2867 0.16432344235314844 0.02289670524477974 0.8216655676850565
2082 0.027915391865449102 -0.041679566277109344 -0.29369917154967606
2087 -0.5203222148543449 -0.37934626601791754 0.2971394011810878
2089 0.3208050508241627 -0.3578084386948501 0.23657667732819584
2091 -2.413726530382765 1.971834546462517 -1.046555779015893
2874 -0.09808987514163461 0.22098541538056515 0.013988553182624675
4296 -0.23831322726153456 0.026462193629758993 -0.003059378248288729
4295 0.5137027594864478 -0.43280391652026295 0.07899265649835527
2080 -0.36990693594330576 -0.21587802306181936 -0.273734285740069
2083 0.740960990580328 2.1071750255448936 0.4652205904501087
2162 -0.20859705169670364 -0.9836637356849743 -0.8815958519899325
2241 0.038637025235986534 -1.7999308848941338 -0.8016354874690877
4109 -0.2730588135516531 -0.3075984549541883 0.6118139204373919
4172 -0.08939232032746419 0.14794908401642146 -0.055356406276413604
4173 -0.8527795134810342 -1.1463742880845813 -0.07282048316552048
4229 0.13886512648912447 -0.2633883024558778 0.005854338630986931
4235 -0.6163246320449566 0.7975072462084256 -1.0748509546984626
2233 0.8926324365086529 -0.7746605679957583 0.3298572356676031
2234 0.6654948920127934 0.8873991102460609 0.4697651739790122
2236 -0.35721737923646035 -0.5932494562163967 -0.009223621260894675
2239 -0.07637942854641694 -0.026291166822471967 0.554528585323602
2299 0.5431719556133346 0.21404298271694053 0.029374541817856026
2301 2.6326627051084976 0.470468984975735 -1.792353514484812
2303 -0.8054846462511306 1.1088040229872527 0.784130050592597
2305 -0.9568109217104612 0.4027588526422733 -0.7290039737785897
2384 3.8132436755467554 4.933085871793848 -4.54656737178501
4062 0.7760420241338419 0.23926320324739186 -0.4079598089513455
4239 0.10661627020890682 0.22219870352068294 -0.4868827883363948
2307 0.9552942438810821 0.827755480799721 1.0243689970235286
4247 0.05315106786335457 0.1237619164408262 -0.1619149996013137
4128 1.8912295247791204 3.010922961609256 -6.6307468825480305
2377 -1.9662112471726059 -0.7418322939935609 2.318305456698346
2379 -2.9991901185219594 0.8202285186078889 2.852768353530322
2383 0.8372222180282238 0.12495651528631087 0.254689244592346
4246 0.0857078509156741 0.01367974179214186 -0.03402181182931462
4253 2.9236463161916255 -0.18572021714704515 -2.1391139036598497
2380 0.544474075327518 0.19988950431661082 1.9152021195883795
2440 -15.137398975270953 -11.04873224080954 -10.36807241935938
2515 -8.772859319653634 10.781560150389458 8.270170538340384
2437 1.1945707564874453 -1.029326674764478 8.169060169174351
2659 0.4565210264353126 -7.1766509036873 9.522587888097272
4143 0.24732864584875197 -1.211300765179106 -3.711300260008354
2581 2.320394485382827 -0.8405178751181032 0.5793630368875776
2523 1.2398220438132777 -8.446928116647367 -7.969592552770168
2580 3.140346614951482 -1.1738213106099997 -0.3209482857854788
2583 1.0188208318442673 0.1705139832415403 2.2920315705303054
4200 2.7951566895828495 1.7353486013694306 -1.9690157695940393
2584 0.2621476940271584 0.8025108010406911 2.225748786715792
2662 -6.315657114345601 -6.633455551411649 7.651758542539531
2586 -0.381328403815104 1.1199370469269205 -1.8109844826135564
4276 -0.09382359729274255 0.3729532435737808 0.13975851121312718
2726 -0.35933412255828345 0.29689279650651706 0.21282143976434698
2661 0.037750662102867774 -2.719258990226363 -1.2894105623052066
2729 -0.0075034717593231645 -0.047261210349134726 -0.015400681034044324
4155 -0.20582671772211764 2.8629703210602577 -1.277674017882376
4208 0.7888536833807841 -0.21850860259833568 -1.4893199242403248
4213 0.05656427255532478 -0.01624078978527822 0.11132809348564053
2802 1.4614538042789063 0.2833927373275766 -1.1646591471221157
2795 -0.5454010238317802 1.1055846066150081 0.42927908382837077
2799 -0.07390452237785235 0.027420687181271528 0.6862291287031068
2871 0.2637539697744883 -0.14996452595294324 0.5328536381613413
2872 0.33087582813293903 0.867343384273038 -0.052284917604299305
2877 -0.47289435030615845 -0.16384160715059962 -0.08760980283115122
2879 -0.32780977393632454 -0.5128873771217616 -1.3532127670941805
4221 -0.01726463011921804 -0.164428193073271 -0.15639163069309533
4292 1.0154508176139476 0.5995425852325467 0.3976931755917448
4293 0.03481016514816403 -0.17033871842468779 -0.8761915395633081
2886 0.0968192085091786 0.12574436855017138 -1.4337797844514095
4223 0.10007982209899073 0.40219731174872236 -0.21709359379215934
2098 -0.9204252491866424 -0.4212180699690224 0.49442300201319983
2171 -0.8472134657453902 -0.05314295528818768 -0.02256484316176523
2173 -1.4668843966980996 0.707323840609152 -1.5695164168751703
4230 0.1351428410936387 -0.09801572454588386 -0.005676998717456937
4231 -0.06423192169248121 0.2352859146206481 -0.00826350969562732
4232 0.3260162355026672 0.37203266464192847 -0.09822130027784931
4297 -0.006163112608201932 0.0030232317931929314 -0.6650205710264803
4304 -0.14424401309841886 -0.06599388660675387 -0.23189532205425856
2175 -0.13509200856726702 -0.28174196188902145 -0.3080968631070283
2104 0.3905414737388473 0.13831066128280167 0.5417476607712435
2163 -0.43599235810938475 0.6300759672487791 -0.3425377078417017
2247 0.23497233157036237 0.45481149229017176 1.4005853069721879
2253 -1.153609499222072 -0.391769296361795 -0.23975742138016298
2320 -0.6485993978241809 0.08627413235599207 -0.622790637867932
4114 0.12328334746220518 -0.6214848439374091 0.19123628521815061
4174 0.02114394673036977 0.021145380879966712 0.062657261976046
4179 -0.4090322088588945 0.3891160891368629 -1.0802767548416181
4240 -1.0793694974594485 -0.06957901006401689 0.1267140488521007
2256 0.035987268684231445 1.4851601685057318 1.5052130930249221
2249 1.461805470929235 1.4356917338065174 2.4962021473081717
2169 0.4743672751825483 -0.5955566134537649 0.5560377585676518
2242 -0.2748322931186395 -1.6170258051762838 1.6953349123161465
2312 0.8469992857900999 0.30204579544925 1.0875258555158482
2314 -0.194599364239933 -0.9785328648610673 -0.7647907263579172
2316 -0.08298817392773733 1.0519811116647717 1.007647478920833
4184 -0.7088646546532771 -0.2539990459007219 -0.3172845890851325
4189 -7.175539311191009 3.4726249239077798 -4.340534113719326
4248 -0.9851905066678042 -1.2501951487433351 1.801342274168022
2389 -0.48562297468278603 -0.11717668093926661 -0.7849906397876735
2388 -0.5451081618674293 0.2834867211495172 1.5581612544556251
4129 -1.2506241480903635 0.08767433573349766 1.9553134741264804
2390 -0.2338020710870876 0.7763551178492221 0.757707860531792
2317 0.10772601150270471 0.006119266059006928 0.48055132674931844
2393 1.0994962794426546 2.265475719758821 -0.8246729547673464
4268 8.655806197865394 6.778218750895905 7.704304468983819
4341 -0.5301850069437862 0.09213675121759236 3.6683763916466052
2739 2.904815029973675 -0.040174725956497924 -1.085592464226169
2801 0.6660246985321441 0.11012753884475239 -1.9576854005135502
2805 -3.2738873583621233 -0.2896804550753851 0.06466198390187798
2807 0.874678855541344 -1.4292171804370417 -4.8081721405790985
2809 -0.8560572151644942 2.1780517754663857 1.7112572854947292
2812 0.2828843567728343 -2.2783974919457215 2.1584851023900558
4224 0.27407085722718455 1.0723772192452976 0.6724551034819896
2884 -4.0781488493490485 1.1606825293954939 -0.9464983591255308
2883 0.12444203512800729 0.15020446951711253 0.13840062350157187
2113 -0.11455430350917872 0.23980271963549454 -0.8286495800207282
2899 -1.5269205922842193 -1.594970287793882 1.9127795195698745
4168 -0.2544450961871061 0.1168477864835397 -0.36564365927168235
4233 0.7725288099338121 0.47150369425383754 -0.4174236628624722
2891 0.24148462142991245 -0.07555475441703796 0.3205073422072591
2114 -0.9643645769076171 1.080405439622059 0.21738119057051422
4113 -0.04538247244044385 -0.23375638152466283 0.040156979968561005
4167 -0.20269582336789452 0.6266065814277074 0.1110188394231326
2174 -0.07102415325946418 0.8464677480226468 0.37833949582239124
2179 0.4736075575818637 -0.5277650889450177 0.4964507410063343
2186 -0.37246513907321144 0.941273780826034 0.5373898038961615
2260 0.5942340270338005 1.0041444417483039 1.5260150953989435
2265 0.5209479140403805 0.04743124704344328 0.49439747671717343
2267 0.33471487924844306 1.6677518373900377 1.3652878704685147
4236 0.32771829723035945 -0.5361717450232337 -1.0233090189142022
4305 0.38817265893766073 0.6017526622733864 -0.30012617663758634
4185 0.9886727708790164 0.4276316304487142 -0.6135147763207273
2255 -2.183783707959529 -1.477719245301597 -2.3130945483108416
2258 -0.02137247112871798 0.9166506894678446 0.5151932910116219
2262 0.4523050070768297 0.5985756064547071 -0.027745978393084906
2326 0.4102612537070101 0.24205320874037592 -0.04600422672664469
2328 -1.071595993272514 -0.22601963959192276 0.42792085918815714
4125 -0.17855348483768174 0.33047504667484706 -0.7065729345942736
4186 0.5612544977647811 1.0388374497848631 -1.09085415465587
4249 -0.037966426408402726 -0.3488617073174379 -0.47595466944517467
2332 -1.0646119068918338 0.32010034918608543 1.561272478212438
4241 0.6230877599669922 -0.848519277533388 -0.35981201272287333
2263 0.23464442735521865 -1.3521791787441058 1.1946046311404803
2401 -1.317326279503364 -1.0234573209412903 -0.0652077736211616
2464 0.5824610858571856 0.5915961694218449 2.5337949187601754
2465 -3.073429372846143 -2.55532829495278 0.4847336777757356
2471 1.2044844082967927 -1.86567109001628 -0.45940434935310787
4190 -0.0226905060691099 -1.4034880217919896 0.4856866701190527
4255 0.11259820805944347 -0.9696715646733706 0.4337991744280489
2538 -5.215379435920271 -5.230536282191416 7.704682306512272
2402 0.5439048506671196 0.3851781679819641 0.6345994324689868
2474 0.5870309843133376 -1.567536519041298 0.49809923361177033
2468 2.3930382822941216 -2.453966228934689 -4.3903275418004375
4139 -2.6929291693327713 -2.6095816569776957 -0.27155164398249265
2467 0.9809267608751293 0.1803313934943955 -0.6927524743944743
2536 -5.688067179959156 17.172574099963114 -4.968013055343364
2611 -3.1537501101027567 -5.026605022531678 3.735836507711086
4196 -0.6753238104034367 -0.2721408533892065 -0.7521078676646344
4263 -0.9215536546212024 1.582753954383187 1.190441084114105
2533 1.3419562840516046 -7.144066681628676 -1.2340781205745919
4211 -5.076556016080788 4.593487430019241 -4.253355105978258
4150 -6.686734409578139 -4.417939480378749 -3.3562601937469965
2613 9.374233110994684 -6.257396656626488 -6.714301680411227
2691 1.2466757160743918 10.276965569804743 -17.782258443987683
2819 10.508015940632673 -17.376245118965514 11.913578259896473
2824 -1.1991309692316687 -2.413205324099652 2.4000673245157564
4288 0.7800234091071894 0.11220586595263728 -0.5837343956908279
2751 -0.9590276235830766 -13.057803625882304 7.788929789111207
4286 -2.3335739552792796 -1.5544810897658445 -2.7223739288638082
2817 2.910936590676852 -5.153217631442357 -0.11566258812701478
2821 0.5140725983365267 -0.12463848796499805 -1.5730563973868017
2896 -0.6108691612021607 3.080956195937299 -0.5600418671326941
2898 1.5120156058812089 0.19472611268391732 1.4917302125004723
2903 4.810198679941936 -3.4349656327098876 0.1681775156122865
2908 -0.47727102038577335 -0.10531488577347885 0.9334997365828788
2120 -0.15955563862421848 -0.3595987815624239 0.6477332847508713
2128 0.24309856207396763 0.6743625351075629 0.34348367748535535
2278 -0.24819780137711783 -0.37109998911802183 1.3124149779623688
2340 0.18459777263936955 -0.32141481496740015 0.4666547925436818
2483 -0.7325428770699706 0.18176457006639465 0.9556686251921883
2622 -1.683861248657875 0.2550398580595091 -2.264754475643763
2698 -0.7131652245113069 -0.7593151927102294 -1.056730336328607
2144 0.4212645442183533 0.7208112140789069 1.2074343639621705
4301 0.0857428328524256 0.9925688397694165 -0.31535527585859285
2137 0.24730098517997512 -0.01267646434573787 0.7025564739304402
4237 0.34348141742186555 -0.45075248993370304 -0.5578837775669099
4252 0.1396156551498193 0.10379393994819887 -0.4573973711480758
2852 -0.22684742132944094 0.23887181851121306 0.5463381670922784
2844 0.27277317735375334 0.6133156980480287 0.941996772415731
2149 0.49212819852597395 0.19795625572783748 0.49536900742232465
2230 -0.19524707600180166 0.5546258644507105 1.5195974422416922
2373 0.3672769021425919 -0.35271075109124267 0.5418856818170397
4258 -2.546209411131975 -1.3172635279947973 2.3129423710210304
4257 -0.1503819637050008 0.1695508316362393 -0.05156629716335236
2501 -0.3550152752972431 -0.1895836791653381 1.1261885681965342
2508 0.4437177204062244 0.15154367867246288 -0.4872806118098363
2786 0.12420411545274489 -0.07304126578557335 0.6227606769930663
2092 -0.17037730513178065 0.04683253763160921 0.31796182033136383
2164 -1.5662670484845438 0.7616236664276734 0.36956218632347143
4303 -0.15373591574035972 -1.1941197287816407 -0.04322189052291057
2730 -0.08704777244707432 -1.4353419532978577 1.1330149362160438
2736 -0.9159605110214548 0.33743277048205483 0.9918513581867711
2875 -0.24194218004637327 -0.12568474326180876 1.2361403708867167
2810 -0.10551693616981861 0.3037917657503304 0.8452929554001517
2892 -0.49788628810023117 -0.21772741647531182 0.7859978044503296
2887 -0.47415781304217297 0.09637110378335859 0.5159922950083466
2108 -0.15676264628840872 0.21085900819043008 0.5187973402693437
2181 -0.3644950748490971 0.5499860328802793 0.05968043777044162
2826 -0.550489487135633 -0.5883498684592784 0.7483895191097301
4287 1.002532137944272 0.3286659890346032 -0.4352826821495384
2900 0.9184099609089952 -0.6386873704891327 0.5382232292896889
