LAMMPS data file via write_data, version 30 Sep 2026, timestep = 4000, units = metal

4343 atoms
4 atom types

0 37.28597486102 xlo xhi
0 32.290601434511 ylo yhi
-10 100 zlo zhi
-18.64298743051 0 0 xy xz yz

Masses

1 47.867
2 28.0855
3 12.0107
4 107.87

Atoms # atomic

2 1 0.03164569620000002 1.7473227802 2.060172476199998 0 0 0
3 3 1.1638999270000001 0.7955488483 0.6109038571999967 0 0 0
9 2 -1.483562725 2.5923322781000064 3.8558349945999986 0 0 0
90 2 1.519023372899995 2.9154854454000088 3.7295821013999984 0 0 0
2969 4 -1.0626214355000003 4.7187361273 2.257858491699997 0 0 0
3032 4 -2.2169102255000004 4.40833075560002 4.9634680177 0 0 0
81 1 2.855346163500001 1.0243127964000032 1.783477745999999 0 0 0
82 3 4.732023700100001 0.8858499638000024 0.9171016393000002 0 0 0
2909 4 3.642818147 3.0939985453 2.1819606820999997 0 0 0
2910 4 1.7401789480999996 5.040046469600005 2.3127014441999982 0 0 0
2914 4 6.2947130764 2.4921079354 2.3534615557999956 0 0 0
2975 4 3.3728361956000006 4.0066235206 4.735087586399997 0 0 0
170 3 7.6728844084 0.8326752832 0.8780570372999978 0 0 0
250 2 9.4608650689 0.3626176511 3.8977363381999997 0 0 0
251 1 9.008217930700008 1.9361728674 2.0127068619 0 0 0
255 2 7.665259484 2.694287669600008 4.1263759524 0 0 0
256 1 7.561520459099997 4.4815472256000035 2.039605577099996 0 0 0
257 3 9.332381394800006 3.6118070787000063 0.7903352302999984 0 0 0
351 1 10.667920308900001 4.6654503125 1.9894523697999968 0 0 0
356 2 9.1038331443 5.2562894618 3.8438638423999993 0 0 0
2921 4 10.82148071190003 0.06204456620000023 2.131134870799997 0 0 0
341 1 11.9146352167 2.0352330904 1.6728343411999997 0 0 0
342 3 14.116058266200005 0.9588784144000014 0.6616609940999965 0 0 0
352 3 12.4824309653 3.8168714894 0.7831009480999995 0 0 0
444 1 14.038139364900003 4.053050230500008 2.3061954998999994 0 0 0
445 3 15.584860514500008 3.5145789198000075 0.9576766050999979 0 0 0
516 1 16.870930701000006 4.773005839800012 2.134309182399999 0 0 0
2924 4 13.549957367900003 1.0205128038 2.8384087855000004 0 0 0
2933 4 16.2042772719 0.6939663257000016 2.3166954460000007 0 0 0
2992 4 12.0281898964 4.1608410764 4.715711417099998 0 0 0
2998 4 14.854715588100001 4.0870217659 4.858605840699999 0 0 0
3003 4 16.251109792100017 1.7474825347 4.829093056999998 0 0 0
436 3 17.4075710282 1.0073186097 0.4414903775999992 0 0 0
511 3 20.271103269800008 0.9115097132000016 0.9219647829999964 0 0 0
517 3 18.6977196514 3.649391799 0.8675315855000001 0 0 0
596 1 21.6285616728 1.7984287789000084 2.229481161699999 0 0 0
603 1 20.17281067609999 4.4686764949 2.2000295892999997 0 0 0
604 3 21.7501520023 3.5878446038 0.961352012199999 0 0 0
2934 4 17.818440231500013 2.8386543234 2.7847011469 0 0 0
2939 4 18.8906061069 0.34022304990000013 2.6043318078999995 0 0 0
3006 4 19.1778624783 1.7541144128000095 4.9166324267 0 0 0
597 3 23.2209749071 0.8477134577 0.8818106856999961 0 0 0
693 1 24.5554938188 1.7893925657 2.154819935199999 0 0 0
698 1 23.2830575369 4.4723322421 2.203884056199996 0 0 0
699 3 24.857316574 3.5878446038 0.961352012199999 0 0 0
777 2 24.757126294000017 5.338102671900024 4.023736899500001 0 0 0
2948 4 26.555032981700002 2.7021410205 2.6356872285999984 0 0 0
3010 4 22.0369671935 1.7111258879 4.850445012199998 0 0 0
3018 4 24.761001187200005 1.9751569807 4.919979897599999 0 0 0
3019 4 26.413065120600002 4.1414381205 4.9662657006999975 0 0 0
766 3 29.45313990570004 0.9359180560000031 0.7999548612999998 0 0 0
849 2 30.7238642604 0.242275738 3.959814579599998 0 0 0
850 1 31.3273035155 1.7892825772 2.0951611587999963 0 0 0
859 3 31.084615332600002 3.5448117679 0.9153784082000005 0 0 0
2953 4 27.5947923723 0.14374905 1.8899258660000005 0 0 0
2954 4 29.2760114133 2.6245762954 2.5153058287000007 0 0 0
2955 4 27.794957066300007 4.9848854001000165 1.8135570968000003 0 0 0
2958 4 30.6211020158 5.030785320300001 2.5400439144 0 0 0
3022 4 29.387586128800002 3.9750022534000116 4.936226725399999 0 0 0
3024 4 32.1025387618 4.1717254763 4.815546297099997 0 0 0
851 3 32.4670838484 0.9628747140000026 0.5318893727000003 0 0 0
952 2 33.65139491819999 0.5724434707 3.7762019129999995 0 0 0
953 1 34.2572886682 2.0747273986 1.8761132165000003 0 0 0
2963 4 33.52566714150003 4.9974814469 2.5205776422999993 0 0 0
24 1 -4.512137476300003 9.8732230722 1.9088460573 0 0 0
3033 4 -3.5601909624 6.7725204123 4.789009641799998 0 0 0
16 1 -3.1071645718 7.1756892076 2.2291625893999996 0 0 0
17 3 -1.7297240774 6.282008566 0.7835270045999962 0 0 0
25 3 -3.100649598200738 8.8433014961 0.7974431873000007 0 0 0
96 2 -0.0687399258000001 5.520836716500024 4.110244538199998 0 0 0
97 1 -0.026230423700001282 7.142647275700031 2.2122917101000006 0 0 0
104 2 -1.5535822859000001 8.072650358800013 4.1500103403 0 0 0
105 1 -1.6120625013000005 9.8443657223 2.3104928322999996 0 0 0
106 3 -0.2169869868999994 8.7410316398 0.45997805120000024 0 0 0
189 1 1.2218223069000018 9.716054487300024 1.5857716034999996 0 0 0
184 2 3.1241454772999844 6.032861946900036 3.7890376855999985 0 0 0
190 3 3.107164571800004 8.969611509500021 0.961352012199999 0 0 0
260 2 6.175314834100001 5.483675565 4.135817227099999 0 0 0
261 1 6.254612101300004 7.3113699925 2.2325835597 0 0 0
269 1 4.980847700499992 9.941595564600018 2.053627054899998 0 0 0
270 3 6.31948365519998 8.90141542920005 0.8643701508999975 0 0 0
2915 4 4.9239926477 5.4972986344 2.2659222609999983 0 0 0
2916 4 2.9425619740000046 10.635694266300055 2.7064042288000003 0 0 0
2983 4 3.417335475500005 9.043395307200054 4.8658962350999975 0 0 0
2989 4 6.1356344443000035 8.856245961200004 4.873474505899999 0 0 0
262 3 7.695408787699998 6.293981327400014 0.8405107306000001 0 0 0
357 1 9.178633629300005 7.180958176500015 2.1532606239999996 0 0 0
358 3 10.8845990243 6.3966386149 0.8739748119000001 0 0 0
364 1 7.904932752599999 9.817241407 2.136393875299998 0 0 0
2925 4 11.248602420000001 7.9531332422 2.5803671198999982 0 0 0
2926 4 10.3041795452 10.4547777709 2.0568489343999996 0 0 0
2993 4 10.3133195358 6.8419054641 4.885719662099998 0 0 0
453 1 12.812397553299999 6.62976241720001 1.6499188029000003 0 0 0
454 3 14.3204857037 6.058755101600007 0.35073690699999993 0 0 0
523 1 15.562682822600001 7.3864613915 2.310165108499998 0 0 0
530 3 15.534394112700006 8.967078675600007 0.9617035077999994 0 0 0
537 2 12.1252941414 10.7528878096 3.9050049268 0 0 0
626 2 15.5224159488 10.6879087297 4.027170127699998 0 0 0
2935 4 13.5227987026 9.9109479895 2.3556120899999993 0 0 0
2999 4 13.5668844669 6.479612596 4.655550981000001 0 0 0
524 3 17.1869046573 6.2916535128 0.7621401278000004 0 0 0
610 2 18.6429874305 5.3817669059 4.1500103403 0 0 0
611 1 18.479060308700014 7.2193025501 2.088056334599999 0 0 0
617 2 17.209662429100007 8.2057438167 3.9985180049999993 0 0 0
618 1 17.0217190141 9.9213111814 2.1747484411 0 0 0
708 2 21.6172235099 5.4847988307 3.9650985604999995 0 0 0
715 2 20.134366210900005 8.0349632286 4.3592152013 0 0 0
792 2 21.7224623645 10.7615848475 4.0850641375 0 0 0
2941 4 20.701798467100005 7.533469115700008 2.240483532499999 0 0 0
2942 4 19.2470115027 9.9953528069 2.498926127899999 0 0 0
778 1 25.44222520480001 6.69611461590001 2.0436499018000003 0 0 0
783 2 23.299295635600014 7.9566993897000025 4.3263396782 0 0 0
784 1 23.1809123082 9.9136551789 2.2376220635 0 0 0
785 3 24.7872758162 8.932995587200022 0.8251662404999998 0 0 0
875 2 26.410898859899994 8.072650358800013 4.1500103403 0 0 0
876 1 26.16907513030001 9.7420704895 2.1382850864 0 0 0
882 2 24.8642749786 10.6386350222 4.069080191099999 0 0 0
2949 4 23.418865548200017 7.678811781200022 2.096770004999996 0 0 0
867 2 27.955768087000003 5.4677911338 4.005232662099999 0 0 0
868 1 28.32151880330001 7.195177912100037 2.2258361943999994 0 0 0
869 3 29.583229539600005 6.2325633949 0.8955309169000003 0 0 0
877 3 27.796580009800003 8.824728333 0.7720274770999964 0 0 0
963 1 31.248310647900002 7.1667777457 2.1505323574999995 0 0 0
970 2 29.474772507600008 8.1364919902 4.2303898019999995 0 0 0
971 1 29.077297014100004 10.0126242675 1.934241299 0 0 0
972 3 31.053535177400004 8.8983048134 0.8198985072999996 0 0 0
2964 4 30.935252680700003 9.9664083013 3.2024544817999967 0 0 0
23 2 32.40395252810002 8.405915438000042 3.984471017499997 0 0 0
964 3 32.641375886900136 6.282622448400034 0.899176526899998 0 0 0
119 2 -4.6069336274 13.439971124400014 4.196327461199997 0 0 0
120 1 -4.522366009900005 15.067918647400043 2.1362337666 0 0 0
127 2 -6.127860810600003 15.943988304700014 3.8359954935999987 0 0 0
2970 4 -5.304899532400003 12.44647553900004 2.3020439509 0 0 0
2971 4 -6.89287404630001 14.706477920900026 2.1196555813 0 0 0
111 2 -3.112310655 10.7664316047 4.080620320899998 0 0 0
112 1 -3.0301030114000005 12.550384746900011 2.224335652999997 0 0 0
113 3 -1.5535822859000001 11.660494962400033 0.961352012199999 0 0 0
121 3 -3.0382060623000013 14.3162816246 0.9031223148999992 0 0 0
203 1 -1.5535822858999992 15.248339566200002 2.2291625893999996 0 0 0
285 1 1.5357626224999965 15.237443202100028 2.207554998899999 0 0 0
2917 4 0.5296424052000006 12.45172371890007 2.4585267471000005 0 0 0
2976 4 -1.1022758285999998 11.6964633146 4.624013608699999 0 0 0
2985 4 0.19699822260000133 14.091436360000012 4.609089904499998 0 0 0
277 3 4.659290475699999 11.6681630768 0.9564404802999995 0 0 0
286 3 3.1071645718000056 14.351378415300047 0.961352012199999 0 0 0
372 2 6.219001689600002 10.934274376700008 3.9976432304999996 0 0 0
373 1 6.214551801999979 12.62181499770005 2.1557539205000005 0 0 0
380 2 4.614262079700003 13.4693854173 4.068229987900001 0 0 0
381 1 4.6607468575999995 15.248339566200002 2.2291625893999996 0 0 0
389 2 3.0271444133000056 16.1343917 3.9979642452999986 0 0 0
475 2 6.1959023367000015 16.0598055951 4.188972956099997 0 0 0
2984 4 2.0909174047 12.142914994 4.810499912299997 0 0 0
374 3 7.713808447499999 11.665955817 0.8662035690999996 0 0 0
466 2 9.182315661900002 10.9782329548 3.9404704875000007 0 0 0
470 2 7.6668404652999795 13.500658897900038 4.172554797699998 0 0 0
545 2 10.6991090289 13.5057845319 4.095330686599999 0 0 0
550 2 9.1946968505 16.0411334037 3.9473106481 0 0 0
2927 4 8.986221998499971 12.799881203200052 2.4901033501999983 0 0 0
2928 4 7.5952409211 15.142757156700029 2.471791888999997 0 0 0
2937 4 10.566501550300002 15.01887947090002 2.4353732040999994 0 0 0
538 3 14.010669334500001 11.4952977722 0.6912110501999997 0 0 0
627 1 15.4476777217 12.5294948506 2.1334646716000005 0 0 0
637 2 13.607604526999998 13.2916510785 3.6393031536000002 0 0 0
638 1 13.920836561999993 15.233157225700008 2.1008816122000002 0 0 0
639 3 15.541254636800003 14.3543510806 0.953738186199999 0 0 0
644 2 12.371032461999997 15.95725203830004 3.919698722899998 0 0 0
2936 4 11.9398670029 12.6219060209 2.2855700255 0 0 0
3007 4 15.473330465900005 14.1816661596 4.527806236499998 0 0 0
628 3 16.9505858945 11.4786937289 0.6066787779999991 0 0 0
725 1 17.008584529900002 15.1253330052 2.233010331599999 0 0 0
901 2 21.563678753400012 15.912519130500062 3.754593680500001 0 0 0
2943 4 17.657785228900003 12.398545288800054 2.5344343946 0 0 0
2950 4 20.3792387147 12.5322942997 2.5286341684 0 0 0
3011 4 19.19575031540001 11.514999364400019 4.763930260799999 0 0 0
3012 4 18.192402196099998 14.0451748123 4.6384846614 0 0 0
3020 4 20.906339939 14.0776569483 4.878731264099997 0 0 0
883 1 25.258453479000003 12.5404348777 1.9742050944000002 0 0 0
884 3 26.598094329700004 11.5085343612 0.7788823259999997 0 0 0
892 2 23.366973119800008 13.2131806806 4.074704836599997 0 0 0
893 1 23.366610324200003 15.2223362746 2.171120635099996 0 0 0
984 2 26.554773788300004 13.162450166300008 4.0155164363 0 0 0
985 1 26.324653751300012 15.259485286600032 2.180528967600001 0 0 0
2956 4 23.045944927300013 12.156227755900016 2.1145284786000005 0 0 0
38 2 28.091109451300007 15.8469349818 3.8537309684000007 0 0 0
986 3 27.9576045331 14.2500091411 0.7694810132000001 0 0 0
2965 4 29.207291478900007 12.2559055447 2.2327168032000007 0 0 0
3025 4 27.7693319348 11.3905158276 4.703860159399998 0 0 0
3035 4 28.929728724400004 13.8408084686 4.4322412034 0 0 0
39 1 -9.401179807600004 17.736866849900082 2.146951496199998 0 0 0
44 3 -9.276986706800006 19.688717385400103 0.6087131210999974 0 0 0
2972 4 -9.6074458597 19.8653851587 2.846497060299999 0 0 0
40 3 -7.9230044176000005 16.907726451900054 0.7979684496000008 0 0 0
128 1 -6.476470027100017 17.7575039875 2.0119162436 0 0 0
135 2 -7.707460433200003 18.99892584020004 3.9781133172 0 0 0
136 1 -7.6351948897 20.4451672626 1.9318502354000007 0 0 0
2911 4 -4.299006346100001 17.3010629901 2.347793389599996 0 0 0
2918 4 -3.6582778643999996 19.96547671800001 2.2758511860000006 0 0 0
2977 4 -3.6639964157 16.7723852803 4.944232060499997 0 0 0
2978 4 -4.924367563899999 19.805610804200004 4.683275401699998 0 0 0
210 3 -1.5535822858999992 17.0422618681 0.961352012199999 0 0 0
294 1 0.03020100710000051 17.8082093051 2.1865552533 0 0 0
295 3 1.5536409667999997 17.0408943604 0.9588403756999995 0 0 0
299 1 -1.4291362576000015 20.346035034300073 2.2351665183 0 0 0
300 3 0.04015926039999762 19.70865251500004 0.9146314400999973 0 0 0
396 2 1.4816422342000006 18.702580908800112 4.010759032499999 0 0 0
406 2 0.05221915639999786 21.28519746350003 4.012203727299999 0 0 0
2986 4 -1.0247013357999997 16.5097503608 4.320232091299998 0 0 0
2987 4 -2.289732965299999 19.1236233527 4.816786631899998 0 0 0
390 1 3.1599816787999995 17.8699385635 2.207843349599999 0 0 0
397 1 1.7098502877000037 20.413500072500074 2.2066031582 0 0 0
398 3 3.162851812900003 19.7060854114 0.9117657811999997 0 0 0
486 2 3.0780901109000016 21.3234136197 4.1448851867 0 0 0
2929 4 6.187097567200002 17.4736275335 2.380101251100001 0 0 0
2930 4 4.828055719199977 19.926336953500073 2.4890800121999987 0 0 0
556 2 7.678726743699999 18.5585472092 3.6687016012000004 0 0 0
557 1 7.767911429400002 20.630106472 2.2291625893999996 0 0 0
558 3 9.349374742499991 19.771816054000013 0.8727210102999994 0 0 0
654 2 10.897672839799998 18.8562591725 4.114922251300001 0 0 0
655 1 10.885783239999995 20.6076470688 2.1871167111999963 0 0 0
2938 4 9.147739552599969 17.559769072900064 2.2877803989000007 0 0 0
645 1 12.2528000868 17.6618762006 2.0991002384999984 0 0 0
646 3 13.981448384999988 17.041916783900025 0.9607160794999992 0 0 0
656 3 12.240270008099998 19.716631828900027 0.5907090591999999 0 0 0
728 1 15.5291996161 17.6783602473 2.1829682027999997 0 0 0
818 2 15.60581381299996 21.349269269500066 4.133828019700001 0 0 0
2944 4 13.152396906800002 19.6502476557 2.646461306699999 0 0 0
2951 4 15.849861216399999 19.8988896707 2.3530417467000007 0 0 0
3013 4 16.322534558999998 16.7697389607 4.457352952299999 0 0 0
3014 4 14.809367195499998 19.0590616586 4.7271295361 0 0 0
729 3 17.0272147322 17.0203761018 0.9136138776999996 0 0 0
805 2 18.638730558000006 16.2031927769 4.184338502300001 0 0 0
806 1 18.654245867900002 17.548270569 2.080811344499999 0 0 0
807 3 20.129103880100004 16.9831046618 0.7415450725999992 0 0 0
902 1 21.612384096199996 17.69008478890008 2.0018274462 0 0 0
912 2 20.018475528899994 18.790729288000097 3.846523252600001 0 0 0
913 1 20.662934234400005 20.4596236463 1.9737700635999964 0 0 0
914 3 22.005243159800003 19.5286116209 0.7011050347999959 0 0 0
922 2 18.65832411670001 21.4075993113 3.9695673761999988 0 0 0
2957 4 18.570455184500005 19.769496589500093 2.4295719997000003 0 0 0
3021 4 17.834599626999996 19.1572821188 4.985148015699998 0 0 0
43 2 26.226756125100003 18.7913429937 4.188618115600001 0 0 0
903 3 23.2519551511 16.9105377553 0.5243273705 0 0 0
991 3 26.370863268800015 17.022476645100046 0.9279724039000001 0 0 0
2959 4 23.769257720700004 17.53450604680001 2.6232703311000005 0 0 0
2966 4 24.945624545 19.9868962012 2.461482763499996 0 0 0
3026 4 25.0049597267 16.3431240691 4.7393707652 0 0 0
3027 4 23.5012174653 19.162713684 4.8911604397 0 0 0
60 2 -13.9177910228 24.3561716269 4.040517572700001 0 0 0
53 2 -12.3966730942 21.5279681772 4.099904222100001 0 0 0
54 1 -12.578506139700004 23.543832336400044 2.096109639099998 0 0 0
61 3 -12.482324650400004 25.1663691826 0.8129977555999996 0 0 0
146 2 -9.234203442800013 21.6502795119 4.164579841 0 0 0
150 2 -10.850510277799998 24.1176516202 3.9767668978999975 0 0 0
151 1 -11.2725473157 26.1630964484 2.176823590899996 0 0 0
2913 4 -9.3822138914 24.9649092823 2.408096220699999 0 0 0
2973 4 -10.7492397045 22.3244100999 2.5749556339 0 0 0
2980 4 -9.1316882796 26.8225498595 4.3856300371999986 0 0 0
222 2 -6.2043943037 21.538751849 4.035005698599999 0 0 0
223 1 -5.974446772701505 23.432346555600137 2.1574899076000005 0 0 0
224 3 -4.725213373400001 22.388278658500063 0.8778059782999978 0 0 0
229 3 -6.309410018800001 25.010064415500054 0.8586986313999994 0 0 0
315 2 -4.6048990568000026 24.141742997900057 4.121006428899998 0 0 0
316 1 -5.2034765591 26.3009916348 2.041352810199996 0 0 0
2912 4 -8.0402605705 22.594137471 2.461329899599999 0 0 0
2920 4 -3.4004780488 24.9598445199 2.1554613556 0 0 0
2979 4 -7.744593494401467 24.235522530500038 4.616014948099998 0 0 0
2991 4 -4.4542180092 26.481242723 4.1552641446999985 0 0 0
308 1 -3.133079498799999 22.7257920789 2.1582149925999996 0 0 0
309 3 -1.4983079015000005 22.3915416711 0.8823054949000007 0 0 0
407 1 0.11985024429999847 22.8689498428 2.0830962363999994 0 0 0
497 2 0.20890723850000548 26.729095186300107 3.4339867537999957 0 0 0
2922 4 -0.6860960366000075 24.946740892 2.3925059814999994 0 0 0
2990 4 -2.1128229022000014 24.05493106150001 4.551568389299998 0 0 0
2995 4 0.6936779411000007 23.77635032700006 4.4505864117 0 0 0
408 3 1.696957085699994 22.36807483190011 0.8380616702999983 0 0 0
562 2 6.016343513499999 21.5281704483 3.862040916299998 0 0 0
563 1 6.134201560899944 23.219106686500133 2.0286981824999994 0 0 0
573 2 4.356788918099973 23.968576191200068 3.8032272893999988 0 0 0
574 1 4.764102641000001 25.8033488369 1.8978960531000002 0 0 0
575 3 6.314952881099996 25.074838407400026 0.7349735953999996 0 0 0
2931 4 3.430510184000001 22.526648252 2.276590175700001 0 0 0
2932 4 2.0643743303000015 24.9369924963 2.3739106210000003 0 0 0
3001 4 1.8275935711000084 26.211258787500118 4.908503134599998 0 0 0
564 3 7.7679114294 22.4240287739 0.961352012199999 0 0 0
659 1 9.251297016399961 23.232139896700094 2.2144825292999997 0 0 0
660 3 10.875076001100004 22.4240287739 0.961352012199999 0 0 0
667 2 7.3078153661 24.269924203 3.988897550799999 0 0 0
2945 4 10.634556242800002 24.9829718177 2.5037600722999986 0 0 0
3008 4 10.395551831799999 21.6672886806 4.110481526799999 0 0 0
3009 4 9.377498527500006 24.1089794052 4.856658005399998 0 0 0
742 1 12.388931734500003 23.3478698817 2.230356994800001 0 0 0
743 3 13.709077422199998 22.6869631293 0 0 0 0
750 3 12.428658286999932 25.114912226800126 0.961352012199999 0 0 0
819 1 15.945466828300004 23.4768211259 1.5864250623 0 0 0
826 2 14.237365516800006 24.2301224371 3.9956386741000003 0 0 0
827 1 13.945900107699941 25.941005207500112 2.1290768621999963 0 0 0
828 3 15.406841586800002 25.2831870103 0.7289998823000001 0 0 0
2952 4 14.249989699 22.0900176832 2.1008496333999958 0 0 0
3015 4 13.088771077099995 21.6260183086 4.521698165 0 0 0
3016 4 12.147744208500006 24.1647755846 4.827331144399999 0 0 0
923 1 18.7944665336 22.9549172073 2.0146828329 0 0 0
924 3 20.29878124840001 22.3709284327 0.7168974325999997 0 0 0
930 2 17.171808644899993 24.012459009800097 3.760924715999998 0 0 0
931 1 16.998864320900005 26.20704901350001 1.6802184596000007 0 0 0
932 3 18.48652804939996 25.16591890900009 0.44591130819999947 0 0 0
999 2 21.818156718599987 21.63368085970013 3.8812610449999987 0 0 0
1000 1 21.813057086499988 23.151002164600047 1.894482547900001 0 0 0
2960 4 18.987790138700007 25.108020349500084 2.6386000681000006 0 0 0
2967 4 21.965951412399995 25.3593911371 2.2971493936 0 0 0
3028 4 20.419616739000013 23.8013402151 4.553460705599999 0 0 0
1001 3 23.43308703030002 22.366341304400123 0.8707329641000001 0 0 0
71 1 -15.311024871700026 29.066012930400085 2.1802080980999996 0 0 0
75 1 -17.5226827741 30.9895588999 2.1771035923 0 0 0
76 3 -15.549796688600004 30.6152608587 0.8270370750999998 0 0 0
80 2 -15.447281188103428 32.0180061026 4.005462761399999 0 0 0
163 1 -13.608086660400001 31.4420695894 2.3443541856000003 0 0 0
2974 4 -13.673892961100004 27.5236286836 2.122329457100001 0 0 0
3036 4 -15.01529050940001 27.01582948560008 4.4390133769 0 0 0
3037 4 -13.663565501100194 29.379290272200105 4.544484356999998 0 0 0
156 2 -12.5755729659 27.0863154413 4.104963075499999 0 0 0
157 1 -11.985842764399997 29.0073859382 2.2293372727000005 0 0 0
158 3 -10.892188414100069 27.8008019613 0.9454802100999995 0 0 0
164 3 -12.414885828900001 30.5330996953 0.8965310621999993 0 0 0
236 1 -9.171152866 28.2018203849 2.1950936001 0 0 0
2919 4 -9.713348748900007 30.39266979260005 2.6463969124999984 0 0 0
2981 4 -11.028075045400005 28.7353367376 4.796963059099999 0 0 0
2982 4 -12.168046071299994 31.658867204500098 4.356410437400001 0 0 0
237 3 -7.646007340700013 27.771776263300115 0.8619597021000001 0 0 0
325 2 -6.655019523 26.9486875074 4.1768988795999995 0 0 0
326 1 -6.350915572899998 28.9863697837 2.252813535799996 0 0 0
327 3 -4.736604827199999 27.8648997488 0.7668038570999993 0 0 0
334 2 -7.860577737600007 29.64307922320009 4.170314021199998 0 0 0
340 2 -6.2316469498000036 32.117084011 4.3682265394 0 0 0
431 2 -4.795565387500016 29.548867893800153 4.1335007761 0 0 0
432 1 -4.764718935700024 31.376721222600136 1.667332568299999 0 0 0
2997 4 -3.572346028900002 31.423106904000036 4.373617044100001 0 0 0
424 2 -2.5391695903000002 27.6510299892 3.9919028483999988 0 0 0
425 1 -3.336461489700005 28.8358034819 1.9437479115999992 0 0 0
433 3 -2.9600308756999993 30.5160145433 0.7933377528999994 0 0 0
498 1 0.28201714980000503 28.62232542360012 1.8077531569000005 0 0 0
504 1 -1.3817726556000025 31.003268153500176 2.1758604079 0 0 0
505 3 0.11439701250000311 30.45416716720007 0.8518138126999997 0 0 0
587 2 1.5460397944999968 29.539559814100173 4.093262629899998 0 0 0
2923 4 -1.7463722983000025 27.30076731680008 1.5215263996999973 0 0 0
3002 4 -0.8860611634999991 31.5204485372 4.819296099199997 0 0 0
499 3 1.7307409914999994 27.8789124759 0.5283825620999991 0 0 0
580 2 3.4776316230000006 27.0557343443 3.6330688413999983 0 0 0
581 1 3.274702499300002 28.616505560400125 1.6947410291999994 0 0 0
582 3 4.7758577548000005 27.826681983400107 0.5024391701000006 0 0 0
588 1 1.8815423167000027 31.1496271733 2.1584083203999995 0 0 0
589 3 3.2679014057000018 30.4728455809 0.7770220399999985 0 0 0
675 2 6.3715145005 27.0601576825 4.214947218900001 0 0 0
681 2 4.816709481 29.677200782 3.8520307423 0 0 0
682 1 4.797799725799944 31.3664814289001 2.0134783557 0 0 0
692 2 6.2055496535999985 32.28184673 3.862184341500001 0 0 0
2940 4 6.431396236399994 27.5316466506 2.015717320999997 0 0 0
3005 4 1.9820774513999986 31.6236430462 4.889283302699999 0 0 0
756 2 9.264374367199967 27.168505336400084 3.6380733839 0 0 0
760 2 7.7577533488000014 29.663825165800002 4.103511689800001 0 0 0
765 2 9.145563568700002 32.268947433 4.1254569665 0 0 0
841 2 10.702503144199994 29.7317766365 3.911178767399999 0 0 0
842 1 10.9359220296 31.3863833966 2.0558907696999995 0 0 0
2946 4 9.189697766 27.6045046293 1.431984547599999 0 0 0
2947 4 7.671472143999999 29.95369951520009 1.8739313689999975 0 0 0
835 2 12.552608510199935 27.01169100840011 3.902963448899998 0 0 0
836 1 12.422541726599995 28.7826019918 2.1476120796 0 0 0
837 3 13.714659683799983 27.904288097400055 0.4641028219999992 0 0 0
843 3 12.441029231600005 30.489581871500164 0.9519649735999973 0 0 0
939 2 15.4371424839 27.4477391649 3.4482625974999994 0 0 0
946 1 13.921681227499928 31.323870201500135 2.137828153499999 0 0 0
2962 4 15.9717304031 30.137007279700047 2.3401782653000005 0 0 0
3023 4 14.656042044500001 29.0685259695 4.799347886999996 0 0 0
3031 4 16.5584040824 31.4784528832 4.638127193900001 0 0 0
1 2 18.5461391367 32.2698682848 3.9416568173999984 0 0 0
74 2 20.22130478069998 29.554530437600107 4.1742867446 0 0 0
1015 2 18.398395890499998 27.0758635314 3.5565910561999985 0 0 0
2961 4 17.870878073999986 28.280576471100044 1.7309702872 0 0 0
2968 4 20.3610214344 27.5453776313 2.561525109599998 0 0 0
3030 4 17.3711146576 28.8880213555 4.4070479352 0 0 0
4 1 0.18826883370000003 1.8596050738 5.559475683899999 0 0 0
5 1 -1.4143424379 2.7599096366 7.843072312299999 0 0 0
12 3 0.2741660943999964 3.762326169000007 7.185537178200001 0 0 0
91 1 1.5365020654999997 4.6975719625 5.8364353015 0 0 0
93 3 1.4122080239944643 4.280928638075794 9.748230940539905 0 0 0
3105 4 0.5649296607000001 0.7223769656 7.464032963999998 0 0 0
3166 4 0.11744463411787831 2.5665066985430256 9.486749510290789 0 0 0
92 1 0.1437172025381135 5.377415511223477 8.41205323793394 0 0 0
83 1 3.1208900815999985 1.8487145381000079 5.320281443500001 0 0 0
85 1 1.7856935051 2.6020055227 7.996212010099999 0 0 0
94 3 3.2049231555 3.7217525064 6.986159104000002 0 0 0
171 1 6.1831910180000005 1.8077716629 5.929668489999996 0 0 0
173 1 4.701372548702987 2.6209108078698518 8.215439614725963 0 0 0
174 3 6.037779950411594 1.6946924060953166 9.656178016474236 0 0 0
177 1 4.872907983200001 4.8666348905 6.174762742599999 0 0 0
180 3 4.820366310171067 4.379454748160513 9.37097390359628 0 0 0
181 3 6.116958673999999 3.5134501703 7.128430397199995 0 0 0
3110 4 3.2727797933 1.0198152245 7.406511106300002 0 0 0
3111 4 3.235109339360211 3.034902985877405 9.87201126696673 0 0 0
179 1 2.9611293075124014 5.223256532148748 8.555464989497029 0 0 0
175 3 8.0631758544 0.846276720100002 7.043071337000001 0 0 0
252 1 9.531528151700002 1.8175147076 5.952708422699999 0 0 0
254 3 10.9465924011 0.9445556538000035 7.3838090044 0 0 0
258 1 7.7733149794 4.6208110536 5.8588551035 0 0 0
3044 4 8.304958170799999 3.056737364200012 7.386444173299999 0 0 0
3049 4 11.0033634913 3.2826366486 7.083442801700002 0 0 0
3121 4 9.244673871684977 1.8802133788435555 9.428513828590557 0 0 0
3122 4 6.960164391315404 4.6894889820293475 9.400176087249456 0 0 0
3123 4 10.54473295677898 4.91098735646204 9.34171782382278 0 0 0
343 1 12.4569078834 1.7938453451 6.07179211559999 0 0 0
345 3 12.336892379463823 1.7599604561841136 9.838356962467472 0 0 0
346 3 13.982721977300002 0.9022166449 7.3416015333 0 0 0
438 1 13.996760020535055 2.7409832634274225 8.68488756439762 0 0 0
439 3 15.47986129781289 1.744010841179783 9.94259545967789 0 0 0
447 1 12.735994234841678 5.324093861820803 8.766953789529357 0 0 0
449 3 15.537652239999993 3.584350846200016 7.3388001647 0 0 0
507 1 15.493315842800495 0.06411176161617468 8.631354606003846 0 0 0
519 1 15.514562697354686 5.347091916865951 8.504061426717762 0 0 0
435 1 -6.163842347179067 32.280775701487926 8.621817897352223 0 -1 0
513 1 17.065477291106202 2.7179010974231352 8.640640558407554 0 0 0
514 3 18.65359256478595 1.841539512372349 9.85598767197667 0 0 0
515 3 20.1965697164 0.8969611509 7.338668668399997 0 0 0
518 1 17.0894682504 4.4660979806 6.057468828799998 0 0 0
520 3 18.642987430500003 3.5878446038 7.338668668399997 0 0 0
599 1 20.208691004477043 2.468435406712925 8.398808453751698 0 0 0
600 3 21.81801759638348 1.6823351501988526 9.655171161132575 0 0 0
605 1 20.0991820556 4.179160274000001 5.844101576899998 0 0 0
607 3 21.745212578400004 3.585225407000002 7.331585008799998 0 0 0
702 1 21.814568106126263 5.3062482869919005 8.45875972675881 0 0 0
3063 4 17.650140325399995 1.0593302157 7.0636827467 0 0 0
3137 4 19.69543244788824 4.555263910214607 9.00035411669959 0 0 0
591 1 18.61679911206905 0.07601664122816218 8.791090635183785 0 1 0
694 1 23.25556176123287 2.7511795846786304 8.46956642751801 0 0 0
700 1 22.973229389300023 4.732655465400021 5.922093661799998 0 0 0
703 3 23.17953612738437 4.472174445198317 9.648273829073574 0 0 0
768 1 26.541055183123156 3.1097874152126455 8.17001083634344 0 0 0
774 3 26.360316101120304 4.5368278606989465 9.649175386809581 0 0 0
3074 4 23.49087178160019 0.8891205936000018 7.129287379499999 0 0 0
3075 4 24.66184297810002 3.7196961374000077 7.010669354400001 0 0 0
3082 4 26.35260452020001 0.9247894929 7.2144032715 0 0 0
767 1 27.981102004100002 1.8283684274 5.791182697699998 0 0 0
769 3 29.458719223500005 0.9204009603000014 7.3145562606 0 0 0
775 3 28.19302206890002 3.8004770799000176 7.045687872099993 0 0 0
852 1 30.89539165210001 2.0959915024 5.7024050175999985 0 0 0
854 1 29.457959002029714 2.8610407286123514 8.377847535749503 0 0 0
855 3 30.969310376008025 1.7301932195962317 9.44654974434625 0 0 0
862 3 29.42713075321161 4.772609975209834 9.818829684252876 0 0 0
863 3 31.1290272905 3.6535836592000095 7.260120780299999 0 0 0
949 1 31.313398211806117 0.21506078930000117 7.906936243800001 0 0 0
3150 4 27.93060530909591 0.3027868354325328 9.184752591482741 0 1 0
856 3 32.852707201 1.3224020535000045 7.074724846799999 0 0 0
954 1 33.7439867176 2.6157336607 5.268859521799998 0 0 0
955 1 32.67918051699286 2.7950344769179596 8.491727914175016 0 0 0
959 3 32.674269039415854 4.460450611174359 9.80577387932199 0 0 0
960 3 34.2064890242 3.879920627500004 7.332067714199997 0 0 0
1024 1 34.24252506681288 0.16600755498424583 8.458280582961088 0 0 0
3099 4 35.0156930473 1.1985572407 6.4675559326 0 0 0
3162 4 34.66022530048546 3.6380284095111137 9.534051771814894 0 0 0
26 1 -4.7397706421 9.9633241524 5.9308892898 0 0 0
28 3 -4.628068762678381 9.703197191716656 9.553019532785822 0 0 0
3101 4 -3.7847626292000003 8.300490628200006 7.107938208900002 0 0 0
11 3 -1.6080857672182243 5.530833879862011 9.459226482802855 0 0 0
98 1 0.10283470959999885 7.24970468140003 5.912478633799999 0 0 0
100 3 1.5010359650000002 6.3957102011 7.193634082500001 0 0 0
107 1 -1.6071159639000028 9.925079313600005 5.953868129899998 0 0 0
193 3 1.4717297218160361 9.669031174648488 9.68596518777342 0 0 0
3039 4 0.5651777696999982 10.662158853700046 6.514527916399999 0 0 0
3100 4 -2.1520544522 5.927078688500007 7.224762275300002 0 0 0
3106 4 -1.0253177841999994 8.3931113417 7.4956479067 0 0 0
3112 4 0.7350318318595184 7.408388132688713 9.412715542855288 0 0 0
3167 4 -3.167638204851734 7.123379502620208 9.462352704245092 0 0 0
185 1 3.065152253200001 7.182732001 6.080967578500001 0 0 0
187 3 2.9296540742867885 7.079654400224684 9.606016249598984 0 0 0
188 3 4.3930229027 6.4099469835 7.469425242699998 0 0 0
264 3 6.738555819000565 6.956707615287349 9.338939924624697 0 0 0
272 1 3.0079565239775654 10.513550389602342 8.613007362692656 0 0 0
273 3 4.731217255351495 9.762956774731197 9.597271682300551 0 0 0
366 1 6.146529579315101 10.429554961411151 8.159925144831572 0 0 0
3038 4 1.9884529148999999 8.567807715700003 7.520615767100001 0 0 0
3045 4 6.557152588699999 5.8098583425 7.331816558499998 0 0 0
3046 4 4.7010599833 8.6299419196 7.271349374099998 0 0 0
186 1 4.927748294200223 6.349720810315332 9.9094493075768 0 0 0
360 3 9.481404073891351 6.876361831001762 9.746696122648572 0 0 0
367 3 7.695693306815555 9.91627211164854 9.702718956515621 0 0 0
368 3 9.615443326200005 8.8613672876 7.385456623899998 0 0 0
455 1 10.948674746386878 7.874752176216259 8.481826894744863 0 0 0
459 1 10.653302555999998 10.0726603673 6.064899874799995 0 0 0
462 3 11.008782570635395 9.888614953353573 9.904997605188843 0 0 0
2994 4 8.833799277500002 9.1144476328 5.151808605199999 0 0 0
3050 4 9.278683951700007 5.863424222100009 7.210864797599999 0 0 0
3051 4 7.4141779079 8.3961135914 7.363799329300001 0 0 0
461 1 9.435759734591016 10.58477993975968 8.579887558602938 0 0 0
456 3 12.414152357259832 7.110274237703341 9.655516048157349 0 0 0
457 3 14.1948296898 6.1584346233 7.2350109325 0 0 0
463 3 12.513838987200007 8.7087756843 7.2594812299 0 0 0
525 1 14.118510739788073 7.9472751404098165 8.556132452878291 0 0 0
526 3 15.7581967768039 7.17517783979243 9.61594929616064 0 0 0
531 1 14.135832004600001 9.5902037251 5.858721369699996 0 0 0
533 1 12.568325171991688 10.523948158269306 8.539698277875502 0 0 0
534 3 14.212729522835133 9.669540038206211 9.923181594230563 0 0 0
535 3 15.752250643699995 8.7232091965 7.215949545099999 0 0 0
3000 4 12.1971913789 8.8052323544 5.0292683675999985 0 0 0
3004 4 16.267625189 6.4322521868 5.013305275799999 0 0 0
3052 4 12.0001117096 5.9044826396 6.809310544500001 0 0 0
621 1 15.663679148135557 10.619549775023513 8.6076178553786 0 0 0
527 3 17.0998109554 6.149001038800014 7.264110100899998 0 0 0
612 1 17.22730497263293 7.924498497181928 8.635859129889173 0 0 0
619 1 17.0976239361 9.7092626162 5.988789370099999 0 0 0
622 3 17.229495131600302 9.73587387867058 9.86469398745918 0 0 0
716 1 20.283988453399992 9.948022341800048 5.9567506337000005 0 0 0
719 3 20.325707017148314 9.416509987070961 9.403864762114313 0 0 0
788 1 21.81931155071437 10.45671634548827 8.329754258526904 0 0 0
3068 4 20.426211983600002 6.1118405352 6.948772744700001 0 0 0
3069 4 19.125087518100003 8.4904770676 7.219687793599999 0 0 0
3141 4 20.87753420445462 7.355417143984488 9.593606775628611 0 0 0
773 1 24.803982509509908 5.434149231632592 8.573831017808146 0 0 0
710 3 23.303694263199997 6.265065748800007 7.362612025499995 0 0 0
779 1 24.906069211999995 6.9318363786 5.94001725 0 0 0
780 3 26.410853582900003 6.3097115766 7.296918049099993 0 0 0
786 1 23.272255952300036 9.9292083782 5.856953217099999 0 0 0
789 3 23.14328072155372 10.17877124757854 9.91572132368075 0 0 0
3076 4 22.039789657000004 8.3390587816 7.211900857099998 0 0 0
3083 4 24.772445717100005 8.837080035200044 7.129425230099997 0 0 0
3151 4 25.871047037177426 7.321143017603937 9.114657647904956 0 0 0
878 1 24.7073539322705 10.747918243328748 8.613077730419676 0 0 0
958 1 30.952068472779096 5.424882751812296 8.666749423632329 0 0 0
27 1 30.952741709219538 10.561380470133015 8.5803064053353 0 0 0
861 1 27.927534867739723 5.7160126848245705 8.629018260128333 0 0 0
870 1 28.10785904419999 6.965505261200016 5.997222193399997 0 0 0
872 3 29.5542430183 6.3494565131 7.345076107499999 0 0 0
965 1 31.0210292029 7.3001975165 6.004448515900002 0 0 0
967 3 31.674332637310968 7.179661185892239 9.807345668644448 0 0 0
974 3 31.074151971200003 8.9122480861 7.303187814799998 0 0 0
3087 4 27.5543700703 8.6737310588 7.352993030299999 0 0 0
3156 4 29.723283596240417 7.626446177289347 9.002235446234472 0 0 0
3157 4 28.17094455547025 10.350788231382232 9.695684380564757 0 0 0
3093 4 32.4184269194 5.8036916807 6.974511922399998 0 0 0
31 3 -6.31200631974014 12.3454403329167 9.678566895342804 0 0 0
32 3 -4.787690880700001 11.4642545535 7.356779989499998 0 0 0
35 1 -7.4681584455000065 15.341109732000026 5.854526809199999 0 0 0
36 3 -6.259117567999999 14.3866285033 7.299001323599999 0 0 0
115 1 -4.811070014090497 13.174946636451324 8.487332797704369 0 0 0
122 1 -4.5653519562 15.1030081933 6.1538759058 0 0 0
3034 4 -6.608800073900004 11.871317296400067 5.133503186799999 0 0 0
3102 4 -8.261836510700002 15.7079357164 7.927696999799995 0 0 0
3114 4 -3.4571213083897545 14.743910296958795 9.295903939402894 0 0 0
192 1 0.032375630264418476 10.837095627343075 8.608942161803633 0 0 0
108 1 -3.1142164987402663 10.88552324815295 8.635990817011624 0 0 0
114 1 -3.1042359695999995 12.4411800232 5.932498836899999 0 0 0
116 3 -3.2533559175274105 12.58974089073161 9.902865066411714 0 0 0
117 3 -1.5147848565000022 11.607744914000019 7.337642839099999 0 0 0
123 3 -3.256246367200001 13.9329615627 7.360691195499999 0 0 0
198 1 -1.6483552767980552 13.422348421559345 8.632681568272844 0 0 0
205 3 -1.42476313207466 15.301868656928814 9.882539432727206 0 0 0
206 3 -0.024283267899999572 14.363583769700014 7.321587457299998 0 0 0
279 1 1.508055420072398 13.408496906618337 8.51700094614936 0 0 0
287 1 1.5118721612000012 15.2458953578 6.023597018899995 0 0 0
290 3 1.5448972739466988 15.17491928595937 9.57035856934407 0 0 0
3040 4 -2.2841325134000003 15.9506652055 7.145364350000001 0 0 0
199 3 -0.05170735036585672 12.46788062203648 9.876230809394741 0 0 0
280 3 3.249306230113775 12.542294147181732 9.622210907289048 0 0 0
291 3 3.0636960492999865 14.36590839930003 7.2547027464 0 0 0
375 1 6.017181214699999 12.5304915693 5.9079575805 0 0 0
376 1 4.731930580417847 13.520075459216777 8.37018366551888 0 0 0
382 1 4.4874949183999995 15.2537276929 5.8217263662 0 0 0
383 1 3.049996420666588 15.971774704434598 8.318496470841627 0 0 0
384 3 4.740300560602879 15.541288088992033 9.418507728936689 0 0 0
3047 4 3.778369945499998 11.12776564460001 6.693637536699999 0 0 0
3054 4 6.154480571899999 15.7409063363 7.2698053632 0 0 0
377 3 7.879632429099997 11.1796436796 7.156530748899996 0 0 0
467 1 9.268649988999986 12.65244975410005 6.068344698299995 0 0 0
469 3 10.943626951999999 11.638897612 7.409254138099996 0 0 0
471 1 7.8975308864 15.2575400079 5.931660226499998 0 0 0
472 3 9.632250955600002 14.2303395341 7.476882960099999 0 0 0
546 1 10.8264825549 15.1403000553 5.980241108299998 0 0 0
3053 4 7.5478181621 13.3997125182 7.3104539578 0 0 0
3125 4 7.629910235984854 15.02215258772677 9.521285783396856 0 0 0
3131 4 11.668851878150257 12.581191595473802 9.050782524271504 0 0 0
3132 4 10.517562201394654 15.284075493640788 9.307295892137759 0 0 0
539 1 12.2295767074 12.5266260176 5.8079948429999995 0 0 0
540 3 14.122401515599995 11.127905062800032 7.2456414412 0 0 0
629 1 15.331303793400004 12.2959953353 5.927652993199997 0 0 0
631 3 15.367509103146013 12.746453938201544 9.408069823971566 0 0 0
3064 4 13.634590349399998 13.320525776100023 7.375846345599999 0 0 0
3065 4 12.377197457399964 15.720627760100081 7.663694289399995 0 0 0
3070 4 16.4303356855 13.4704646845 7.5389116821 0 0 0
3071 4 14.952372846099976 15.628961843400072 6.776843803099997 0 0 0
3142 4 16.629034174923213 15.031272064726812 9.709172467896678 0 0 0
718 1 18.735196327915496 10.739323618579979 8.5645506973398 0 0 0
632 3 17.117492230900005 11.3466754987 7.256360396199998 0 0 0
720 3 18.662763036855132 12.548699025532082 9.747768422667527 0 0 0
721 3 20.286511128099995 11.561323441500022 7.255020825199999 0 0 0
726 3 18.539710438 13.8475185638 6.852713154999993 0 0 0
793 1 21.827691135899997 12.4599047022 6.142253679999996 0 0 0
795 1 20.084302053874616 13.468642798301465 8.32779136935132 0 0 0
801 3 20.172343230754123 15.276885932826573 9.525364654386536 0 0 0
802 3 21.756608187700003 14.312674453700067 7.211211935699996 0 0 0
896 1 21.440027668946804 16.10546882011214 8.231622141820687 0 0 0
3077 4 17.929190315200003 15.988888375100021 6.529761264899999 0 0 0
3147 4 20.599927861900014 11.683891528916625 9.547214674651276 0 0 0
796 3 23.309333025399994 11.6242703314 7.323230226999996 0 0 0
885 1 24.887771795700004 12.371051030100071 5.866991268399998 0 0 0
887 1 23.382971495766743 13.381408247919667 8.41805681703448 0 0 0
888 3 24.931550485302708 12.523038577982692 9.689320016348262 0 0 0
894 1 23.208958537799994 15.239119222000056 5.525534231599998 0 0 0
897 3 25.1510085225 13.971087029500067 7.154952274399999 0 0 0
979 1 26.53359156783789 13.367023384619698 8.50039588708933 0 0 0
987 1 26.582572097899977 15.037605353000073 5.6717119027999985 0 0 0
3088 4 26.4046642473 11.1250417831 7.047241745699999 0 0 0
3089 4 23.600035745500005 15.4977588337 7.7261395909999955 0 0 0
3095 4 26.3062249464 15.8127126097 7.7658324800999985 0 0 0
3152 4 22.213455671211072 14.639952258236328 9.869975593362327 0 0 0
30 1 29.522594468480385 13.323092152852137 8.430752660769635 0 0 0
980 3 28.03022701537677 12.518592318116426 9.742410787800537 0 0 0
989 3 28.053108622800004 13.8677521682 7.071352704799999 0 0 0
3094 4 29.118556972700013 10.904133403600037 7.1483226372 0 0 0
41 1 -9.221376988800005 17.72387357360002 5.5001513756 0 0 0
45 1 -10.8750760011 20.630106472 6.070858091200002 0 0 0
48 3 -10.954293723750782 20.670487977789406 9.83957082948465 0 0 0
3103 4 -9.659143196 19.115699236700063 7.212950880499999 0 0 0
139 1 -9.331078271420395 21.323599796462897 8.470581832860653 0 0 0
129 1 -5.934320730999997 17.91231605060004 5.359980269299996 0 0 0
130 1 -7.742301226175001 18.96890649011055 8.312572744524445 0 0 0
137 1 -7.774335533 20.6437767354 6.029421571299999 0 0 0
140 3 -7.845674181949354 20.2975234706136 9.668614091338071 0 0 0
141 3 -6.189612874799998 19.8618436273 7.196624184199997 0 0 0
218 3 -4.844903822254324 20.17539138768735 9.607030794424709 0 0 0
3041 4 -3.7205122169000004 18.2971123485 7.201718477699998 0 0 0
3107 4 -6.328824023500008 17.5911058489 7.5517126699999935 0 0 0
217 1 -6.321848098974314 21.46949204393418 8.567818453627986 0 0 0
3115 4 -5.045436557608835 18.093249661515088 9.947963830576484 0 0 0
289 1 -0.1661722857141008 16.20706229517791 8.43734700258658 0 0 0
296 1 -1.461716694157083 18.99588444188796 8.57569050445693 0 0 0
297 3 -0.10149129110757293 17.951159167529937 9.715358197122143 0 0 0
298 3 1.5027765473000017 17.0021067134 7.3186073369999995 0 0 0
304 3 0.1607969317000002 19.8511178475 7.582970680399999 0 0 0
393 1 1.6333091951568797 18.723185569470857 8.56735579766719 0 0 0
399 1 1.5236788353000001 20.383176790300084 5.857795498 0 0 0
3048 4 -0.550296962900001 17.9722275987 6.569750342499997 0 0 0
3118 4 -2.212854940074636 17.25008342252242 9.568187025238764 0 0 0
303 3 -1.587100080853455 20.419683147113336 9.984609883452784 0 0 0
391 1 2.917423424099999 17.808307140300013 5.8473613905 0 0 0
401 3 1.9359587608195863 20.517883081441735 9.903700063716574 0 0 0
402 3 3.003205085700001 19.4882906607 7.1043019311 0 0 0
481 1 2.896289934183905 21.32897049548313 8.146492387482898 0 0 0
3055 4 4.7570978335 18.0749158747 7.1150426263999975 0 0 0
3059 4 5.946528637700002 20.5256851879 7.058330092799999 0 0 0
3126 4 6.217655911108023 17.25026344903116 9.634146144799537 0 0 0
3127 4 3.8345832437311262 19.579234109501044 9.099016322317937 0 0 0
547 1 8.942907843291572 16.32866676695333 8.15496900925995 0 0 0
551 1 9.272913789899949 17.947453694300098 5.778812920899998 0 0 0
553 3 9.53678558610048 17.605931661442877 9.657359211055692 0 0 0
554 3 10.598397347599999 16.9284175988 7.000660540399998 0 0 0
559 1 7.502618870199999 20.3004666318 5.4488711687 0 0 0
560 3 9.258696527499971 19.47114269300005 7.424456107000001 0 0 0
649 1 10.932280872524538 18.529461036799177 8.298265781026064 0 0 0
3058 4 7.48137500749999 18.123518972700047 7.128586825399999 0 0 0
3066 4 9.084332121399997 21.5122820676 6.493946954199995 0 0 0
3072 4 11.742138168799999 20.9995680843 6.806073411500002 0 0 0
3133 4 8.198643947406735 19.240156734413436 9.3589026514896 0 0 0
647 1 12.330209994099995 17.642977277900023 5.761156084399998 0 0 0
650 3 12.46486622373659 18.118245317809734 9.872268510796044 0 0 0
658 3 12.682657236099999 19.0103014325 7.275902696599999 0 0 0
731 1 14.02478976075928 19.11724517152119 8.771868352596712 0 0 0
736 1 13.838422445999969 20.398631806800076 6.2520288437 0 0 0
740 3 15.385413503300002 20.0316698074 7.5788335455 0 0 0
3078 4 16.185640944899998 18.05737951310006 6.8547418524 0 0 0
3143 4 14.31185332514203 16.967680672206395 8.977837607643316 0 0 0
732 3 15.580269401409428 18.28547777848915 9.913283347271125 0 0 0
739 3 14.02502213434512 20.860063053622106 9.912097128021863 0 0 0
800 1 18.622899246334278 16.177916376078482 8.694032205142292 0 0 0
809 1 17.186721559461667 19.132122672353077 8.655289943764956 0 0 0
810 3 18.74341214170112 17.861108031978866 9.760038119801433 0 0 0
811 3 20.0828174563 17.0544258167 7.229105953600001 0 0 0
817 3 18.75786997450001 19.6390994455 7.290979149800002 0 0 0
904 1 21.7560825627 17.8200788372 5.354124288899998 0 0 0
906 1 20.422932092255962 18.831314844086695 8.4346226675715 0 0 0
907 3 21.99472760559668 17.571503890298555 9.657814373633105 0 0 0
915 1 20.046549567400007 20.566070878 5.903889404899999 0 0 0
916 1 18.88378347416119 21.507844096860158 8.465322314975275 0 0 0
917 3 20.328788855188755 20.68104822074692 9.72924209750208 0 0 0
918 3 21.742718221299995 20.0334662371 6.965773273 0 0 0
995 1 21.889789531737733 21.392152670248603 8.301241591992216 0 0 0
816 3 17.294943930128113 20.758114036873117 9.939614869721886 0 0 0
3163 4 26.58103913085756 18.49669414488179 9.621100556323224 0 0 0
3090 4 22.488759646500014 17.9729802621 7.475987727099998 0 0 0
3096 4 25.133197384600003 18.086715176000055 6.829269505999999 0 0 0
3158 4 24.11132429283488 17.254695210819882 9.946458685617738 0 0 0
3164 4 24.45647032322423 19.881776851152868 8.666351086147998 0 0 0
3159 4 22.176291913417586 19.690357770426843 9.829271336795326 0 0 0
62 1 -13.851405422100001 26.1516999983 6.159812907300001 0 0 0
65 3 -14.089558582980485 25.883695068639714 9.513755113645615 0 0 0
47 1 -12.183982539602297 21.9562934797643 8.597815147912709 0 0 0
55 1 -12.237974104300008 23.323620763500116 5.8947764052 0 0 0
58 3 -12.442310488536862 23.37532932998328 9.948401439939865 0 0 0
59 3 -10.7389137503 22.483829733 7.1847842066 0 0 0
66 3 -12.4937908639 24.9461959062 7.1557524575 0 0 0
147 1 -9.2878957386 23.391165654200012 6.018790576799997 0 0 0
152 1 -10.956024547200006 25.976575675000095 5.647636754499995 0 0 0
3108 4 -10.6713439463 26.0501054453 7.8786424565 0 0 0
3116 4 -10.364977842659638 23.84852609269295 9.331803097609196 0 0 0
148 3 -7.816236730900039 22.4012495544 7.258382359899997 0 0 0
225 1 -6.2165633214 23.1220551519 5.965628420399998 0 0 0
226 3 -4.7543544591 22.3677962847 7.512988458900001 0 0 0
231 3 -6.221829257 24.8435288452 7.116607677800001 0 0 0
311 1 -4.834519233849907 24.1354835050419 8.573548742857945 0 0 0
317 1 -4.676419108300001 25.9806725781 6.3375920951 0 0 0
320 3 -4.845640991887983 25.906346485267296 9.74894532230223 0 0 0
3042 4 -8.1947531484 25.86401239860009 6.757884219200001 0 0 0
3119 4 -7.078257549923186 23.995092880673052 8.8664127250184 0 0 0
3120 4 -8.233138803402683 26.837816735331437 9.423542863893019 0 0 0
319 1 -6.234255495335907 26.773057807967387 8.435265194712063 0 0 0
302 1 -3.2750018074155385 21.52099412545908 9.018276052352839 0 0 0
400 1 -0.001007896715812251 21.55180934159793 8.739174100178023 0 0 0
310 1 -3.250284197500001 23.201753381200064 6.295348631100001 0 0 0
312 3 -1.9169704652000004 21.8413761526 7.178345644499995 0 0 0
321 3 -3.3739322259000026 25.0507593741 7.6517617704 0 0 0
409 1 -0.3457009931999995 22.6255507313 6.0808782292 0 0 0
411 1 -1.6893591413148084 23.98839142739178 8.589550689910169 0 0 0
412 3 0.10359371780176474 23.419689485679797 9.829156776355237 0 0 0
413 3 1.4852157143000007 22.38408459890012 7.063503431899999 0 0 0
420 3 -1.606037121963805 26.057352164211952 9.647351656541371 0 0 0
421 3 -0.5967821732000029 24.427827754800138 7.069314977200001 0 0 0
2996 4 -1.1974799795999989 26.4507503143 5.471584168399998 0 0 0
3056 4 1.1903767926999986 25.721129984 7.511954322099999 0 0 0
487 1 3.135552883199999 23.2530670476 5.9716833285999975 0 0 0
488 3 4.506061859700001 22.2501867549 7.175162687299995 0 0 0
493 3 3.1051775091634166 24.70305563936375 7.982537701258842 0 0 0
565 1 6.222691574200001 23.002299611600012 5.8667017462 0 0 0
567 3 6.277568149912133 23.881984149139946 9.87395410359963 0 0 0
576 1 4.901448068299995 25.60258186460004 5.610898027999998 0 0 0
577 3 6.186405514900001 25.250748109 7.215168710699999 0 0 0
3060 4 3.7213072207 26.6794218164 7.1952534445000005 0 0 0
3128 4 3.8338333257962187 22.993628988461936 9.186064824053283 0 0 0
3134 4 6.226520956433285 21.920600108020224 9.254702040174088 0 0 0
3135 4 5.077580602093866 25.23857695097968 9.053138091574336 0 0 0
3129 4 1.873083442037725 24.71697165393719 9.944760246571974 0 0 0
568 3 7.374462586599993 22.547901528200015 7.526580752499999 0 0 0
662 1 7.7892204550183575 24.346676870168626 8.481195104090585 0 0 0
668 1 7.7706886052 26.0780465061 6.036038420899999 0 0 0
671 3 7.689051020178786 26.16686935614582 9.671916569349069 0 0 0
672 3 9.3274268893 25.2951308671 7.154904600999998 0 0 0
745 1 10.861145405681594 24.662479636080448 8.910005625771518 0 0 0
3017 4 10.7672062654 26.4889830949 5.168512809500001 0 0 0
3073 4 10.7986878767 23.5384398507 7.110307737399999 0 0 0
3140 4 9.044632002724896 22.01674950759074 9.098792031941802 0 0 0
3148 4 11.251296751967747 26.616814195952575 10.01435945795323 0 0 0
738 1 12.443534952919485 21.658110556438398 8.798344293484227 0 0 0
746 3 12.410228523838079 23.283206121683886 9.652398380386522 0 0 0
747 3 13.918152908899994 22.5338742097 7.330871365900002 0 0 0
815 1 15.584152749066153 21.781130147654995 8.637520542432036 0 0 0
820 1 15.456420633199999 23.1795178676 5.9305164082999955 0 0 0
821 1 14.11424480609814 24.396597633847534 8.569595157399739 0 0 0
830 3 15.9159327235 24.7354143775 7.217512042999999 0 0 0
933 1 16.7098503748 26.070619414 5.096915665199997 0 0 0
3079 4 12.337305348500001 25.7742400437 7.357429561700002 0 0 0
3084 4 14.5882559114 25.9050265258 5.827609858199997 0 0 0
3153 4 16.616725140777778 25.166321362639753 9.161482091033555 0 0 0
934 1 15.459124959800139 26.849670601518568 8.195514333892685 0 0 0
822 3 15.435448645574846 23.540631203445383 9.916298942427481 0 0 0
823 3 17.2790848366 22.17439298930007 7.0663915485 0 0 0
925 1 18.566307922199982 23.337279749000075 5.741902679599997 0 0 0
926 3 20.4322444649 22.6256558477 6.9104236935 0 0 0
3029 4 19.7422461712 26.3570984383 5.211868337799997 0 0 0
3091 4 18.730694011799986 23.621138049300043 7.994969273999995 0 0 0
3092 4 17.783739129899978 26.00387445180009 7.072973848300002 0 0 0
3097 4 20.975275325 25.118756354 7.616517515599995 0 0 0
3160 4 20.928143500429087 22.920560515464555 9.612108189394412 0 0 0
3161 4 19.629231338342723 25.533959276681458 9.719677254063377 0 0 0
57 1 23.234307794233292 24.171310441218335 8.341160431059276 -1 0 0
1002 1 22.1208363314 23.3495521039 5.954973844399996 0 0 0
1004 3 23.476051267900004 22.3563013599 7.165386346600002 0 0 0
64 1 -15.513740429849065 27.118342268190244 8.629666130321151 0 0 0
72 1 -15.466978372502977 28.7039153603 6.118131313300001 0 0 0
73 3 -13.914274261300065 27.9366817854 7.253347341000001 0 0 0
77 1 -17.1727307007 31.5221375649 5.783931423999999 0 0 0
3104 4 -16.2027038797 30.7107369444 7.667600003299999 0 0 0
3109 4 -13.806059351200018 31.272162024600107 6.499212792699996 0 0 0
3117 4 -13.755429070699257 31.743160826614236 9.368859449648028 0 0 0
3169 4 -14.2264136604025 29.042167975070736 9.113040800275272 0 0 0
245 1 -12.092590286917078 32.216924863633814 8.035525196078972 0 0 0
336 1 -9.193134993817837 32.11690233729582 8.4508753573682 0 -1 0
153 1 -12.575036579624342 27.0128489261591 8.43977873444905 0 0 0
160 3 -12.219001991336997 28.791769402320245 9.796812018373334 0 0 0
166 3 -11.946934238500006 30.09293144130008 6.963506229799997 0 0 0
239 1 -10.766956913502973 29.54719485569704 8.501303848934082 0 0 0
240 3 -9.333249931805089 28.62894321150342 9.755755610281678 0 0 0
246 3 -10.867091602448127 31.462133431949095 9.68100506686488 0 0 0
247 3 -9.1228884454 30.5266508851 7.489343372 0 0 0
2988 4 -9.718710657200036 31.051590981500006 5.384127949999998 0 0 0
3043 4 -9.433243351200005 28.3287679345 7.042558867300002 0 0 0
328 1 -6.214329143499999 28.702756830600094 6.070858091200002 0 0 0
329 1 -7.736275776549304 29.445572339712353 8.601147607922215 0 0 0
330 3 -6.262476153451759 28.57863375924815 9.690561382124308 0 0 0
331 3 -4.717333242199997 27.8527596509 7.357224823599999 0 0 0
335 1 -7.642963030500006 31.266858847100167 6.2442877458999995 0 0 0
337 3 -7.7872438185013095 31.374811321211332 9.795137580496608 0 0 0
338 3 -6.181508516600001 30.3933703925 7.4230254771999995 0 0 0
434 1 -4.71678308880001 31.343330021300094 6.3091787866 0 0 0
3124 4 -4.359340021793651 29.620808526764765 8.670918811858677 0 0 0
419 1 -3.2316857884972983 27.08669554903929 8.710307909350988 0 0 0
426 1 -3.270744215199999 28.8077552986 6.080224334599997 0 0 0
428 3 -1.820893969799993 28.0773003099 7.365768174199996 0 0 0
492 1 -0.18082117381589136 27.222873395730716 8.416969050652611 0 0 0
500 1 -0.35407334099999943 28.7873480734 5.8248771373 0 0 0
584 1 1.5515703762770698 29.62115527109099 8.57111038894745 0 0 0
592 3 1.496302105272342 31.288303749636302 9.569525976990313 0 0 0
3057 4 -2.4230927425000015 30.726298518400075 7.046912904199999 0 0 0
3061 4 1.5854728716999986 28.3405520115 6.874178331899994 0 0 0
3062 4 0.4694612375000027 30.8324722105 7.0805963458 0 0 0
3130 4 -0.7895992967846972 29.57167686190688 9.017533541162067 0 0 0
3145 4 6.131160240665288 32.12475737640076 9.221628214775201 0 -1 0
670 1 6.184095037000736 27.1136758297176 8.406424959140402 0 0 0
583 1 3.4564824730999995 28.6110160714 5.6540668157 0 0 0
593 3 2.9821457456999987 30.4363990363 7.1286987758999985 0 0 0
676 1 6.350864013900008 28.76992333490008 6.066245930600001 0 0 0
683 1 4.604682389499999 31.2899431737 5.9325883314 0 0 0
685 1 3.1519199298034373 32.127696784132354 8.38198525556448 0 0 0
686 3 4.467179270287605 30.783053026307375 9.53108661678835 0 0 0
687 3 6.333949707199984 30.71598818570018 7.366386245699999 0 0 0
3067 4 4.981226728500001 28.9946397039 7.8856160733 0 0 0
3136 4 3.0472385885595656 28.325756600085146 9.678092676882518 0 0 0
679 3 7.7701238792 27.83172671650009 7.301882028999998 0 0 0
751 1 9.245113056314823 26.929460814507898 8.497932748069282 0 0 0
757 1 9.275113525899982 28.76113344210008 5.920385488600001 0 0 0
761 1 7.526988417499997 31.444456474900026 5.838562496099998 0 0 0
844 1 10.774839194999998 31.5536544878 5.887720838299998 0 0 0
3080 4 10.878061296300011 28.075168742200063 7.3811939538 0 0 0
3081 4 9.1603126198 30.636434133 7.158354816500001 0 0 0
3144 4 7.206437406762518 29.38377880159118 8.893664551947214 0 0 0
3149 4 9.797234461717693 29.2707999362752 9.700175996381422 0 0 0
838 1 12.1922896526 28.7542932255 5.660282486299996 0 0 0
941 1 14.384538065772272 29.981745641353335 8.035444246803344 0 0 0
942 3 15.367620120249398 28.713797471479737 9.535032058116954 0 0 0
943 3 16.757013669499997 27.9958697315 7.273704779199999 0 0 0
947 1 13.765006994499998 31.4103916192 5.422015888600001 0 0 0
950 3 13.949387823458306 31.507445769109374 9.236650927739404 0 0 0
951 3 15.3055032539 30.4689221268 6.4362932845 0 0 0
3085 4 13.726678059600037 28.111031452600123 7.174999045199996 0 0 0
3086 4 12.2414431993 30.4245437823 7.167049472199999 0 0 0
3154 4 13.291159621895037 29.488071773411033 9.91876226399651 0 0 0
1010 1 18.808657896963926 27.398485080128722 8.491964869002356 0 0 0
1016 1 18.900368555199993 28.4974395565 6.010583715199999 0 0 0
1018 1 17.15476998029615 29.487351060514932 8.784734165984336 0 0 0
1020 3 20.54788530419999 27.269138077700042 7.110853578599997 0 0 0
1025 3 19.071047594800003 29.7041783953 7.684770712900001 0 0 0
3098 4 17.329939220299938 31.053261766200148 7.225409558999999 0 0 0
3165 4 17.395817530982182 31.56367717098939 9.874144378280093 0 0 0
10 1 -0.6475125764614187 4.139413001212375 10.834634592730197 0 0 0
3230 4 -0.9337820607006986 2.1173917099711934 12.088880725870016 0 0 0
3231 4 1.4652151179106263 4.043826171879874 11.925800451701516 0 0 0
3296 4 -0.6771462682686833 3.628403506940331 14.667667520965804 0 0 0
1026 2 0.31216201898854823 0.12268378866810198 12.945405627288988 0 0 0
7 1 1.6410158877710725 1.0071275680093463 14.962440826191713 0 0 0
3170 4 2.0753231875528186 0.1768444202442001 9.986297182504234 0 0 0
84 1 4.420169904961685 0.9132242884286083 10.981850563725175 0 0 0
87 2 4.107507125116435 2.69611366988689 12.727898585358332 0 0 0
167 2 6.0418932692455245 0.11760459519464722 12.87203328015952 0 0 0
178 1 5.712373996435124 3.519407495283484 11.012334660247163 0 0 0
3171 4 3.836433028326381 4.943455076162362 11.289676397948142 0 0 0
3239 4 2.0965563356658095 1.5608987836558215 12.165441904752768 0 0 0
78 2 3.372674387801312 0.07005399971858436 13.451132217245753 0 0 0
3241 4 3.5412733058200554 5.333340110887181 14.293259555596268 0 0 0
172 1 7.7005867257845875 0.8928726252317537 10.946832971403708 0 0 0
253 1 10.744163022033739 0.977839589877979 10.995342236686426 0 0 0
259 2 9.466624750603803 5.32576304610194 12.930981885589837 0 0 0
3186 4 10.441784252287592 2.9281384732654843 12.409428650539123 0 0 0
3244 4 8.188067882985454 3.6746216868564194 14.397052631076214 0 0 0
3250 4 9.98054516742192 1.3385629679336184 14.942055473474625 0 0 0
248 2 -9.236998575616756 32.26621745312374 13.008004773938353 0 0 0
448 3 14.077127408597466 4.5067536557236005 10.036997338127723 0 0 0
344 1 13.715500133356953 1.1003099239079401 11.244150078732353 0 0 0
348 2 13.973343526253181 2.942847352462407 13.111652220960384 0 0 0
353 1 12.23750183439859 3.5769988911756707 11.005741057269837 0 0 0
354 2 12.185342023438984 4.992370124062911 13.118887000849437 0 0 0
446 1 15.501254817121133 3.5076845968179975 11.218204727744318 0 0 0
3256 4 12.26459533985537 1.3227616075567026 13.313118233726623 0 0 0
3260 4 15.656455106553196 1.341136599968641 13.40052074106702 0 0 0
349 1 13.958204220642173 0.6595381816187667 14.814528790521038 0 0 0
451 1 15.620113048757755 3.4809336511635625 14.969288634160414 0 0 0
437 1 17.08601557835961 1.0423910958400235 11.38479449240294 0 0 0
441 2 17.273565402558756 2.9787987837987093 13.198794956313023 0 0 0
512 1 20.335389124926568 0.6397941447139096 10.853895196020972 0 0 0
606 1 21.644292773900087 3.498015194290976 10.802146525432956 0 0 0
608 1 21.827134271508466 3.5371586561873385 14.948574550267864 0 0 0
3199 4 17.690066075851966 3.7058907234418945 10.789486583117455 0 0 0
3208 4 19.07784911426441 1.967913720831175 11.996012647102418 0 0 0
3209 4 20.578125539187806 5.299606918315021 12.171150681472689 0 0 0
3265 4 19.811309943506483 3.5465049828795583 14.028390208895619 0 0 0
3271 4 20.488530097765395 0.7359794698835596 14.793737377629267 0 0 0
3266 4 17.966390960304828 5.169539908549207 14.297290578574898 0 0 0
598 1 23.2973126468882 0.6765248576569746 10.830619933111667 0 0 0
601 2 23.11447304685514 2.5205755834801185 12.875252685101081 0 0 0
695 2 25.894165519618394 2.5101830269000245 12.908776863291447 0 0 0
701 1 24.7225781499311 3.707899353570321 10.91958194059412 0 0 0
3146 4 26.329654053833 2.23536288211007 10.292805629673666 0 0 0
3212 4 26.847011590653015 4.340004490283846 11.789942243252057 0 0 0
689 2 24.71060259190594 0.05830767773929553 12.911670824743592 0 1 0
706 1 24.902337890354758 3.6253437473958963 14.95081024328465 0 0 0
705 2 24.814948684587876 5.308502671459098 12.828909678338182 0 0 0
762 2 27.90255155250138 0.7893577709981904 13.045982555473842 0 0 0
770 2 29.88916954447467 2.802072773086118 13.126244449609871 0 0 0
860 1 30.88749223668152 3.5751126524112706 10.838029043973911 0 0 0
865 2 31.542402373704167 5.013839848377764 12.893891662510356 0 0 0
3219 4 29.31462067524968 1.847964708617535 10.949682617120295 0 0 0
3279 4 27.68209901468782 3.0291595360256527 14.46948470371455 0 0 0
3292 4 31.73524800936163 1.152172822826095 14.51877174197779 0 0 0
846 2 30.503516986718502 0.42219067323880755 12.602462095108088 0 1 0
771 1 29.390353687833045 1.3006719250560737 14.977587515665018 0 0 0
853 1 32.2008708415793 0.7406577713935815 10.686660452854795 0 0 0
956 3 33.84087910333351 1.7397437224436505 10.04087758465046 0 0 0
957 1 33.62093415312434 3.505095148740619 11.555436769743874 0 0 0
3227 4 33.721476566276294 1.2003081779069484 12.258316776991137 0 0 0
3293 4 33.43010045548076 3.474665282305111 14.041881593778882 0 0 0
3295 4 35.797310934813304 1.2266429425739065 14.830468408596687 0 0 0
3232 4 -3.6571071249216844 9.062197965826833 11.313772986830458 0 0 0
975 2 -6.089520063190464 10.719372547161166 12.905945464992595 0 0 0
3113 4 -1.3580656220409795 9.917827373850034 10.071171771500047 0 0 0
962 2 -2.9581817003942334 5.527077939267217 13.022841906218943 0 0 0
14 2 -0.13935995554124636 5.543419994738802 12.982314448011259 0 0 0
18 1 -1.4387219523218184 6.656644061749596 11.110583723687803 0 0 0
20 2 -1.6919166079200405 8.207473199451547 13.053122198449053 0 0 0
102 2 1.4949441065004603 7.931184184347781 12.943257029446592 0 0 0
3302 4 -2.093801022316467 10.738166293947241 14.661626118464952 0 0 0
110 1 0.026980773684434745 8.837117421524828 14.989384462219196 0 0 0
99 1 1.7629954356885809 6.122416851159434 11.02154429406199 0 0 0
191 1 3.1440916005403636 8.871965896884303 10.850504543037399 0 0 0
194 2 2.8417671296629337 10.542517540110532 12.959636275013775 0 0 0
271 1 6.362186538978146 8.706597978037085 10.611930824888674 0 0 0
3177 4 5.883818752305687 6.760301612752436 12.127355929974062 0 0 0
3180 4 5.718259332202573 9.49859898397705 12.779586464055178 0 0 0
275 1 6.504309150172448 8.792133300568734 14.942129982962683 0 0 0
263 1 7.852438008558874 6.146727230333403 10.97472987404505 0 0 0
266 2 7.826922648031939 8.040434739046297 12.906303499297145 0 0 0
267 1 7.802876162970179 6.17724832456884 14.813868105210712 0 0 0
359 1 11.05131554455375 6.227838420710038 11.131987138601694 0 0 0
361 2 11.021226505022412 7.846964158791633 12.886431449112425 0 0 0
362 1 11.103869145989504 6.383834034979606 14.845753416977828 0 0 0
365 1 9.381258835919601 8.913289691448767 11.087434789990137 0 0 0
370 1 9.412751226860266 8.651493335758483 14.794834554632068 0 0 0
3194 4 11.207297618040911 10.071156050421347 12.258860087419379 0 0 0
460 1 12.561584051780695 8.893804506818874 10.902437005019927 0 0 0
532 1 15.88781753100461 8.646807119269374 11.020866721450389 0 0 0
3193 4 13.350022581219857 6.772317956228522 11.590425340052022 0 0 0
3200 4 15.87085441981875 6.012026036796414 11.334280360719497 0 0 0
3201 4 14.224522559176961 9.591332268797112 12.268106951337963 0 0 0
3261 4 14.201567814246253 5.505214296153239 14.513545942118661 0 0 0
3262 4 12.587004817727529 8.421209055609602 14.65831084535937 0 0 0
3267 4 16.552644709868567 8.266825899597851 13.40263769157049 0 0 0
614 2 20.38792455336865 7.68092328918616 12.590947150357309 0 0 0
615 1 20.18375657896882 6.075087683393072 14.63838725713552 0 0 0
620 1 19.06588515873045 9.377202516117803 11.183254214945478 0 0 0
624 1 18.597846066900736 8.709303799123747 14.533721983377553 0 0 0
717 1 21.86931870309877 8.941575051764712 10.951094246899927 0 0 0
3210 4 18.32194927762506 7.211150433139623 11.307187592591085 0 0 0
3274 4 20.483345910314426 9.718142269443742 13.805654019660949 0 0 0
709 1 23.003912276006425 6.224554397525283 11.029969017373293 0 0 0
712 2 23.326890597005345 7.9902689329368615 12.891596874335558 0 0 0
713 1 23.43162041263472 6.303294194458064 14.873269399948974 0 0 0
787 1 24.695713741847918 9.019366054461123 10.976226138244634 0 0 0
3221 4 26.74588527214418 9.517534675598027 11.969006295418751 0 0 0
3280 4 26.254129709484697 5.517089672658893 14.808563255653215 0 0 0
3281 4 22.952392372373954 10.196085784693446 13.705731237792754 0 0 0
3288 4 27.11317996021277 7.598062679393545 13.671258119417612 0 0 0
871 1 29.998986937671305 6.529521155584259 11.089349425577154 0 0 0
973 1 31.33177090474187 8.881171576506638 10.921097455063055 0 0 0
3220 4 27.679012915592917 6.432383611668416 10.757804949611824 0 0 0
3224 4 29.361836412609655 9.347517724139077 11.980259661913315 0 0 0
3287 4 29.299925373752597 5.611182349683187 14.27618693666102 0 0 0
976 1 30.93796754557955 8.932650038096286 14.944987879405268 0 0 0
966 1 32.85206073329592 6.315651972325528 11.10290309600888 0 0 0
968 2 32.40955312654158 8.026085453884384 13.139650631101077 0 0 0
969 1 32.65251848122747 6.163895179562326 14.978989053705284 0 0 0
29 1 -4.761003220288204 11.286327531467501 10.789143811422925 0 0 0
982 2 -7.474385545172408 13.592288096177237 12.746621244169955 0 0 0
3234 4 -5.276771052859605 13.484443168771953 11.228933359054711 0 0 0
3297 4 -7.703342240878613 15.365533679776625 14.367544107078842 0 0 0
3303 4 -5.162757523172653 12.629784852755753 14.167261450236097 0 0 0
3304 4 -5.136861827230975 15.180473977826997 14.071778856642055 0 0 0
125 1 -3.0356169227467307 14.461986076815942 14.846878734015952 0 0 0
204 1 0.15167321127827726 14.324278820125294 10.991520207399148 0 0 0
208 1 -0.23982828704741443 13.853891794424177 14.852692205274657 0 0 0
3172 4 -0.19952784935693568 12.129660450460637 11.995174523297308 0 0 0
3173 4 -2.0837065937035266 14.029700392854657 11.388546622456648 0 0 0
3233 4 -2.852753209664779 11.69052570596323 11.869071099777813 0 0 0
3246 4 0.48747205957877426 15.743410563339365 13.769914560412033 0 0 0
200 2 1.7261078239482126 13.455568730074965 12.97971714939381 0 0 0
197 1 1.7461066577981255 11.624408191586163 10.879838813616004 0 0 0
278 1 4.923434888190116 11.637994634680009 10.59224684537456 0 0 0
282 2 4.428553062468655 14.231732710104849 13.053790036576277 0 0 0
288 1 3.2126792094988446 14.43527098540182 10.873818405420543 0 0 0
386 2 6.618865385392759 15.75308416868693 12.774806598578387 0 0 0
3181 4 4.72975559056778 11.919914694501585 12.817257174490955 0 0 0
3188 4 6.248155440241605 13.685520890262138 11.61037108640793 0 0 0
3189 4 4.683458005193327 16.03913224198984 11.598869230550225 0 0 0
283 1 4.51408560428927 11.171729037214641 14.919807351532643 0 0 0
3251 4 6.70313081471549 10.958958210047857 14.927727517572364 0 0 0
3257 4 9.175134969331344 10.78971513338409 14.391041680010304 0 0 0
468 1 10.857599579261644 11.845615594409091 11.003760232685927 0 0 0
473 2 9.590514990109066 15.735137631689067 12.649228626120742 0 0 0
3187 4 7.683636494686157 10.851169425876348 11.659879013594505 0 0 0
3195 4 9.26961779218832 13.667144213764963 11.490992586608446 0 0 0
3258 4 7.890175970467329 13.694736301393327 14.284660291655427 0 0 0
3264 4 10.685785949894278 13.33009047507705 14.31414143476847 0 0 0
3203 4 11.733526720939722 14.414373684969334 11.89825965060782 0 0 0
3138 4 13.879276234033766 14.281202282143026 10.148932668923976 0 0 0
542 2 13.79051698164638 13.619184902577603 13.004688308948857 0 0 0
543 1 14.141457222362126 11.697452949062454 14.854530803821355 0 0 0
642 1 15.451679180143525 14.211127961816542 14.931999588725464 0 0 0
3202 4 13.2119502280739 11.445178427164608 10.747256344576567 0 0 0
3263 4 12.05836226086928 10.955123625292751 14.745130198791816 0 0 0
641 2 15.560278522999534 15.887142895778917 12.745988053573061 0 0 0
549 1 12.424476092883538 14.57744885614827 14.999085458642256 0 0 0
630 1 16.969620521712788 11.746251240916735 10.931095762490557 0 0 0
634 2 17.034968676380252 13.426971792271763 13.043630910588831 0 0 0
623 2 18.838206062247657 11.216511943556755 12.932776828324684 0 0 0
3213 4 21.224129297648936 10.969844687153593 11.772394632521731 0 0 0
3214 4 19.886295085311716 13.802246668445203 11.104332402572105 0 0 0
3275 4 19.081317789988734 13.122359071472811 14.348324222762638 0 0 0
3276 4 17.17812348308249 15.716268650771893 14.45416335717114 0 0 0
3283 4 20.930672020814956 15.486149253258626 13.173037737467844 0 0 0
3282 4 21.816879207726203 12.85626563668547 13.97754454766281 0 0 0
790 2 24.978650074864873 10.752988578760993 12.886661263271044 0 0 0
794 1 23.36021475639916 11.763404874253993 11.003441300722322 0 0 0
886 1 26.48995364998823 11.639404035423714 10.905797311659231 0 0 0
890 2 26.567188617651897 13.57592020257585 12.77869625689359 0 0 0
895 1 24.724168593689555 14.41930337241371 10.88158073157232 0 0 0
899 2 24.67428513477697 15.9730690629239 13.169823810382642 0 0 0
3294 4 26.836397967747807 15.603444090876133 14.25368363533918 0 0 0
891 1 26.415626083557434 11.539925207824307 14.883491205416998 0 0 0
978 1 29.568753440674804 11.675051001332944 11.152585272528693 0 0 0
983 1 29.78437613825624 11.813687265124129 14.763462565072821 0 0 0
988 1 28.09595017042073 14.325626353828746 10.963428924088063 0 0 0
46 1 -9.44241223048882 19.733587207701408 11.05339934513474 0 0 0
990 2 -8.88020962108338 16.308687340381308 12.437855327934106 0 0 0
3298 4 -10.901744330674829 20.829388784934157 14.320343884219973 0 0 0
50 2 -9.108954578154412 21.343996993624053 12.845576860248887 0 0 0
42 2 -7.947344530419905 18.807153855178385 12.943372921450653 0 0 0
132 2 -4.706338187844876 18.882632868998947 12.974167359790254 0 0 0
138 1 -6.290310679076001 19.573484279707515 11.085918785874803 0 0 0
143 2 -6.47163073318384 21.24327559342573 12.927599756307536 0 0 0
144 1 -6.226179855431779 19.61111980656305 14.920387175792609 0 0 0
3168 4 -8.022896349667992 18.019896648414946 10.491448883373863 0 0 0
3178 4 -4.175289315872227 21.103420516751726 11.350591387484563 0 0 0
3235 4 -6.322757251118082 17.179220444870964 12.288770838903144 0 0 0
3242 4 -4.492022910245381 20.933804942521192 14.227103430917182 0 0 0
3174 4 -3.2465566265688786 16.95152824979304 12.135438568256898 0 0 0
211 1 -0.9389913664735108 16.886063828681316 11.374024690629362 0 0 0
213 2 -1.5864301156191463 18.779712329939123 12.969335278383156 0 0 0
216 1 -3.150635119851568 19.06175064374899 10.907755387634616 0 0 0
301 1 0.2807407437824647 19.641664429915004 11.189150661872624 0 0 0
306 1 -0.058492446561317024 20.02648900216838 14.540392235207147 0 0 0
3247 4 -2.0477543194830954 21.03091725935177 13.511553004866364 0 0 0
3254 4 1.4569404834693316 18.405936037594532 14.21994879312929 0 0 0
3182 4 1.5637491657414948 16.496527526939555 11.194005035247688 0 0 0
214 1 -1.161287431409848 17.114272084763552 14.977923045594288 0 0 0
3253 4 3.3320062840683384 16.199150439278345 13.723659505971494 0 0 0
392 1 3.9821391166382867 17.53699260482425 10.07398716618546 0 0 0
395 1 5.316170713901796 17.3715806172714 14.266631521356441 0 0 0
3190 4 2.799468853731984 18.92516664853436 11.553391060868258 0 0 0
3196 4 4.377661629122709 21.133283409799372 11.56016261225253 0 0 0
403 2 2.4017981673825037 20.73015287061632 13.048171741118892 0 0 0
478 2 5.6426724346664 18.25907548686113 11.741957812485474 0 0 0
476 1 7.92826191356796 17.004702314608238 11.110542183513555 0 0 0
479 1 8.106305853573998 16.494201640584304 14.377256935398336 0 0 0
552 1 10.91523020905187 16.92432268627459 10.844704049308035 0 0 0
555 2 7.527107385333574 18.69190588315457 13.419031253199407 0 0 0
3139 4 10.559234674339503 19.627553637534344 10.160940554737113 0 0 0
3204 4 7.752888365791321 20.68815224925055 11.828859265881569 0 0 0
3409 4 9.607624029236915 18.26881533715818 12.020976231407676 0 0 0
548 2 12.357388332735287 16.335789830801176 13.176288358436086 0 0 0
648 1 13.98067258390219 17.165867653081328 11.242644997046916 0 0 0
652 2 14.206476149539265 18.834700566001374 13.088197736384238 0 0 0
653 1 14.4092757421176 16.902065203333773 14.777741707873993 0 0 0
657 1 12.559710399176808 19.756126346206255 11.178331052976176 0 0 0
737 1 15.654232158188016 20.006888824934737 11.25264869805774 0 0 0
730 1 16.99438379430734 17.098072717595855 10.854579998406003 0 0 0
734 2 17.042895669149747 18.546198831799565 12.955652154866808 0 0 0
808 1 20.38400037778724 16.899840032323116 10.767003599080123 0 0 0
812 2 20.665386748811564 18.59716245297114 12.705170704884523 0 0 0
813 1 20.89646318980914 17.26214771369811 14.72834418841568 0 0 0
814 1 18.767571460200067 19.377084384124352 11.121753116029925 0 0 0
3215 4 18.692250142717764 16.734582100791677 12.255749931723084 0 0 0
3284 4 18.843085928441983 18.216985148996997 14.541287199826435 0 0 0
3289 4 20.032458150982883 20.5471297210659 14.015193604640292 0 0 0
993 2 26.397686263070746 18.83397341728751 12.91596062803886 -1 0 0
905 1 22.775923136858943 17.04916234073668 11.871129659021136 0 0 0
909 2 23.655675273981853 19.049193962866084 13.115873844707092 0 0 0
992 1 26.1003589842054 16.935079223990495 11.383217449457714 0 0 0
994 1 24.76989605893106 19.50553614914573 10.855121506770143 0 0 0
3228 4 24.811228470938634 21.337472774731527 12.115586396083462 -1 0 0
56 1 -10.815319871296325 22.429925908028217 11.126679144080484 0 0 0
63 1 -12.523017564059312 25.16992991892317 10.816028635605281 0 0 0
155 1 -9.047761823243597 25.125461027496904 14.562805596185399 0 0 0
3236 4 -10.804340459600304 24.543093078535765 12.323040446206736 0 0 0
3299 4 -12.135896849491896 23.183885839309195 13.951220027600591 0 0 0
3305 4 -9.222228793711409 22.817548898614426 14.746077231708632 0 0 0
68 2 -12.323117329202251 26.630436815826346 12.949522101382623 0 0 0
154 2 -9.265128273372945 26.8995036884322 12.91169577750102 0 0 0
230 1 -6.6009146859073695 25.44602872592334 10.911664739361505 0 0 0
3175 4 -6.796368368220315 21.93529694810801 10.719503598815791 0 0 0
3176 4 -8.107605356704774 24.31447636455291 12.417302035534096 0 0 0
3179 4 -4.9299592433027275 23.872494383559612 10.823675507182529 0 0 0
3243 4 -6.691035000115446 23.191528885186447 14.32493946968026 0 0 0
3248 4 -3.9082416235374904 23.490485443112828 13.951379931021808 0 0 0
233 2 -6.3048530457083665 26.88375167229806 13.028042257732839 0 0 0
305 2 0.07190493001994192 21.74067875831781 12.725565796712807 0 0 0
318 1 -3.2236972473312626 25.340429443564037 11.115074476786791 0 0 0
415 2 1.1866899993197304 24.183166423190645 12.850548927369339 0 0 0
416 1 1.4055566910037278 22.412411431153448 14.850885048518286 0 0 0
418 1 -0.0964397151003542 25.204462409732013 10.985408169814406 0 0 0
423 1 -0.07916857140198452 25.109901395826014 14.856619729868406 0 0 0
3183 4 -1.4148712132081283 23.507980986402174 11.773148446732662 0 0 0
322 2 -2.9942287312450393 26.884098092578537 13.22460542811941 0 0 0
313 1 -1.6372703845552703 22.67745179411099 14.971450119547214 0 0 0
422 2 -0.1496924389555616 26.914694163869214 13.026534152865885 0 0 0
483 2 6.039325635220381 21.83590958592225 13.269838250876582 0 0 0
410 1 1.9599533852714988 22.470296377571305 11.0095307419719 0 0 0
495 1 2.8391724321045118 25.12909499027472 14.639088571062292 0 0 0
3197 4 3.408495807507876 22.989930544052786 13.752905269054786 0 0 0
3198 4 2.006623733670036 26.400083884503854 12.328658387621271 0 0 0
3205 4 5.474337092063697 23.69639530860567 11.839110005913167 0 0 0
3206 4 5.478480912595687 26.606440655264937 11.61422354717103 0 0 0
3269 4 5.50834947010849 23.94747955919255 14.81161300553763 0 0 0
663 3 9.35958655958427 23.856585717177147 10.054233227017875 0 0 0
3211 4 9.605494155407314 23.77590525988298 12.49248124087493 0 0 0
566 1 7.651345782635634 22.867394664355615 10.95730754000423 0 0 0
570 2 8.507976008436795 22.163128084812705 13.822503505076938 0 0 0
661 1 10.722043091257701 22.410683869753 10.83594416318331 0 0 0
664 2 11.454735470454402 26.336877461392305 12.374555659225209 0 0 0
669 1 9.441345980008993 25.545072541430166 11.079770656406115 0 0 0
674 1 7.248567229079287 24.407341949294523 13.209677672131935 0 0 0
3272 4 11.63519954413585 24.410952507818493 11.159417063649396 0 0 0
666 3 8.635248395973493 24.079829234144675 14.499625573428638 0 0 0
665 1 10.541611334217464 23.321454511552943 14.531873365307732 0 0 0
3428 4 10.195238023337412 25.58067000489605 14.239024943392259 0 0 0
755 3 11.671300874624423 24.417148463992067 13.248331402677632 0 0 0
673 2 8.532478364872073 26.927759510840616 13.027062880396937 0 0 0
744 1 13.876675250927553 22.75794134703652 11.07114025712361 0 0 0
748 2 13.677137939053713 24.62992644672673 12.912779099028999 0 0 0
829 1 15.46277575839409 25.30395758248055 11.195420582699395 0 0 0
833 1 15.761786962342246 25.246939532399395 14.356996213609833 0 0 0
1769 1 12.518815537661451 25.952585303353384 14.590727023203108 0 0 0
3216 4 13.57617490561914 26.84181307811901 11.44605866789237 0 0 0
1012 2 21.90482881157073 26.533670003430107 12.725849477339882 0 0 0
1009 1 21.71673407441365 24.931106652717183 10.721671694470626 0 0 0
3222 4 19.036398160502475 21.612253560169112 11.19179254398194 0 0 0
3223 4 17.328827564231766 23.78407808199254 11.280362753240293 0 0 0
3226 4 20.82570187105889 24.20447931553134 12.925902387568236 0 0 0
3290 4 18.564073873096785 23.36642116396333 13.948609764698901 0 0 0
3225 4 21.896999492565214 21.567471657222498 12.433440908639703 0 0 0
936 2 18.11106908878457 26.799590008056967 13.183236999855808 0 0 0
1013 1 21.615449175127637 25.013184324918733 15.00841405352552 0 0 0
1003 1 23.21723091822007 22.406042020543463 10.717280067630039 0 0 0
1006 2 23.229208139470767 24.049754515031935 12.740826373387588 0 0 0
1007 1 23.21463936861057 22.4374588630648 14.949324455396859 0 0 0
1021 2 -16.716170493437243 30.20846293269154 13.317089553640365 0 0 0
3229 4 -16.389957439704517 29.043744778805593 11.152319914874045 0 0 0
3238 4 -14.471238242415431 30.924220293222316 11.856373946489892 0 0 0
3300 4 -15.221076962732969 28.565538058563163 14.206429215396678 0 0 0
159 1 -10.879263271649066 27.79102231859388 11.071699039862306 0 0 0
161 2 -11.140375018013142 29.67093855679409 12.897829593338294 0 0 0
162 1 -10.962831504012055 27.864657354901624 14.588792558459225 0 0 0
165 1 -12.441228315893017 30.646384215072633 10.9238840198107 0 0 0
168 1 -13.206872346186968 30.4150891945285 14.294807070435446 0 0 0
244 1 -9.315555703214569 30.487380640870946 11.085563921556577 0 0 0
3237 4 -13.161783676326749 28.607849489834447 11.76734848148054 0 0 0
249 1 -9.810031234873001 30.613702114751177 14.998623763682836 0 0 0
238 1 -7.702962709102005 28.00856003181102 11.243449193167535 0 0 0
241 2 -7.902374636303728 29.701385979684428 13.235290604935859 0 0 0
3184 4 -5.815162509968937 29.02706604746137 11.866116195411674 0 0 0
3185 4 -7.003922951851296 31.44269916004695 11.795407506218243 0 0 0
3192 4 -3.7964051130578547 31.58111851973606 11.982294796269905 0 0 0
3255 4 -5.333715691594078 30.53734495385849 14.436955092592118 0 0 0
501 3 0.6944853105013316 28.489054242121746 10.10509480502493 0 0 0
508 2 -0.11686699110933318 32.23794167453819 13.192289163187226 0 0 0
427 1 -1.3054838858169422 27.805267896295057 10.952716843970354 0 0 0
429 2 -1.385577773147471 29.53358631012003 13.134308587470684 0 0 0
503 1 1.4248934783395342 27.786142127630733 14.932507300212407 0 0 0
506 1 0.016201357784108694 30.434806177598116 11.123357839771444 0 0 0
3191 4 -3.30931248780243 28.767114908409123 11.573663394473076 0 0 0
3259 4 -2.452611325261733 31.291844044407508 14.305693092377528 0 0 0
502 2 1.5831391520617935 29.5090939797522 13.060234805119613 0 0 0
678 3 5.584498248958326 28.39047234403135 10.082497065933861 0 0 0
594 2 3.117048430312895 32.10498962270987 12.89992416477832 0 -1 0
590 1 2.9853494103873466 30.425683543991237 10.85602063626029 0 0 0
684 1 6.113723027466747 30.42455600153212 10.915490125580185 0 0 0
690 1 6.407979303188302 30.326752777398546 14.270900493258509 0 0 0
3207 4 4.559766097855174 29.08600612029278 11.903121736521257 0 0 0
3270 4 4.716378649347824 29.054415875865864 14.838851613235814 0 0 0
3155 4 11.788218876599128 31.818272445357813 10.012675382961355 0 0 0
677 1 7.604874374016152 28.02133859242307 10.821465642651415 0 0 0
680 2 8.61186076966516 29.433754784294578 13.096817041438861 0 0 0
3218 4 10.71880374772104 31.222555149345744 13.929606503313138 0 0 0
3217 4 11.111713639372933 28.515009222422385 11.919926927947067 0 0 0
839 1 10.36096593311224 27.723575883090163 14.21735729226221 0 0 0
832 2 15.154996984945639 27.214861816623497 13.09704611935933 0 0 0
759 1 12.926752851201599 28.364368186321972 13.268480280381034 0 0 0
840 2 12.742511204483613 30.465823943605173 11.982559951640521 0 0 0
847 1 12.886382964780314 30.991283427801207 14.40753368022953 0 0 0
948 1 15.337063042881464 30.650254528496312 10.864055935865867 0 0 0
3291 4 15.159510070320742 31.118098691321983 14.04077570192042 0 0 0
940 1 16.851996589058537 27.861561693412472 11.055863991585223 0 0 0
944 2 16.94790761471394 29.648934357673127 13.066125453059684 0 0 0
1017 1 19.817688500439075 27.131481048497626 11.299162545455808 0 0 0
1019 3 18.744138299705916 28.689116676334493 10.14760140440265 0 0 0
1023 1 18.765715555667814 30.355770076227444 11.478806605257965 0 0 0
1027 1 18.401680989140424 30.829980244659755 14.846482064966604 0 0 0
8 3 0.21394754681578454 2.1035191420759767 16.05458494001812 0 0 0
13 1 -1.4178613568173917 2.7524657849285785 17.315302052019486 0 0 0
15 3 -1.550185918283216 4.660012322115532 16.296242981631202 0 0 0
1029 3 1.6173546422967333 0.9262438533138683 18.612653010795878 0 0 0
1034 3 0.07021542837386674 3.630998808123697 18.57958796987953 0 0 0
1117 1 1.4725387832082588 4.688787125164038 19.62100190890466 0 0 0
3505 4 0.05004822082595162 1.5185066809259375 19.937298830105924 0 0 0
19 1 -2.7613768831263705 5.3441538048254715 17.614516942944412 0 0 0
6 1 -0.037544978553266994 0.14816592222292976 17.34593243594305 0 0 0
95 1 1.6905992234193719 2.675069780985275 17.538388929659455 0 0 0
3240 4 5.004776524792182 3.044804785673852 15.047909184504825 0 0 0
3301 4 2.1886265528580218 3.1154667396193774 15.298225578268454 0 0 0
88 1 4.877436940135968 0.8022833474140111 15.199313537614621 0 0 0
89 3 3.338597193984947 1.6683624686788991 16.309693495742817 0 0 0
176 3 6.274046297874674 1.8963573143814871 16.464804857211934 0 0 0
182 1 4.643633544201231 2.8875330333548597 17.624264069819528 0 0 0
183 3 4.404568074613465 4.690895195211549 16.32400216774846 0 0 0
1110 3 4.694192060080911 0.9912412864219905 18.74073228893816 0 0 0
1118 3 3.0278604766157686 3.2074601789659685 19.255948876422927 0 0 0
1194 1 6.426323926746393 1.7676829177183353 19.708205400118 0 0 0
1201 3 6.739746430478785 3.552275343424717 18.42061044305983 0 0 0
3449 4 5.051294715533892 3.6909296755400764 19.880918152062357 0 0 0
86 1 -15.35442262956559 32.28622605896948 17.427892317738323 0 -1 0
1286 1 9.344648993461142 2.17187414206376 19.81546255691188 0 0 0
1287 3 10.811196187367123 1.1126711279517558 18.544852804102376 0 0 0
3313 4 7.07377808528834 0.07477239867989816 15.4599395339011 0 0 0
3314 4 8.683855861829594 2.2915102744811273 17.513522505857463 0 0 0
3315 4 7.888816105039465 5.205352518736263 16.866520933621267 0 0 0
3321 4 10.388671519018512 4.829574482171938 16.246315401910607 0 0 0
3391 4 9.19924709842163 4.485131753182658 19.35036110716695 0 0 0
3320 4 11.798597731183952 2.2882483163172243 17.06162880460725 0 0 0
355 1 12.375232298465852 3.2636513717256714 14.98887683746878 0 0 0
350 3 12.00284432092775 0.8138975312897518 15.433787863090405 0 0 0
440 1 15.60940844604926 0.11808468406202774 17.572887319794575 0 0 0
443 3 15.500522829150382 1.7131313462791207 16.181268677975584 0 0 0
450 1 14.033874619458173 2.662281421357604 17.428727572901273 0 0 0
452 3 13.90306566608122 4.341385439349586 16.311057434723832 0 0 0
521 1 16.774152624926593 2.780281954394914 17.563142549768013 0 0 0
522 3 16.774753619225848 4.667199860891341 16.09815136376384 0 0 0
528 1 15.472511982463228 5.274233250214822 17.525184501665247 0 0 0
1363 1 12.314089810339723 1.8430499941788663 19.916957718937972 0 0 0
1364 3 13.912298340108414 0.9950093450290911 18.673519256863273 0 0 0
1461 3 15.426485168644078 3.604239924167347 18.79478075800819 0 0 0
3395 4 12.634154701386112 3.939115002978638 18.930539877637266 0 0 0
347 1 12.398919907745316 0.07161612400612113 17.43031426880816 0 1 0
1454 1 15.537234157593224 1.7556121282964077 20.005779171058954 0 0 0
442 1 17.189077316644905 0.9363748059812239 15.10076147952282 0 0 0
609 3 20.177489857166265 4.613401230007842 15.948885654998008 0 0 0
613 1 18.496423181298162 5.2735286471907115 17.10530926907364 0 0 0
1455 3 17.09613584341163 0.8935956180649354 18.7680405671096 0 0 0
1630 3 21.94955545502396 3.6714632143468875 18.682621781048294 0 0 0
3332 4 18.039500448846567 2.9720924069752477 15.738688034945937 0 0 0
3339 4 21.024801613969927 2.8197394621088865 16.903132117909163 0 0 0
3413 4 18.479370540052994 2.5797979460658405 19.044639401852017 0 0 0
3338 4 18.45403901053255 0.04296009742815022 17.30054321849437 0 0 0
602 1 23.032714505113912 0.7911618648812953 14.994192717404115 0 0 0
696 1 26.33696875800943 1.0306785875990159 15.184528125206992 0 0 0
697 3 24.416439495748573 1.8439426428191266 15.808499682162587 0 0 0
704 1 23.403757357502986 2.6810998094268346 17.430755972122927 0 0 0
707 3 23.35329102095661 4.488376071104684 16.19188585219295 0 0 0
776 3 26.455006031821952 4.343290889686708 16.41056014466092 0 0 0
1624 3 22.722727584884986 0.995360158552397 18.453636496278108 0 0 0
1721 3 24.72814516188984 3.449268290649552 18.63114080949658 0 0 0
3354 4 25.89067868303084 2.5203616296995883 17.129107283201865 0 0 0
3423 4 24.176442812113116 1.7777180129211805 19.806686551674222 0 0 0
3424 4 26.386521830369055 4.511932509898785 19.18517992736563 0 0 0
3353 4 24.472279998651715 0.30934855381819293 17.27547230145053 0 1 0
866 1 31.28732436028965 3.5355823621397633 15.013172343695413 0 0 0
772 3 27.89486174598152 2.277824802932659 16.427603191449496 0 0 0
857 1 31.35618726301731 0.24931843896707082 17.26383099751282 0 0 0
858 3 31.218794834707627 2.014898337346621 16.298205732196777 0 0 0
864 1 29.76579992866273 2.805333277928204 17.403215471516123 0 0 0
1792 3 29.890337158158218 1.0779410884553764 18.495050360933256 0 0 0
1880 1 31.228036212809023 2.211140039184297 19.78243032495752 0 0 0
1886 3 31.17370310289012 4.152605685972094 18.52679152362235 0 0 0
3359 4 28.178362255029448 0.22067556579262426 16.676563815752495 0 0 0
3364 4 30.30906322571433 4.882814350630073 16.615988373582418 0 0 0
3430 4 27.885807485006268 1.7430558164490384 18.70823461274268 0 0 0
3431 4 28.98796443365975 4.147066676331019 18.97027662466574 0 0 0
873 1 28.02489907309435 5.324578334041644 17.052594716412376 0 0 0
961 1 32.707668344427304 2.7672295625931635 17.592850000341286 0 0 0
1881 3 32.670047372777574 0.984014210700976 18.747725291102586 0 0 0
1957 1 34.30845993940743 1.918549633206163 19.764444409994336 0 0 0
1958 3 35.74530412522421 0.9910817288800227 18.518079762798088 0 0 0
1964 1 32.90121279074102 4.744243775051728 19.682927480257295 0 0 0
1965 3 34.29413281162242 3.650151706373763 18.60082377892305 0 0 0
3369 4 33.60591665049096 0.8968410235722699 16.65291478509921 0 0 0
3370 4 32.852496833607134 4.599439548086408 16.47537855902328 0 0 0
3441 4 -3.4379997202910966 6.94911182074179 18.9253713992011 0 0 0
101 1 0.0459881822477195 5.521689618139341 17.46394843391054 0 0 0
21 1 -1.6573211667910206 6.418030923520859 15.132727479952734 0 0 0
22 3 -3.1909727730173927 6.988980636136238 16.62363615445791 0 0 0
103 3 -0.1202621341973007 7.4782596595925055 16.501385814307145 0 0 0
109 1 -1.5971271150624453 7.997821578892574 17.663120465258114 0 0 0
1041 3 -1.3687309391901428 6.207549853215645 18.831602382170395 0 0 0
1126 3 1.6006386794071994 6.50355334231789 18.58487182113587 0 0 0
1136 3 -0.2827448335212832 9.068876087784304 18.858703193634373 0 0 0
3306 4 -0.33318508062576235 9.94974747952061 16.95014817731217 0 0 0
1125 1 0.12182974948678993 7.247837368595479 19.97404233273867 0 0 0
196 3 1.6851358331363864 9.63876900559678 16.315929714132867 0 0 0
3245 4 4.720308474671589 7.588316264979194 15.03459848283305 0 0 0
3386 4 1.7116859469709622 8.742806445074532 18.310339663760562 0 0 0
195 1 2.9194795623668535 8.841273164052192 15.01361207984096 0 0 0
265 1 5.919182000282879 5.438486993807669 17.646042475459314 0 0 0
268 3 6.388912901970742 6.996536806750872 16.217444943940357 0 0 0
274 1 4.806229478682685 8.003048316558813 17.240496936239698 0 0 0
276 3 4.870671364274201 9.59939760063523 16.034803584941557 0 0 0
1206 3 4.51673456243679 6.536385647368718 18.602334500308256 0 0 0
1303 3 6.167510859970094 8.894312226180743 18.559416357418577 0 0 0
3311 4 2.672264845780977 7.159252566596509 16.730207487092148 0 0 0
3385 4 4.208734949840601 8.542123317398469 19.365403005414784 0 0 0
281 1 3.325656745968584 10.552529510074372 17.43373731266774 0 0 0
1299 1 6.154904202634185 7.225642305484715 19.879812964579806 0 0 0
363 3 9.312977809736978 6.948279938360703 16.133440715816903 0 0 0
369 1 7.78933501301837 7.922424627720091 17.479045538356473 0 0 0
371 3 7.965648204706989 9.743095483587421 16.093949667170293 0 0 0
464 1 10.462188234408597 8.624615592927281 17.267367725339447 0 0 0
465 3 10.634666296728287 10.037046774058417 16.00439594741038 0 0 0
1300 3 7.714558509699593 6.130567894251269 18.839412912094872 0 0 0
1389 3 9.174356845276792 9.015237875153987 18.856797368898444 0 0 0
1472 1 10.843905608803261 9.961788478235942 19.7515498469952 0 0 0
3396 4 9.732211914425228 6.716066767067949 18.151442174599886 0 0 0
1388 1 7.49952765852429 9.855094616206072 19.89532833552947 0 0 0
458 3 12.801974767816331 6.783842170822789 16.006782146067923 0 0 0
529 1 16.49240093824438 6.621195685765613 15.1909289372589 0 0 0
536 3 13.759549549656047 10.060986108811683 15.999246777286004 0 0 0
3327 4 12.741494889874904 8.74238696124966 17.253552184860137 0 0 0
3333 4 14.82395567617 7.232436453486491 16.564363567366044 0 0 0
3341 4 15.90883778531516 9.776789511477853 15.608655874472962 0 0 0
3401 4 13.950579449869323 6.353329844255161 19.500684185563347 0 0 0
3407 4 15.118603797058832 8.90977168790837 18.77592858463916 0 0 0
633 1 15.199512740010531 10.73282307900442 17.450084369836564 0 0 0
711 1 21.7275884352533 5.449141521885204 17.30936913177036 0 0 0
616 3 18.489067091435405 6.809447836171558 15.563915765327046 0 0 0
625 3 17.938332203048326 9.580544797110944 16.358043697289496 0 0 0
714 3 21.731597260737946 7.231860826752871 15.81334132415494 0 0 0
1554 3 17.162292462826674 6.038779257208355 18.569843978300973 0 0 0
1638 1 18.65352798212581 7.3526571421977875 19.40912263680484 0 0 0
1639 3 19.792986524915865 5.644249844959111 18.578539474890558 0 0 0
3340 4 17.484125418661478 7.585397242870946 17.224006750202847 0 0 0
3348 4 20.014869776627748 6.982683736789688 16.879986787651326 0 0 0
3414 4 17.744712597091436 9.60735060931726 19.385212140298208 0 0 0
3418 4 21.363495656306053 6.997896824248984 19.149459372853183 0 0 0
3419 4 20.108043948462665 9.482596417868649 18.04531546009441 0 0 0
3356 4 22.060779695132283 9.543266755642582 16.058566688233846 0 0 0
791 1 24.881171986333488 8.988461509034519 15.01293297044824 0 0 0
781 1 24.885139067511933 5.411847192256085 17.505217603994726 0 0 0
782 3 25.242205543333778 6.9885694573553145 15.859599604460076 0 0 0
879 1 26.791032110058406 7.853736373385152 17.147854871309534 0 0 0
881 3 26.52034793086368 9.774758594749954 16.315921098591293 0 0 0
889 1 24.92348689398433 10.615482006146811 17.48434284119021 0 0 0
1729 3 23.28985297052158 6.106575486314318 18.82347380178679 0 0 0
1806 3 26.91753252239109 6.264257233275849 18.257376160534267 0 0 0
3355 4 23.457568065292058 7.239549170197223 17.00294345006467 0 0 0
3425 4 25.199679485242967 6.948308202995854 19.23745299085889 0 0 0
3426 4 23.395419942522423 9.405812964429069 18.820730652512793 0 0 0
3432 4 26.44811398617805 9.437676374207316 18.706009088260043 0 0 0
880 1 28.108849834179303 9.19325557113771 14.982559207452773 0 0 0
874 3 27.81234775657382 6.897365724423291 15.598455937362203 0 0 0
977 3 29.65112331942559 10.074849713574276 16.241677654356508 0 0 0
1892 1 28.384215721213643 7.096421341348243 19.47923595657393 0 0 0
1898 3 28.43506636030816 8.84523916735751 18.460538413711735 0 0 0
3365 4 29.16385826081415 8.020877682000735 16.726917608633244 0 0 0
3371 4 31.942584163256576 7.6053702489609485 16.683360114601967 0 0 0
3436 4 30.50654065093298 6.395841535214016 18.774679936427162 0 0 0
3442 4 30.493507011892312 9.425406549188358 18.396117626431327 0 0 0
981 1 28.0482084298173 10.735147273270119 17.599799790438635 0 0 0
33 1 -6.1736671827654686 11.279624781318168 17.341260549667002 0 0 0
34 3 -6.353407646709376 12.947819479914182 16.168549387962475 0 0 0
118 3 -3.5068864949685348 12.692847220409499 15.679178151604397 0 0 0
124 1 -4.553052881398608 13.635711203727517 17.38806266027733 0 0 0
126 3 -4.615311097578362 15.344333534412096 16.10792366618388 0 0 0
1053 3 -4.592924375247408 11.885378654605898 18.72572591667197 0 0 0
1063 3 -6.287441946513629 14.445668138077771 18.67069476097931 0 0 0
37 1 -7.6797031590230445 13.453947236579745 17.654707057308983 0 0 0
131 1 -6.3038872492994 16.112589366958304 17.327580104497358 0 0 0
201 1 1.3795267182573063 11.48186492983699 15.142444680897068 0 0 0
202 3 -0.2077355773271199 12.268544015929105 16.586493020571393 0 0 0
207 1 -1.3357713049343012 13.904620093977352 17.507001620576137 0 0 0
209 3 -1.4018330392242522 15.255406432874262 15.922483337595757 0 0 0
212 1 -2.929257430938808 16.08224252297932 17.20497829962863 0 0 0
292 1 1.474393710866595 13.392035845852718 17.404614110570648 0 0 0
1144 3 -2.955901435517384 14.479262346989447 18.681546733357486 0 0 0
1230 3 0.1632599984015446 14.108077832116768 18.880246521019227 0 0 0
3307 4 -2.2873949931590722 11.81916487429419 17.269787599584905 0 0 0
3380 4 -0.38983100055263975 12.06648088660407 18.916174686432353 0 0 0
1139 1 -2.7605045928091396 12.476419344784063 19.612050984097046 0 0 0
378 1 6.328023270163265 10.78455706520162 17.31878224845254 0 0 0
387 1 6.17360694642408 14.765008110590848 15.043225090122572 0 0 0
293 1 2.759477258917121 14.469178565495243 15.067721271736794 0 0 0
3252 4 4.5904924151414095 13.307295708271692 15.146440899556126 0 0 0
284 3 3.09034337606238 12.380321207513663 16.289088997539352 0 0 0
379 3 6.276629199242492 12.60961239882185 16.03814255680254 0 0 0
385 1 4.696223884116453 13.399925761591403 17.439854790878258 0 0 0
388 3 4.512179990966709 15.191447420577704 16.31034988490241 0 0 0
394 1 3.0124502393167987 15.927857465881957 17.712121521906802 0 0 0
1308 3 4.767503311234625 11.721244897278073 18.600629850053767 0 0 0
1315 3 3.0825125321441487 14.174581817247066 18.811508138614276 0 0 0
1410 3 5.920572589964735 14.454455929104476 18.887195356691134 0 0 0
3387 4 2.572637549882253 12.119335258368551 18.86369219614544 0 0 0
1400 1 6.484128394757032 12.548267794000333 19.71264595202471 0 0 0
474 3 7.959318277693974 15.388347774954488 16.078581666600822 0 0 0
1401 3 7.868210432703202 11.823613286015728 18.564932596554705 0 0 0
1479 3 10.592716425454244 11.865684196967413 18.671625641174884 0 0 0
1486 1 7.668896604908621 15.202443808047898 19.788207370398013 0 0 0
3328 4 9.218785625955828 11.36454601051182 17.037092535552596 0 0 0
3329 4 7.222762528300624 13.867675541736295 17.387550126984348 0 0 0
3334 4 11.252512039345646 14.099778427601812 16.92941589420236 0 0 0
3403 4 9.179241453158689 13.548236946651722 19.129623989403658 0 0 0
3408 4 11.251225744803298 15.40212030290949 19.709385259022195 0 0 0
3268 4 10.141442652400697 15.988688828955544 15.235923368128262 0 0 0
3335 4 8.921857334162453 16.12426375066951 17.97373208233686 0 0 0
541 1 12.187776381554162 11.04648354191695 17.235133341143815 0 0 0
544 3 12.437926971865629 12.668994420758146 15.89218762362042 0 0 0
636 3 15.548297637662095 12.351423835857668 16.176500032000117 0 0 0
640 1 13.94680979792533 13.382372922901201 17.295409168275068 0 0 0
643 3 13.830528713221144 15.29065036301695 16.25035127188034 0 0 0
651 1 12.296005600787014 15.923393616209802 17.75654822601906 0 0 0
733 1 15.301534942577696 16.03931897733538 17.539763818993134 0 0 0
1571 3 13.937222202291085 11.68260359458366 18.607505163549956 0 0 0
1575 3 12.561653433695353 14.12101269594667 18.682512076510484 0 0 0
1660 1 14.044339596898725 14.910898802878153 19.905050702406108 0 0 0
1661 3 15.548630311092268 14.132800016201069 18.614099383170387 0 0 0
3415 4 16.394206132219583 12.074566836667247 18.89548313452942 0 0 0
635 1 17.360262712070874 11.474710565688717 15.017215190475447 0 0 0
727 1 17.01214730638137 13.450663333019726 17.156432795879255 0 0 0
722 1 18.48249983383321 11.060273579403669 17.708369163724534 0 0 0
723 1 20.33361800859496 11.449608933048081 15.27880928088458 0 0 0
724 3 18.79668585159483 12.411423230705662 16.36890275224672 0 0 0
799 3 21.80884534741591 12.579365140579855 16.36584714756809 0 0 0
803 1 20.290981772344068 13.322376567449238 17.744486064246114 0 0 0
804 1 21.38144069855356 14.519140067207973 15.481244237653243 0 0 0
1740 3 20.197884446588624 11.588762169686015 18.98930007887015 0 0 0
3357 4 18.953054506225875 14.532920161614586 16.337431831250495 0 0 0
3420 4 17.645648600609448 14.699415977150318 18.881324612228468 0 0 0
797 1 21.84540827624291 11.006207240694598 17.84372150573111 0 0 0
1739 1 18.613034194181708 12.865045840946134 19.989504003921894 0 0 0
1831 3 22.040362477233103 14.216820458720159 18.704938406414676 0 0 0
798 1 23.40678471950541 11.733379695202483 15.270851641786571 0 0 0
898 1 23.31890626481991 13.560636760419175 17.516449408927272 0 0 0
900 3 23.00635646956074 15.340660649570676 16.49329726468997 0 0 0
1902 3 26.31171840921389 11.580427850570368 18.731084232361354 0 0 0
3366 4 25.007565295741955 14.621544401183545 16.182062181595036 0 0 0
3433 4 23.92509313084274 12.162945971502126 19.171298018126347 0 0 0
3437 4 26.109975046623646 13.726304954056758 18.89394558668836 0 0 0
1991 3 29.62257160213879 11.660918238606676 18.820855460875674 0 0 0
3372 4 28.025549407425423 14.69619802687037 16.608863656585562 0 0 0
1990 1 27.8932496555959 12.588299443676267 19.96978245939167 0 0 0
51 1 -9.341715927493546 19.386155563105444 15.097729754690022 0 0 0
52 3 -10.736350035127087 20.428279549209247 16.482838160600277 0 0 0
1077 3 -9.145348141745252 19.18678250461826 18.928759933865546 0 0 0
3443 4 -9.277650466664332 16.833230904836118 18.48755528416191 0 0 0
3446 4 -9.907426281260884 21.14850613328575 18.677000304222474 0 0 0
49 1 -10.69068627753887 19.008072183582435 17.79451027237362 1 0 0
133 1 -4.498587692509419 17.200747501901265 15.060602887996701 0 0 0
134 3 -6.2189973961004155 17.947511032845032 16.240616090364014 0 0 0
142 1 -7.631670025089383 19.012377920738192 17.524221689991936 0 0 0
145 3 -7.763350575987844 20.489280837030464 16.115697505943135 0 0 0
219 1 -4.805346190545959 18.733410399614105 17.49581468674623 0 0 0
221 3 -4.666331464095732 20.48839676113644 16.31016329107924 0 0 0
1150 3 -5.2779016558426495 17.221308906353798 18.749341646889196 0 0 0
1157 3 -6.217232271700979 19.980032755001446 18.60457842725679 0 0 0
3375 4 -8.310169615487679 17.486217546111646 16.023870938679526 0 0 0
1246 1 -4.731169326915954 20.72860783310135 19.841578294673862 0 0 0
1156 1 -7.915208522381294 20.652008148837613 19.84108572548812 0 0 0
3381 4 -3.2490933198705267 16.695483989108585 19.216256076340116 0 0 0
220 1 -2.9128096043506275 19.625443431393325 15.182027186022808 0 0 0
215 3 -2.849743414410227 18.034466055430443 16.47032439260796 0 0 0
307 3 -1.4326501832462082 20.931319617909068 15.871291021003739 0 0 0
405 3 1.4525259393882362 20.61085649525231 16.100857743683918 0 0 0
414 1 0.05416790040339592 21.318915189018828 17.37286169761761 0 0 0
1239 3 -1.2961259270161314 17.43375997354117 18.202178436743377 0 0 0
1325 3 1.3171656620531778 16.97956899572183 18.661123157308896 0 0 0
1331 1 -1.419208409939472 20.236670574188416 19.925677101196197 0 0 0
3316 4 0.3257263961030663 16.335036625039848 16.78983066750818 0 0 0
3317 4 -0.7546837814807521 18.984022295189604 16.59509861680811 0 0 0
3388 4 -2.7221703120380774 19.139549676440016 18.341015873305338 0 0 0
3392 4 0.3830008700189502 18.83828770046595 19.2211868185644 0 0 0
3398 4 1.455503217371593 21.035635997299252 19.50802837652299 0 0 0
484 1 5.821614464501046 19.736129516522396 15.186231484216314 0 0 0
477 1 6.121633202598618 16.152783317147534 17.383704119864724 0 0 0
404 1 3.0940427976779254 19.648507744214506 15.31743641801296 0 0 0
480 3 5.502794049745468 18.09949941531625 16.26466772898412 0 0 0
482 1 4.312348767976625 18.651662859617574 17.63503673588168 0 0 0
485 3 4.4923583846127375 20.552230959956095 16.871883115119367 0 0 0
1415 3 4.444022786652427 17.07290747535092 18.790402409303866 0 0 0
3322 4 3.7752213743820633 17.184083029970694 16.01204159831212 0 0 0
3323 4 2.114567026260289 18.97718669342403 17.357686246209113 0 0 0
3397 4 4.001383678926089 19.397407295107758 19.638407708367822 0 0 0
1414 1 2.5852962234335575 17.744008303660614 19.923953229484432 0 0 0
3404 4 6.35192058151639 19.70004990837855 17.676126956329856 0 0 0
489 1 2.7612739834053475 21.36203183644407 17.62801252245143 0 0 0
3343 4 6.824500297397437 21.386255838198686 15.959651435470658 0 0 0
1589 1 8.758918221593268 19.3776823637102 15.358213514835821 0 0 0
1493 3 9.94667650562638 17.853147617888588 16.997184756629707 0 0 0
3336 4 7.461443697468519 17.558070613625464 16.165217171011683 0 0 0
1684 3 8.471075096618142 20.504501046196566 17.132594384195052 0 0 0
1682 2 10.488782373771446 19.849163575557856 17.014420778632605 0 0 0
1588 2 8.453346705734656 18.71664428550004 18.024772434534622 0 0 0
1760 3 9.973820685703135 19.448006761407807 19.180195344999134 0 0 0
1867 1 7.498923570362482 20.86136487452618 19.564405723927024 0 0 0
3540 4 11.56924942989546 18.274384788415404 18.421060940370865 0 0 0
1582 1 9.955843723949846 17.203076195320104 19.86232096392711 0 0 0
3607 4 9.842377835460558 21.417112857988567 18.815469759685588 0 0 0
1689 1 12.335597871180335 20.851885330581375 18.64207540867691 0 0 0
3278 4 15.405814707619289 19.98831139572557 16.133296956810923 0 0 0
3342 4 12.486601937324808 17.178878782667105 16.023214984598763 0 0 0
735 3 15.388487763637151 17.827029542903684 16.32341167063219 0 0 0
741 1 13.840151782395818 18.77642886879636 17.222613636772873 0 0 0
1671 3 13.98182765639733 17.010206978038877 18.774457048080496 0 0 0
3349 4 15.638169729595614 18.53115063678253 18.30688671610684 0 0 0
3416 4 13.592147653553688 19.093557583787554 19.546049240883473 0 0 0
1764 3 14.435425660049326 20.373847035774787 18.05744388932583 0 0 0
1757 1 15.154965438074205 20.667802580308123 19.770290886393763 0 0 0
1853 3 16.56958661335912 20.589755521745303 17.863266767132448 0 0 0
3285 4 17.868750888800847 21.20939360465643 15.261740294944865 0 0 0
920 1 21.950201358461364 19.75199115578321 15.11432727423474 0 0 0
1758 3 17.64404168323093 18.34290116697105 18.900626403009905 0 0 0
908 1 21.874830548393305 16.204498778412972 17.814841749796965 0 0 0
1844 1 17.65214187486435 20.2145449611788 19.846691956847486 0 0 0
911 3 21.91159163726826 18.04523000092189 16.46661986869901 0 0 0
919 1 20.368651524549392 18.903303547753776 17.569758072735603 0 0 0
921 3 20.069334970125396 20.599254727583844 16.24036122190454 0 0 0
1923 3 21.60943870356077 19.691957452020365 18.742414776534833 0 0 0
3358 4 17.22248918205692 17.025140117775997 17.168673533305284 0 0 0
3360 4 20.016436700624606 16.782644205599617 16.715843695681603 0 0 0
3361 4 18.221138428466624 19.413342581348086 17.069647057738337 0 0 0
3427 4 19.57915799260781 17.44490323727779 19.289324834257197 0 0 0
1922 1 20.42943637565099 20.807951197964723 19.96973992547009 0 0 0
910 1 23.53909997140579 16.99776950716468 15.280601378221373 0 0 0
996 1 23.31288640764405 19.007600941690704 17.78791642947621 0 0 0
997 1 24.933446422432244 19.5554082863494 15.363127628272224 0 0 0
998 3 23.51166463496695 20.83293778459538 16.434718829305016 0 0 0
1916 3 23.05024167205255 17.337442725818725 19.12210997622658 0 0 0
2011 3 25.007679541616184 19.555449270594806 18.91015819696436 0 0 0
3373 4 26.086739335872156 17.63854228894409 16.11491097443402 0 0 0
3438 4 24.738349061411228 16.226160645579718 18.41049801201379 0 0 0
3444 4 24.56539542646888 21.438614958747017 18.254587994259527 -1 0 0
3496 4 23.175579135977493 20.211122508213275 19.9691831539571 0 0 0
70 3 -14.204942010377527 25.776304971133865 16.262125995786082 0 0 0
1091 1 -14.144358135331931 26.242027695599525 19.927742370242797 0 0 0
69 1 -12.524995172594894 25.20366795677999 15.012398025105451 0 0 0
149 1 -9.123590626953552 21.837524646984157 16.790438993940317 0 0 0
3308 4 -9.528842161121121 24.967128267023103 16.729318617809426 0 0 0
3376 4 -11.496227765496329 22.409378202455024 16.365770102759015 0 0 0
3377 4 -12.378511088982503 25.341490285049424 17.3355260366027 0 0 0
3445 4 -13.361317589283459 24.158380402246042 19.73802937713969 0 0 0
3447 4 -10.280461576725367 24.25320983960024 19.32580389141717 0 0 0
234 1 -6.05372036877916 25.315609638117916 15.097286972978107 0 0 0
227 1 -6.328821491158015 21.69528974843792 17.33181821154719 0 0 0
228 3 -6.049263937836991 23.522366351762702 16.32099819027321 0 0 0
232 1 -7.406195710254713 24.391864577201588 17.47118338404657 0 0 0
235 3 -7.751734172051831 26.120115273685823 16.20058976451503 0 0 0
324 3 -4.643611255845473 26.336359456807674 16.04087285815025 0 0 0
1165 3 -8.082554642725055 22.547301154809215 18.5530446909591 0 0 0
1254 3 -4.767394408402264 22.439600499626344 18.666268747526203 0 0 0
1262 1 -7.7016788114230295 26.02465996613038 19.878941655973843 0 0 0
1263 3 -5.988801104053488 25.336064847320273 18.867676688337767 0 0 0
3319 4 -4.551126032671958 24.659697697093726 17.318545046233112 0 0 0
3390 4 -4.379705006318803 24.123699092270854 19.911153343712613 0 0 0
3394 4 -4.208733418472288 26.65109870548836 19.226140166466553 0 0 0
1253 1 -6.458552019112696 23.315532952830626 19.97312929839744 0 0 0
323 1 -3.055027432834164 25.257699267817173 15.373073235800216 0 0 0
314 3 -3.3208962911721915 23.33409648207923 16.037921911699765 0 0 0
417 3 -0.06193116524932307 23.249674367830035 16.269559716082398 0 0 0
1427 3 1.2548278734868266 22.69483512340338 18.30715668286736 0 0 0
3318 4 -1.8322658422637108 22.624434213829517 17.325039124478522 0 0 0
3324 4 -0.5502354191412078 25.201066319244138 16.970704611949 0 0 0
3389 4 -2.8460836985627704 21.935605639862807 19.581349691574555 0 0 0
3393 4 -1.6581865201281776 24.30734935263265 19.568024371710358 0 0 0
3399 4 -0.6230007597452598 26.806391961726778 19.6491640736359 0 0 0
496 3 1.5098957541397908 25.862976340110787 15.910203863232361 0 0 0
1511 1 1.6801001629952204 26.19811258125082 19.771186282317352 0 0 0
494 1 1.7234317118092175 24.283375704162562 17.24964159351429 0 0 0
490 1 4.47275441884687 22.25074250356585 15.548318687398432 0 0 0
569 1 5.60757079074614 21.85638381362936 18.010208846249984 0 0 0
491 3 2.844302186808049 23.32774926485562 15.948814237111577 0 0 0
572 3 5.668475179168439 23.028255296538415 16.683495181950377 0 0 0
578 1 5.073164959637369 24.960428253161925 17.117276030116297 0 0 0
579 3 4.5849592243179025 25.9524996552666 15.497851622131602 0 0 0
1512 3 3.4060672364185187 25.456889043600214 18.446723984690607 0 0 0
3405 4 3.783245364455164 23.31005954431532 17.723919180447844 0 0 0
3411 4 5.236937942458457 24.8518984897568 19.561650241204056 0 0 0
3469 4 2.2045744424560407 24.083801266608237 19.557558199706932 0 0 0
1604 3 6.629953992488154 26.11899545664628 18.053576173796262 0 0 0
585 1 3.0988904891981317 26.712125640968047 16.960046281812733 0 0 0
3277 4 9.622224334843063 21.9431840890154 16.187330282259055 0 0 0
3345 4 7.2228187897139176 25.77266411141568 15.869352618088172 0 0 0
561 3 7.995594343676604 21.89675810020907 17.549303106493387 0 0 0
3410 4 7.043736872684045 24.144341662160564 18.03829084480928 0 0 0
571 1 7.55245674548148 23.4635201602637 15.945452333707706 0 0 0
3344 4 9.526315109481061 24.250818268859476 16.40201581320285 0 0 0
752 1 10.58388604977979 26.10478672325195 16.676378434767457 0 0 0
1770 3 10.861519352923924 24.78906353826938 17.62853095856879 0 0 0
3351 4 9.039536247711753 25.99471633519285 18.15524404690389 0 0 0
1683 1 9.155475615631357 23.68758852244035 18.605652625515923 0 0 0
4331 4 11.39629778158774 26.59661151701263 18.688501636958964 0 0 0
749 3 11.555763674690235 24.419536136854923 15.534521964846121 0 0 0
3545 4 11.526534973781118 22.701770830772258 18.976577382055183 0 0 0
831 1 11.651126586440142 23.224051042080852 16.973601383857723 0 0 0
1692 1 7.583768631733239 25.67675942980141 20.07539786656364 0 0 0
3350 4 13.02671229524697 21.50002400408862 16.62715636929998 0 0 0
754 1 13.660937993794834 23.757907335502075 15.468391061220057 0 0 0
4320 4 12.916651235800462 25.475846990032576 16.680712122509757 0 0 0
824 1 15.196380360149195 22.006446178759468 16.896941082485405 0 0 0
3286 4 16.426427789123245 23.487988922147274 15.518463588423035 0 0 0
834 3 13.538046741403564 23.50632923293733 17.233918337113916 0 0 0
3362 4 15.438030419792822 24.99194786126413 17.798063485838156 0 0 0
3490 4 14.311547257044838 22.443063101948237 18.81989986918661 0 0 0
1763 1 13.501167606437553 24.893587646146162 18.730542688110216 0 0 0
938 3 16.768067813052497 25.73932226469157 16.00106546531911 0 0 0
3549 4 17.01677829886522 22.55943679523993 18.698161920380617 0 0 0
1005 1 21.712936152243746 21.521292072675898 17.521980336881647 0 0 0
927 1 18.500455696157626 21.591727670554594 17.41836114118612 0 0 0
935 1 17.4600947424712 24.327834981384413 17.428764826229312 0 0 0
928 1 20.22197905010453 22.43122932514627 15.273084478975996 0 0 0
929 3 18.57335355005219 23.28480722386143 16.14147451012028 0 0 0
937 1 18.533194296044634 25.24412910562929 15.187459514614908 0 0 0
1008 3 21.68383063902564 23.322617608922865 16.319547013670295 0 0 0
1011 1 20.06459758397453 24.24484352407222 17.60207648916755 0 0 0
1014 3 19.964528201722985 25.98037126468229 16.41852696708012 0 0 0
1929 3 20.003159705922748 22.33071105403873 18.53169214470203 0 0 0
1934 3 18.457038918581837 25.034064927809773 19.037387017668756 0 0 0
2027 3 21.75519149881907 25.24856050587284 18.714459273239857 0 0 0
3439 4 19.949773970801544 26.551748429656108 18.620073496004192 0 0 0
3497 4 21.24677353278437 23.43702999258606 19.799592879963935 0 0 0
1928 1 18.873168959337164 23.094312772150072 19.963904545760876 0 0 0
67 1 23.0819814988066 24.055387985444913 17.5950341491314 0 0 0
2019 3 22.9219155377286 22.407117672578057 19.066805867083737 0 0 0
79 3 -17.17483179439208 31.557754010366153 16.159368655193802 0 0 0
1099 3 -14.11056971980316 27.96459512982634 18.64340794455517 0 0 0
1105 1 -17.08659812800392 31.527387186413332 19.69373227614448 0 0 0
3378 4 -13.699587396041796 27.849234782270546 16.474651833872755 0 0 0
3379 4 -15.217234449941882 30.66647494212374 15.76377375065054 0 0 0
3448 4 -14.090438988410286 30.172817317521417 18.33575919836489 0 0 0
3382 4 -9.055407638311546 27.029662341157458 18.33515509086792 0 0 0
169 3 -13.404497425211055 31.429558972128927 16.48915598391899 0 0 0
243 3 -9.53077622817506 28.957496908763478 16.286188118991685 0 0 0
3309 4 -10.980396524138671 27.44814028780607 16.84954572145703 0 0 0
3310 4 -11.796250734979306 29.96574942611753 16.170769070747728 0 0 0
3312 4 -9.397160490727265 31.03523515695968 17.30081983141837 0 0 0
3383 4 -10.655934589350359 29.261376296475596 18.88430304283183 0 0 0
3384 4 -12.280807955062773 32.19726171293699 18.17953217807453 0 0 0
1175 1 -12.664807851045863 28.80355231539963 19.943304460580677 0 0 0
242 1 -7.853451401575988 27.96918113136117 15.021598891550152 0 0 0
3249 4 -7.603567654211854 31.005108644026773 15.408537885919944 0 0 0
332 1 -6.003837041960438 27.1236538147918 17.439064355658044 0 0 0
333 3 -6.195178080053758 29.04045103146061 16.114707965491963 0 0 0
339 1 -7.624874087245917 29.61986831580096 17.397450424620043 0 0 0
1272 3 -7.2921294820327525 27.95571088397251 18.826649880737573 0 0 0
1350 3 -4.327603741677022 28.44341310590481 18.217495037527062 0 0 0
1356 1 -8.020925004163956 31.63294675619559 19.610327326249546 0 0 0
1357 3 -6.230218717016605 30.628249983357904 18.75009509137697 0 0 0
3326 4 -4.2742628216629 30.172904280683394 16.936164231371095 0 0 0
1349 1 -5.653409388125498 28.5668543407579 19.798040608632366 0 0 0
1444 1 -4.661847892765508 31.461699966501907 19.847109737259263 0 0 0
430 1 -1.4255893544535727 27.822940830347225 15.050629297992309 0 0 0
509 1 -0.03662981136798038 30.572928476962527 15.145641303264505 0 0 0
510 3 -1.722079838067689 31.445854392442854 16.19221348479749 0 0 0
1445 3 -3.0992307476044996 30.680506361745945 18.62313734647231 0 0 0
1521 1 0.1912361119649546 28.938724213390373 19.849063708754848 0 0 0
1528 1 -1.5701790884711642 31.158410444974006 19.924455634917088 0 0 0
1529 3 0.00954084318730608 30.555130968101025 18.707305546834128 0 0 0
3325 4 -3.035690277565827 27.458461613783417 16.730875771202204 0 0 0
3330 4 0.7844700048891422 27.437774209639898 17.233127617203273 0 0 0
3331 4 -1.2121182472269254 29.677205964779834 17.17613122869451 0 0 0
3400 4 -2.341470288766727 28.90562173584456 19.450583335218155 0 0 0
3337 4 1.6213882697608568 29.931390192602453 17.044103919098944 0 0 0
1603 1 4.9506112628930925 26.90069605803431 18.918524319544424 0 0 0
595 1 2.9756025724533046 30.64473052173465 15.079841070761582 0 0 0
3412 4 1.8345763730553344 31.515792829082134 19.49426263083689 0 0 0
3347 4 3.3998520386212796 31.94634644288478 17.013512014598184 0 -1 0
586 3 3.0511786209253593 28.636610589763713 16.10796799647294 0 0 0
688 1 4.754734366326396 29.56567610635118 17.115233756301272 0 0 0
691 3 4.995395519651044 31.072710666953917 15.779407941440212 0 0 0
1609 1 2.8286382482096712 28.834404405772503 19.1748633448742 0 0 0
1610 3 6.078243955881362 28.519058136024892 18.297032419347957 0 0 0
1617 3 3.2923823217220907 30.454610523864492 18.39724164128874 0 0 0
1703 1 4.419419621305387 31.64050161028538 19.611334502788033 0 0 0
1704 3 6.048509477086505 30.89261334409384 18.455523829101274 0 0 0
3346 4 5.316119070181298 27.33474976731507 16.767245237143943 0 0 0
1697 1 5.808052257781487 29.504907816064858 19.731634530226373 0 0 0
3352 4 6.885877852811404 29.811762472123934 16.452428686603785 0 0 0
3273 4 11.494783063841538 29.407461714927337 15.12373486003007 0 0 0
763 1 9.450160804452764 30.512922944048224 15.620808934733681 0 0 0
758 2 11.138976866039403 30.328919289256156 17.429338921474695 0 0 0
3422 4 7.835651393346463 29.57149756440801 18.986184326904528 0 0 0
764 3 9.11504670672928 30.28574888511465 17.478905279937994 0 0 0
848 3 11.357294825524473 31.60448803189842 15.945520705319954 0 0 0
1780 1 7.551085883740221 27.80855617845663 17.31753582727317 0 0 0
1702 2 7.100805591176904 32.21599547725353 19.520242285906466 0 0 0
3435 4 9.690479386196653 28.30558501765561 16.31747933431575 0 0 0
845 1 9.753671745426946 31.735465988945133 18.92077785219869 0 0 0
1864 1 9.906961552341016 28.547513618737845 18.50069284492171 0 0 0
1781 3 8.25004780914632 27.48255162286929 19.3851228171277 0 0 0
753 2 14.58612678017597 29.103542678510987 14.973087917921575 0 0 0
3421 4 15.123151356530478 27.108137680299592 16.17400131898037 0 0 0
1768 2 13.736460374966521 27.160944881271057 17.934130230112018 0 0 0
3429 4 12.182122142523834 31.599482070250044 19.246424496290974 0 0 0
3546 4 12.436035327883772 28.874616197409527 18.857443819286495 0 0 0
1871 1 12.516975223599498 28.300420572874117 16.217211875528385 0 0 0
1872 3 14.09423419681574 30.03633511660946 19.541054103893355 0 0 0
3363 4 13.425623077490279 30.467575605375362 16.643568436069263 0 0 0
3368 4 16.599845775062484 29.72688869885043 16.23365025083869 0 0 0
1857 3 15.813989859339403 27.35475729235649 18.170931794635653 0 0 0
1863 2 14.910714276013856 29.187030195710975 17.77103694989473 0 0 0
3550 4 14.927643767520003 31.445194079252023 18.251872951359694 0 0 0
1028 3 16.729180527080917 31.86151738339538 16.158131759069086 0 0 0
945 1 16.981328903741122 27.841339750852654 15.135752272464199 0 0 0
3367 4 17.949741616143264 26.924814260328226 17.14366801371818 0 0 0
1022 3 18.53447200948045 28.950536044210438 16.25363636540724 0 0 0
2042 3 18.856272722368193 30.48558474054038 18.630049030076258 0 0 0
3374 4 20.800568571747235 27.941272919894384 16.630983455871373 0 0 0
3440 4 17.102375607135663 29.077157203047296 18.734946459000312 0 0 0
1033 1 -1.344747998117892 4.2942753554272795 20.001784567369167 0 0 0
1032 2 -1.355575408402248 2.471546352002616 21.854631444251563 0 0 0
1035 1 -0.9332102598144367 4.1183474899145525 23.73393997472924 0 0 0
1124 2 0.2766386435266992 5.316408831222064 21.851899241282872 0 0 0
3570 4 1.1806611776006044 2.9554051030981525 24.02634182221818 0 0 0
3569 4 -0.6210037190131792 1.1070617654966406 24.060504269586296 1 0 0
1193 2 5.932350463988867 0.5784525341226262 21.904311071732764 0 0 0
1195 1 6.4489652642500825 1.8470514782702507 23.990637965687696 0 0 0
3506 4 1.9999166757060811 3.3069946565525807 21.305770956896428 0 0 0
3509 4 3.7506487551590606 1.401626914393431 20.5100616244254 0 0 0
3510 4 4.183360725904056 2.3278161739363714 23.68286870893303 0 0 0
3511 4 1.8641630638379891 5.283825296953446 23.762511987329347 0 0 0
3516 4 4.99676764278188 4.594670080101865 24.145657120759516 0 0 0
3574 4 2.706544721726257 0.4429692845295523 23.947858314974752 0 0 0
1122 3 3.0162075964313866 3.700642836223403 24.93735996991858 0 0 0
1285 2 9.16389811888667 0.4551475241704932 21.683806250741892 0 0 0
1288 1 9.32239394418159 1.969892336307545 23.90376967754952 0 0 0
1291 2 7.854564918290381 2.7622001810618633 21.879646678888577 0 0 0
1292 1 7.2071183482486205 4.635989587949086 20.34571107294306 0 0 0
1293 1 7.761694841818585 4.559243396239148 23.750971836015353 0 0 0
1370 1 10.815968817129338 4.631613355382586 23.971041732755246 0 0 0
3459 4 10.350557115856274 3.200562819008652 21.719686402432824 0 0 0
3528 4 11.600482373963345 2.4958151310116135 23.879707625366443 0 0 0
1456 1 15.723516334297829 1.840259143236107 24.11791895326658 0 0 0
1460 2 13.742544101919334 2.1533266166795197 22.44765112476403 0 0 0
1462 1 14.088988485749335 4.317766403245762 24.037537406831007 0 0 0
1465 2 12.558767256132477 4.797300004334888 22.080715117164658 0 0 0
1553 2 15.477147461723877 5.332364614498895 21.987528790231128 0 0 0
3462 4 14.423858234612679 3.63262555777657 20.697360689931678 0 0 0
1543 2 16.641403224453303 2.802769330842292 22.01048931475877 0 0 0
1458 3 17.020863939989283 0.4715279309192207 24.649101313490476 0 0 0
1544 1 17.123186671466623 4.5386674431930984 20.12419516025073 0 0 0
1545 1 17.337810367406473 4.612733141414478 23.70996352074809 0 0 0
1625 1 21.61322039930338 1.7040420893270123 23.877568488616163 0 0 0
1631 1 20.14717371681937 4.476663055143564 23.686557636986876 0 0 0
1632 3 21.786679684414317 3.536426467125031 24.850844896059066 0 0 0
1728 2 21.393956958023193 4.8847189134025975 21.60184681917915 0 0 0
3472 4 17.620293278381034 0.8971591759309233 20.92484938184401 0 0 0
3473 4 18.871810629495098 3.6671397868496065 21.827441769919982 0 0 0
3477 4 20.479438426342327 1.6545236668467576 21.816514777402098 0 0 0
3533 4 18.081944730153904 2.3952988155637636 24.57624943688009 0 0 0
3538 4 19.049957114381066 0.17005353793075334 23.777911247812128 0 1 0
1720 1 23.490728953203906 4.314318635393857 19.98722173117666 0 0 0
1712 1 24.73791071093492 1.7609981956920222 23.794918293565658 0 0 0
1719 2 22.774601936824777 2.487720259803704 21.757058131393944 0 0 0
1722 1 23.354656941610116 4.532511791737676 23.384215620491247 0 0 0
1798 1 26.526765465557535 4.441911942705312 23.729702577908526 0 0 0
3480 4 24.990453094036237 3.2573172382953093 22.086584072392824 0 0 0
3484 4 26.464938116655365 0.7738406044620164 22.111281638977133 0 0 0
1711 2 24.164473569375662 0.23887770265668945 21.730923955543517 0 1 0
1714 3 26.32257474502388 0.5284653091973106 24.50290038554988 0 0 0
1723 3 24.87428953729168 3.597950239707888 24.937417505974032 0 0 0
1801 3 28.199718738305922 3.817464214659965 24.914248410785838 0 0 0
1879 2 31.766343823469782 1.012021016642608 21.9553237404726 0 0 0
1884 2 30.174348401072578 3.064370043680304 21.92298175772953 0 0 0
1885 1 30.14546879493786 5.145214346208187 20.65311759468218 0 0 0
1887 1 29.35347691730797 4.642891590958432 23.607255131688092 0 0 0
3485 4 27.787901921180367 3.5175480578123395 21.905575951677704 0 0 0
3491 4 29.52541000574117 0.9987367401863216 20.755072793748607 0 0 0
3553 4 28.833231183582622 2.2477638897102605 23.7578255361719 0 0 0
3558 4 30.494959266306612 0.19348177326128874 23.685896699626213 0 0 0
3559 4 31.59632122432053 2.5976910583995423 23.770439495755532 0 0 0
1782 1 28.272097596457524 0.0762351659721939 23.51904969653956 0 1 0
1963 2 33.15588650334724 3.0792735159493225 21.791791164476425 0 0 0
3499 4 34.37502905524558 0.43432597691854474 21.511681985275928 0 0 0
3564 4 33.811543462938616 0.7597025971491562 24.065393846110446 0 0 0
3565 4 34.08302847032472 4.7248697829898285 23.69317817042956 0 0 0
1046 1 -4.652004536333712 10.192739867270717 19.999629158958754 0 0 0
3501 4 -3.2597777203546583 8.620043288472976 21.05445691495386 0 0 0
1042 3 -1.4684393860554783 5.751552865199866 24.654931088675134 0 0 0
1127 1 -0.000735876071936481 7.088517768062339 23.925402223668726 0 0 0
1134 2 -1.111339591038297 8.342167904510024 21.991199254322993 0 0 0
1135 1 -1.5120958966538023 9.962119914231788 20.072190741247596 0 0 0
1211 2 1.4964752642996801 8.011271263623696 22.00205572480389 0 0 0
1212 1 1.5601662185693623 9.923877557347208 23.711542825580906 0 0 0
3500 4 -1.826393130672317 6.289491817982337 20.99304864447179 0 0 0
3571 4 -2.4968775902909663 7.412890089000356 23.770066252906062 0 0 0
1304 1 4.900498401588936 9.997644870026667 24.01103151727898 0 0 0
3450 4 3.1836954657474106 6.048125942403384 20.16946563735554 0 0 0
3455 4 5.536746875566028 8.83863289212366 21.671704996409368 0 0 0
3522 4 6.942125771225965 7.421470065645414 23.910849468121057 0 0 0
1377 2 9.359570544332751 5.391011423816399 21.866011534228605 0 0 0
1378 1 9.231410008894454 7.2862272381382756 20.197821154493028 0 0 0
1379 1 9.34092425753432 7.280370824551553 23.694608003553583 0 0 0
1387 2 7.788390406317044 8.267142877431858 21.888352135082474 0 0 0
1390 1 7.701025789433918 9.837168537488711 23.935717196250145 0 0 0
1471 2 10.893010964586875 8.403158191147059 21.938809676527793 0 0 0
1473 1 11.046685965318602 10.011042264411921 24.04178991296579 0 0 0
3463 4 11.289188157298788 6.34089849394124 20.78293249582118 0 0 0
1394 3 9.355714783614173 9.15731348849731 24.81589173084845 0 0 0
1466 1 12.512946658793572 7.22300897347955 23.7415025325191 0 0 0
1555 1 15.51622169712317 7.316414019062951 23.660362414540685 0 0 0
1562 2 14.134703596931246 8.116927715104685 21.570762727445732 0 0 0
1563 1 13.703827610743623 10.232159107557784 20.16880091057407 0 0 0
1564 1 13.874916424908381 10.00883162447527 23.5268250203994 0 0 0
1566 3 15.327634079721388 9.216023311622209 24.675553020623283 0 0 0
3406 4 16.365463871458537 6.805469854093248 20.35108273091422 0 0 0
3466 4 12.18654923220171 10.515759725357022 21.98477137848507 0 0 0
1475 3 12.673794910912829 9.180702253760236 24.9820600172 0 0 0
1558 3 16.97748449847668 6.574903619507052 24.804659130287618 0 0 0
1637 2 18.644599903756006 5.987355707468845 21.778785610145462 0 0 0
1640 1 18.62638845414947 7.353337591123995 23.90626105576783 0 0 0
1644 2 17.472819540614175 8.49631524599724 21.60575921214695 0 0 0
1645 1 16.970357472946993 9.942663455797932 23.74380218127712 0 0 0
1734 1 19.878737708874063 9.848214730022805 20.329210878277113 0 0 0
3482 4 21.79878313348358 8.790635067354437 21.27315460226829 0 0 0
3542 4 21.141582046433648 6.5779191782127455 23.440927119109 0 0 0
1805 2 25.32300869200011 5.508240314635287 21.485513274341795 0 0 0
3481 4 23.176218707270284 6.346727586850982 21.049132874210123 0 0 0
3486 4 25.265814719304306 8.333893657413169 21.6262412726722 0 0 0
3547 4 23.745758439982907 7.556543333160185 23.784583861308484 0 0 0
3554 4 24.715430175242425 10.472072431022733 23.894706189357287 0 0 0
1981 1 29.367099943107682 10.047936869130291 20.265317060733498 0 0 0
3560 4 31.428094295868394 5.430475073118583 23.98698531429352 0 0 0
1891 2 27.888605803083426 5.822449709996407 21.691593516082666 0 0 0
1893 1 28.112056123883008 7.350406014403231 23.810566805282626 0 0 0
1897 3 29.729362405688974 6.423351015980833 24.9430023983155 0 0 0
1980 2 29.740386725813266 7.889929988827531 21.65792478022012 0 0 0
1982 1 29.751887569254997 9.86080594737417 23.861053533767503 0 0 0
3495 4 32.14749821154797 6.020977912018365 21.445179645104652 0 0 0
3561 4 27.38099361768882 10.209417693675878 23.62034932608085 0 0 0
3566 4 31.209601486798718 7.9663846193660435 23.54140168095641 0 0 0
1069 2 -8.990001294564195 16.011136299737878 22.231424349072398 0 0 0
1051 2 -6.139950553957087 10.821708202402933 21.981686454438975 0 0 0
1052 1 -6.112570865382608 12.73214812616336 20.09677023521309 0 0 0
1054 1 -5.642005042055479 12.906677660963489 23.442958541987494 0 0 0
1062 1 -7.920661789620401 15.231111118246197 20.035131895054686 0 0 0
1064 1 -8.222167729287984 14.75257661255341 24.504938832294734 0 0 0
3507 4 -5.599233805316484 15.749810632549512 20.260204984743417 0 0 0
3512 4 -4.375375266792998 15.21789820298002 24.517286935000357 0 0 0
3572 4 -6.6166564945553965 15.24049685662358 22.960147815537802 0 0 0
1067 3 -6.187705259284748 14.340791163124207 24.83570151154101 0 0 0
1057 3 -4.6341538357900305 11.970880945398426 24.923220008121646 0 0 0
1138 2 -2.8883144778514054 11.072522678089275 21.816743971358658 0 0 0
1140 1 -2.6541975462376834 12.600407132219864 24.095426894998447 0 0 0
1220 2 0.15858947266391166 11.009431646136367 21.847443104116493 0 0 0
1221 1 0.2964239581751551 12.978337505513622 23.677777794782273 0 0 0
1314 1 1.4997173934224843 15.086961660174014 20.03856791989077 0 0 0
1316 1 1.4453481068115739 15.615305562784409 24.19423661830554 0 0 0
1323 2 0.02551243543200421 15.287173888956886 22.216647083780046 0 0 0
3451 4 -1.0901471145751067 13.12835437392295 21.64128001606436 0 0 0
3452 4 -2.1336901489720983 16.048923739990347 21.47547475248912 0 0 0
3517 4 -1.0163202792713877 15.133041365151103 24.551790744818163 0 0 0
3457 4 1.544448537874203 13.405239270391771 21.683125217555396 0 0 0
1399 2 6.301708332345979 11.049709984432075 21.930740605784727 0 0 0
1402 1 6.207781884786146 12.58644325064638 23.883367286885793 0 0 0
1409 1 4.524625409383164 15.19191423635213 20.091408081482896 0 0 0
1413 2 3.0834583364259416 15.720797051963803 22.269513241637775 0 0 0
1491 2 6.253962499185553 15.87388602624664 21.78073134031407 0 0 0
3456 4 4.306492363340397 11.086960378314776 20.60717123193763 0 0 0
3460 4 5.414505734632634 13.529295878756082 21.46647880060631 0 0 0
3523 4 3.1768892919167975 11.399074454035201 23.914904593144882 0 0 0
3524 4 2.4465163800241045 13.660070446235022 24.349585453441506 0 0 0
3529 4 5.60926943673112 14.85614506073685 23.860490611478646 0 0 0
1480 1 9.457790259549515 12.438476827152238 23.943549416981895 0 0 0
1485 2 7.887456367824476 13.272625728920133 21.73839005212983 0 0 0
1487 1 7.827224244652541 14.872168743916081 23.638084378033838 0 0 0
1576 1 11.048641170324077 14.741949334458267 23.676187865598237 0 0 0
1581 2 9.484679414391051 15.50443044797252 21.5424064499031 0 0 0
3402 4 9.095436221856424 11.33450894515107 20.26346326084251 0 0 0
3467 4 10.349520781864594 13.418447329285877 21.859539032617292 0 0 0
3534 4 11.715879804996666 12.517179366071813 23.861259647264745 0 0 0
1651 2 15.474774462026897 10.946583861206397 21.79499896682403 0 0 0
1652 1 15.611758290159504 12.626481170072845 23.967326010721237 0 0 0
1669 2 12.393379594102385 14.996074241060587 21.71916713538864 0 0 0
3474 4 13.418772016398123 12.816121313655831 20.718686371638576 0 0 0
3478 4 16.58793851206357 13.094946352312988 21.366943171335063 0 0 0
3539 4 13.230548710253746 15.273027580383298 23.87605445329315 0 0 0
3543 4 15.72113488973712 15.464376558176703 24.118116468771085 0 0 0
1738 2 18.220119032365993 11.167496549080147 21.728127248683936 0 0 0
1741 1 18.59699149596266 12.407352891526502 23.963526702681243 0 0 0
1821 2 21.253804032080225 11.046277512925126 22.08885076572696 0 0 0
1822 1 21.74919682806331 12.63449077850626 20.266265347810165 0 0 0
1823 1 21.657277776204957 12.772442291062966 23.97859904609254 0 0 0
1830 2 20.011710854017927 13.626993982829873 22.11869048497018 0 0 0
1832 1 20.371964223835633 15.487301956728368 24.046359593912655 0 0 0
3483 4 18.5473405404426 15.208143366084398 21.3239800610582 0 0 0
3488 4 20.957965151316344 15.071203024157915 20.254416995761737 0 0 0
3548 4 18.323341817050654 14.597334951877025 24.241602303910852 0 0 0
1903 1 24.862441042839617 12.691500189120442 23.806637820369538 0 0 0
1907 2 23.050556855652786 13.789098777970969 22.090923986334843 0 0 0
1908 1 23.33435345615065 15.325679984189529 20.07824063369634 0 0 0
1909 1 23.282801376312264 15.42928155297777 24.11377052934141 0 0 0
1997 2 26.03138860280114 13.40952035851978 21.597704201815436 0 0 0
1998 1 26.53849662265636 15.517713957996909 20.344375022547467 0 0 0
1999 1 26.34597199075584 15.197058682592736 23.74726785607234 0 0 0
3487 4 23.614108969864905 11.564299863360478 21.780858991645648 0 0 0
3492 4 26.252942592769255 11.120248312819562 20.8211081760006 0 0 0
1910 3 24.765137599735816 14.25606109798237 24.973746711318782 0 0 0
1905 3 26.3581755760611 11.618685360892337 24.98687570853047 0 0 0
3562 4 27.26695157571715 13.047728254195546 23.570333614886977 0 0 0
1061 2 29.276106063118206 13.411409162996796 22.104497538700414 0 0 0
3567 4 29.754331469484896 12.398906274287038 24.380910086641087 0 0 0
1070 1 -9.354329992091438 18.00552820152842 20.478983495214752 0 0 0
1071 1 -9.266197846387719 17.808571478601646 24.169565564167122 0 0 0
1078 1 -10.714484943034652 20.56540638745088 24.066205742913915 0 0 0
1164 2 -9.282658648967923 20.7127098775888 21.944239421427767 0 0 0
3502 4 -10.837201211669722 19.74473097979487 20.396062445042862 0 0 0
1155 2 -7.487187976350896 18.50818891530898 21.96659838845621 0 0 0
1158 1 -7.423799434302281 20.196726288425136 23.70566094071679 0 0 0
3453 4 -3.991581523365644 18.769962730122625 20.804358123073754 0 0 0
3513 4 -5.950940965143733 17.721337267575095 23.70815490943162 0 0 0
3519 4 -4.1789514362368445 19.687073336466803 23.60032468496754 0 0 0
1074 3 -7.433788873911129 16.883947370183524 24.854644603794156 0 0 0
1324 1 -0.4617990789839084 17.13542293017381 20.363413043100415 0 0 0
1326 1 -0.23316017962946667 17.6032915347024 23.698890922232444 0 0 0
1330 2 -1.8199326259711057 18.669515670973343 21.871552207872252 0 0 0
1332 1 -1.8133561129724676 20.385433681911472 23.749592963246428 0 0 0
1337 2 -3.2030763787775154 21.24738560809316 21.858252080285386 0 0 0
1419 2 1.2917374392011194 18.773373173985195 21.835412088316865 0 0 0
1420 1 0.9690030942278334 20.5317916395522 23.79531087238 0 0 0
1425 2 -0.21006854757704474 21.32574333912355 21.789545689060695 0 0 0
3518 4 -2.6142331330251825 17.252506665204105 23.754939828613956 0 0 0
3468 4 5.427763480324073 21.455143231378138 20.049616015937332 0 0 0
1492 1 6.06336899155791 18.119668682798867 20.114084969187523 0 0 0
1499 1 2.950557630937727 20.783051744361273 21.012188341746246 0 0 0
1416 1 2.9308953128664115 18.165034389155036 24.081620577163648 0 0 0
1498 2 4.101718276606073 18.316456549564414 21.831795319344216 0 0 0
3464 4 2.897950998871444 20.05686900467017 23.062969591651523 0 0 0
1503 3 4.994634778026235 20.06787234282089 21.413181525294203 0 0 0
4317 4 5.953549792636435 17.81740460507058 23.263634347266148 0 0 0
1495 2 5.195233191875383 20.003555926640033 23.42502638842045 0 0 0
2585 3 6.19050631518283 16.71945886663824 24.94799893820698 0 0 0
1501 1 3.429075094711173 21.258714502345274 24.952409176860357 0 0 0
4318 4 8.332568834961572 18.557159394247055 20.421840564998543 0 0 0
1680 2 11.55350344896617 19.483857377036003 20.50637720210337 0 0 0
1767 3 11.142332233912628 21.552031749866053 20.636845149531627 0 0 0
1494 1 8.143253424336537 17.573917197630486 22.348871750293767 0 0 0
3802 4 9.43140365964613 16.202570076185314 23.82063105438985 0 0 0
1681 3 10.218804613174765 18.68315430584607 21.758130938325035 0 0 0
1583 1 10.458065002418163 18.11910574115282 24.014027691283616 0 0 0
3475 4 11.198336901363767 16.900583543953516 22.207610517481136 0 0 0
3745 4 7.008329631638679 19.807682156692724 21.80247642631534 0 0 0
1584 3 11.463759655896586 16.376575395202295 24.455026859906127 0 0 0
1593 2 9.494216913784749 20.388332416482083 21.03981662684113 0 0 0
1587 3 7.054981322582719 19.40586270249888 24.09482881143723 0 0 0
4335 4 9.084071627185615 19.508470693360714 23.278141411675264 0 0 0
1676 2 7.935181715647765 17.67325524904082 24.79863751017725 0 0 0
4333 4 12.058314378237313 19.222961670582084 22.70529378384873 0 0 0
1670 1 12.66724743988012 17.119320366708646 20.25794034843753 0 0 0
1672 1 12.962952865687289 17.350449941147716 23.351269970284 0 0 0
1748 2 16.68932826171102 16.29779085406233 22.19059971117023 0 0 0
1749 1 15.748706096788768 17.677318488626767 20.31862759944914 0 0 0
1750 1 15.668149416384386 17.942435565380908 23.696351115844237 0 0 0
1756 2 14.33150824012226 19.131218226566936 21.76868662399708 0 0 0
3479 4 14.38082632559496 16.633841575391507 21.81717320862413 0 0 0
3544 4 16.368150245092128 20.98513551220202 21.826966287776543 0 0 0
3873 4 14.823546653182298 20.24083913225342 23.773711079631553 0 0 0
1674 3 14.188629751041637 16.895383970417313 24.91122126595402 0 0 0
4322 4 13.30270344741384 21.15555655022836 20.990805834886636 0 0 0
1845 1 17.18629672614047 20.55838130618684 23.927925966870596 0 0 0
1839 3 19.97412967919273 17.60579941845456 24.439603800106575 0 0 0
1843 2 17.384597672977087 18.780662175444625 22.029497776189302 0 0 0
1914 2 21.77819231952288 16.35952429675361 22.12172676631093 0 0 0
1915 1 21.62235791901757 18.14994424380524 20.318763181850493 0 0 0
1917 1 21.62590432264784 18.39282516689588 23.72663672221946 0 0 0
1926 3 21.208207508839152 20.35503666693354 24.70012789723563 0 0 0
3489 4 19.95895506012564 18.08130900397681 22.004436180745905 0 0 0
3493 4 21.33794946311147 20.30441898843224 22.352087123370694 0 0 0
3555 4 19.342879884951394 19.586034045096778 23.97932821514088 0 0 0
1851 2 18.939459951655408 20.920819914195967 21.96525512440262 0 0 0
2003 2 24.753354778582178 16.222458832590476 22.100282165747586 0 0 0
1076 2 26.3616414060463 18.525190945215286 22.38898324085499 0 0 0
2004 1 24.902507752368983 17.963178776698538 20.138348539967495 0 0 0
2005 1 24.656422102508124 18.068505735097123 24.135302631031834 0 0 0
2010 2 23.406172891877546 18.927242860223224 22.019458876900757 0 0 0
2012 1 23.210265621433454 20.80277068511756 23.782453781143147 0 0 0
1092 1 -14.093970260854448 25.780906314035676 24.082880192541566 0 0 0
1084 1 -12.283305023901486 23.324361743329263 23.824416870163972 0 0 0
1167 2 -10.864029631966883 24.45904735122775 21.837451857473376 0 0 0
1168 1 -10.845190266198339 26.538935487395275 20.30270123405368 0 0 0
1169 1 -11.036906116778951 26.183665550409444 23.880563677576795 0 0 0
3503 4 -12.27050550351872 22.425460732318058 21.577229732008906 0 0 0
3508 4 -8.620647611247698 22.69603444764611 20.675061900436145 0 0 0
3515 4 -9.375983708400291 24.687530914918653 23.8072562867931 0 0 0
1270 2 -9.091214259933333 26.749561744625407 22.15640851768397 0 0 0
1174 2 -12.6717670805156 26.906562301858465 22.01841676490578 0 0 0
1252 2 -6.366430627996327 21.538205484161438 21.775215641110933 0 0 0
1261 2 -7.62178157174477 24.449311648109944 21.95805994466029 0 0 0
1343 2 -4.848925978759299 24.03302804897539 22.25588997319671 0 0 0
1344 1 -4.135422331395249 25.997211596405574 23.704472156728322 0 0 0
3458 4 -5.806950261451201 26.104660454760545 21.104577253482407 0 0 0
3514 4 -8.130594430183047 22.369696127164257 23.3631120161602 0 0 0
3520 4 -6.313643123885097 25.435772270627353 23.7222713306761 0 0 0
1338 1 -3.0803465167289197 23.156947699290054 24.10797849437587 0 0 0
1426 1 0.24978600142627094 23.12967122868632 20.13485536679662 0 0 0
1428 1 0.23496772766097962 23.095392289733624 23.58967664225981 0 0 0
1434 2 -1.6755756703751459 23.844210006172315 21.997467664036968 0 0 0
1435 1 -1.3947139703323863 25.896572467138345 23.786762456578757 0 0 0
1513 1 1.167826519062361 26.24379728593803 24.219646481171978 0 0 0
3461 4 -2.2406762121384336 26.282743724645638 21.784461896635197 0 0 0
1510 2 1.2520569415564804 24.75335523062522 21.808016412117222 0 0 0
3602 4 4.238344459459309 21.834489943642932 22.675031629947284 0 0 0
3465 4 1.9152886892423666 22.577308165392218 21.697257467741515 0 0 0
3532 4 1.9440559636760568 24.225643962540538 24.47735327237124 0 0 0
1509 3 2.270677595932071 22.09590822351796 23.68899294041416 0 0 0
1591 1 3.3699498134803196 23.89676907154273 22.992839797739393 0 0 0
1691 2 4.253938670304054 23.214796906724896 20.83223094053848 0 0 0
1601 3 5.134880222451166 23.685892620799933 22.60696578669465 0 0 0
3673 4 4.8813262079514 25.493511418839176 23.711628684101314 0 0 0
1600 3 3.3528872758584374 25.02485662406192 21.06200476950654 0 0 0
3535 4 2.702354973596364 26.209080172164455 22.675656147609246 0 0 0
1685 1 5.020663326519511 25.7669270920023 21.56158794498497 0 0 0
1590 1 6.327933109392072 22.10674368867512 22.21000553584986 0 0 0
3936 4 4.680316698161812 23.274431525730158 24.938516086879474 0 0 0
1688 3 6.589606447827668 26.68793727968551 24.781366893792253 0 0 0
1500 1 6.737818537555556 24.522727822419863 24.341466061272648 0 0 0
1687 1 6.44163144190242 26.923341526484904 22.815402598639544 0 0 0
2740 1 6.203745293393428 21.498190329824972 24.993624604948145 0 0 0
1596 2 6.911911251748874 23.16989980994868 20.05193403815186 0 0 0
3612 4 6.871122519792371 24.681285451799813 21.938363703085322 0 0 0
4326 4 9.05365725956563 22.635311609057318 20.61229849820342 0 0 0
2677 2 8.472061200969407 26.2960948760453 24.21905616950393 0 0 0
4339 4 8.255054072477813 26.813316312123664 21.819709424164973 0 0 0
1779 2 9.856860426281225 26.75785737160551 20.353224795665838 0 0 0
1852 1 16.290688278908036 24.729041551655573 20.052739858477707 0 0 0
825 3 15.835573944499867 22.571846237787273 20.489932307024937 0 0 0
1679 1 14.673242206059044 21.995533988653648 22.7359815075627 0 0 0
1762 2 13.973957794489156 23.390806918859266 20.80292887241455 0 0 0
1693 1 14.13544837000206 25.746463996250224 22.158409558258157 0 0 0
1761 3 16.493225476121022 22.4904068753492 23.59275149338697 0 0 0
1855 1 15.419235533393863 24.43115716923706 24.182159933195592 0 0 0
4323 4 15.67025499166926 23.765288095484394 22.176647834529646 0 0 0
1859 3 16.36050289252444 25.589594602578376 22.27174937597775 0 0 0
3746 4 14.502497338599964 26.652464685604563 19.651342168677726 0 0 0
3618 4 15.734160324895472 26.879059250469826 24.0211005572533 0 0 0
4342 4 11.333068352647553 24.744569930865072 19.32447653487246 0 0 0
1847 1 17.691287579081973 22.909791673078434 21.98122603389628 0 0 0
3617 4 17.953989298973696 24.527136773940367 23.48398792577248 0 0 0
3557 4 18.207296613576773 26.61709793001615 24.49762351734148 0 0 0
1097 2 21.762519325472425 26.6436320470168 22.091361985858683 0 0 0
2025 2 19.966377746215397 23.670774674932357 22.252374819154312 0 0 0
2026 1 20.294978949238683 25.417819436247196 20.449859392293714 0 0 0
2028 1 20.136859986719017 25.58764287175068 23.935094362156065 0 0 0
3494 4 18.20490583947376 24.911529612123996 21.123835095109868 0 0 0
3556 4 18.748869336865546 22.270779012859638 23.808618675823496 0 0 0
3563 4 21.402697265404075 22.477950181919745 24.23993257602995 0 0 0
2033 2 19.116709578872957 26.85929336208477 21.97107302175528 0 0 0
1774 3 17.151816084288818 26.892780592200012 22.52740493719135 0 0 0
3434 4 17.130721105403484 26.8764161232973 20.245797086759318 0 0 0
1090 2 23.180050995805388 24.150643575365947 22.0021032022737 0 0 0
1098 1 -15.430891827559531 28.937230098030113 20.069418472192925 0 0 0
1184 1 -13.822761909979771 31.57424782666799 20.162282913524656 0 0 0
1100 1 -15.46190925969341 28.089890983863317 24.206222241082756 0 0 0
1183 2 -13.912255878508688 29.7168915238846 22.055987480989884 0 0 0
1185 1 -13.891985756224946 31.648765954277103 23.62312438251287 0 0 0
3504 4 -15.678354135155734 31.140844580923 21.475572428377774 0 0 0
3573 4 -15.603178269659933 30.274670535074595 24.10546050231369 0 0 0
1104 2 -16.690599558361992 29.119468696887665 22.21640219907441 0 0 0
1176 1 -12.504891915746525 28.719205333685686 23.998237986503348 0 0 0
1271 1 -8.893368093237054 28.59618079110118 20.276419914552097 0 0 0
1273 1 -9.378699747642045 28.94207747353598 23.77495931562975 0 0 0
1279 2 -10.937278961673975 29.150704301928588 21.77794091443442 0 0 0
1280 1 -10.886654325631596 31.462199122504572 23.61733561292973 0 0 0
3454 4 -11.384920013678789 31.314993484278595 20.686407428768668 0 0 0
3527 4 -8.707658643987894 32.03456246471232 23.838483790104455 0 -1 0
1178 3 -10.675603076231106 27.984960247414424 24.975846804317143 0 0 0
3531 4 -4.1085988249449255 32.175429405489815 23.913888995521567 0 -1 0
1438 2 -3.941814149440523 27.835465670288425 21.566406774543587 0 0 0
3521 4 -8.121187818678383 27.133883076442913 24.43259736813357 0 0 0
3525 4 -5.230971800288147 28.112042748812023 23.586203470792597 0 0 0
3530 4 -3.548892487700016 30.061250523665066 22.70746698416093 0 0 0
1439 1 -2.801733018051351 28.310337935392063 23.925422247250218 0 0 0
1448 3 -3.0077719485827927 30.2314227610856 24.822733698472263 0 0 0
1453 2 -3.0179296181678836 32.2584083890573 21.809907946988286 0 0 0
1520 2 0.3409308057961127 27.15324298809483 21.834679056350033 0 0 0
1522 1 -0.01061623462600636 28.64498066694166 23.814668768378638 0 0 0
1527 2 -1.6030487729668526 29.13469877949746 21.708085909668608 0 0 0
1530 1 -1.5338929061447715 31.141137667510883 23.46143693640098 0 0 0
1533 3 -0.09124908583587654 30.66409186338249 24.908031866551518 0 0 0
3471 4 0.18006692941811053 30.685662860618425 21.47981488303425 0 0 0
3537 4 1.5883734556621825 30.224219401862385 23.639715345242152 0 0 0
3470 4 3.465669997886568 27.213749471015127 20.647031598206823 0 0 0
1605 1 3.8595720381115317 27.228054983612314 24.26834858329903 0 0 0
3476 4 3.905715321254622 29.861168567378858 20.911665978423645 0 0 0
1597 1 2.490820293777503 28.478201574761624 22.173231670003574 0 0 0
1524 3 2.0759281362257482 28.12945444756981 24.456573618769006 0 0 0
1623 2 2.7869621764027954 31.778223287027412 21.867403406991496 0 0 0
1705 1 4.260661582041095 31.67910416438101 23.85337293923768 0 0 0
3541 4 3.813132896005339 29.41238185547649 23.779139783048947 0 0 0
1694 3 4.410241396855577 27.480472794879393 22.467218270844874 0 0 0
1598 1 5.330877315210536 29.034513245062186 22.080239662748482 0 0 0
1709 3 5.630198917060117 30.500613685724026 24.678670095762364 0 0 0
4319 4 6.022883625626385 28.65935503292418 24.06600693109693 0 0 0
3417 4 6.288268051513148 27.540998629128314 20.592595639293968 0 0 0
3613 4 6.794389092878639 30.68094503447657 21.220265282481048 0 0 0
4007 4 10.534226454594059 29.557154587353434 20.383936874823434 0 0 0
3552 4 8.644758765374558 28.505272802163237 23.61267178335264 0 0 0
1785 2 9.10530765178461 31.19499212530688 21.403840842440196 0 0 0
1695 3 7.084819605835982 28.751925190905826 22.401778285639708 0 0 0
1771 1 8.320189915400917 28.8294351310315 21.015366266249448 0 0 0
1786 1 7.145873867405079 30.944091240898462 23.22429481314603 0 0 0
1873 1 11.509597128142097 31.48551961730678 21.56063877982412 0 0 0
1773 3 9.10062992680771 30.496507305993703 23.26669170037914 0 0 0
1865 1 10.700391629952048 29.142579608116765 22.80833842850248 0 0 0
3816 4 10.448751080838598 30.912271474246666 24.963243190905963 0 0 0
1766 1 15.289084560886135 28.59981872951907 20.179477520917697 0 0 0
1950 2 16.046186088551487 30.696568077390825 19.999926786165503 0 0 0
1772 1 14.45185531770207 28.222338085681088 22.347620402094137 0 0 0
1686 1 12.464999539075357 27.286679516710358 20.67372910536867 0 0 0
1877 3 12.284718392881295 30.159173414674175 23.19456780800556 0 0 0
1951 1 14.010763384338187 31.84482756181831 20.365221384909834 0 0 0
1870 2 12.929056233235137 29.67405407913922 21.327454541255438 0 0 0
3551 4 15.245105542569345 30.18068354314768 22.305186542565664 0 0 0
1942 1 16.159927231039923 29.203520397186946 24.5032432280096 0 0 0
1952 1 13.763082460959367 31.3780290641492 23.335674835665486 0 0 0
1954 3 15.226223820778173 30.92411679681396 24.40960672432861 0 0 0
2043 1 16.848994707359793 31.44324961554683 23.507318692543123 0 0 0
3623 4 13.845536022670338 28.974961836448564 24.184780325117316 0 0 0
2041 2 17.055171476064157 28.876019651228734 21.99054812156781 0 0 0
2034 1 18.89194557268331 28.666163882207805 20.24326060578037 0 0 0
2035 1 18.655303617749727 28.552100995331916 23.758498252481587 0 0 0
3498 4 18.20963503862904 30.91365893216669 20.709470916067765 0 0 0
3568 4 19.054764551748043 30.697632616488278 23.05606877223044 0 0 0
2044 3 17.91445726139569 30.280354081632595 24.741278483615787 0 0 0
2038 3 20.02315650317056 27.496424861206314 24.94342519530956 0 0 0
1031 3 1.2739878915917666 1.1603984650622614 25.277522853132204 0 0 0
1036 1 -0.2686042149204497 3.364590853972702 28.649209331459602 0 0 0
1038 3 -1.77090783907756 4.4971747283532295 27.402622800679623 0 0 0
1039 3 -0.2295465884013328 3.3956725504894245 25.501779381269102 0 0 0
1112 1 1.6863585287824363 2.8725079840940384 26.312053451473744 0 0 0
1121 3 1.5881165284477037 4.484506760545591 27.6597360668112 0 0 0
3642 4 -0.1427167423339637 1.6943473218410392 26.796004865632106 0 0 0
1120 1 -0.07950105913734884 5.369214616151039 26.42097906635035 0 0 0
3706 4 1.7147363158748599 0.4632639817341966 28.430088785826143 0 0 0
1111 1 4.617907721167805 0.9301495032671085 28.652598252894464 0 0 0
1113 3 3.1181642532491445 1.86561626043258 27.46035351450216 0 0 0
1114 3 4.697139647462202 0.8191481540980096 25.062919184657872 0 0 0
1119 1 3.832691576251348 3.9345545980237318 28.496513652436654 0 0 0
1197 1 4.516345219577828 2.6121832884271114 26.054551812189644 0 0 0
1198 3 6.2826930839399004 1.7953334133016223 27.185547846761494 0 0 0
1282 1 6.2230928678057 0.10249724400935069 26.20915139919363 0 0 0
3579 4 6.754101684020056 3.3416451018306197 25.638126626126905 0 0 0
3707 4 1.9552494410396417 2.9203943746840255 29.020472959962788 0 0 0
1199 3 8.085253785229547 0.730531574271774 25.141583178613182 0 0 0
1196 1 7.695508298039775 0.9563510102914647 28.68420301172617 0 0 0
1289 1 10.770474087089255 0.8704278487276166 28.452067061055587 0 0 0
1294 1 9.365927334274556 3.4812355569065625 28.72841683296216 0 0 0
1295 3 9.216921818898593 3.655402739565509 25.199787579414213 0 0 0
1365 1 10.904233568027077 2.890200823756969 26.254656678603368 0 0 0
1372 3 10.768786979020726 4.700091682165937 27.54638801508765 0 0 0
3585 4 8.532415833152958 2.1827652628010044 26.803126537277137 0 0 0
3592 4 10.291988608270117 0.6892756823638129 26.047253151912273 0 0 0
1464 3 15.968189415389293 3.6794683427231694 25.10620292830953 0 0 0
1366 3 12.108505031613516 1.3287268468391011 27.011290066297846 0 0 0
1373 3 12.430663976808363 3.80471357266637 25.343253137723487 0 0 0
3598 4 13.588463464676641 1.8755797209089717 25.485558703026193 0 0 0
3599 4 14.286005574222017 4.163964359805657 26.334804988426356 0 0 0
3604 4 16.485973835277747 1.5374801936175386 26.455311186235804 0 0 0
3657 4 12.340373389836696 3.3202264840256563 27.953162549063222 0 0 0
3662 4 16.790330812805802 3.0041055481713554 28.583653179226232 0 0 0
1457 1 17.275632578546624 0.8229526734565383 28.69880048916791 0 0 0
1537 1 17.45143218939259 3.501535886613177 26.397048495122803 0 0 0
1538 3 18.401336726127354 2.101636546722072 27.285672708121226 0 0 0
1539 3 20.246618982232434 0.97228691723938 25.286648181600825 0 0 0
1546 1 18.966521582239615 3.727587484461001 28.589217640326297 0 0 0
1548 3 17.07613498681615 4.851329476600476 27.768503522490832 0 0 0
1549 3 18.973854438652573 4.216745381435971 25.286299416596933 0 0 0
1626 1 20.14409522595426 2.7381694350881403 26.109798748859284 0 0 0
1707 1 21.761409463216836 0.21475811693438895 26.46691194525267 0 0 0
3675 4 19.979623799824363 0.8493308026325199 27.631323545349602 0 0 0
3676 4 21.395761100855587 3.220176898694623 27.90067784006478 0 0 0
1618 1 18.421679884107228 0.2928230030757561 26.024462715900427 0 1 0
3614 4 20.93185782352078 5.208046339770293 25.759227018151407 0 0 0
1627 3 23.297691145699144 1.0812648306659205 25.29437555692749 0 0 0
1713 1 23.312822918010788 2.9642534894518575 26.284626217671736 0 0 0
3620 4 25.470614801162277 1.7726087570440687 26.070282682693232 0 0 0
3621 4 26.640780144708714 3.962837321893521 26.262744272676095 0 0 0
3679 4 23.66208059021563 0.8744335176661809 27.605652588297872 0 0 0
3680 4 25.21249202682418 3.452852031531372 28.550772373013316 0 0 0
3681 4 23.135727577286964 5.2942535993556685 27.196639339820734 0 0 0
3685 4 26.8463412366293 1.1514106175570034 28.369868206018225 0 0 0
1793 1 29.294655933825837 0.9861420806820028 28.296541981880296 0 0 0
1794 3 27.903055773740636 2.241452448923135 26.896865122141506 0 0 0
1799 1 27.57032156025262 3.2308913483055353 28.603416642285268 0 0 0
1882 3 31.112064933168476 1.4996167009993058 27.62504700428523 0 0 0
1888 1 30.89418523680198 3.453105885587897 28.311325710450085 0 0 0
1890 3 29.982403950273774 4.358464311847814 26.674855302608933 0 0 0
3627 4 29.88318601343945 2.400024065586838 26.160281332288832 0 0 0
3689 4 28.79367895250982 4.983134515783325 28.27545349178601 0 0 0
1953 1 30.762394296091014 0.27461712007135425 26.03418643226164 0 1 0
1876 3 29.039884620290838 0.7476551797541856 25.17403921222001 0 1 0
1875 1 27.364567613450994 0.25517127687397834 26.331569903204837 0 1 0
3695 4 32.255031845428284 0.556325521126622 29.082649813984965 0 0 0
1030 1 35.254590949681926 2.9146737984579154 26.2292300338667 0 0 0
1966 1 33.95607829863169 3.6054787545489395 28.60985693409026 0 0 0
1968 3 32.6482136604842 4.946198069989008 27.668300676297747 0 0 0
3628 4 32.56848696221412 3.638906869308574 26.09333469841664 0 0 0
3634 4 32.981706234539914 1.0932334354914484 26.685358683749172 0 0 0
3703 4 35.13844120288315 1.6490968410415063 28.386061305938597 0 0 0
1048 3 -4.721245512972604 9.972644857445172 27.424195864574713 0 0 0
1037 1 -3.1245194176325013 5.460405401510623 26.01036303789394 0 0 0
1129 3 0.2631522476116883 7.311694570296236 27.594489439641563 0 0 0
1130 3 1.3481289504612333 6.419275638272868 25.390482127238336 0 0 0
3575 4 0.719295629427422 9.666671106245602 25.718467931495155 0 0 0
3643 4 -1.2469653349101817 7.261080139498771 26.093020855423177 0 0 0
3647 4 -0.07724661018681278 10.402391958459052 28.050234198991788 0 0 0
3708 4 -1.5497069500281708 7.359323906053292 28.81631017283027 0 0 0
3709 4 -2.7288413696519918 10.408876212488043 28.36971035472269 0 0 0
1128 1 1.5725805125537353 6.25875850998229 29.02940970070351 0 0 0
3644 4 -3.3457118871709697 10.738524215861828 25.978722225529346 0 0 0
1202 1 2.925136491883882 5.411078391801358 26.219055551671573 0 0 0
1215 3 3.1439416057143843 9.344954466742092 25.1736391207739 0 0 0
1207 1 1.9347022709890318 8.031956224092173 26.476153653964687 0 0 0
1208 3 3.398503986647402 7.152583682052683 27.579093286658946 0 0 0
1213 1 3.1938464507934965 9.149747884854268 28.788241966577324 0 0 0
1214 3 1.8800815829647926 9.959290899016034 27.48899252977241 0 0 0
1301 1 4.745133604751399 8.513865222913719 26.48122514374257 0 0 0
1305 1 6.19348456841579 9.385233733404815 29.1221111764539 0 0 0
1307 3 4.672263444880939 10.068264005179602 27.65695397829611 0 0 0
3580 4 4.888926395678984 6.381495957404647 25.960899389258472 0 0 0
3648 4 5.0013109295386 5.978220751254085 28.46032310390018 0 0 0
1382 3 10.887241333593966 6.445986965519287 25.130129190468196 0 0 0
1371 1 9.395851148132513 5.600084134234789 26.40570350694412 0 0 0
1380 1 10.51877036800255 6.583933283045668 28.946042367083564 0 0 0
1381 3 9.814978871524623 7.653851074857418 27.53398772835702 0 0 0
1391 1 9.425724537234537 9.203167774339997 29.12885943932737 0 0 0
1393 3 7.773303617589975 9.828101214572136 27.792606806954055 0 0 0
3586 4 8.406884273866924 7.736177279725187 25.960853001622183 0 0 0
3600 4 10.911553297074008 8.962849781658658 26.21638369227304 0 0 0
3651 4 7.878102930585018 7.724007253785207 28.545521423080736 0 0 0
3665 4 11.260426612917582 10.372000882445336 28.519726213002528 0 0 0
1474 1 9.206280470393578 10.629421401208887 26.3978104635045 0 0 0
1463 1 12.448573528676134 5.512532558760717 26.441137586589207 0 0 0
1467 3 14.072787174170857 6.238938518518183 25.14443999158229 0 0 0
1547 1 15.841389085090647 5.698825039993559 26.215263587910094 0 0 0
1557 3 16.027416459326993 7.4028050095678015 27.478156725549667 0 0 0
1565 1 15.775023844780812 8.850476523459982 28.882846623048906 0 0 0
1647 3 16.759336679518558 10.08081111094639 27.47137333485015 0 0 0
3605 4 14.384598828144826 8.524162643685207 26.41460407032539 0 0 0
3663 4 15.044773547524754 5.696631340754973 28.415101600913857 0 0 0
3664 4 12.602575918303355 7.7707339552436805 28.63960729303762 0 0 0
1646 1 15.465998460702956 10.72386092589234 26.15992326004765 0 0 0
1556 1 17.167697165885464 6.293803885226438 29.096907274076187 0 0 0
1735 1 21.47292334228485 9.444556813514811 29.038052872298593 0 0 0
1736 1 18.543033685709972 10.602299150876844 26.38509734984345 0 0 0
3608 4 18.21870194889002 5.871530613244755 26.32775119604375 0 0 0
3609 4 16.968498978129933 8.564762237090909 25.892449454252223 0 0 0
3615 4 20.551741257908645 9.377735916755608 26.9143546497246 0 0 0
3677 4 20.409125531751098 5.554054255019295 28.625208564533864 0 0 0
3678 4 18.513545530387248 9.436585202369995 28.610658269968475 0 0 0
1731 3 23.014786341460745 6.046754355065008 25.116730441884442 0 0 0
1809 3 26.711967766355986 6.179465762124666 25.095167982087943 0 0 0
1730 1 23.22698275307212 6.2534246045015776 29.37981528136153 0 0 0
1800 1 24.917560129732916 5.509809941561123 25.938867230086828 0 0 0
1807 1 23.291067831130487 8.090946936845533 26.064657208716014 0 0 0
1808 3 24.49084987667008 7.098846657866759 27.41308346621181 0 0 0
1813 1 24.404019118395198 8.676675044587961 28.862074251857976 0 0 0
1815 3 23.163285388454888 9.820855461107994 27.56255649606028 0 0 0
1816 3 24.918360288192993 8.796142627988159 25.1412588929891 0 0 0
1895 1 26.437758680111703 7.864527565879074 26.363843268032838 0 0 0
1899 1 24.76632846741871 10.588988168184573 26.156386435034953 0 0 0
3682 4 22.409105272426647 7.755509331660357 28.041881417353814 0 0 0
3686 4 26.252271014898216 5.961941917549535 27.849099126928756 0 0 0
3690 4 26.602852064502493 8.444578518855112 28.475486921251118 0 0 0
3691 4 25.19985862822927 10.69288427713491 28.333088342600306 0 0 0
1985 3 31.190412380154754 9.126999992452008 25.272971172501414 0 0 0
1900 3 28.097670427362193 8.874714971090826 25.127454090282363 0 0 0
1889 1 28.279980988361228 5.493054493547702 26.214418301558794 0 0 0
1894 1 30.27834809853615 6.462545936170937 28.77373663192038 0 0 0
1896 3 28.186946031145546 7.062148886361278 27.686876750810576 0 0 0
1967 1 31.293757006124387 5.630056107324457 26.201739839674318 0 0 0
1974 1 29.6239560408971 8.07404046727544 26.309639777620248 0 0 0
1975 3 31.23943451020576 7.294851824453141 27.494789271821418 0 0 0
1983 1 31.122151574104773 9.131172049648187 28.668532422852216 0 0 0
1984 3 29.790121440922967 9.814416546608674 27.368893772943565 0 0 0
3696 4 28.355383348816254 10.50685822578988 28.699662213932612 0 0 0
3759 4 28.71929040588437 7.627310934367226 29.806415054604322 0 0 0
1973 1 33.13472154248938 6.719676587479895 28.57301130788217 0 0 0
3635 4 32.63194028093409 7.521094796822397 25.9738193842543 0 0 0
1047 1 -6.160388414232437 10.97889598418276 26.208355703142516 0 0 0
1055 1 -4.607902037238997 11.66221708264472 28.646331417549973 0 0 0
1056 3 -6.095475428886137 12.578051177494778 27.666300332216977 0 0 0
1065 1 -6.193735331270936 14.561287720255507 28.77464090529314 0 0 0
1066 3 -7.7870983973805545 15.589646344020755 27.734521122757016 0 0 0
1141 1 -4.625677091421229 13.503401704050422 26.25999723798199 0 0 0
1147 3 -4.613258781198028 15.28148786974587 27.425092743262383 0 0 0
3636 4 -7.118398747896565 14.008014104161663 26.59505936873954 1 0 0
1146 1 -6.093578105178786 16.137673392313392 26.194464034256605 0 0 0
1225 3 1.4132566731753622 11.680850250015922 25.06777707069947 0 0 0
1142 3 -2.976165304839739 12.490841327153396 27.457962243016574 0 0 0
1145 1 -3.1782139480313045 14.265647339668801 28.562303787723735 0 0 0
1148 3 -2.7884838847096516 14.236021080548701 25.325416334190813 0 0 0
1223 1 -1.3457738126038539 13.687719365072498 26.51264929860563 0 0 0
1224 3 -0.10649628159736668 12.506665461954485 27.67012504746387 0 0 0
1231 1 -0.06922836498305784 14.281054746843477 28.912181063642414 0 0 0
1233 3 -1.5358641532317474 15.399822304095913 27.67409843337034 0 0 0
1234 3 0.55722671960471 14.086868779765005 25.477458605757768 0 0 0
1319 3 1.4333601100491986 15.098118179968234 27.827141065510787 0 0 0
3576 4 -0.6458580668196383 11.91651341826647 25.52591207393705 0 0 0
1318 1 0.14731083899666864 15.990138554452068 26.457246892190575 0 0 0
3715 4 -2.6512890359888406 12.485202896760146 29.763812828945817 0 0 0
1222 1 1.7197355840397508 11.802506396081244 28.670621049014542 0 0 0
1306 1 3.10516978776202 10.957388886869683 26.24082923736222 0 0 0
1309 3 4.755851550245387 11.762463801565701 25.222888770757706 0 0 0
1317 1 3.0929321368110667 14.26784989609475 28.950611022428603 0 0 0
1392 1 6.25134428444984 11.086683707377176 26.622577588207108 0 0 0
3587 4 1.8589342610451673 13.112032661428723 26.835754258846222 0 0 0
3593 4 5.808454369292936 13.35665741817675 26.12818497551919 0 0 0
3652 4 4.088676878914435 12.107123136705432 27.97543102293752 0 0 0
3658 4 6.701863470381937 15.077321546239919 28.612294128192595 0 0 0
1404 3 7.756505759610534 11.691604384377179 25.140379467420487 0 0 0
1403 1 8.122866057854601 11.631489096233855 28.97277034697393 0 0 0
1481 1 8.051214824618492 13.445872568454842 26.184499386590367 0 0 0
1482 3 9.199312131981703 12.535042616581512 27.366893273702004 0 0 0
1483 3 10.890505972408931 11.406952212117064 25.491398205840717 0 0 0
1488 1 8.874172737433469 14.319401752851554 28.567745448950333 0 0 0
1489 3 9.546680235432019 14.292821665807148 25.04246938796244 0 0 0
1572 1 10.956329447553683 13.192391932332146 26.42143980482564 0 0 0
1578 3 10.876873030719704 14.863058893850118 27.448808401160036 0 0 0
3666 4 10.598917888571645 12.896455918635617 28.819467368515966 0 0 0
3601 4 7.790099352086626 15.645606135391324 26.065651111054805 0 0 0
1594 1 9.989760826269203 16.10300788296571 26.031230266332273 0 0 0
1577 1 12.198416828004307 14.485838702109902 29.014417252740728 0 0 0
1579 3 12.539842516770065 13.829966762783748 25.284030641491782 0 0 0
1653 1 16.84228863934604 11.862388927419342 28.51381711834017 0 0 0
1654 3 15.149981759395196 12.541187736159548 27.218199777861173 0 0 0
1662 1 15.403031324372172 14.259116509806326 28.39691536286802 0 0 0
1663 1 12.591464048157857 15.678137431566457 25.987797134210773 0 0 0
1664 3 13.819935211707987 15.27082761555462 27.54554822985115 0 0 0
3606 4 13.167535512910234 11.2647154255779 25.588971275960446 0 0 0
3610 4 14.579980697090864 14.109376304985652 25.89312062933567 0 0 0
3670 4 14.747465817849672 10.780419373923465 28.321540017656318 0 0 0
3671 4 12.997477760690199 13.19980157684967 27.434793941015585 0 0 0
1655 3 17.08237977169415 11.493433558549109 25.091463670551107 0 0 0
1742 1 20.056826674459032 11.570998833370446 28.73228850620798 0 0 0
1743 3 18.66851156740229 12.17058719280482 27.457619179615506 0 0 0
1744 3 20.1190119476336 11.74908089291125 25.336851844024217 0 0 0
1814 1 21.83838757886994 11.114280198166131 26.45578197941137 0 0 0
1825 1 19.918835157588724 13.464915418579427 26.326146003144885 0 0 0
1826 3 21.61366874077004 12.808793764249435 27.67371344265308 0 0 0
1833 3 21.677802298833413 14.53460559479524 25.44404905727326 0 0 0
3616 4 17.081001604583687 13.123000510389273 26.429759051472686 0 0 0
3683 4 18.638939711564532 13.465587649048231 29.096093980577535 0 0 0
3684 4 17.072941135029325 15.935976787269691 27.77539557211697 0 0 0
3687 4 21.140452001073317 14.9228730819248 27.507867130475013 0 0 0
3748 4 21.44215217265907 13.095600070044737 29.813177269842768 0 0 0
1824 1 23.222201446903462 11.775137343252304 28.823018473476445 0 0 0
1827 3 23.318372838748992 11.783315147305782 25.080172458436394 0 0 0
1904 1 23.261768716658104 13.479340250104233 26.358364965672322 0 0 0
3630 4 26.607000597560628 13.740197725815888 25.846103635343553 0 0 0
3692 4 23.393868116403787 14.275222312066026 28.53461280311045 0 0 0
3629 4 28.606566559724918 10.76941455374097 25.91256202133284 0 0 0
1992 1 30.02191278517261 12.037224650909788 29.45903177414855 0 0 0
3697 4 28.804225725032225 13.960141494522778 28.930076437366267 0 0 0
1073 3 -9.369928316763247 17.912364449258817 27.615070127146623 0 0 0
1079 1 -9.477471746665296 19.55420867040775 28.738310024151588 0 0 0
1081 3 -10.863054958484893 20.715524829411923 27.58036619283599 0 0 0
1082 3 -8.925943962474232 19.818704098706114 25.015234871339842 0 0 0
3637 4 -8.951794451815806 16.434121021041044 26.165462320057955 1 0 0
3638 4 -10.533313248755787 19.06976908157449 26.224251897245708 1 0 0
1161 3 -5.965496029256045 19.43457130413762 25.006423980133626 0 0 0
1072 1 -7.778553933243451 17.176038573892857 28.808798090087272 0 0 0
1151 1 -4.61516150437842 17.035920633044004 28.5622589993893 0 0 0
1152 1 -7.70615261832944 18.687118483366618 26.317346758703295 0 0 0
1153 3 -6.269770978513624 17.861651145275907 27.651240314078635 0 0 0
1154 3 -4.374414696881072 17.25042436084345 25.072450981699276 0 0 0
1159 1 -6.342189374517641 19.745423348967883 28.73986946007517 0 0 0
1160 3 -7.983453997343761 20.451989496580005 27.722354360933345 0 0 0
1247 1 -3.571424402065076 19.585971328859454 29.401394340684185 0 0 0
3577 4 -7.209198578368689 20.97249895904585 25.848347171065363 0 0 0
1232 1 -2.9702303639793977 16.214045489009933 26.266935173224844 0 0 0
1240 1 -1.9287592742510444 16.767912823977696 29.29258705614201 0 0 0
1241 3 -3.00407067348792 17.819350771412147 27.918703943491444 0 0 0
1242 3 -1.2474876644364237 17.13625617894291 25.444330253795926 0 0 0
1327 1 1.3140778104333926 16.833278181244832 29.04489600205528 0 0 0
1328 3 1.6020663213847453 17.189568072310234 25.453953331754327 0 0 0
3581 4 -2.8139470065639145 18.532445503392573 25.910297425103636 0 0 0
3588 4 0.46877238745086736 18.938245244865595 25.48338070755463 0 0 0
3649 4 -0.8528848679040699 17.67079168323597 27.528984984333817 0 0 0
3650 4 -2.0945160670845056 21.347736282894495 28.586829285398835 0 0 0
3655 4 0.5518740148355867 20.467045255467408 28.85817024417411 0 0 0
3594 4 4.170831199706685 16.587726206153388 25.030383768769312 0 0 0
1421 3 2.2969388959671946 19.914114858709745 25.191424198821792 0 0 0
3595 4 3.4023981852120304 18.476889446722332 26.335825004336144 0 0 0
3653 4 3.1592281758938476 16.256580315290613 27.67247966807377 0 0 0
3654 4 2.566353665632162 18.657839275694403 29.111765335056987 0 0 0
1505 1 4.512856495119873 17.49113734004136 28.947407077148384 0 0 0
1595 3 4.263254441339564 19.838957631958404 29.618744885952466 0 0 0
1504 2 5.678275212336802 18.683276133537284 25.456079672513994 0 0 0
1585 2 5.867314537872671 16.91800732408898 26.971559559812178 0 0 0
4321 4 5.577582061338866 19.346495895238796 27.921694056770953 0 0 0
3667 4 2.7092244639926157 20.683670457425713 27.27015736619606 0 0 0
1678 3 10.865209134423006 16.245108307689293 29.69937906452253 0 0 0
3813 4 9.470999236211918 16.308382699880813 28.114778389567583 0 0 0
2524 1 7.273192774515856 17.15318601447108 28.904272436931755 0 0 0
2595 3 9.253562913884364 18.0263828916788 29.426896507393465 0 0 0
4329 4 7.783610198957087 18.265451622854016 26.854124087089303 0 0 0
2746 2 7.627197406416785 19.473849355821233 29.40510804159475 0 0 0
3611 4 11.400591688485058 17.824983657088485 25.956243853650186 0 0 0
3672 4 11.990272400908275 16.422405617265355 28.061711285874885 0 0 0
1752 1 14.110988125736418 18.885785468181354 25.45823812167243 0 0 0
1745 1 15.438051088650703 16.1565069802473 26.30270515040793 0 0 0
1673 1 14.137649522619741 16.714513211369574 28.820932532272167 0 0 0
1751 1 16.81349381662952 17.640880980240183 29.14756607655856 0 0 0
1753 3 15.491480154370375 17.900608484806085 27.395696895189367 0 0 0
1759 1 14.960807977694959 19.708688356456292 28.079782571132966 0 0 0
3751 4 16.08472640130403 19.923414284465476 25.930655469961188 0 0 0
4149 4 13.655547431348891 17.372251806180394 26.83924661897119 0 0 0
3750 4 16.845511230914497 19.91617797719569 29.950155866546503 0 0 0
1848 3 17.043521681849906 19.47763770841233 27.873725664750857 0 0 0
1837 1 17.321433976748953 18.16837144035558 26.373202112990512 0 0 0
1836 1 19.6810245363226 17.03527280203897 29.592174759441285 0 0 0
1838 3 18.641331080902958 17.710044745546774 27.814741809660532 0 0 0
1846 1 18.82966298124712 19.602856667846865 28.88606318035972 0 0 0
1849 3 18.2394330199731 19.92028932452366 25.706315645504205 0 0 0
1918 1 20.039682558849897 18.975579555611294 26.218564844647574 0 0 0
1924 1 21.90517877717234 19.737127845269804 28.714671201009253 0 0 0
1925 3 20.374037936484008 20.612460281717148 27.686245579835855 0 0 0
3622 4 19.263243028189123 16.51398450332578 26.134355255736764 0 0 0
3624 4 21.810982952584723 16.774410041055315 25.380347303420777 0 0 0
1777 1 17.63817888976921 21.299330060097795 27.000380554509555 0 0 0
3625 4 19.62690945272498 21.493006352255335 25.97738864125455 0 0 0
2013 1 24.916453094433642 20.01328152720457 28.72042889114615 0 0 0
2015 3 23.349822475918742 21.04687854823986 27.671414164402627 0 0 0
3631 4 25.126369530213978 16.256118455494974 25.515501930191718 0 0 0
3632 4 23.068948686235153 19.794767856458755 25.83177558103874 0 0 0
3699 4 25.69922871553291 17.90855018936035 28.498051967235448 0 0 0
3698 4 27.488421914904137 16.150607525974387 28.7790251010638 0 0 0
3704 4 -13.828036221397944 25.199057373991373 28.13912258316443 0 0 0
1087 3 -10.721462135490347 22.638660072532886 25.15499197388703 0 0 0
1080 1 -12.2989650172205 21.724980300673902 26.398951510400508 0 0 0
1086 3 -12.442258730730739 23.517523566969604 27.59675120318846 0 0 0
1093 3 -12.445619893528889 24.925517698242142 25.062042080860834 0 0 0
1166 1 -10.998416585858891 24.418357344322608 26.394884281956173 0 0 0
1170 1 -9.093305203097959 25.264793970927702 28.565562762915675 0 0 0
1171 3 -10.41087761379194 26.15839578039221 27.466129873051443 0 0 0
3578 4 -8.7263845797567 24.8000910316209 26.379493432606168 0 0 0
3645 4 -11.923483554514304 26.686478808972133 26.08900063134591 0 0 0
3710 4 -10.360132333464616 22.81344264358135 27.919962214414426 0 0 0
3711 4 -11.39234845320712 25.016569818809632 28.849406941477497 0 0 0
3582 4 -4.255817966905262 22.197591380857624 26.313698771586203 0 0 0
1255 1 -4.437881898894261 22.522496595214232 28.701787019129597 0 0 0
1256 3 -5.984628734055112 23.4234959150103 27.561536982397598 0 0 0
1264 1 -6.266947541806152 25.122863493667726 28.730729228242183 0 0 0
1266 3 -7.605874419186143 26.287341149328917 27.48160926932799 0 0 0
1339 1 -4.604735009427927 24.566105606485507 26.41400291493376 0 0 0
1347 3 -4.71916491944514 26.26617347651419 27.73238187212374 0 0 0
3583 4 -6.355590291593565 23.481762900642593 25.419872438840116 0 0 0
3718 4 -7.265225154964239 22.96532393624496 29.954830129651228 0 0 0
3589 4 -1.2041050419338077 22.251321670449347 25.164120566193176 0 0 0
1345 1 -3.278436130447629 25.309216608098613 28.948626446278745 0 0 0
1348 3 -2.792732225383583 25.025167728692562 25.232171878082838 0 0 0
3590 4 -2.5227439411439008 24.02359935674748 27.116673845606 0 0 0
3596 4 1.3276684944148336 21.87612803561908 25.60138945803287 0 0 0
3597 4 -0.3346573104803152 25.000956631122598 25.48191993396231 0 0 0
3656 4 -0.3614698647647163 23.6196692659918 28.664332428703744 0 0 0
3660 4 1.1394965088458946 25.730363593700627 28.12305326468035 0 0 0
1436 1 -2.9136782676183017 26.84541964551948 26.522451107721658 0 0 0
1507 1 1.2775095034021913 23.90743538950901 26.654473586290578 0 0 0
1429 1 1.7659917835339645 22.64303742930756 28.882566704093264 0 0 0
4334 4 4.5279558887772176 21.91637833308073 29.271621296528018 0 0 0
1515 3 1.7794175746760832 25.60155364597201 25.97617314961751 0 0 0
1502 3 2.8394912368142915 22.967458338760142 25.942513537920007 0 0 0
1506 1 3.96747772434391 22.591921471738367 27.284972525781917 0 0 0
1508 3 2.7380123587539895 24.062492482590017 27.81558936109368 0 0 0
1514 1 2.969548882258078 25.27418010406681 29.350065201396347 0 0 0
1599 1 3.5613804646435785 25.054008266143278 26.01352530708637 0 0 0
1607 3 3.6601066709840353 26.450877395953295 27.8153814172358 0 0 0
3874 4 5.570320442348692 25.7138265023561 26.319579303264163 0 0 0
4330 4 4.757413899758889 24.494116080007846 28.189838218085285 0 0 0
1775 1 5.73810677683319 26.503867255097695 28.529944732819175 0 0 0
2679 1 7.87384615204887 26.213368488981747 26.712610043242705 0 0 0
1765 1 16.291546996745915 24.528672624812454 27.24656752334431 0 0 0
3693 4 16.0647141248608 26.480058146941225 26.239429470456543 0 0 0
1858 1 16.88329965939971 22.109703603275857 29.283864511624202 0 0 0
1856 3 16.753007477079464 24.975132206719874 25.112017471057342 0 0 0
1854 1 17.38271300468775 23.19714752294549 25.22833885771024 0 0 0
1937 3 17.37639145416509 26.35682342053554 27.934286024021517 0 0 0
3626 4 18.286256766446513 24.9532667450708 26.481936843146443 0 0 0
3639 4 21.490387577367834 26.3066644980237 25.87267559826445 -1 0 0
2014 1 21.81215813181918 21.591155881345383 26.37076827597035 0 0 0
1930 1 20.181778507217984 22.311760443123816 29.034526336856608 0 0 0
1935 1 18.864966564725414 25.167466715507203 28.758155100231434 0 0 0
2021 1 20.0360998682967 23.80128697173505 26.07455677211651 0 0 0
2030 3 20.175386727351686 25.456995217567822 27.29776474110379 0 0 0
2031 3 21.676804163394984 24.415887671795517 25.024725553433242 0 0 0
3700 4 21.603956015058472 23.513467807055775 27.615152619182282 0 0 0
3701 4 20.80230469726583 26.12144323833913 29.270314400592312 0 0 0
3755 4 18.363169522578858 23.12536365974272 28.004848573849316 0 0 0
1085 1 23.34334186537325 24.034466807057246 26.225045934822646 -1 0 0
2020 1 23.447236730080036 22.736169865322186 28.97989589666826 0 0 0
2022 3 23.430121418384054 22.31723541078056 25.150984485480308 0 0 0
1187 1 -15.70798151684325 32.27473281315044 26.23596099897599 0 0 0
1106 1 -15.579083587550386 30.78365317168605 28.939723208196824 0 0 0
1107 3 -16.927808713145666 30.834034016518483 27.483554216800314 0 0 0
1188 3 -13.988806775632318 31.410662061525382 27.458726273544528 0 0 0
3640 4 -16.7707974713062 29.132301687109237 26.109907910788017 0 0 0
3641 4 -17.93738589666185 31.437207297996526 25.750844274639235 0 0 0
3705 4 -16.078324317578904 28.549270620348352 28.849133601010266 0 0 0
3646 4 -13.145014525885824 30.17883089927931 25.816958867588873 0 0 0
1283 3 -9.453497809429146 30.59755731990734 25.201656269633226 0 0 0
1177 1 -10.544945313457166 27.612760642546643 28.981473670657813 0 0 0
1186 1 -12.335882662466624 30.55191394181488 28.860589785451275 0 0 0
1265 1 -9.266698222730039 27.041985197337837 26.31405957932352 0 0 0
1275 1 -10.846505997643913 29.532572434741862 26.301767711926345 0 0 0
1276 3 -9.402590695092663 28.622820014920286 27.608569338406845 0 0 0
1281 1 -9.273040667462627 30.376180716910696 28.749835329686277 0 0 0
3584 4 -10.315432922049213 31.665954768914432 26.963884928441153 0 0 0
3712 4 -12.229869021070165 28.505094044825384 27.834766491015472 0 0 0
3526 4 -7.462781403409581 29.62743639560866 25.020177150659123 0 0 0
1346 1 -6.125109307228023 26.977437620207674 26.135379566509663 0 0 0
1274 1 -7.567490959740105 27.91383755932648 28.54952702713843 0 0 0
1351 1 -4.666698411193975 28.166029455682907 28.70296732808641 0 0 0
1352 3 -6.098674860555446 28.855141541726283 27.37942618000092 0 0 0
1353 3 -4.2766961948996585 27.54031962431319 25.303224442764574 0 0 0
1358 1 -6.2128557912645235 30.743589176425807 28.445783993667625 0 0 0
1359 3 -8.065232602109017 31.34213986495749 27.434355171875936 0 0 0
1440 1 -4.6196608170480165 29.56796724786408 26.047807021837258 0 0 0
1447 3 -4.450721948232086 31.31573854928125 27.33549652593203 0 0 0
3591 4 -6.217365415455836 31.44524953129219 26.27818920950058 0 0 0
1441 3 -3.179379483096831 28.85342924358752 27.34454816437976 0 0 0
1442 3 -1.181561559936556 27.649790120667728 25.354455023521226 0 0 0
1446 1 -2.9876872156067513 30.6088929840323 28.43838021819132 0 0 0
1523 1 -1.5263430024086038 29.721354711945033 26.15080199329313 0 0 0
1531 1 -3.164252824114115 32.00918060121697 25.882511692070523 0 0 0
1532 3 -1.7520785418929457 31.665309756796685 27.129708425552202 0 0 0
3603 4 0.6965634595923689 28.981811030637257 25.901040694673853 0 0 0
3661 4 -1.210158888981315 27.96367809962413 27.597007678931952 0 0 0
3668 4 1.2894918396480328 28.350083521089402 28.632824644812047 0 0 0
3669 4 0.11899981399152892 30.839313027534317 27.60553802970164 0 0 0
2591 3 5.881016911022746 27.56952516595969 25.70153064924797 0 0 0
1606 1 1.8570032110851216 27.29496106326425 26.71695256640713 0 0 0
4312 4 4.02770889662272 27.727539589267025 26.272745075401595 0 0 0
1611 1 3.836181726782801 28.48389682893179 28.425815702521234 0 0 0
1612 3 2.4997652197375437 29.06489030071032 27.044733038568125 0 0 0
1619 3 2.828334887031886 30.897745293426933 25.248815026091357 0 0 0
1699 1 4.052232970165267 29.824991257502734 25.876066404168853 0 0 0
1706 1 5.24618783375778 30.913005738506985 28.65126317948119 0 0 0
1708 3 4.5437613940837345 31.25709559289047 26.87399412895008 0 0 0
1788 1 6.106019061204435 31.959462760635926 25.780826938726847 0 0 0
3674 4 2.9892170880222793 30.736108557567825 28.136635704040714 0 0 0
3536 4 6.292371050029768 29.81539671711089 26.756432135892787 0 0 0
2748 3 5.964981963232727 27.90897653881181 27.131093212970327 0 0 0
3747 4 6.778437062690621 31.976840576168904 29.923338969481208 0 0 0
3619 4 8.012661766014347 30.79003390016961 25.136508437450843 0 0 0
1787 1 9.875689150997818 28.64839528509904 25.48514204488412 0 0 0
3740 4 7.695605469769902 28.197924672011258 25.865753182860047 0 0 0
2460 1 10.306799285923375 28.706396516016007 28.033311341338646 0 0 0
1608 2 7.495552385820215 28.584018852670624 28.22585485208152 0 0 0
1700 3 8.76369364339983 29.74448784181473 26.94727041202264 0 0 0
1698 1 8.313112016244563 30.944539157458575 28.62559075979248 0 0 0
1789 3 6.883718354233228 32.033980851752546 27.626557620781675 0 0 0
1690 2 10.470404320278789 30.86272845304122 27.130396517318026 0 0 0
4316 4 10.843588082525436 30.967525017229306 29.46689198470294 0 0 0
1862 3 11.689579760607035 29.389914422812286 26.423984059586886 0 0 0
3815 4 12.906423860928196 30.716926653741282 25.37934063500979 0 0 0
1866 3 15.73611974839449 29.537257732360192 26.312142996125523 0 0 0
1936 1 15.760864295141118 27.875917515033798 27.598846428153706 0 0 0
1874 1 13.009970608227658 30.654331918345786 28.167147733419682 0 0 0
1944 1 14.711044597240718 31.14692031305121 26.196589008812232 0 0 0
1945 3 16.752471973365544 29.082267925754408 28.43561356906168 0 0 0
3633 4 16.745989971391683 31.57939684028485 25.848715312580588 0 0 0
3688 4 13.911966371272186 28.916770829705396 27.01205766101799 0 0 0
3694 4 15.559349177596275 30.697025214003475 28.28188133649479 0 0 0
2029 1 18.864982598505275 27.02395873174244 26.579980740136413 0 0 0
1946 3 17.26813555183164 28.068221015081903 25.65221378948715 0 0 0
1943 1 18.206246880152126 28.12820852507707 29.15378034044239 0 0 0
2036 1 17.636431202423424 29.747985101905993 26.685143970982864 0 0 0
2037 3 19.200824153021802 28.650398327489352 27.596535516670293 0 0 0
3702 4 18.494067352190633 30.406632738871053 28.67802291911839 0 0 0
1040 2 0.09076059435886208 4.8475629993803375 30.79673933999758 0 0 0
3766 4 0.52312522037118 2.308128648125212 31.01963633439439 0 0 0
3835 4 0.38734358786600565 4.793791603432067 33.288533977557535 0 0 0
1108 2 2.957457604561634 0.26604797243625383 30.78593472358861 0 0 0
1115 2 4.513996826364395 2.6369390800663712 30.698598580724607 0 0 0
1116 1 4.739757304181495 0.9748310232317026 32.724256407494764 0 0 0
1204 1 5.829250852137461 3.7705030055856517 32.66692893697685 0 0 0
1205 3 4.537312741556105 4.440166291913461 34.25006384966692 0 0 0
1209 1 2.5766289134512133 4.892741172285641 34.46940748673017 0 0 0
3770 4 3.434767648020183 3.622958689809375 32.640552123263575 0 0 0
3843 4 2.5454909389610325 1.170971267032117 33.28081595591356 0 0 0
1190 2 6.121070364218497 0.026871193217650476 30.676043139818432 0 1 0
1123 2 3.2435874935416757 5.183752646224424 30.66581541879698 0 0 0
1200 2 7.741833408984688 2.5986746878474776 30.78286386294605 0 0 0
1290 2 10.923952806185735 2.774454285335763 30.566655114754603 0 0 0
1296 2 9.203957266581167 5.238493216830205 30.587781459259517 0 0 0
1297 1 9.113183043166245 3.7251571349929553 32.55202350754194 0 0 0
1298 3 7.560507209552695 4.412549888205846 33.82904698058488 0 0 0
1376 3 10.61569601021785 4.488958707241513 33.62506530246106 0 0 0
3782 4 7.495268492647309 2.304378571087625 33.44235611072265 0 0 0
3791 4 10.594490583201106 2.1133281015860623 33.04441259032301 0 0 0
1368 1 14.17584912829456 0.9105350200989625 32.62870959238281 0 0 0
1369 3 12.497149924530174 1.7472604337378825 33.95217189329081 0 0 0
3730 4 15.790438421422326 2.0033861344305586 30.922166346765636 0 0 0
3731 4 14.212105314687413 4.769049629292796 30.986971282491716 0 0 0
3733 4 16.821374163566663 4.454089479421035 30.840627590538617 0 0 0
3795 4 15.008256552892403 4.89129988458839 33.615507950887 0 0 0
3800 4 16.454948665402483 2.4949496734904426 33.403114240918484 0 0 0
1459 1 17.296067748921214 0.7123278767942256 32.2396910986848 0 0 0
1540 2 18.145188819767515 2.380877678337087 30.506506986246535 0 0 0
1541 1 20.217014433040198 0.9811571815354617 32.97637104885879 0 0 0
1542 3 18.43952294578421 1.7654242058804526 34.10838853529162 0 0 0
1550 2 18.971402210819456 5.199974120057704 30.6717282580746 0 0 0
1551 1 18.48423875025363 3.5323648588900602 32.74018651620844 0 0 0
1552 3 17.055187640501813 4.525333841353024 33.80444668697045 0 0 0
1629 3 21.017610356662413 1.4001477403760785 34.82188564920896 0 0 0
1634 2 21.68075489490164 4.976829622434792 30.801404129016476 0 0 0
1635 1 21.709280451387492 3.7206963565982667 32.9922671774799 0 0 0
1636 3 19.919311842156883 4.543210146832879 33.83013118129197 0 0 0
3739 4 20.364823894658457 2.891377495404104 31.3537160158927 0 0 0
1716 2 26.23191607490481 2.7466677461154463 30.653265295017505 0 0 0
1718 3 24.986495623280252 1.8422289897476105 33.940577952911596 0 0 0
1725 2 24.948562636839345 5.057151067772045 30.699353211158993 0 0 0
1726 1 25.013353250981083 3.6034315982781613 32.922651869600614 0 0 0
1727 3 23.46922103033936 4.470774489121373 33.99287062186773 0 0 0
1804 3 26.65637790444819 4.549424138122791 33.8939347576619 0 0 0
3742 4 23.35562027066262 3.457855770078117 31.456932144922554 0 0 0
3809 4 22.503402299379218 1.321717044226539 33.19424129883346 0 0 0
3818 4 24.935008395584674 1.262006700526969 31.954919386139494 0 0 0
1717 1 27.009037816312993 1.4433805621550724 32.69486023704965 0 0 0
1796 2 29.356437195740163 2.7271211314585058 30.335266903887693 0 0 0
1797 3 28.391134319383088 2.350563504212326 33.91831253712257 0 0 0
1803 1 28.041775258971583 3.8485833808855023 32.338812351034406 0 0 0
3752 4 27.31655955433831 4.9108511795108045 30.437368372055552 0 0 0
3758 4 30.7005652237268 4.7095708140351284 30.16626739095245 0 0 0
3824 4 29.49676234669681 4.3882505922717305 34.068225939922584 0 0 0
3830 4 30.627224213416138 1.9900051331065847 33.93861891866673 0 0 0
3831 4 31.94133241976005 3.9119465250618854 32.257515526372885 0 0 0
1790 2 27.712229951803526 0.48085457839977797 30.326411563799617 0 1 0
1783 2 29.76380759356795 0.43589693988586137 31.840646854711437 0 1 0
1878 1 31.27660380018541 0.2200616345482613 34.978753436629205 0 1 0
1883 2 32.60544543232003 2.5375896164247087 30.455015929160595 0 0 0
1960 2 35.47471846985104 2.408907556116212 30.598775563764804 0 0 0
1961 1 36.080308815272126 1.0392472212777053 32.83224295762421 0 0 0
1962 3 34.12609848224485 1.5647888534028038 33.87643245448384 0 0 0
1970 2 34.06426935787861 5.1913243568776455 30.708596042869004 0 0 0
1971 1 34.14608577294005 3.326620239986531 32.545008493417356 0 0 0
1972 3 32.831066010795055 4.540510335447641 33.98382795448981 0 0 0
3763 4 33.9577959744473 0.7405253540483794 31.835622903922257 0 0 0
1969 1 32.703264273014135 2.8203177856391024 34.94283341666451 0 0 0
1050 3 -4.690838669777147 9.771763360973424 34.481898582888235 0 0 0
1987 2 -5.842187110635715 10.606075985041585 30.883830906946798 1 0 0
1044 1 -1.5223641029338597 5.896989024375249 32.60355819552393 0 0 0
1045 3 -2.957552977560444 6.894684052224139 33.90344856569034 0 0 0
1133 3 -0.023819694684892312 6.959379366233125 33.60290419523207 0 0 0
1216 1 1.4014049087465814 7.839818913779552 34.82913731342343 0 0 0
3713 4 -0.06599792701232765 7.204471281380054 31.406438682458145 0 0 0
3714 4 -0.8064122811525696 9.720770472294006 31.00894417559151 0 0 0
3767 4 -3.0160349576232557 7.446922308838258 31.69807638836366 0 0 0
3771 4 -0.10982791844318918 9.101876417591562 33.70829861060048 0 0 0
3836 4 -2.875619753909211 8.969835343284384 33.81624487813549 0 0 0
1132 1 1.8042962792747748 6.323019265308836 32.400998328967354 0 0 0
1131 2 2.164596157300293 8.203995743631072 30.883138529800355 0 0 0
1210 3 3.1036453843377156 7.061208929885195 34.14894049261071 0 0 0
1218 1 3.496978847455887 9.080091112088306 32.94430315623332 0 0 0
1219 3 1.8310541765066652 9.862617892046652 34.14683753374318 0 0 0
3722 4 6.308942512299839 7.534163590714711 30.72689331434959 0 0 0
3723 4 4.513630187864131 9.361157828136802 30.749388944553758 0 0 0
3777 4 4.336393416677204 6.025939657300097 32.833892405296176 0 0 0
3784 4 6.318428572725728 9.703270232452724 33.02891548447844 0 0 0
3849 4 5.245987858771888 7.593263680777469 34.86886322132669 0 0 0
1384 2 11.367586797658598 8.59665816831548 30.57629780605511 0 0 0
1385 1 10.711664687614961 6.445783574828581 32.528194786881386 0 0 0
1386 3 9.405484207122294 7.3923784256976415 33.90929404766445 0 0 0
1397 1 9.471691220017513 9.242651230549347 32.51943162452529 0 0 0
1398 3 8.135330263889925 10.03094106848752 33.9965241843983 0 0 0
1478 3 10.836469985719072 9.715665097563496 34.117854386608805 0 0 0
3726 4 9.270060147939422 7.577415696563244 30.952611566361696 0 0 0
3727 4 7.881605985123189 9.935774544201841 30.70920430979075 0 0 0
3783 4 7.534702916444818 6.4545296606974025 33.70141939997516 0 0 0
1383 1 9.359889977821307 5.43062319663334 34.961140637230216 0 0 0
3859 4 11.775918973206313 5.651288506097034 34.94119658550941 0 0 0
1375 2 12.151640935113234 5.815463817609176 30.564104520832743 0 0 0
1468 2 14.318950356036 7.6117362965113085 30.46167932809 0 0 0
1469 1 13.661323619565145 6.408415353442055 32.580615666760835 0 0 0
1470 3 12.309594937767201 7.408641727855453 33.89510716765172 0 0 0
1477 1 12.293623339099156 9.051740739091167 32.9174687235738 0 0 0
1561 3 15.412994622915736 7.020658467986576 33.73028979237042 0 0 0
1569 1 15.458925247196415 8.902598025450061 32.46888706401511 0 0 0
1570 3 13.912582556064061 9.87034556512001 33.880932498732 0 0 0
3734 4 13.467579012365803 9.803872564166804 31.15346542162733 0 0 0
1568 2 15.578822978794022 10.725088733395689 30.61526013067612 0 0 0
1650 3 16.881498278201583 9.900867677513961 34.00947404636915 0 0 0
1559 2 17.518929869598058 8.198342938596658 30.699368425803684 0 0 0
1560 1 16.95185769049987 6.1218317767694215 32.439627112752234 0 0 0
1642 2 20.616408769776733 7.356429329425133 30.100315340984274 0 0 0
1643 1 20.28261370557646 6.276261851400945 32.55795681291913 0 0 0
3743 4 20.08168596666885 9.548972152301326 30.87623730897142 0 0 0
3810 4 21.950340826855125 8.330566972012294 33.06760812327936 0 0 0
1732 2 22.831598159683956 8.383828302654258 30.84196606038671 0 0 0
1733 1 23.424219302771434 6.202339053115018 32.452972993105675 0 0 0
1810 1 25.22697983821064 5.57891893431685 34.98698725188208 0 0 0
1811 1 26.44078403238178 6.304179515217437 32.55842742859438 0 0 0
1812 3 24.957973770137276 7.3153899157295585 33.78828242083972 0 0 0
1818 2 24.60889243275045 10.542004993042267 30.636388214143423 0 0 0
1819 1 24.622259679781806 9.047719879158379 32.672679857267745 0 0 0
1820 3 23.219791652643433 9.819263512508073 34.03257889449134 0 0 0
3753 4 24.97962729510245 7.446049030521442 31.00641446898456 0 0 0
3826 4 26.76211767042869 8.45822225061935 33.39522077372679 0 0 0
3760 4 26.7097645081924 9.570700420986434 30.973013866575883 0 0 0
1979 3 31.272147061671543 7.253490491635783 33.9630434788382 0 0 0
1988 1 31.50749309987853 9.077646171148425 32.892617181153526 0 0 0
1989 3 29.765543623328035 10.076911061319418 34.14148364915059 0 0 0
3825 4 27.594118705209173 6.391746976878431 34.798846115602416 0 0 0
3832 4 30.48431475324638 6.230533097995786 32.330990655036054 0 0 0
3833 4 29.326707546990043 8.473632971630662 32.80351941291778 0 0 0
1977 2 31.773559646597334 7.445070670193313 30.677663385518187 0 0 0
1986 1 29.564267803083375 8.002701878376334 34.9639248694682 0 0 0
1978 1 32.726327349688646 6.148381406736329 32.7317018267993 0 0 0
1059 2 -4.926520848193278 13.2466997889301 30.579066572517995 0 0 0
1060 3 -6.238123645101845 12.543438028449321 34.50686144064958 0 0 0
1994 2 -7.457399790890644 14.018728529396459 31.098267268878715 0 0 0
3716 4 -4.189881369860334 15.525049715131127 30.120748702733337 0 0 0
3837 4 -4.556646834850806 11.669316636350045 33.70242985587552 0 0 0
3838 4 -5.797188579289491 13.8402916809994 32.90073985770604 0 0 0
3774 4 -3.6964407501054435 16.009795519120754 33.45604462427695 0 0 0
1227 2 1.409497959221273 13.477027681087804 30.84776710947029 0 0 0
1228 1 1.51501477646827 11.660874192086434 32.92534337265295 0 0 0
1229 3 0.12935660476795885 12.701040480320728 34.20987576185817 0 0 0
1237 1 0.07056452868482133 14.522117963147137 32.98348772245772 0 0 0
1238 3 -1.588726839665675 15.328707554848517 34.02999940243693 0 0 0
3772 4 -1.41123505192619 11.410762276698577 33.88907607325296 0 0 0
3773 4 -2.696581202753424 13.607955501539527 33.544496082484685 0 0 0
1217 2 2.804501034220852 10.896466101814662 30.840550420040543 0 0 0
1311 2 5.068074075675604 13.635229675477616 30.503874703533775 0 0 0
1312 1 5.2348670265241255 11.364299996038433 31.76155195505489 0 0 0
1313 3 2.9357300803461666 12.610246025602436 34.080949435638836 0 0 0
1322 1 3.278364509476811 14.09959156500868 32.38800307367157 0 0 0
1408 3 6.414165185855344 12.072074271971704 33.46697881616652 0 0 0
1412 1 6.369501075999262 13.936767808840857 32.703851554491905 0 0 0
3785 4 4.510807228842631 11.214541194065786 33.872027910116685 0 0 0
1396 2 9.92974126451754 11.200483816693074 30.70620824026767 0 0 0
1406 2 8.113454273812104 13.412123525244851 30.73477168901391 0 0 0
1407 1 7.979019022015598 11.572987922711459 32.465749037904885 0 0 0
3736 4 10.570296357647907 14.422487011634718 30.782310569638852 0 0 0
3796 4 10.073303890786669 11.423291904789467 33.24068445276347 0 0 0
3797 4 8.75277744068874 13.890735670315848 32.95805681266285 0 0 0
1586 1 10.757278686394084 15.548708121969998 32.83685169972014 0 0 0
3869 4 9.251384478913087 15.610010142603373 34.876284985557284 0 0 0
1496 1 7.8742752558399225 16.082548398396415 32.88496296910985 0 0 0
1490 2 9.07104669300156 16.1749091127892 30.58841372185367 0 0 0
1573 1 12.131773306507945 11.41712153006623 34.43212499710068 0 0 0
1574 1 14.097842877812305 11.615950077751199 32.5916341240368 0 0 0
1657 2 16.782593539517478 13.455851657447585 30.62867634575958 0 0 0
1659 3 15.557419627149379 12.493125592940515 34.034497952047595 0 0 0
1667 1 15.585850091413363 14.287876494112199 32.80590291706026 0 0 0
1668 3 14.180893466744687 15.289787204691473 34.070490001336495 0 0 0
3735 4 12.035806153294784 12.070032335402958 31.473674106229254 0 0 0
3801 4 12.34622764492447 14.018815345825539 33.81089096038035 0 0 0
1666 2 15.540763349341953 15.932043539428255 30.692229098369083 0 0 0
1580 2 12.561423050880393 16.055458833046426 30.862937145156224 0 0 0
1658 1 16.96604173314354 11.678108899639549 32.604794267068385 0 0 0
1649 2 18.329880431192876 11.18005363975682 30.47984712463355 0 0 0
1747 3 17.104741137621392 14.980440506367167 34.25954177060642 0 0 0
1835 3 19.8388564125192 15.346145535587153 33.72055904606849 0 0 0
3744 4 18.762129957360628 13.104635543537428 32.096503290361035 0 0 0
3749 4 18.96758051548119 15.728095384060206 31.61329393143331 0 0 0
3811 4 18.227684276935772 11.62287597566614 34.612453818856146 0 0 0
3819 4 21.644060746238296 11.205358739291752 33.40310426907045 0 0 0
3820 4 21.651709025476016 14.132088861413907 33.61848714437933 0 0 0
1737 2 21.946639218474477 11.067150031621058 30.93911124122154 0 0 0
3754 4 22.620553422516302 15.254818143746547 31.557727963466355 0 0 0
1828 2 23.777784392941424 13.319535609237306 30.691141292104668 0 0 0
1829 1 23.76193774090343 11.747441437177446 32.65914166301707 0 0 0
1906 2 26.603062925965013 14.387134203252039 30.44953213444792 0 0 0
1912 1 24.840332331762582 14.59664824426082 32.511235182275286 0 0 0
1913 3 23.27569457625766 15.48264106016271 33.7914509505606 0 0 0
2002 3 26.219216675965185 15.405289058952832 33.88655561173394 0 0 0
3761 4 25.899579627837095 12.47525442566959 31.813531280106403 0 0 0
1995 1 29.928224049203465 11.906449770633714 32.86008309795492 0 0 0
1996 3 28.298586540776032 12.635535715323195 34.10945110321864 0 0 0
2001 1 27.916804622448296 14.37490266067129 32.729851480072895 0 0 0
3834 4 27.86699415603786 10.794140821129684 33.21822484962003 0 0 0
1083 2 -9.529784205093517 21.2470315581618 30.788533282300655 0 0 0
2000 2 -8.961436186192342 16.356792999692946 31.00977380538214 0 0 0
3841 4 -9.555071864316574 21.51754552150215 33.39561203569017 0 0 0
3840 4 -8.842448387172915 18.695661670185334 32.792854323510696 0 0 0
2016 2 -12.281975305447965 21.40857197051586 30.797639691701157 0 0 0
1088 1 -12.284876925567358 21.47581306058431 34.94503095466971 0 0 0
3895 4 -10.051371466692126 17.505961845757305 34.80483420953036 0 0 0
1075 2 -7.7942691744578525 19.10897987299173 30.740346195680914 0 0 0
1162 2 -5.624955136088586 21.170733649167587 30.70956723667335 0 0 0
1163 1 -6.624834786475525 20.143456707766305 32.922652066986316 0 0 0
1251 3 -4.629311016424142 20.667658304877687 33.84416971115345 0 0 0
3717 4 -6.002106529656524 17.67436078375596 30.166751024453 0 0 0
3775 4 -4.936595285576898 18.587571634722952 32.908989767111095 0 0 0
3839 4 -7.133848923470338 16.376660284631694 32.522309663957934 0 0 0
1236 2 -0.22516122288224416 16.183269686769286 31.044059799320614 0 0 0
1244 2 -1.22283195547484 19.199419775465277 30.187043810449616 0 0 0
1245 3 -3.075159139522704 17.98165030639472 33.98896362943158 0 0 0
1250 1 -2.9944877840044626 19.679586739170766 32.53166779406094 0 0 0
1329 2 1.267112581226316 18.3421728989201 31.162735336147975 0 0 0
1335 1 -0.13109805808220187 19.972752131286484 32.36305925636028 0 0 0
1336 3 -1.5349051715574475 20.535518508807147 33.83107200299388 0 0 0
1424 3 1.3071685011073129 20.498732073195406 33.989360631151555 0 0 0
3720 4 -3.1366633515225644 17.895508261240654 30.959495334741874 0 0 0
3778 4 -1.2433893338844921 17.354657585701016 33.09501026121523 0 0 0
3787 4 1.073744608498183 18.460777954427616 33.570056275407936 0 0 0
1321 2 3.290064403255297 16.14050897459093 30.595994819642584 0 0 0
3786 4 1.806562931816904 16.156025264330196 32.510256394820594 0 0 0
3798 4 5.909000726197229 18.36781769399986 30.47097520454013 0 0 0
1411 2 6.243543092080518 16.243425751307985 30.98581911799627 0 0 0
1422 2 2.549836356223029 20.77879869564683 30.35110714773146 0 0 0
1417 2 3.7215671823546526 18.65710530202258 31.23433969014114 0 0 0
1418 1 4.727184247522338 16.342239170046913 33.05414330060851 0 0 0
1423 1 2.7366182619290207 20.227139874984996 32.73914507622222 0 0 0
3792 4 3.628689065304714 18.21961228315545 33.55652941876016 0 0 0
3799 4 4.653798368501443 20.680437370110845 33.87292567435826 0 0 0
2744 3 5.400239655711612 18.818106435055306 32.507399085773194 0 0 0
2442 1 5.3912923887118875 20.522596491476573 31.136726294246287 0 0 0
2589 3 6.454861443109628 17.74149484971847 32.47738761564702 0 0 0
3990 4 6.032372983205084 18.43484822488415 34.521982207652506 0 0 0
4325 4 7.1481846180394015 20.02203437855754 32.365682088068816 0 0 0
2598 2 10.823625234938593 17.877620462690526 30.77826216306957 0 0 0
3862 4 8.046036341478857 18.032673545045647 31.043628757228774 0 0 0
2443 3 9.710273381931819 17.268901322852813 32.29118942149986 0 0 0
3930 4 8.151492947547041 17.966199432955893 33.948046576446785 0 0 0
2579 1 10.388989616274767 17.470178894901224 34.493298429264705 0 0 0
3992 4 14.901170184588082 18.290609967699915 30.185311253309166 0 0 0
3993 4 15.92693477404391 18.785800478681328 32.421991197479585 0 0 0
1677 1 14.293326631285401 17.05549568500683 32.790593943635315 0 0 0
2656 3 15.697759701627893 17.84493323107135 34.22931260584149 0 0 0
3812 4 16.52413481493574 16.368163939067042 32.864973077915074 0 0 0
1947 1 15.045144632695584 20.387693764110935 33.83396654508104 0 0 0
2655 1 17.60711481774839 20.053718131542286 34.55505519224842 0 0 0
2664 3 17.340872612933712 20.257402681938515 32.07607036472253 0 0 0
1755 2 18.099978881863734 18.441108006909463 31.479136160780016 0 0 0
1841 2 20.536485618655696 19.052959242402302 30.786945045478788 0 0 0
1842 1 20.052851143959472 17.459752011480848 32.903011422373154 0 0 0
3821 4 18.11894563489411 17.82782356807247 34.227948326268304 0 0 0
3827 4 21.28052825894254 19.632763885676834 32.95231171592642 0 0 0
3828 4 19.00519500249431 21.13212862687469 33.2036342516873 0 0 0
1850 2 18.683863532978563 21.20662996882138 30.872718367789517 0 0 0
1927 2 22.051558837689754 21.52478313515485 30.676315481172438 0 0 0
1911 2 24.642765206718693 16.2508978691 30.560574257021692 0 0 0
1920 2 23.48397879979111 18.85222577558531 30.63852608748097 0 0 0
1921 1 23.18521303398205 17.195524600441644 32.69999845709194 0 0 0
2007 2 26.382878172042567 18.73127144792172 30.68625369917843 0 0 0
2008 1 26.387666144444555 17.079676156270253 32.63176923324841 0 0 0
2009 3 24.808795719957097 17.883937096920967 33.760259894452815 0 0 0
2017 1 24.809045874575478 19.69008072214039 32.7320039610069 0 0 0
2018 3 23.261658857307822 20.519659785039316 34.02221514321256 0 0 0
3887 4 22.15892231738726 18.20329512337967 34.91212023589017 0 0 0
1096 3 -14.109506955993972 25.916368831461252 33.960738079603985 0 0 0
1089 3 -12.545156805584888 23.375210332749813 33.925469058932855 0 0 0
1095 1 -12.832219302710135 25.157870871121595 32.68996759560188 0 0 0
1173 3 -11.158144239674563 25.967750036797405 33.844974712663756 0 0 0
3719 4 -9.141501832574956 24.835764480166826 30.86257730514719 0 0 0
3768 4 -12.630886442422794 23.69763108766167 30.861440282699895 0 0 0
3842 4 -10.761097845199538 24.014585765351722 32.91904049226366 0 0 0
3769 4 -13.464789629634847 26.831317734501223 30.994517613523612 0 0 0
1258 2 -4.658941412601548 24.261452406867384 30.773407100281744 0 0 0
1259 1 -4.506829102260269 22.60947824337601 32.76125387652698 0 0 0
1260 3 -5.763416488427542 23.66722250875646 34.29373985768241 0 0 0
1268 1 -5.948736524327034 25.140049662847126 32.8751494661369 0 0 0
1269 3 -7.784476343414769 25.76489794632794 34.08537041316583 0 0 0
3776 4 -7.721110056315942 23.617365327829518 33.41451110563838 0 0 0
3789 4 -4.133741498288398 26.891240593872638 33.075428953908414 0 0 0
3724 4 -5.323135029276013 26.567696296183563 30.179262472552523 0 0 0
1249 2 -2.992270781435078 21.69658749314341 30.75768453996961 0 0 0
1334 2 -0.3036983533873663 21.941649494497273 30.411430006438422 0 0 0
1341 2 -1.7134824736728653 24.5059737117368 30.762306281391588 0 0 0
1342 1 -1.5935602075439306 22.50416028493756 32.69155906835294 0 0 0
1431 2 0.8366657534454855 24.47043212793814 30.492050490932392 0 0 0
1432 1 1.1921864639355135 22.43841611417361 32.33477928384702 0 0 0
1433 3 0.044479981391349455 23.32844883232071 33.89554973296698 0 0 0
1437 1 -0.26986451855584903 25.0391122463812 32.83915827786112 0 0 0
1519 3 1.4104653545833035 26.008937468072844 33.65941198939057 0 0 0
3788 4 -2.7152583205662637 24.416711420955238 32.92264994962892 0 0 0
3732 4 0.1128496061424844 26.625044314473033 31.239058939622424 0 0 0
1516 1 1.4921557887119974 24.25259712193071 34.93038294630223 0 0 0
2663 1 4.144694092512646 23.202143935469874 32.27102409759316 0 0 0
3659 4 2.6208231841214857 23.02632668260722 30.762219552066966 0 0 0
1518 1 2.590544481761116 25.26464370975503 31.913238864700205 0 0 0
3803 4 2.057678515054981 22.322442347279615 34.316461708772614 0 0 0
3999 4 3.734120001067339 24.825756911073544 34.17533400968987 0 0 0
3737 4 4.3882912130165845 27.09720030509105 30.126508634171437 0 0 0
2517 3 16.598765404818394 21.72682851566785 34.50932723615212 0 0 0
1861 1 16.800383644382137 26.06485760142422 30.086653617125876 0 0 0
4308 4 16.67749897943302 24.694002987757116 33.14461962810352 0 0 0
1860 1 17.26185515376563 22.49287091716231 32.54759514654666 0 0 0
3823 4 18.006481909448187 23.887569019041518 30.623199403978255 0 0 0
1931 2 20.292481742847073 24.29926546271738 30.59429438029519 0 0 0
1932 1 20.462535275777817 22.584187116587078 32.407240104099685 0 0 0
1933 3 18.972323553996752 23.3373198303765 33.92940040738939 0 0 0
1940 1 18.918960308421823 25.101834651513272 32.59626764652983 0 0 0
1941 3 18.118736035034978 26.399363343606563 34.09107470483475 0 0 0
2024 3 21.821813758640708 23.43630028609973 33.71984408520588 0 0 0
2032 1 21.61553878206835 25.271409484260165 32.89876424210968 0 0 0
3892 4 19.88606258512278 25.35034068589352 34.63418219516854 0 0 0
1939 2 19.194572372156422 26.857611513271205 30.931604134134858 0 0 0
1938 1 17.868200952585305 24.30493735751105 35.18653934904686 0 0 0
2023 1 23.409737081477623 22.396029194730733 32.65723524303996 0 0 0
3764 4 22.33716148775668 23.832119744957513 31.369847012844282 0 0 0
1101 2 -14.103558683633748 29.40051182944666 30.598236193456728 0 0 0
1102 1 -14.180429775769325 27.82439335346209 32.86076726000032 0 0 0
1103 3 -15.617741347207279 28.831599063386747 33.75666558051357 0 0 0
1109 1 -15.61427817247656 30.46036749885578 32.40324485838156 0 0 0
1192 3 -14.373800048874987 31.494855845095895 33.916809255365536 0 0 0
3765 4 -16.073186271926527 28.11436062544008 31.65366848888562 1 0 0
3899 4 -16.786213600259945 30.333510198093506 34.75657875379971 0 0 0
1180 2 -10.83157498009464 29.53110125758888 30.70381871272174 0 0 0
1181 1 -10.963585220882292 27.668106762324875 32.429699245171534 0 0 0
1182 3 -12.594763030391572 28.614363225272225 33.76450307123027 0 0 0
1191 1 -12.572728733147587 30.45372293186645 32.47747861430072 0 0 0
1278 3 -9.533728363471619 28.547494900495444 33.88709122335693 0 0 0
1284 1 -11.169615339768102 29.37609559036398 34.873866332175524 0 0 0
3781 4 -10.109170352340868 30.612532512153415 33.36616840688794 0 0 0
3721 4 -8.806017946823257 27.592896621762776 30.46643719273868 0 0 0
1361 2 -6.063671630406278 32.245298480275586 30.60709274597373 0 -1 0
1355 3 -6.645634944317878 29.01894401414207 33.971280905856354 0 0 0
1362 1 -6.4978423450631375 30.96148899191896 32.78498574257706 0 0 0
1452 3 -4.834932042769857 31.371872083177355 33.8627551138259 0 0 0
3725 4 -6.489063490373654 29.262162668973858 30.125100111385215 0 0 0
3729 4 -3.9195518944687073 29.77811095715659 30.391958598779333 0 0 0
3779 4 -6.8680794184411464 27.229536980173826 32.91156188323499 0 0 0
3780 4 -8.150145347166825 29.359741774563904 32.48200508234925 0 0 0
3790 4 -4.993418244114016 29.35363256759602 32.74526415168659 0 0 0
1443 3 -3.1794788947090833 28.801920293729953 33.69714648328942 0 0 0
1450 2 -3.0111879616028325 31.997787399077215 30.596843512513196 0 0 0
1451 1 -3.1850577573816565 30.668932014383017 32.73862810422448 0 0 0
1525 1 1.2321333184560501 27.936629699325206 32.83044084103419 0 0 0
1526 3 0.08131134028305453 29.138895680230238 33.834326177068526 0 0 0
1534 2 0.2571651604617138 31.958420398939165 30.50165918963171 0 0 0
1535 1 0.1918727983457309 30.724576834959738 32.72986831056927 0 0 0
1536 3 -1.5325065065754373 31.41886982123981 33.61911103723262 0 0 0
3728 4 -2.7724599019951572 27.138738881599302 30.26270123859061 0 0 0
3793 4 -0.7733802838935393 27.12624996692987 33.62255599077391 0 0 0
3794 4 -1.4768027509215003 29.26184082615483 32.356597637904606 0 0 0
3871 4 0.11578457648108653 31.193795839264503 34.90458957199212 0 0 0
1615 1 3.989810147525173 27.60043742643261 32.27414605447547 0 0 0
3804 4 4.816838979848669 27.17189303404581 34.31013330843466 0 0 0
3738 4 1.6998534527288989 29.653459479386168 31.49128232665729 0 0 0
1517 2 2.1335937050410383 27.402485266908133 30.51178598458914 0 0 0
1614 2 3.7468875587671064 29.99461335237536 30.37864690390196 0 0 0
1616 3 3.0730061049005464 28.669085400048843 33.78963112596229 0 0 0
1621 1 3.3198272298528373 30.561290235358612 32.798327011699186 0 0 0
1622 3 1.9057711375260808 31.380195925582882 33.80194685819847 0 0 0
3741 4 2.7896126975388533 32.1178775130664 31.165197265286608 0 0 0
3807 4 5.238435863908958 29.339959524079298 33.00681814632411 0 0 0
3808 4 5.19227895852471 31.78397018861723 34.0776967639676 0 0 0
1701 2 5.414688877803879 31.36804514828748 31.826741558913838 0 0 0
2590 1 6.2100416591802485 29.1272913614414 30.778268573728646 0 0 0
2435 1 6.992788964249954 27.6368549016999 33.78486640701686 0 0 0
1613 1 2.736837119289305 26.69800818000554 35.27324712891855 0 0 0
2671 1 6.999928873748431 30.296410070105072 34.05636698016813 0 0 0
2597 1 9.13719610455249 28.747538814392502 30.480939328966024 0 0 0
3817 4 8.039275233667148 32.075409689597706 34.14108628540433 0 0 0
2654 2 9.951923846896367 30.573378429128322 31.73174172088507 0 0 0
3806 4 7.843740029669377 29.152209398902812 32.477188404654164 0 0 0
1791 1 9.856523388178001 29.88276746622412 34.27581957908583 0 0 0
2673 1 7.726145689000539 31.401811544601415 31.84890991626468 0 0 0
3882 4 11.647080153778045 28.903379124258237 35.07482519872891 0 0 0
4340 4 16.191553348033704 27.014840572513 34.13350430359001 0 0 0
1868 1 15.077071775084054 28.923851028735125 30.269224863277522 0 0 0
3883 4 11.970733387765431 30.610572783829642 33.02268738858944 0 0 0
1778 3 12.556890241738582 31.912123982093444 30.517207163465088 0 0 0
1696 2 12.537796254426976 29.908794929856025 30.75141024506327 0 0 0
1784 1 13.333591037131672 32.01333229911237 32.35058108563585 0 0 0
3756 4 15.264957569987281 29.118147064557412 33.97779981865354 0 0 0
1776 2 14.643176584986328 31.178029368025054 30.438957644837103 0 0 0
1949 3 14.101205685070695 30.11390399512195 32.048343228501835 0 0 0
1956 1 15.866030250835582 30.909685665793887 32.617234409181584 0 0 0
3829 4 14.504948465411662 31.62069796258777 34.20966450818433 0 0 0
3762 4 17.13817298041452 29.95817905318785 30.96592297492444 0 0 0
2046 2 18.378911472603747 32.2191363649544 30.604812746703253 0 -1 0
1948 1 17.478736219275465 28.01815401587796 32.60345311295661 0 0 0
2039 2 19.92623495740269 29.812480764308194 30.52787396809859 0 0 0
2040 3 18.650390844128697 29.08278725756123 34.00296487223129 0 0 0
2047 1 18.692125663019088 30.70693338680955 32.76575335927241 0 0 0
2048 3 17.03921250763031 31.533423933483245 33.96918717427295 0 0 0
1043 1 -2.9952599773774855 5.2433603889153755 35.20785650526607 0 0 0
2050 1 0.2929126342143633 1.7036390935535515 37.22502438014126 0 0 0
2053 1 -1.402277422017069 4.414368474094111 37.38130942915944 0 0 0
2121 2 1.4636963969105128 2.7379931906924067 39.32343167532137 0 0 0
2122 1 1.508286095368876 4.680546661118428 37.55027306043529 0 0 0
3894 4 -1.6564647319320525 2.9791989470227462 35.299466054390535 0 0 0
4028 4 -2.3327654835977305 4.460617312327632 39.57497246038369 0 0 0
1203 1 4.423975489477895 2.7232613969158046 35.04383886606298 0 0 0
2116 1 3.169603909325404 1.818280439731689 37.59992228525668 0 0 0
2189 2 6.232781821019514 0.13854983019006156 39.44354564360002 0 0 0
2190 1 6.368194860633515 1.9613191533433174 37.57746782441581 0 0 0
2196 2 4.719498189624968 2.8753650278353233 39.36951197047495 0 0 0
2197 1 4.409676142518865 4.592553390476695 37.24287238691864 0 0 0
2198 3 6.0159045528751225 3.6095077390616144 36.26269065950587 0 0 0
3847 4 5.875535005486412 0.850237039080951 35.47709511256439 0 0 0
3901 4 1.9930432326331387 3.0202149700986025 35.902121404361594 0 0 0
3905 4 3.429576397458537 0.27426709881551464 35.694651142967984 0 0 0
1374 1 11.207005424554136 3.0993854838824686 35.037948866050066 0 0 0
2272 2 7.8668869069223595 2.6725919884364338 39.60609203235365 0 0 0
2273 1 7.577617912700466 4.584225796271425 37.72201609866724 0 0 0
2341 2 11.066810383118728 2.6854566148822148 39.53478037036761 0 0 0
2342 1 11.004687034118444 4.5424152389178305 37.59259610913814 0 0 0
2348 2 9.40921360665627 4.862249862792132 39.486973627468146 0 0 0
3848 4 8.073651167621248 3.740684697460297 35.69224962866553 0 0 0
3853 4 10.49051946822605 1.0351230660637907 35.51563931284259 0 0 0
3914 4 8.219259071034804 0.6726001181374681 38.25061163530334 0 0 0
3915 4 9.376346111816938 2.992936844345357 37.76191767855873 0 0 0
1367 1 12.531232763143795 0.09027323999709375 35.158514150277064 0 0 0
2333 2 12.63735801494572 0.26276711572680655 39.539852551869494 0 0 0
2334 1 12.502524323689801 2.0649709616965777 37.411499964407604 0 0 0
2335 3 13.922114942465662 0.7588123666563924 36.48902520316718 0 0 0
2343 3 12.464859126335636 4.019055150374542 36.28802531121003 0 0 0
2404 1 15.631089310352433 1.7607961343785574 37.33774591275275 0 0 0
2409 2 14.126580293076625 2.8154593125923864 39.21409648106441 0 0 0
2410 1 14.392090969014287 4.337191725058555 37.10498004538784 0 0 0
2484 2 15.389787744809663 5.331793247257462 39.480295028702876 0 0 0
3858 4 13.789721504914809 2.595363984431984 35.435576885961375 0 0 0
3865 4 16.701669260471114 3.688743555416664 35.77188844963941 0 0 0
2415 2 12.501511741938309 5.338246829169409 39.66795925562018 0 0 0
3872 4 16.61559842980373 0.5943864877525291 35.205085030154784 0 0 0
2478 2 17.035666192839855 2.1245919068986194 39.728527398319585 0 0 0
1633 1 20.02420374834593 3.0949344833313117 35.248641995432024 0 0 0
2479 1 17.223344264354818 4.54498754072149 37.84011783319083 0 0 0
2480 3 18.752542459650357 4.0516658017771165 36.440690314490794 0 0 0
2546 2 20.068149631964527 2.7663673449962936 39.110034240052514 0 0 0
2547 1 20.31198463761449 4.804870979147517 37.741352124911145 0 0 0
2548 3 21.785009671326208 4.056589422870153 36.17855390968752 0 0 0
3932 4 19.285609025010487 1.1020840576746616 36.156585689415216 0 0 0
3937 4 21.52876745258745 0.43248503005679356 37.34163521762387 0 0 0
1724 1 22.871550192192178 2.522133224254235 35.01035458850542 0 0 0
1802 1 26.87937283512091 2.8488355158916625 35.06531033770514 0 0 0
2626 2 22.176534198603747 5.22169986723713 39.548602571978144 0 0 0
2540 3 23.42930360892539 0.9287738273441707 36.27177878346217 0 0 0
2615 3 26.938665345115822 1.048142145685563 36.06562237995532 0 0 0
2699 2 24.88417839860094 5.0498796602779725 39.70135247339269 0 0 0
3878 4 24.808254853291693 3.42003351777156 35.27190076942345 0 0 0
3938 4 22.89531968785258 2.721634788022816 37.3468199626988 0 0 0
3945 4 26.238683788713676 2.5956734044211456 37.2413019294563 0 0 0
3946 4 25.165619969448347 4.986574401213464 37.31122110775871 0 0 0
4003 4 22.126970804129805 1.9459386895132336 39.94329511355246 0 0 0
4009 4 24.723396821267162 2.446568635130008 39.40570868572343 0 0 0
2684 1 25.904557845007776 0.3310331370522757 37.8037769701753 0 1 0
1715 1 25.104804646717298 0.6264681657993836 35.40497490851078 0 1 0
1795 1 28.475217132838022 0.47439329675606373 35.11446523532924 0 0 0
2692 2 27.981713207238535 0.16070154446863388 39.57625261194618 0 0 0
2693 1 28.27609851161932 1.6471478757213527 37.61892617167416 0 0 0
2694 3 29.881972542418 0.7975350028074784 36.4351737268332 0 0 0
2758 1 31.40178023395071 1.7933724349641091 37.25311058539805 0 0 0
2764 3 31.122823994888073 3.5209218952825903 36.08977717555364 0 0 0
3884 4 29.09335777190152 2.7373547271492233 35.8892106067903 0 0 0
3947 4 27.87422038672962 5.184664424149694 37.2079954139812 0 0 0
2757 2 31.540808132637693 0.5268379581754387 39.469583826602914 0 0 0
1959 1 34.54776053694382 0.30236477690497404 35.442477289360745 0 0 0
2759 3 32.61734078528574 1.1128787554677018 35.7090824258997 0 0 0
2827 3 35.8314265562261 1.2042322285996303 36.56240042166413 0 0 0
2833 1 32.67612780512515 4.430412043419624 37.55251632951834 0 0 0
2834 3 34.03115059645364 3.581043040837955 36.49478246097752 0 0 0
3957 4 33.8524942604571 1.5456513833406205 37.29622968777246 0 0 0
1049 1 -4.534438332207817 7.905783692320822 35.21383741800957 0 0 0
3963 4 -3.8531030307959275 10.415104336630634 37.216061542030886 0 0 0
4029 4 -3.775319619840945 6.629350207017669 39.62543295870273 0 0 0
1058 1 -6.068206812329381 10.743428805144815 35.579014106738725 0 0 0
3958 4 -4.674643159464345 8.167134896463002 37.45139733885969 1 0 0
2129 2 -0.10796872814248726 5.520816375144666 39.45097268155214 0 0 0
1137 1 -1.4325812688913406 7.81635649064831 35.068203385573035 0 0 0
2057 1 -2.8530096923670385 6.997547320494956 37.56216118435059 0 0 0
2058 3 -1.537175089076941 6.232083148876488 36.391662665185805 0 0 0
2061 3 -2.946266214370504 8.81091194297437 36.18392417726654 0 0 0
2130 1 0.0974733958356957 7.277938782401119 37.55931308982791 0 0 0
2138 2 -1.5737121028616032 8.292825746417957 39.38415550790782 0 0 0
2139 1 -1.579765321005297 9.80127524276762 37.34796641598911 0 0 0
2140 3 -0.005727082285500451 8.827903673424924 36.138449030506116 0 0 0
3902 4 0.3551667385711501 5.944899032072448 35.552482767638196 0 0 0
3906 4 0.5478429109626859 9.783029613744676 38.08087141100931 0 0 0
1143 1 -3.0509967043776904 10.733947644735036 35.1358330314048 0 0 0
1226 1 0.23065680832286084 10.737647082993142 35.26983479399125 0 0 0
2211 2 1.6926740386474854 8.021477063201893 39.31217982121696 0 0 0
1302 1 6.118392807682007 5.385685025785385 35.162939703005684 0 0 0
2205 2 3.153944073048051 5.504170375012964 39.33363543943454 0 0 0
2206 3 5.088881717748407 6.445830701194193 36.698916514837684 0 0 0
2282 3 6.247591050575809 9.033044976222149 36.07909327025716 0 0 0
3844 4 2.982355370278241 6.22159857195352 36.18156251463263 0 0 0
3845 4 2.107916624974896 9.184460046277918 36.349364782338064 0 0 0
3909 4 3.893279478468222 7.542411211844501 38.205636076382454 0 0 0
3917 4 5.439599523039273 10.228062329812085 37.55179226839524 0 0 0
1405 1 6.3876786873551 10.763186341202907 35.08822144233865 0 0 0
3916 4 6.928834523358123 7.47829260733849 37.28417030962806 0 0 0
1395 1 7.802964653397074 8.120723121578838 35.136706219583104 0 0 0
1476 1 10.74477138187577 7.9590289694111025 35.22341779444086 0 0 0
1484 1 9.457258641362184 10.6510320056803 35.373469893024634 0 0 0
2279 3 7.879449654081585 6.07084478885184 36.09786285330745 0 0 0
2349 1 9.14108290133449 6.853732650319751 37.63910291143719 0 0 0
2350 3 10.69922555944894 6.374925981011849 36.59867452463331 0 0 0
2355 1 7.654230861188162 9.689644852633325 37.64841879140829 0 0 0
2356 3 9.104116106929729 8.711205936376391 36.489529455182335 0 0 0
3925 4 11.001641001988926 8.43551425414948 37.421817006747084 0 0 0
3987 4 8.907447049909866 8.528270903653954 39.111840626987465 0 0 0
3981 4 7.502541620316251 6.144514157913679 39.51766802271673 0 0 0
1648 1 16.806406565920035 7.933338450975631 35.0627552847663 0 0 0
1567 1 14.043538572256352 7.817876497152377 35.05532312287861 0 0 0
1656 1 15.330353103634684 10.683693401358033 35.27645341253292 0 0 0
2485 1 15.773705984655003 7.25525976720722 37.84573910840155 0 0 0
2489 2 13.98409556058296 8.267107493542671 39.58671719899605 0 0 0
2490 3 15.581862423460716 8.771432703334293 36.315541720207506 0 0 0
3866 4 15.521885266823746 6.143927758108949 35.798504525540245 0 0 0
3867 4 12.49045271775331 9.418864590937385 35.34013129058216 0 0 0
3924 4 12.742236870478711 5.899049923319074 37.31029986543294 0 0 0
3928 4 13.788103713824285 8.10346578013097 37.24048185888624 0 0 0
3929 4 13.100082462328231 10.485771617035834 37.574185915855345 0 0 0
3933 4 15.671820288250062 9.854272278524178 38.17123418957419 0 0 0
1641 1 18.306865176774426 5.439737191932986 35.05418403512786 0 0 0
2486 3 17.426498469208457 6.483759497986179 36.649443393793916 0 0 0
2554 2 18.632523970571008 5.639453991615762 39.6753074424386 0 0 0
2555 1 18.900479463498492 7.326634398022894 37.837521064297825 0 0 0
2560 2 17.23499649970971 8.478495115431041 39.53682946938076 0 0 0
2561 1 17.70418214618717 9.768296950196715 37.13577522407634 0 0 0
2633 2 20.18411166576228 8.303148497623136 39.882371971302774 0 0 0
3875 4 20.433953180351235 5.605152325059234 35.63433082121754 0 0 0
3876 4 18.90359926979439 8.093581781384103 35.76650631218947 0 0 0
3880 4 21.904470961148064 9.261127555024409 35.8089718800661 0 0 0
3939 4 21.245624601570356 7.015048591235575 38.063971916221945 0 0 0
3940 4 20.04902091146594 9.567453163126373 37.84025246144039 0 0 0
1817 1 23.465062213715676 7.91050146634504 35.01991920914463 0 0 0
1901 1 26.154145012397635 8.083188930360599 35.42039576770222 0 0 0
2700 1 24.715476654625558 7.159992325351584 37.76637650601545 0 0 0
2701 3 26.374861395375177 6.546764350093494 36.551039380066904 0 0 0
2704 2 23.123877079599325 8.179501900779655 39.54564111656613 0 0 0
2705 1 23.09928095595791 9.91788441142911 37.60498272633112 0 0 0
2706 3 24.63137876885709 8.870236492902 36.53915478512351 0 0 0
2777 2 26.449723921384468 7.911933530556183 39.45092911587815 0 0 0
2778 1 26.004279760184588 9.948457995731474 37.919219946772266 0 0 0
3879 4 23.108541732901482 5.7242957340875 35.765263538561385 0 0 0
3885 4 25.910188199195872 10.291956637878096 35.55718084022676 0 0 0
1976 1 31.222943539031483 5.426440304760098 35.1101610421519 0 0 0
2771 1 28.06107098504104 7.597249037917665 37.46271638962374 0 0 0
2772 3 29.38288291972811 6.191397775834598 36.06575408422588 0 0 0
2779 3 27.925308500254605 8.825152499564823 35.766112361575324 0 0 0
2840 1 30.814776208323273 6.864811140321532 37.49399123959147 0 0 0
2845 2 29.734450847471468 8.070078720319454 39.54181627455145 0 0 0
2846 3 30.96001306298298 8.665525761477156 36.261041388367865 0 0 0
3952 4 28.256602964624292 9.949162937905855 37.56436703514957 0 0 0
3959 4 30.766893415077597 10.064376775574585 37.83767375070568 0 0 0
2841 3 32.725619580718636 6.213228270105635 36.46245863456617 0 0 0
1149 1 -4.490816906515663 13.621709049038538 35.043192886862755 0 0 0
2065 3 -4.302927949841294 11.938923721689417 35.94724073112839 0 0 0
2071 2 -7.645314084987735 13.681371042986843 39.81440412919623 0 0 0
2072 1 -7.627105938328087 15.153808022099955 37.74572115896622 0 0 0
2073 3 -6.061192530384927 14.572471349532318 36.195207011157564 0 0 0
2150 2 -5.093289886249268 13.293050787618528 39.48443081553173 0 0 0
2151 1 -4.534236479742992 15.136127751041132 37.790131247497136 0 0 0
3964 4 -5.928440748491831 12.678672526418016 37.019395654385356 0 0 0
1235 1 -1.457576732767559 13.505280469285271 35.36505691128271 0 0 0
2145 3 -1.497323241060771 11.43235576182287 36.11720274984961 0 0 0
2152 3 -3.0088463111193775 14.60225728111393 36.35717962690177 0 0 0
2217 3 1.523175601366142 11.473929241376805 36.42192965186244 0 0 0
2222 1 -1.425397963330667 15.21006248701706 37.78534322839357 0 0 0
2223 3 -0.04154717629191218 14.537633696384894 36.341623844111254 0 0 0
2293 1 1.4387274529275302 15.375613675446479 37.371915762006765 0 0 0
3907 4 -2.7262375703522075 12.765437503709387 37.19340911142201 0 0 0
3911 4 -0.0706684449451771 12.619047848518044 37.0964149927661 0 0 0
1320 1 1.5348453081449405 13.404484159436842 35.39074014945573 0 0 0
2297 2 0.3945944903094052 16.129874298373903 39.626492070988206 0 0 0
3968 4 -2.84518561509522 14.46136061135096 39.5250504290803 0 0 0
1310 1 3.048585857800707 10.890159233515494 35.400848624180995 0 0 0
2288 3 4.8074110432440085 11.705554545291312 36.14312848863989 0 0 0
2294 3 3.0387964151556677 14.109322439578754 36.63222369003688 0 0 0
2361 2 6.453900800854207 10.927968541749049 39.58239381753092 0 0 0
2362 1 6.222194934245072 12.473245657208716 37.56687747263164 0 0 0
2369 2 4.793197617945415 13.625064225091675 39.64911215109617 0 0 0
2370 1 4.784758662103371 15.257657949407532 37.50310051873726 0 0 0
2434 2 6.407008267162995 15.505589098119815 39.36070961301278 0 0 0
3861 4 5.386556873373653 14.883559561614302 35.039211739697116 0 0 0
3910 4 3.16686576060453 11.377552756816407 37.69651385928819 0 0 0
2363 3 7.804564800103779 11.320884680571414 36.56484007432099 0 0 0
2423 2 9.633356219217488 10.786956821170037 39.45083617921916 0 0 0
2424 1 9.486922302359964 12.408615382346428 37.51740429371054 0 0 0
2425 3 11.265702002828462 10.917909574880989 36.47563792322337 0 0 0
2429 2 7.956169230859181 13.287478665602531 39.473194433696385 0 0 0
2430 1 7.8743466569097755 14.930168965637247 37.33650777938627 0 0 0
2502 2 10.921725061779131 13.396033839590231 39.517412468751644 0 0 0
2503 1 10.931710600406864 15.078850830832783 37.43618202080488 0 0 0
2509 2 9.084862704375134 15.907579334545343 39.46508699698779 0 0 0
3860 4 7.4403994332473395 12.920589515207569 35.25995468820512 0 0 0
3868 4 10.683841901209927 12.75126816267443 35.58191954880955 0 0 0
1665 1 14.081080381886995 13.49500977165526 35.19901942496905 0 0 0
2495 2 12.592460700307106 11.112744913599066 39.760231885152784 0 0 0
2496 1 12.468123463938763 12.676345181768133 37.38048834860638 0 0 0
2497 3 13.472154461889552 11.622863890527183 35.860031871436284 0 0 0
2504 3 12.156981774236126 14.174273365042664 35.90830618164212 0 0 0
2570 3 15.514674481182531 14.292977866404122 36.37304149117788 0 0 0
3934 4 14.974754018497887 12.433525135429605 37.06057327644847 0 0 0
3935 4 13.709495347256391 15.028705762314845 37.04586029238811 0 0 0
1754 1 15.703261305186055 16.038284946754718 35.29778626764153 0 0 0
2566 3 16.814253462630546 11.530931403059714 36.546211004492505 0 0 0
2576 2 12.759745001702914 15.298370936176655 39.38230488746331 0 0 0
1675 1 12.643169049600097 16.055625442978815 35.20729420180004 0 0 0
3942 4 17.257578116153013 15.13798711158587 37.125101577651535 0 0 0
1746 1 16.9842404398244 13.328052789706906 35.44754023087838 0 0 0
1834 1 20.018477244220392 13.480169490206983 35.02332426224038 0 0 0
1919 1 21.557582292985202 16.008833419564695 35.06433609886329 0 0 0
2637 2 18.61947547498047 10.768813160565056 39.37128304215616 0 0 0
2644 3 18.793570538894777 14.156117355810041 36.16461798220225 0 0 0
2710 2 21.619745362750702 10.786721999538 39.4392245535738 0 0 0
2711 1 21.82956669252082 12.653808764571632 37.78453232526329 0 0 0
2718 2 19.874281617714587 13.127934811160056 39.51687045152751 0 0 0
2719 1 19.876645128580464 14.836879658225019 37.73235848884768 0 0 0
2720 3 21.478675686785145 14.32854844801736 36.34272447724044 0 0 0
3881 4 20.955618103926984 11.68181228643107 35.99611209163774 0 0 0
3941 4 18.324876136966516 12.693100498501888 37.58831368447605 0 0 0
1840 1 18.677479064121925 15.96767399184144 35.300815181556494 0 0 0
2712 3 23.12871800419292 11.537909069461076 36.36683413410684 0 0 0
2787 2 23.51307933285854 13.486565735734448 39.47353567679241 0 0 0
2788 1 23.13024259895748 15.247665557768249 37.509428839549855 0 0 0
2859 2 26.408336361295316 13.400474502922568 39.64788768211704 0 0 0
2860 1 26.383524435468427 15.051358470717274 37.5849424274773 0 0 0
3886 4 24.077154884512282 14.24287761864714 35.57723509809445 0 0 0
3953 4 25.95768109883214 12.523642468272268 37.35280089365613 0 0 0
4016 4 24.8291238465723 11.347735869881646 39.559465987945664 0 0 0
2868 2 24.84846826915735 15.997581115046382 39.503855859235856 0 0 0
1068 1 29.594630221179486 13.274603153248085 35.59555949350404 -1 0 0
2077 2 27.98400968196909 16.046847038620232 39.562945308012345 -1 0 0
1993 1 28.15823370714259 10.871448063522687 35.47054016022929 0 0 0
2853 3 29.608588834396375 11.468977464653088 36.67345391413911 0 0 0
2861 3 28.155291000105912 14.576895494549367 36.36193082959279 0 0 0
3960 4 28.60647621939499 13.014979697735281 37.738000950744016 0 0 0
2078 1 -9.331453114961327 17.93011358288096 37.524989762060464 0 0 0
2084 2 -10.813929630141647 18.77621583626585 39.55322716679535 0 0 0
2085 1 -10.752970580292189 20.700094833199614 37.874921734541296 0 0 0
3896 4 -10.488054601463912 20.19373358764675 35.662258255026956 0 0 0
2093 2 -12.403152573239845 21.52614395099864 39.521817381873014 0 0 0
1248 1 -4.470051761255847 18.877379478383446 35.1203296465788 0 0 0
2156 2 -6.192705761260228 16.2167724189681 39.696480388832576 0 0 0
2157 1 -6.142067535257946 17.95390378292416 37.781699640803545 0 0 0
2158 3 -4.579048262037759 17.086605971725227 36.41915082191948 0 0 0
2159 2 -7.839100704401236 18.882823797423267 39.59912628204915 0 0 0
2160 1 -7.6323125846879245 20.79205379833285 37.92965845826786 0 0 0
2237 1 -4.694295667879688 20.587471931950276 37.74141186007719 0 0 0
3903 4 -6.486351428899614 17.935123099803892 35.43168458343471 0 0 0
3904 4 -7.7470021135584455 20.51181744961419 35.546797278052026 0 0 0
3969 4 -5.476552109406693 19.33306299724418 39.68414369172864 0 0 0
2308 2 -3.3777259758002973 21.41920661606776 39.79628141867831 0 0 0
1243 1 -2.7669564090353207 16.383609320808503 35.45067017227427 0 0 0
1340 1 -3.065908236267081 21.26028261987415 35.27745454543652 0 0 0
1333 1 -1.4497093770938214 18.669414067556467 35.054894273676744 0 0 0
2231 1 -3.2227825101331486 17.999819345352925 37.626294723013025 0 0 0
2232 3 -1.553750776550542 17.283548249230893 36.88625684077458 0 0 0
2238 3 -3.109396028674869 19.55131421754687 36.34438956998055 0 0 0
2381 2 1.174717542687322 18.96562196585422 39.39092053245959 0 0 0
2382 1 1.0557938006374084 20.603034960618782 37.47258529582629 0 0 0
3850 4 -0.3796902489736418 16.36328746682873 35.44929736884613 0 0 0
3912 4 -1.6767127579599084 17.0874386446531 39.088955771537236 0 0 0
3918 4 0.677784704524683 17.518122536376804 37.61907277630458 0 0 0
3919 4 -1.1608333082259197 19.404436966138277 37.23175172263913 0 0 0
3988 4 1.5325553031014945 21.437274863150368 39.88548051064092 0 0 0
1497 3 4.923604206469681 17.01308252799995 34.99508848903771 0 0 0
3854 4 3.220768990704549 16.200988034350218 36.03475739149036 0 0 0
2374 2 2.9997937283360976 16.267370217779064 38.973185273614995 0 0 0
2375 1 3.329184729612253 18.152622897194362 37.431385784150145 0 0 0
2441 2 4.657464063742205 20.037026581909913 36.08771171314564 0 0 0
3855 4 2.312100241054983 19.515364277833957 35.70278598008444 0 0 0
3870 4 5.536568440379613 17.26477019672102 36.99835392442049 0 0 0
4070 4 3.435796520442036 18.605957938967418 39.720026036005855 0 0 0
2451 3 4.152694677390141 18.166981210117974 35.60320175864353 0 0 0
2594 3 4.997813061762928 19.667274315725464 38.15190471452378 0 0 0
2450 1 3.61012548233729 20.655915026967907 38.81407448237795 0 0 0
2593 1 6.239569402807721 20.86600527809644 39.59754876361738 0 0 0
4138 4 6.17654867132903 18.715682265797646 39.93244008412917 0 0 0
4315 4 6.716850449703223 19.923118748758668 37.02529907025207 0 0 0
1602 1 8.604700184677066 19.350150356904663 35.837664442957156 0 0 0
2521 3 7.461921219079599 18.017858505642003 36.1340011867366 0 0 0
1592 1 6.910926087394371 16.51396635850091 35.305332505113654 0 0 0
2511 2 9.169007637904217 17.29031844166502 36.80562330356316 0 0 0
2510 1 7.366923209734749 17.520034145509076 38.51764698748666 0 0 0
4309 4 10.872716707322656 17.208961908258473 38.60686532628855 0 0 0
2577 1 11.064242227887735 18.820453282394666 36.73119060848717 0 0 0
2513 1 9.924079561425017 19.05511206531321 38.862971777898345 0 0 0
2526 3 8.03286566056973 19.34279311678845 39.20116177649466 0 0 0
4327 4 12.187142225393988 19.273868225160317 39.438490468759674 0 0 0
2737 1 14.26547217567858 18.434593858013027 35.31876759364839 0 0 0
2601 1 13.012776603481623 17.35542940418338 37.8763325905697 0 0 0
3814 4 16.422623856120367 18.895505925531058 35.95398958932084 0 0 0
2578 3 14.40243985143 17.022496846621486 36.452079029098044 0 0 0
2649 1 15.853938885154518 17.701358246177225 38.03782075738953 0 0 0
4012 4 14.200987370243668 17.119575698934405 39.73408479624279 0 0 0
4006 4 14.449517707674161 19.225668319328534 37.19367657003683 0 0 0
2752 2 15.656304015735024 21.045308607492345 36.147422798454194 0 0 0
4077 4 15.613411322527329 20.00491786309926 39.533973703001415 0 0 0
2732 1 17.257898662820523 20.226128347232738 37.754919605408155 0 0 0
2650 3 17.21064408361245 17.047451165347123 36.36786707654174 0 0 0
2727 1 18.80545491167112 17.873044151118172 37.487644154949436 0 0 0
2728 3 20.032547359429245 17.660010649349886 35.38087734243334 0 0 0
2731 2 17.495764867596154 18.55471636113295 39.693638834071315 0 0 0
2733 3 18.634306966899217 19.685766898521138 36.43177429352276 0 0 0
2796 2 20.16262430611163 18.819319291079996 39.50714623879759 0 0 0
2797 1 19.95948072161395 20.801028598243143 37.74045612878441 0 0 0
3888 4 20.328414509336103 20.370780558176328 35.396538699078874 0 0 0
3948 4 20.973199921021294 16.720598097820446 37.13110657838772 0 0 0
3955 4 21.61525890910443 19.245032925464265 37.589754143921624 0 0 0
4011 4 18.8604364738788 16.625607174942388 39.949784633427875 0 0 0
2006 1 24.670450439157868 16.37649022436896 35.092237006789425 0 0 0
2794 3 23.153808086376145 17.044767800483058 36.42371754105105 0 0 0
2869 1 24.999022307068696 17.83042232346747 37.6960485151166 0 0 0
2870 3 26.16977387716134 16.98306284034844 36.49901698875728 0 0 0
2876 1 23.67246200215022 20.33321078017403 37.5907037763292 0 0 0
2880 2 22.067930841362895 21.01989615820904 39.407641546546756 0 0 0
3889 4 24.579435529225535 18.740140143676165 35.6658694399417 0 0 0
3954 4 23.057801228213343 17.281497597363753 38.57258258303103 0 0 0
4025 4 24.16104562896219 19.309332359156056 39.70701863206607 0 0 0
3897 4 -14.467057329868572 25.86507529857761 36.06632183701303 0 0 0
2100 2 -13.799659838645674 23.951500076852117 39.69450091368325 1 0 0
2105 2 -15.31796468788532 26.907169930909664 39.66340437359986 0 0 0
1179 1 -12.61336748854773 26.798389263676043 35.051986352676934 0 0 0
1172 1 -10.911991950548355 24.20661110226492 35.183842164965085 0 0 0
1277 1 -9.529536816359954 26.84458853005726 35.130295659635394 0 0 0
2094 1 -12.531603121989578 23.095610804150063 37.46743346407003 0 0 0
2095 3 -10.865092250227097 22.33078938635833 36.36614437149275 0 0 0
2101 3 -12.517465728465778 24.892604812439657 36.1796651405095 0 0 0
2165 2 -9.25846441129488 21.60555682923335 39.71740842993571 0 0 0
2166 1 -9.386864351782576 23.346316645090674 37.710094402458445 0 0 0
2170 3 -9.31152654344794 25.111538096868944 36.46320057467679 0 0 0
3965 4 -12.302037207554523 25.245457154382954 38.249718983496216 0 0 0
4034 4 -10.988726726020147 23.39154347547994 39.75040542961736 0 0 0
3908 4 -10.125844427274933 26.79431139413701 37.46249610489266 0 0 0
3851 4 -3.8076572523482124 23.311774911053387 35.02394589073754 0 0 0
2243 2 -6.119011435512757 21.65001683966989 39.80751033009559 0 0 0
1257 1 -5.948928785860493 21.877366750518696 35.23174694758729 0 0 0
1267 1 -7.498450490082313 24.399353148844632 35.52520924130748 0 0 0
2167 3 -7.636786185755409 22.55312680591433 36.54810118963823 0 0 0
2244 1 -6.23753896962108 23.377995142791672 37.831919115703705 0 0 0
2245 3 -4.614181920977948 22.34046412424315 36.69192149144302 0 0 0
2250 1 -7.891951320463013 26.122461808995418 37.769786528352384 0 0 0
2251 3 -6.376270953121436 25.45775456855645 36.813784651097095 0 0 0
3852 4 -5.267075717375782 25.5570796932465 35.06315591974119 0 0 0
3920 4 -4.425870653366339 24.699301037643586 37.45639145033664 0 0 0
3970 4 -7.753645570861526 23.455763846693152 39.56633717792717 0 0 0
1430 1 -0.11912960926944471 21.59983815784105 35.06097827706168 0 0 0
2309 1 -2.9563050212505733 22.988357561150227 37.702490701882894 0 0 0
2310 3 -1.7520203624988273 22.793359132462374 35.87650071004597 0 0 0
2386 1 -0.2940500904053671 23.300713993305497 37.43698125375355 0 0 0
2387 3 1.275518487230059 22.41908057885191 36.34880070582066 0 0 0
2391 2 -1.6962673231853191 24.175670234747844 39.616628267016814 0 0 0
2454 2 0.9638880966049328 24.113123175037863 39.48514032519878 0 0 0
2461 2 -0.4844813116857498 26.81695340215749 39.74762935831922 0 0 0
3856 4 -1.727688822209382 24.801279825709145 35.6248565520029 0 0 0
3863 4 0.4251417592423543 26.08622504374025 35.517116120419416 0 0 0
2455 1 0.7668491172820868 26.187794567637063 37.74118980007479 0 0 0
4307 4 1.7366724310210468 24.354265601638545 37.09379640991597 0 0 0
2604 2 4.999847626454816 22.628346287543856 34.812411760516795 0 0 0
2516 1 3.033284779231238 21.736495641025908 36.01808552042086 0 0 0
2525 1 3.855950008431414 24.42765222007002 36.34578723879872 0 0 0
2599 1 3.284297512641732 24.655770224377754 38.85539139107496 0 0 0
3805 4 3.1479357240635313 26.369239538016206 37.456570538996786 0 0 0
4332 4 2.3718494994425345 22.383201938267764 38.16623323950566 0 0 0
4064 4 5.034048798016812 21.67350130042575 37.70645105052754 0 0 0
4262 4 5.2401630610048215 25.143877563379426 38.18846495716601 0 0 0
2456 3 4.349381066476463 26.581612495575083 39.371896355543946 0 0 0
3991 4 6.429945842911888 26.394103411045467 35.64179236557561 0 0 0
2686 1 7.056429906808457 25.38572884314811 39.87578461849954 0 0 0
2657 1 15.299618332674514 22.491562324462254 38.71104168620792 0 0 0
2666 1 15.549094958568821 23.173823556706836 35.22416304022068 0 0 0
4328 4 16.31955772681059 25.527099001669665 36.10378500047895 0 0 0
3994 4 15.959670227835701 25.108386653445155 39.0216987809499 0 0 0
2738 3 16.75935044943354 23.420786515394934 39.71322825608635 0 0 0
4336 4 12.841772043575542 26.464184448059118 39.95217462455273 0 0 0
4014 4 16.827672898903387 23.239511377387846 37.18446810706286 0 0 0
3822 4 18.226486894351087 21.894438019520205 35.796719243437224 0 0 0
2749 1 17.84645972905983 26.230692228000628 37.58604375831315 0 0 0
2803 2 18.122800082048748 21.911673666030367 39.311144267450814 0 0 0
2804 1 19.048901018112826 23.358497122766376 37.44744967546337 0 0 0
2811 3 18.856105534168275 25.015593982391472 36.46174275586892 0 0 0
2881 1 21.843037861295663 22.921473996572328 37.73852020459259 0 0 0
2888 2 20.326179470042703 24.022027888670454 39.49576617763796 0 0 0
2889 1 20.35250504667053 25.779193559288608 37.2256046500911 0 0 0
2893 2 19.334959013158183 26.727311934914493 39.78966156731308 0 0 0
3891 4 20.627471063921245 23.283426387842596 35.623619067365304 0 0 0
3949 4 18.21306363343616 24.837652324866095 39.31941985921158 0 0 0
3890 4 22.899985140819535 21.792301004600215 35.822944740497526 0 0 0
3961 4 22.12645674969239 25.069269672949215 38.32288577124711 0 0 0
1094 1 23.290354496985984 23.9743772071534 35.05936301731109 0 0 0
2115 2 -15.532537295317619 32.21004546811334 39.360058136522845 0 -1 0
1189 1 -14.15316512748791 29.72416091989842 35.03111224857184 0 0 0
2106 1 -15.24885452654016 29.29165219661888 37.882100539391914 0 0 0
2110 1 -17.21420900050586 31.352329258890972 37.3359150709949 0 0 0
2183 1 -13.80891966330853 31.616032576799103 37.43206976726519 0 0 0
3898 4 -15.601778962855683 28.091597407004034 35.758418409847486 0 0 0
3966 4 -13.725101198068963 27.54878407225967 38.037331258545 0 0 0
2109 2 -17.07263397306629 29.641921105805405 39.56729954374461 1 0 0
2176 1 -12.17997652540716 29.102489652187078 37.365242123199046 0 0 0
2177 3 -11.267450987307353 27.82569406052926 36.05642826020917 0 0 0
2182 2 -13.472901684328663 29.560457860026204 39.581511127471465 0 0 0
2184 3 -12.520791103081814 30.593503902178465 35.9971630683722 0 0 0
3846 4 -10.58092986170739 31.421011367467877 35.927755389886606 0 0 0
3913 4 -9.680425297933633 29.09444385083393 36.52290863710362 0 0 0
3922 4 -6.843227246095184 32.21199230913418 37.34028771939146 0 -1 0
1354 1 -6.726868550398038 27.14357990841421 35.21827901523066 0 0 0
1360 1 -8.094815611580579 29.750575856402417 35.00482716148955 0 0 0
1449 1 -4.868585969802201 29.514620307221517 35.02792750553113 0 0 0
2257 3 -8.051050564351746 27.824542407007566 36.407975446949976 0 0 0
2322 1 -6.487028120532996 28.8582186714385 37.459242311807174 0 0 0
2323 3 -5.126577719686329 27.71507410937626 36.27057278452208 0 0 0
2329 3 -6.395317281403722 30.516391080599654 36.171076067532546 0 0 0
2397 2 -4.831350905844193 29.42971268806048 39.52692038847773 0 0 0
2398 1 -4.778967718322738 31.282660968543322 37.61659384255837 0 0 0
3921 4 -5.501106336888631 26.928117647027783 38.28489200097588 0 0 0
2475 2 -0.1975873029663937 32.24013376173257 38.90732222465225 0 -1 0
2403 2 -3.199266446704483 32.21832820255586 39.28947844979715 0 0 0
2394 2 -3.308999040901261 26.986184550300553 39.78769942189366 0 0 0
2399 3 -3.3093123875385455 30.36470668356092 36.26172368404923 0 0 0
2469 2 -1.5917995026923322 29.474034257213546 39.85096566390958 0 0 0
3857 4 -3.1189372813700498 28.25173138589007 35.76247905336336 0 0 0
3864 4 -0.39435888737840585 28.64167300265592 35.81657114600956 0 0 0
3923 4 -1.7993610064249381 27.098076076040336 37.833557937814106 0 0 0
3926 4 0.6510148809605916 28.331795538336216 38.29145226828061 0 0 0
3927 4 -1.591003204120522 30.528409568067158 37.63308996987147 0 0 0
3931 4 1.3776120590463314 30.481581764310093 37.18966507095423 0 0 0
2462 3 1.4883448643730794 27.774134347737114 36.384989905145304 0 0 0
1620 1 1.7251211766402719 29.56725809481894 35.12100058433562 0 0 0
1710 1 4.69463416040746 29.747345198434058 35.064213200739985 0 0 0
2658 1 5.380779976721167 26.989721663129636 37.38722708049211 0 0 0
2600 3 6.20744064854572 28.60209224998952 35.3096893369864 0 0 0
4144 4 6.064255222698174 27.63808233954638 39.4700118895715 0 0 0
2614 2 6.528639789806295 32.24742707427148 39.85457603052749 0 -1 0
2529 3 3.997627693160055 28.190794169593627 36.1291919822612 0 0 0
2527 2 2.1322454922787273 27.007680843697173 39.474170165704315 0 0 0
1628 1 3.311700771193866 32.10096328063572 35.22419123157638 0 0 0
2528 1 2.9453845200102187 28.691243363436474 37.512384518599866 0 0 0
2534 3 3.4327526452976294 30.413016531937195 36.46684816545418 0 0 0
2607 1 4.82714867975163 31.60164852464121 37.49340934902613 0 0 0
3995 4 2.9729660097025032 29.43033474504462 39.71489708291009 0 0 0
4002 4 4.411761202049252 31.57137799797348 39.71447432458647 0 0 0
3944 4 5.105088214504015 29.136993687659626 37.595812624166086 0 0 0
2608 3 6.342464784220233 30.816413456317523 38.42691178905036 0 0 0
2606 3 4.09854136768454 27.9836620132168 39.14705378333773 0 0 0
2681 3 6.754046247418856 28.49176124407353 36.759312276320195 0 0 0
3877 4 6.475160527817653 30.8269926865333 36.34737556273732 0 0 0
2453 2 7.865981613871309 27.010821331624356 37.562836615405644 0 0 0
3757 4 11.150662782560673 31.180047584060304 35.550278269502485 0 0 0
2676 1 10.329740497272734 27.37224615656045 36.549672196933834 0 0 0
4311 4 8.335590236590377 28.521045883996205 35.43094433098509 0 0 0
1869 3 8.937946937274877 30.72885466607652 35.78958780845665 0 0 0
2522 2 10.338838809018654 29.620563991854656 36.77131427774183 0 0 0
2605 1 7.993369414937931 29.84281289186948 37.36342722914239 0 0 0
4000 4 9.224078945762152 31.767508480567383 37.270374725479755 0 0 0
2753 1 11.383077716503298 31.719393665952154 37.83489232093981 0 0 0
4008 4 9.43359081690732 28.150340903273804 38.403475439257626 0 0 0
2592 1 10.134533208683667 30.099221496701176 39.10926408098738 0 0 0
4269 4 8.099943696394167 30.4830883700393 39.38984665421622 0 0 0
2609 1 8.319919981337726 28.149110043216222 40.34142574908603 0 0 0
4001 4 11.864262475276153 29.010477112893444 38.565303020616746 0 0 0
2747 1 14.859088669515593 27.170410465813188 38.195248207593544 0 0 0
1955 1 13.592564461917771 29.99166144896374 35.31671148918204 0 0 0
2588 3 14.74442679588736 28.006785763453628 35.782307728075054 0 0 0
2665 1 12.729180230408257 27.894407148288874 36.73340501433956 0 0 0
2603 3 12.493491090089858 29.93877895463866 36.865124824621425 0 0 0
2678 3 13.745281278281734 28.658522672917147 39.51159893074381 0 0 0
4020 4 14.501220107970383 29.031957149584827 37.484106938645716 0 0 0
2674 1 15.77779738133692 29.743091752510473 39.39687684687017 0 0 0
2754 3 15.306428759180587 30.991940468121157 37.79146008782902 0 0 0
2822 3 15.35205175873266 30.757715017019564 36.324756494433906 0 0 0
3951 4 13.55032852121272 31.91123713073421 37.043277300213056 0 0 0
4026 4 15.336278399911581 31.74914462121774 39.66347400559098 0 0 0
2816 1 13.468329670924337 30.42706302799115 38.590168093621216 0 0 0
3950 4 16.688504103382066 28.258300596106192 36.70086015949531 0 0 0
2815 3 16.400886018963334 28.445614586996815 38.619213649942 0 0 0
2045 1 17.022949772534133 29.837359417574937 35.17189813495884 0 0 0
3956 4 17.23170215253727 30.543280016935405 37.39091626478846 0 0 0
3900 4 18.38517733929228 31.9983162045984 35.52911687243036 -1 -1 0
2049 2 18.587266096430245 32.14796277248424 39.38101373691689 0 0 0
2894 1 18.54459919440139 28.783936189693918 37.891910817284966 0 0 0
2901 3 18.866067112016932 29.934081660391914 36.19897337054258 0 0 0
3893 4 18.918903223684747 27.76726391987879 35.768055890273516 0 0 0
3962 4 20.464912420758925 27.765690068509805 38.078043678214286 0 0 0
4019 4 17.922271530710393 29.639037739366746 39.979520317370074 0 0 0
2051 1 0.3100065912032821 1.8169954317586854 41.557302975389064 0 0 0
2125 1 0.06474737699624056 4.963785120553978 44.4384809507241 0 0 0
4093 4 -1.1310721663369692 3.4479042940000877 42.31514882386003 0 0 0
4164 4 0.1308891844567528 2.3589584968492767 44.446115560857734 0 0 0
2123 1 1.5483484263919767 4.637869638947695 41.12591521338295 0 0 0
2117 1 3.1267411365557036 1.8632278814272603 41.12814372200023 0 0 0
2191 1 6.209436787729445 1.8593311925935732 41.32214446954322 0 0 0
2199 1 4.473334169034759 4.304729177973563 41.461026290681225 0 0 0
2201 1 3.2212712602774234 5.203544624999461 43.939601402190604 0 0 0
4036 4 5.503124160751643 2.6927459106805447 43.30993178631064 0 0 0
4097 4 1.8956169934375868 3.619236130283203 43.12000454781245 0 0 0
4104 4 4.002421886157321 0.5583138608880207 42.96066369659405 0 0 0
4041 4 5.827302965280121 5.155156568093924 43.16533015540778 0 0 0
2202 3 4.766763016262379 4.297702702754467 44.919677683555804 0 0 0
2194 3 7.425725054180021 0.9053236989658158 42.790729484719826 0 0 0
2269 1 7.692117595775337 2.5754779876262974 43.969459030984375 0 0 0
2271 3 10.733023199841135 0.691464524688066 43.14840461495998 0 0 0
2274 1 7.773838798070579 4.499017995155049 41.51900572241242 0 0 0
2276 3 9.26684860747865 3.551213058730811 42.84559997465582 0 0 0
2337 1 10.723511305861628 2.4978432546776626 44.141368530009984 0 0 0
2344 1 10.846551780826516 4.471742917705299 41.53579667869066 0 0 0
3985 4 9.202291581708428 1.6615579656034165 41.91144059614907 0 0 0
2330 1 8.962407565804128 0.023654931910047118 43.841935357343694 0 1 0
2411 1 14.110414489937732 4.460442138274024 41.5658776678559 0 0 0
4050 4 12.35810494422016 0.5447884021773004 41.882336488255014 0 0 0
4051 4 13.002166859326193 3.07899915461785 44.07126598708836 0 0 0
4057 4 15.369495781151153 0.493928891825421 42.28758082989435 0 0 0
4058 4 15.474791431275438 3.220129993955727 43.15469445422842 0 0 0
4133 4 16.372880257674808 4.820751291361596 44.88113380864557 0 0 0
2476 1 19.186349938370434 1.3990891394897356 40.92808636421441 0 0 0
2477 3 20.220818108716163 0.8576267764816089 43.22077433600688 0 0 0
2541 1 21.699619924294243 1.9485475444870073 42.099058356434824 0 0 0
2543 1 20.1681821891581 2.5128722850333025 44.555938800785356 0 0 0
2549 1 20.37542831171922 4.454823531157521 41.10388748983116 0 0 0
2552 3 21.57025315928761 3.6139400579556575 43.06439022906797 0 0 0
2610 1 21.702612725506782 0.131562520265336 44.60241645180814 0 0 0
4065 4 18.189933486258163 0.426242599758854 42.70689134567515 0 0 0
4066 4 19.522611188985078 2.8967129163748915 42.54369495337643 0 0 0
4132 4 17.766744867990006 2.325884743560597 44.78459488289167 0 0 0
2545 3 23.335687871748707 1.31977750941716 43.1715052984468 0 0 0
2616 1 24.791820145475484 1.7190176767263146 41.65575298755895 0 0 0
2618 1 23.094775940861854 2.8744123765872645 44.39467958565662 0 0 0
2620 3 26.390516206208453 1.0669550185638015 42.7901049825562 0 0 0
2623 1 23.46067707400481 4.41222885348964 41.77477417391866 0 0 0
4010 4 26.409299069977028 3.6499371388332884 41.18365802216106 0 0 0
4075 4 24.995884483158445 3.185206210979818 43.29426629770796 0 0 0
2687 1 24.731178583244777 0.19916026896575761 44.16200971422894 0 1 0
4146 4 23.823599058663294 5.278070553921172 44.58830932318284 0 0 0
4021 4 31.914951777896754 4.02442427481841 40.77934064434363 0 0 0
2695 1 28.024920939080943 1.984242577403412 41.50621493100536 0 0 0
2697 3 29.44948810785808 1.3626469493893187 42.754700487462735 0 0 0
2760 1 31.234442504565383 1.9458842240426755 41.66313499604591 0 0 0
2761 1 29.77963131853005 2.6987172365307077 44.1336580545807 0 0 0
2768 3 31.306871313305166 3.4103982866356466 42.89773314992874 0 0 0
4015 4 29.43246595557386 3.989950337450341 42.26423825341286 0 0 0
4078 4 27.59496075474885 2.7189169910839084 43.57958750183247 0 0 0
2836 1 31.167766265846378 5.240155638162027 43.63408646146788 0 0 0
2756 1 28.071946330269288 0.355201934255794 43.859326757100305 0 1 0
2767 3 29.575574084729748 4.480068475675622 44.77218067218744 0 0 0
2766 1 28.187656932313203 5.3777428324833405 43.60154132343649 0 0 0
4084 4 31.231635177210798 0.16608054102684286 43.075325963039 0 1 0
2112 1 37.26290641810039 0.01771281274240487 43.71895329478285 -1 0 0
2052 1 35.23309459821197 2.784944356364242 44.20261504437196 0 0 0
2763 3 32.95104427294236 1.3582963661192795 42.71956258886346 0 0 0
2829 1 32.491582444116524 2.5613358228632666 44.35459003002232 0 0 0
2831 3 36.00382243046595 1.2218675035514788 42.817313580481155 0 0 0
4027 4 33.33567014909885 1.5750691682673803 40.59839142797963 0 0 0
4090 4 33.37150584392027 3.8325314232885264 42.835208911271614 0 0 0
2904 1 34.5191836509975 0.24938383426764585 43.77125333401528 0 1 0
4166 4 -4.1912372346629745 9.867708346712796 44.16226533550629 0 0 0
2063 3 -2.748678859443235 8.595432218400365 43.191428085655396 0 0 0
2131 1 -0.004006583261197072 7.550679379863022 41.06953418097732 0 0 0
2133 1 -1.1186255112745749 7.5124797690465055 43.66191029679094 0 0 0
2141 1 -1.5732663891674932 9.76067516913065 41.98126779384257 0 0 0
2143 3 0.06445201659469735 9.044267309278153 42.836642989701026 0 0 0
2209 1 1.5717169748691866 7.963221202922443 43.95455954863403 0 0 0
2212 1 1.4738193518400244 9.895595790103924 41.51581362980837 0 0 0
4032 4 -3.3583732011599494 8.985528115864701 40.99979055466665 0 0 0
4094 4 -2.5052020518624474 6.7032855478291244 42.107121550343045 0 0 0
4098 4 -0.03725834546841922 5.798005160495863 42.411781911078506 0 0 0
4106 4 -1.3016444831502278 9.601887878700635 44.47591781155981 0 0 0
2055 1 -3.0813764343559638 5.477406977114793 44.14793998815284 1 0 0
2135 3 2.0105812087676913 6.170271853189927 42.646536921381596 0 0 0
2207 1 3.075191604142506 7.218871629763196 41.334610585377 0 0 0
2215 3 3.083433975616696 8.947832234072477 42.59127207722766 0 0 0
2281 1 4.47674149994433 8.159667935698742 43.95770295189577 0 0 0
2283 1 4.954907545688853 9.836840518228309 41.78812997957904 0 0 0
2285 1 2.9249008205853437 10.45883011573685 43.96459182023833 0 0 0
2287 3 6.29775744606503 8.949068334751315 43.6565214955992 0 0 0
3973 4 5.017699681297039 6.356841529570536 40.55784348696837 0 0 0
3974 4 3.337770124289472 9.312594844989395 40.372035189256835 0 0 0
3982 4 6.106073401689044 8.680537018337363 40.02557073216091 0 0 0
4116 4 6.266085050157728 6.941695512052985 44.84544826777261 0 0 0
2210 3 3.2884036507439873 6.883354685903849 44.97092605652587 0 0 0
3986 4 10.642632301458601 6.664735519859312 40.36547256367995 0 0 0
4043 4 9.791140001509376 5.465705976893489 43.48015155317835 0 0 0
4044 4 7.359389473141154 7.508843696268304 42.34164509115367 0 0 0
4052 4 11.068672682954295 7.614753107417338 43.25135672380772 0 0 0
4120 4 8.199590855744205 8.470079750957343 44.66245496935608 0 0 0
2413 1 12.569090169595423 5.390539350845708 44.04809210513471 0 0 0
2416 1 12.724980248899591 7.0632489500479485 41.62259984006096 0 0 0
2418 3 14.442717670025399 6.194769539520492 42.94796659351862 0 0 0
2420 3 12.64325727342927 8.937737539162008 42.71359497733723 0 0 0
2487 1 15.576083311571267 7.2185323233954515 41.181414254759666 0 0 0
2488 1 14.109134470032904 8.123316371870606 43.798168757150464 0 0 0
2491 1 13.947048473747737 10.034390949839981 41.71668210334018 0 0 0
2492 3 15.334039429633536 9.892073839578224 43.28819442941218 0 0 0
3989 4 11.968149644822056 8.985311664294343 40.624781193195695 0 0 0
4068 4 16.54790200717131 8.082460074990811 43.07494285187028 0 0 0
4135 4 13.471879573907493 10.186792075225677 44.33461722457264 0 0 0
4141 4 16.781279845987086 10.120290307561365 44.92029668250201 0 0 0
4067 4 16.953980409931628 5.612621739748583 42.0453467243214 0 0 0
2562 1 16.969805145953934 9.904563214057145 41.729078235479825 0 0 0
2556 1 18.563960450832425 7.386492718903397 41.547571703615596 0 0 0
2624 1 21.618407260800126 5.478517191644189 43.97825416911212 0 0 0
2627 1 21.844114091911273 7.013301568314558 41.46017269869598 0 0 0
4073 4 19.565318679371806 9.220571593957999 42.8832288987898 0 0 0
4140 4 19.03071443118872 7.671967727858255 44.93518954125023 0 0 0
2630 3 23.553251376052707 6.213427377394162 42.72732042593811 0 0 0
2702 1 24.81813373805769 7.081417262196689 41.1397915009924 0 0 0
2774 1 26.645663943825213 7.77112292431666 43.963184654616974 0 0 0
2780 1 26.12789260537568 9.673239451168554 41.33394611448344 0 0 0
4076 4 22.483053826713466 7.706151284464672 43.79351841068825 0 0 0
4079 4 26.006748275722334 5.976054452216596 42.771469567057636 0 0 0
4080 4 24.75541785811115 8.42319683250042 42.94884467647089 0 0 0
4152 4 26.21214995676468 9.759830959811898 44.89578275500198 0 0 0
2703 3 24.602039926902393 7.4166756164885665 44.8772665450663 0 0 0
2773 1 28.096850288773265 7.341571177917095 41.46021426717926 0 0 0
2776 3 29.549064948313404 6.32006042315498 42.79360110320344 0 0 0
2782 3 27.832272445807238 9.131280315307274 42.780473787451854 0 0 0
2842 1 29.553863919855925 8.023908500210483 44.00541767408412 0 0 0
2847 1 29.453242857612416 9.99132990007957 41.79463673814102 0 0 0
2850 3 31.045596626912737 9.06005850560252 42.966481256606826 0 0 0
4022 4 31.066309591672137 6.620570801537174 41.441129625138586 0 0 0
4023 4 28.010294682358342 9.425883101380483 40.22953291847889 0 0 0
4030 4 31.405876638488028 9.273943756169198 40.9268437268791 0 0 0
4161 4 31.924534731275134 7.345277266139269 43.95420671896137 0 0 0
2848 1 28.313446099137806 10.60128518403138 44.46073004181159 0 0 0
2062 1 31.000911148953776 10.758713396717656 43.98159164451292 -1 0 0
2843 3 32.79514291419696 5.90826909736642 42.50597613277166 0 0 0
2068 3 -4.679272820368034 11.187338955786572 42.602243270625465 0 0 0
2074 1 -7.5675052054525676 15.364121101653758 41.75720504050354 0 0 0
2076 3 -6.047382347693172 13.9900022791112 42.56561392590672 0 0 0
2146 1 -4.523956607830856 13.027801043459638 43.53286836797019 0 0 0
2153 1 -4.475803681951026 14.93896235948494 41.18718647179732 0 0 0
4031 4 -6.404503904789454 12.088995529970394 41.809197355017375 0 0 0
4033 4 -3.434776560576451 12.636753882085504 41.57858779689191 0 0 0
2066 1 -7.547062807995526 13.359386549496818 44.114684219842474 1 0 0
4099 4 -5.214125667827463 15.778206791511387 43.17636134110696 0 0 0
2147 3 -1.7027112796522985 11.473013749974887 43.11377833848634 0 0 0
2154 3 -3.1243861031607416 14.482677260469224 42.738938572372184 0 0 0
2213 1 0.16855596083051783 11.041270802330919 43.838387674699185 0 0 0
2218 1 -1.469742652597013 13.580330420847284 43.66665033536796 0 0 0
2220 3 1.632821488459613 11.478308397284085 42.68954207753325 0 0 0
2224 1 -1.5386409836236679 15.322921467927817 41.32293553626222 0 0 0
2228 3 -0.09419320163124212 14.63566078485331 42.72100420574321 0 0 0
3967 4 -0.4406545341723058 11.709519843253755 41.43989111079004 0 0 0
3976 4 0.4086068101659279 14.074920374063558 40.767380536539555 0 0 0
4118 4 1.3593732766732263 15.614325336539581 44.89522648814829 0 0 0
4107 4 -2.603863057637885 12.086979866829031 44.88968794168933 0 0 0
4042 4 1.4747745005022406 13.426308902610414 43.45182059530182 0 0 0
2219 3 -0.09328581779257483 12.77899390641784 44.95805147079198 0 0 0
2290 3 4.359896125486802 11.530727907357868 42.64958104505583 0 0 0
2358 1 5.94459325541645 11.086245010059596 44.13801518720842 0 0 0
2364 1 6.237115052934314 12.486567424003011 41.46783105262691 0 0 0
3975 4 2.5696077146093987 11.883277980675288 40.867342596645635 0 0 0
3983 4 3.088383372054164 14.895114215162465 41.00070442721985 0 0 0
4045 4 4.757414759862949 13.574142172265143 42.68069865838698 0 0 0
4117 4 3.9165582411193887 12.180857212513047 44.681766505816405 0 0 0
4053 4 5.545580617396746 15.84058550522062 42.0566877590201 0 0 0
2367 3 7.568582638308211 12.233469983898239 43.058396698867654 0 0 0
2426 1 9.4669462694706 12.509415494764275 41.46984544148987 0 0 0
2431 1 7.635987138195141 14.95725575765543 41.35177136735548 0 0 0
2505 1 10.850694380423942 15.360085202151023 41.176519098458265 0 0 0
4060 4 11.180218526263875 13.742608171804795 42.68348674139277 0 0 0
4061 4 9.316881992708058 15.70523557356622 42.72051900899798 0 0 0
4127 4 7.6033257515382004 13.667596471356072 44.89671674854168 0 0 0
4137 4 10.708010755333385 14.705162172896976 45.001807130505185 0 0 0
2433 2 8.787805930186051 15.88075322551345 44.96599602393533 0 0 0
4059 4 11.90051074766114 11.020318693887315 42.19118370640991 0 0 0
3997 4 16.71472655510953 11.733013326730301 40.307261701951624 0 0 0
2498 1 12.754491072176563 13.019200109901504 41.28937511721945 0 0 0
2499 3 13.705190898795625 11.90914614372442 42.94396393748295 0 0 0
2567 1 15.366234661984189 12.459440236421715 41.90676034048162 0 0 0
2568 1 13.985699755619589 13.815313212693328 43.77944625049064 0 0 0
2571 1 14.065661654292201 15.465034184584702 41.46035833621585 0 0 0
2575 3 15.53766889409668 14.383818197070681 42.57554548116076 0 0 0
3998 4 14.659140517088074 13.754741804952639 40.13610779956367 0 0 0
4136 4 12.32741054688654 12.47213967274762 44.65146764324308 0 0 0
4142 4 15.484304669129774 12.199948448657887 44.216457972339775 0 0 0
2573 1 12.441321495458356 15.923122019661628 43.8383167351148 0 0 0
4005 4 16.189425583487406 15.939342959521847 40.973581966731494 0 0 0
2635 1 18.607752014505493 10.903195621364999 44.00690972149414 0 0 0
2569 3 17.057291094646317 11.670252585605292 42.84121863584107 0 0 0
2638 1 18.629513119852493 12.234272980518263 41.56896636071286 0 0 0
2640 1 17.20874022030371 13.593226029288019 43.75569894698805 0 0 0
2642 3 20.17441727057964 11.538469647395697 42.70710505567941 0 0 0
2648 3 18.708665252370672 14.198896021824519 42.57883575773628 0 0 0
2713 1 21.7944366393305 12.649259894794909 41.184970999061925 0 0 0
2715 1 20.242432519610105 13.32781844437495 43.87054272083518 0 0 0
2721 1 20.0454941248387 14.971016353662765 41.25337305506695 0 0 0
2723 1 18.72017558141388 16.005178893158103 43.63490343095966 0 0 0
2725 3 21.763234697934237 14.257425043340614 42.57567229593469 0 0 0
4004 4 17.855830632688946 14.108253331519537 40.63004431159929 0 0 0
2790 1 21.69886438731328 15.880668643865352 43.870263694846855 0 0 0
2784 1 23.315345338921254 13.686620593321866 43.917185057095004 0 0 0
2789 1 23.35015327995656 15.30532295014441 41.48550970253709 0 0 0
2792 3 24.873663625689318 14.729325977650586 42.924403365907224 0 0 0
2862 1 26.425868193510453 15.20450955759539 41.56082647187283 0 0 0
4081 4 22.19323018654603 11.860467811213692 43.282772488535755 0 0 0
4085 4 27.086831858549484 11.226185406540102 42.78004808587295 0 0 0
4086 4 24.150876404414227 13.103974488040468 41.74333574168253 0 0 0
4159 4 26.75403718823448 13.707275474669702 44.25839929879597 0 0 0
2075 1 27.850810846353916 15.978730906691558 44.09871495730826 0 0 0
2856 3 29.27242090180659 11.575842898571823 43.07103752932092 0 0 0
2866 3 28.145010694064176 14.197695733295319 42.72791189013005 0 0 0
4024 4 28.390177711932015 12.003299552092944 40.88706057381403 0 0 0
2079 1 -9.45554115333652 17.94469855535328 41.5035590188842 0 0 0
2086 1 -10.919289921269682 20.60028545922588 41.41553478485752 0 0 0
2090 3 -9.383549642097204 19.737075408292604 42.553744137106605 0 0 0
2081 1 -10.805268266336151 18.82027518256666 44.02616210885935 1 0 0
2161 1 -7.642768270438576 20.744786068882814 41.60044212139197 0 0 0
4037 4 -3.4263891641557835 18.451528092798572 43.10639049550502 0 0 0
4038 4 -5.294280399980423 20.540756357725392 42.69327498789348 0 0 0
4100 4 -7.188895599237178 18.357322551171453 41.8351573634055 0 0 0
4101 4 -7.9280203749287645 19.75064909121831 44.15100368216192 0 0 0
2226 1 -3.1496995427242176 16.230161648913302 43.89496384556642 0 0 0
2235 3 -1.745355642910022 17.160125277716897 42.60215216550663 0 0 0
2295 1 -0.4524351551863308 16.25574742996878 43.89913071252244 0 0 0
2298 1 -0.10963879303441715 17.88332778343262 41.49494454574746 0 0 0
2300 1 -1.4315388950939703 18.913741433627244 43.951766978766635 0 0 0
2302 3 1.2633160414377755 16.65998382362582 42.86243194097952 0 0 0
2304 1 -3.3520117447100866 21.37129399199748 43.921145252449236 0 0 0
2306 3 0.24893103192956367 19.491303806203394 42.65050374611609 0 0 0
2378 1 1.5449941157628082 18.54199237778906 43.85829398771073 0 0 0
3977 4 -1.9696801937983786 19.035982552419515 40.97216582011375 0 0 0
4047 4 0.1478218335466348 21.52126734195971 42.253650464290864 0 0 0
4046 4 3.3816212621084585 16.44752354179539 43.35865542980641 0 0 0
2376 1 2.390177894623685 17.048406428638568 41.17798532361792 0 0 0
2385 3 3.175361888079065 18.43140551333939 42.29751664885426 0 0 0
2436 1 4.881432450460597 16.99140722754298 40.284873593844985 0 0 0
2438 1 4.697744045221025 18.235693785157032 43.766563668523524 0 0 0
2444 1 2.117433238738947 20.036524699354235 41.520900887985285 0 0 0
2447 3 6.163907842004464 18.108820529028137 41.928583865434966 0 0 0
2514 1 4.751821183401622 19.338004800893913 41.42406058752456 0 0 0
4054 4 3.151000562413433 20.038763461334753 43.681164958281414 0 0 0
4063 4 6.588858320849706 20.361599876893727 41.70792794216232 0 0 0
4324 4 4.177386069893556 21.29257937942173 40.88308488321713 0 0 0
4337 4 9.370126414138547 20.990828452327992 39.97903027057263 0 0 0
4310 4 7.321331702741663 18.83682728348868 43.62312032286836 0 0 0
4306 4 9.97895658257724 17.660209612447968 40.7923979689941 0 0 0
2448 2 10.667909499195977 19.62463283870049 41.3945900069721 0 0 0
2670 1 8.173815870685829 19.126790629499624 41.06185068020587 0 0 0
2446 3 10.50999579965203 16.88943118603873 44.34025883813048 0 0 0
2587 1 7.141212111033433 16.66175666879145 43.21157545499359 0 0 0
4261 4 7.325571720602712 16.940415021869338 40.735425118932866 0 0 0
2445 1 9.32835808624346 17.705202505119306 42.77768411217012 0 0 0
2439 3 9.07731976350054 19.987180732090067 42.45398983442958 0 0 0
4069 4 11.305491040032749 18.73863072986655 43.30306450735339 0 0 0
2743 1 13.79263685313084 20.80913338688003 40.75105487192775 0 0 0
2646 1 15.53733465929309 16.236225117128107 44.0026221957839 0 0 0
2512 1 12.146365154522918 17.629361870339412 41.109969523937025 0 0 0
2668 3 13.80122930798814 18.787799115778682 41.09543746974114 0 0 0
2582 3 13.982510785487959 17.173476455801186 42.52766036089981 0 0 0
2651 1 15.604039514210632 18.006547880201648 41.21987374915876 0 0 0
2652 1 13.896550679381559 19.212303150042427 42.95717776691237 0 0 0
2660 3 15.573329774812306 19.9183872265988 41.97634887138128 0 0 0
4148 4 15.650669657188795 18.34383240850349 43.407933365264704 0 0 0
2659 3 15.266725300714082 19.968180290975234 44.43959164625391 0 0 0
4194 4 13.615613737532074 17.737935536211474 44.6473393350683 0 0 0
2653 3 16.985432505130575 16.921306638323944 42.67567910294744 0 0 0
4279 4 17.074494868380093 20.381177912996257 43.36341242037344 0 0 0
2734 1 17.315624309304706 20.54717298767558 41.18140882912613 0 0 0
2798 1 20.083440762562297 21.143306398540915 40.924011867313766 0 0 0
4017 4 21.588483777769532 16.43241933651404 40.455886787513734 0 0 0
4082 4 18.38738301765912 18.352000515007603 42.00598128002203 0 0 0
4088 4 20.44194360273163 20.517789637445535 43.0668088173607 0 0 0
4154 4 20.270949473622714 17.215916975148446 44.977454955352854 0 0 0
4147 4 17.427198839063138 17.40787758538137 44.812335819180056 0 0 0
2088 1 24.837481075756283 21.443741891599597 44.26656116045055 0 0 0
2864 1 24.78368761431638 16.40906941510525 44.0783126921437 0 0 0
2873 3 26.568227886328316 16.905492391849904 42.983905503678166 0 0 0
4087 4 22.83016035461157 17.524351949486473 42.84730868514915 0 0 0
4091 4 25.28181305195084 18.304543206608475 42.11108538532929 0 0 0
4160 4 22.360727481208464 19.34636403303124 44.872728576128544 0 0 0
2102 1 -14.226265245791812 25.688481140011675 41.55822328903788 0 0 0
2097 1 -13.86663301198575 24.075623300522647 44.07331907950641 1 0 0
2096 1 -12.527865281148365 23.067061764584164 41.66053921840415 0 0 0
2099 3 -11.156783995405277 22.177968576585904 42.888684666983956 0 0 0
2103 3 -12.497546658683227 24.93848615622116 42.67849237988317 0 0 0
2168 1 -10.972330751136056 23.97548479509096 43.73381118182932 0 0 0
2172 1 -12.20511943591297 26.67028355040378 43.75552681104869 0 0 0
4035 4 -12.13381982624615 26.60598811448486 41.335476566129294 0 0 0
4102 4 -9.37551452960363 22.55768066359695 41.88719023823299 0 0 0
4110 4 -9.019112586173513 22.00823127898348 44.887192266977465 0 0 0
4111 4 -9.433751576919803 24.846033917775014 44.97223522694061 0 0 0
2240 1 -6.362773221674581 21.65978348757241 44.38073249915537 0 0 0
2246 1 -5.742688370714703 23.834178815273834 41.065092485996615 0 0 0
2248 3 -4.8080407571398265 22.628884945097575 42.85262766727857 0 0 0
2254 3 -5.841114580308069 25.05357176162626 42.93039768831351 0 0 0
2313 1 -4.396059055764809 24.194741842553178 44.0506447121531 0 0 0
2318 1 -4.374039414558689 26.122803397892657 42.186385725040935 0 0 0
3978 4 -6.378075809065297 26.36166279965939 41.279850350046985 0 0 0
3984 4 -3.7345496560706763 24.813880692591205 40.55261388960096 0 0 0
4039 4 -6.907284645610976 23.08777248857123 42.769745398739886 0 0 0
4040 4 -7.821063261140606 25.654677674169275 43.25143408879057 0 0 0
2319 1 -6.1477228353672135 26.864265490517955 44.23254599550746 0 0 0
2311 1 -2.9150388952081876 23.1383344677073 41.772229342881296 0 0 0
2315 3 -1.6038820036492805 22.393574980574105 43.20162585916234 0 0 0
2321 3 -2.9012156130216376 24.901795582108143 42.90043211301725 0 0 0
2392 1 -1.8539582882244954 26.18027746882857 41.717962514013514 0 0 0
2457 1 0.9667892791197641 25.70080166077511 41.56185689197526 0 0 0
2458 1 -0.19732457262520597 26.504335195451812 44.26342966494993 0 0 0
4048 4 -0.8815516119738582 24.12221718048583 42.02570897081752 0 0 0
4122 4 -0.1970654639734608 21.695581317774796 44.808438370986806 0 0 0
4123 4 -1.6498347006940328 24.24291527894519 44.53615573778909 0 0 0
4055 4 1.549626229399811 24.066451874705837 43.080285945240945 0 0 0
4124 4 -2.916869341630017 26.65916590936147 44.18044092914396 0 0 0
2532 2 5.18334807121075 23.6945855346679 40.282984896760524 0 0 0
2689 3 5.161709965838606 25.79712031855816 40.38412542215182 0 0 0
2452 1 1.7907236813086147 21.79813279708446 43.897305667136955 0 0 0
2519 1 2.8208878673342124 26.476089949661606 43.35507446425201 0 0 0
2520 3 2.228279403101144 21.821057391113136 42.08035415300517 0 0 0
4071 4 3.1799409389250055 25.522653096096164 40.93760206829551 0 0 0
2518 1 2.744470794531461 23.055428751141058 40.829446007469635 0 0 0
2683 1 4.948171040348003 25.351752964644 42.489301281235356 0 0 0
4338 4 4.6169972126378855 23.080744458896273 42.770563899709934 0 0 0
2602 3 6.438303007670054 24.629354609102464 41.74866786336024 0 0 0
2459 2 6.485456745848378 26.6613353681168 41.48683382766485 0 0 0
4201 4 7.143117037319216 22.57159174431067 41.42506932011038 0 0 0
4314 4 14.24087697068574 24.461323865130176 40.41713883823416 0 0 0
2735 1 15.42538266173208 21.51155372867979 43.5155114245799 0 0 0
2750 3 16.066769487207104 25.429015531169657 41.136001248083616 0 0 0
4215 4 15.768858904696526 22.03706847971875 41.10845968971261 0 0 0
2806 1 16.63533292284618 25.27433073800726 43.621246731161555 0 0 0
4206 4 14.457545630586411 26.09247746438391 42.85395541949099 0 0 0
4013 4 15.13994971225008 23.666438879241344 42.81522177241038 0 0 0
2672 3 16.582416810822224 24.14423571758993 40.97665706871935 0 0 0
4268 4 16.815604165721908 22.980621701870888 44.51877554846525 0 0 0
2745 3 17.037782057096123 23.688754441283475 42.1755546140337 0 0 0
2742 3 17.174787239319915 22.35778763521321 42.594705929350845 0 0 0
4214 4 18.767135536527476 24.288860314484058 43.546935515993354 0 0 0
2878 1 21.803200335163993 21.712078010961015 44.44535080959622 0 0 0
2800 1 18.681891879437813 21.886441093695417 43.70500302232748 0 0 0
2808 3 20.27679135942068 22.733761339169686 42.91794193994821 0 0 0
2882 1 21.731928462389668 23.1922409123351 41.516721447974746 0 0 0
2890 1 18.7034080104101 26.693641378502143 44.08770934034636 0 0 0
4018 4 18.77938738849125 22.9498534150948 41.34547143154144 0 0 0
4089 4 17.96922010656013 25.904511625955838 41.78306116498706 0 0 0
4092 4 20.61943532491818 25.358499981373246 41.53839175183331 0 0 0
4162 4 21.043681437348823 24.217243100943122 44.387288496652104 0 0 0
2885 3 23.203777900004418 22.414905770648357 43.07956700504108 0 0 0
2107 1 -15.340603409999998 28.81402615296114 41.21618920529704 0 0 0
2111 1 -17.142356721099812 31.339239627053594 41.45562696882154 0 0 0
2185 1 -13.887055348756238 31.45587704986721 41.25486998149333 0 0 0
4095 4 -14.3295436521727 27.409641107161363 42.991285043438566 0 0 0
4103 4 -14.43883775271092 30.12004039868647 42.992602405239325 0 0 0
3971 4 -9.358352753749454 26.92008705007317 41.59936039746938 0 0 0
3980 4 -8.680860055488857 31.748547750415213 41.04019474007224 0 0 0
2266 1 -12.554138443114244 32.25010968505869 43.83539421059248 0 0 0
2178 1 -12.791112534395662 28.725282081792233 41.976680399375 0 0 0
2180 3 -10.938979132601474 27.757071008939267 42.72257452473478 0 0 0
2187 3 -12.329098777149957 30.56568289204961 42.66154495999579 0 0 0
2252 1 -9.44047295923345 26.96896544490893 44.14159725876874 0 0 0
2259 1 -10.66676112454481 29.630076174712293 43.725549789497656 0 0 0
2264 1 -11.012940197822072 31.592999136202994 41.49762957783633 0 0 0
2268 3 -9.3772164439265 30.584492085454457 42.64406555841435 0 0 0
3972 4 -10.752076959151543 29.39195710738982 41.39269118099138 0 0 0
4112 4 -12.543044710563832 29.78980220950971 44.74915381410741 0 0 0
2261 3 -7.668087766956621 27.717712790933746 42.79958501203039 0 0 0
2324 1 -6.025158153820831 28.571822214481536 41.67782509215272 0 0 0
2325 1 -7.708423159515039 29.61002618681098 43.763621762291834 0 0 0
2327 3 -4.546674387026485 27.79227392435355 43.140823500095365 0 0 0
2331 3 -6.6870574372128075 30.675759267924548 42.108327977852575 0 0 0
2400 1 -4.687930395210142 31.224630085240673 41.300795890715094 0 0 0
3979 4 -8.163294880610858 29.258637730275442 41.42494610185211 0 0 0
4049 4 -5.099438220347473 29.814650951683284 43.26943172368624 0 0 0
4126 4 -5.44623676960795 32.2104577102758 44.24350685386276 0 0 0
2395 1 -3.2698831600865415 28.73818513553267 41.655064002357996 0 0 0
2396 3 -1.5435344001164033 27.935755603827413 43.08550892043008 0 0 0
2463 1 -0.11027882192679073 28.728119810099617 41.91142269875448 0 0 0
2466 3 1.236179183157585 27.47264198574844 43.07459457756985 0 0 0
2470 1 -1.5318467332085746 31.723042632868193 40.991094887223646 0 0 0
2472 3 0.10699292616450506 30.6133069797073 43.2446277753671 0 0 0
2531 1 1.335888492690117 29.375471327732427 44.29451309540717 0 0 0
2535 1 1.3870675010010878 31.30620807673562 42.17031193939007 0 0 0
2537 1 0.166267806678988 32.21458091545552 44.73652775127598 0 0 0
4056 4 -1.8291230711352728 30.12210131515418 42.633444104958016 0 0 0
4131 4 -2.239377361984488 32.10525465983831 44.8308503082664 0 0 0
4130 4 -0.6838738884839941 29.892674087106155 44.9571948703713 0 0 0
2680 1 5.234534593678184 29.574460886143953 39.74838427373996 0 0 0
4202 4 4.517312129061249 27.47479675332765 41.3523852890879 0 0 0
3996 4 1.858063332340766 31.9084032989974 40.15169373409814 0 0 0
2530 1 2.6991888134707125 28.23882349264886 41.751603940292036 0 0 0
2539 3 2.994166388951726 30.158419065239002 42.5662132857217 0 0 0
4072 4 3.443924374551326 32.14634166447884 42.412485800746616 0 0 0
4074 4 5.791483675004351 31.66597024599964 42.06476645289925 0 0 0
4145 4 4.584697990386033 30.63467130113162 44.17923218324624 0 0 0
4195 4 3.1036666331854796 28.705724430461892 43.95392659342494 0 0 0
2688 3 4.211127796875118 30.166720136407633 41.8345852328325 0 0 0
4254 4 6.291552853007886 29.353279492739027 41.854262142430215 0 0 0
4343 4 6.479125661786123 26.846464719606537 43.38776437421528 0 0 0
2755 1 29.70928572540538 0.07703270193302782 41.337661213098315 0 1 0
2596 2 10.752826725200645 27.72616737154204 40.14351741634593 0 0 0
2685 1 8.046618211406361 31.646161074848635 41.69048544158697 0 0 0
2675 2 9.97261401600566 30.186163443901357 41.365134785476386 0 0 0
4083 4 12.042845374132597 29.591343229710926 42.51653936495289 0 0 0
3943 4 12.14439676663888 30.81972404157622 40.237958567202774 0 0 0
4209 4 15.070582886405873 27.36628440166789 40.45263945198587 0 0 0
2667 3 12.594354599458345 28.496142780128746 40.58417583779353 0 0 0
2669 2 12.914502898575323 27.4763278501917 42.22513925720416 0 0 0
2741 3 16.159075980252098 27.317402494596816 42.47295082381494 0 0 0
4313 4 14.29679627641444 29.900452102112258 40.955355709912524 0 0 0
2814 3 14.828851211498073 28.153730279937832 42.490284147663075 0 0 0
2818 1 14.440863504632127 29.779683992595015 43.40998527606522 0 0 0
2823 1 14.07863069667409 31.879208936883277 41.5040675132757 0 0 0
2825 3 15.59649583609589 30.905107372718476 42.6824956721916 0 0 0
4156 4 16.569275001844876 29.29230922706855 41.88207329455093 0 0 0
4157 4 14.413836289113348 31.525785934376028 44.64637516327388 0 0 0
4280 4 16.503375810586682 27.429285557091674 44.54229038959563 0 0 0
4210 4 13.558193636230229 28.51430377589967 45.041636257281475 0 0 0
2813 1 17.173600129851984 27.28655468323201 40.295996371271976 0 0 0
2902 1 16.970589007318825 31.571055553916285 41.34390716355994 0 0 0
4096 4 19.361185888481074 30.139927256018503 44.036875106603155 -1 0 0
2820 3 17.492434566358195 27.707372319533803 42.69398805545677 0 0 0
2895 1 19.020401143727778 28.537653983344782 41.784909486026486 0 0 0
2897 1 17.211525808975285 29.586752721499245 43.92337764794854 0 0 0
2906 3 18.313922597187734 30.55237417867108 42.30034557008142 0 0 0
4163 4 20.58971485544217 27.76391428451791 44.2664966990347 0 0 0
2054 1 -0.06747589520245034 3.0900852014656084 46.54356451885196 0 0 0
2056 3 -1.558430368329704 4.371339664268934 45.49827831304343 0 0 0
4225 4 0.9603848121081007 4.8336955922000735 47.28467073703653 0 0 0
2126 3 1.648718623166936 4.160359575275162 45.32289718878402 0 0 0
4294 4 -0.8032005856346118 3.9417074760354724 49.77811312175815 0 0 0
4298 4 1.2185449232333323 0.9127415844239549 49.87609208938552 0 0 0
4169 4 0.9159848864482084 0.06086023065734768 45.77087855952816 0 0 0
2113 2 2.9687655401604083 0.02170793775705561 48.41062466823004 0 0 0
2118 1 4.489287780940617 1.3055355350480258 46.95436331757786 0 0 0
2119 2 4.224112073812236 2.959426231197556 48.6937010585953 0 0 0
2124 1 3.0600550539057823 3.8504747872755503 46.691286490669505 0 0 0
2188 2 6.2421892332372195 0.31866734966904475 48.45606159316556 0 0 0
2193 3 5.867360796438376 1.6898681885969769 45.10548482537821 0 0 0
2200 1 6.235363387514344 3.559911256626367 46.13974093618123 0 0 0
2203 2 6.019687655674994 5.166950990142034 48.089119886229206 0 0 0
4105 4 3.7030337756022167 2.4295494454294215 45.08673393975752 0 0 0
4234 4 1.91156514300264 1.9368604077170855 47.249547178374605 0 0 0
4299 4 1.9850367869363672 3.5189549613869424 49.26824016498778 0 0 0
4115 4 7.965643128525707 4.672215076656928 45.00327078324969 0 0 0
2192 1 7.345541760303048 0.9824254112891673 46.22484884930431 0 0 0
2195 2 7.8645509226106025 2.6621755799962603 48.233020514949295 0 0 0
2270 3 9.10041892593074 1.7402891903310007 45.271505617793736 0 0 0
2275 1 9.298450004264401 3.6960501590532835 46.5529354194721 0 0 0
2346 3 11.037338399727476 4.2551716956084285 45.27865750971937 0 0 0
4119 4 10.67600165064367 0.0320799273984454 45.208002718496836 0 0 0
4187 4 10.792579235289224 2.1140147175558575 46.56182391901482 0 0 0
4243 4 10.688515864650572 3.655093413139372 48.54429500151034 0 0 0
4242 4 9.202853711942836 1.4289458255306022 49.77598751345194 0 0 0
4180 4 8.855667561482974 0.1197828186155051 47.511570597302374 0 1 0
2336 1 14.109359702253103 0.8819648946616019 46.19664749101822 0 0 0
2338 3 12.320399960409615 1.5280830615332899 45.320834937268316 0 0 0
2339 2 13.97813192642216 2.4782646238617505 48.20767624176483 0 0 0
2345 1 12.60836485488283 3.464638691253225 46.34048554106436 0 0 0
2347 2 12.45750525796603 5.153167724734511 48.19846551000455 0 0 0
2406 3 15.581745094946896 1.872084846904417 45.00453910459528 0 0 0
2412 1 15.537638682849702 3.370479909491004 46.408753987294766 0 0 0
2414 3 14.178410096614067 4.444579468811444 45.14640393066591 0 0 0
4250 4 12.095385641359327 1.0347121593915884 48.959723303972204 0 0 0
2408 1 16.91387885649954 0.8967710409161065 49.913471244900855 0 0 0
2405 1 17.088124147585425 1.036619295800832 46.6194287919343 0 0 0
2407 2 17.225236250643103 2.8650138631851907 48.33919790280747 0 0 0
2473 2 18.62657175064469 0.1470521337117554 48.32235373326247 0 0 0
2481 1 18.313608412694705 3.9552307543348846 46.43260122345803 0 0 0
2544 3 21.76411826523601 1.8980620820411345 45.665265764460415 0 0 0
2550 1 21.392889796002837 3.698208944088083 46.587134583126655 0 0 0
2551 3 20.054091941569858 4.444617956338628 45.316147094913724 0 0 0
4197 4 19.48677095963336 1.5282311700275337 46.475083840093895 0 0 0
4203 4 21.7984121645526 1.810067666099681 47.75578633294555 0 0 0
4259 4 19.792593486444726 3.54809212748279 48.277767949668984 0 0 0
4264 4 20.307764823813415 0.9043443568030985 49.763347399822344 0 0 0
2542 1 23.66566604681307 1.5269175423983583 46.621800170951744 0 0 0
2617 1 26.491851402853406 1.4315592638731427 46.319952983705875 0 0 0
2619 3 24.892900243148517 1.9123888583174968 45.05979799918727 0 0 0
2621 2 26.687827565654697 2.635256595156938 48.38939674407301 0 0 0
4204 4 23.57903013815102 3.9171735005173303 47.31961008111836 0 0 0
4207 4 26.048200075521727 4.8471058699067635 48.14901152344477 0 0 0
4265 4 22.34733097001021 3.783183650041044 49.682962501885164 0 0 0
4271 4 23.529781198035206 1.3878341632604225 49.48432130541381 0 0 0
2612 2 25.265894609713353 0.5362966205070845 48.36237378625195 0 1 0
2625 1 24.668539306125208 3.3429298056081773 49.50552412609796 0 0 0
4158 4 30.02386490772949 0.5344206025974053 45.0438963545106 0 0 0
2696 3 28.304267391938026 1.783365009126698 45.292061645850296 0 0 0
2762 3 31.108197806522696 2.1486042668894862 45.54406669168594 0 0 0
2765 1 30.89022789094474 3.975076404084041 46.346729026969754 0 0 0
4151 4 27.621226137715322 4.62951650502999 45.63991849349829 0 0 0
4217 4 29.725814147015814 1.941300555742093 47.11441422569001 0 0 0
4289 4 32.00037127357637 1.7174907714249101 49.145342594557555 0 0 0
2690 2 28.166647048481188 0.36446776858494884 48.105882325806874 0 1 0
4282 4 29.290562459992945 1.7162016614978837 49.66830787204679 0 0 0
2770 1 30.81232799026439 3.665623729789283 49.58392862480138 0 0 0
4283 4 29.174917959698437 5.349635888459647 49.226322212828244 0 0 0
2828 1 35.90419905943034 0.8499813824219681 46.25308875198127 0 0 0
2830 3 34.084379593460184 1.630248391388367 45.374101255459145 0 0 0
2832 2 35.52033723311494 2.4188090943983553 48.27441810766404 0 0 0
2835 1 34.009244891286095 3.6256443025394782 46.61469803342225 0 0 0
2837 3 32.57652512690398 4.536151091758606 45.08815707947719 0 0 0
4216 4 32.50816284086403 0.8861121885255525 46.578143798002486 0 1 0
2839 1 33.79760883970625 3.460280287238712 49.78655861034897 0 0 0
2851 2 -6.014046656958653 10.752041562413721 48.5182233605397 0 0 0
2059 1 -1.187398646221781 6.085270991857317 46.74606277415909 0 0 0
2060 2 -1.2711687756247811 7.972407288687817 48.362589708651136 0 0 0
2134 3 0.03284829204720108 7.083530475629002 45.30066710010079 0 0 0
2136 2 1.5307608869565392 8.047422047105886 48.30201117846154 0 0 0
2142 1 -0.10700513586642924 9.004017553959686 46.395227250110274 0 0 0
2214 3 1.2266361324055843 9.876583813600343 45.09739873851045 0 0 0
4165 4 -2.565824141718408 7.454290657414887 45.351412064595316 0 0 0
4226 4 -2.36845783060759 9.711780711625208 47.22232186923465 0 0 0
4300 4 0.08343046001435805 6.2940995706039224 49.09744613730942 0 0 0
2838 2 -2.7456249041570735 5.506055555388135 48.64920121163155 1 0 0
2064 1 -3.052581880100541 9.13938552405232 49.610210124189194 0 0 0
2132 1 1.8446598415803832 6.51380090181944 46.318241517379235 0 0 0
2127 2 3.1162568129802484 5.62262899775414 48.409025726496154 0 0 0
2208 1 4.750158838384008 5.928764137086743 46.09797573775501 0 0 0
2284 1 6.1345646739808855 8.907920302285795 45.887052282609574 0 0 0
2286 3 4.45273730186603 9.985913413272113 45.31767714346469 0 0 0
4175 4 4.722920506578696 7.4522643027834174 47.6810576962673 0 0 0
4176 4 2.8402487720294145 8.680604767661801 45.93884753783525 0 0 0
4238 4 5.270911470531678 8.584951174883257 49.9285326409916 0 0 0
2216 1 2.9312650549908907 9.274585273411667 49.93498988383561 0 0 0
2277 2 9.165814560124325 5.4790670687272165 48.39410238651794 0 0 0
4181 4 7.05109205993649 9.884095713974407 47.646575470744246 0 0 0
2280 1 7.6238662477633685 6.452603231092894 46.67308748607075 0 0 0
2351 1 10.858132340635587 6.113913010590693 46.51067639489813 0 0 0
2352 3 9.127699089151175 6.714384841685215 45.347280469039426 0 0 0
2353 2 10.946599214372508 7.918641368780948 48.372447683609956 0 0 0
2357 1 9.074136773134057 8.868697241971711 46.734379688833066 0 0 0
2359 3 7.522501627110704 10.227590933189111 45.51964823101261 0 0 0
4244 4 8.366586205896365 7.854179202922351 48.73224145011265 0 0 0
2354 1 11.01573419905871 5.885112013214041 49.96812680570249 0 0 0
2417 3 12.412814883716816 7.262609204753438 45.0271288176628 0 0 0
2419 1 12.248996770838929 9.002510123539249 46.32910338370801 0 0 0
2421 2 12.398476783682925 10.60963602950053 48.35560379184321 0 0 0
4134 4 14.432541979756522 6.522939458814768 45.30528099468904 0 0 0
4191 4 16.64036404757383 6.010934745067041 47.17257846351448 0 0 0
4192 4 14.2301107728006 9.255196532701497 47.43879896289468 0 0 0
4256 4 14.657091595071227 5.60159565720899 49.044075463473035 0 0 0
2494 1 15.494419834289559 9.077964377081418 49.82259192920121 0 0 0
2422 1 12.677181884265703 8.730281364428157 49.977915233939456 0 0 0
2553 2 21.51361992191875 5.42837148643939 48.2879859452288 0 0 0
2482 2 18.54569453368092 5.510412453849585 48.47266758357356 0 0 0
2557 1 19.98024986445089 6.278986652296879 46.533566021528024 0 0 0
2558 2 20.10807851922498 8.189532761255116 48.161493088767614 0 0 0
2563 1 18.474872091423435 9.200904642818468 46.59394289298581 0 0 0
2629 3 21.571137480233524 6.989644778976658 45.506862634524474 0 0 0
2634 1 21.605748710846015 8.991919126348003 46.3364864231358 0 0 0
2636 3 19.856000298167814 9.674974023087646 45.18375897278523 0 0 0
4273 4 20.672614513703913 10.517081082807003 48.34038797346697 0 0 0
2565 1 18.81429489003245 9.222158096467004 49.9047796381491 0 0 0
2628 1 23.207475207252095 6.306794213059509 46.55017704723681 0 0 0
2631 2 23.105539673505643 8.198283741606588 48.26383001899788 0 0 0
2707 1 24.896076220508387 8.71262671248708 46.55709199689857 0 0 0
4277 4 23.063543924214088 10.427981011799567 49.334048966253526 0 0 0
2709 1 24.938031579593726 8.972850580930674 49.73648607136312 0 0 0
2632 1 23.296775997867826 6.137353581276845 49.753702011511436 0 0 0
4222 4 31.938851381784 9.154936160346198 46.66063865107573 -1 0 0
2769 2 31.34872981766612 5.601694916627334 48.16798360625536 0 0 0
2775 3 28.056562359555095 6.966982836795552 45.10001418530177 0 0 0
2781 1 27.85939543242805 8.897266842288625 46.37524153666909 0 0 0
2849 3 29.839131313486106 9.617961140409804 45.475277516103354 0 0 0
4212 4 27.97054163378931 6.780727740276992 47.24435529167947 0 0 0
4218 4 30.09922211671042 6.339976543193372 45.55157146871538 0 0 0
4219 4 29.628699303794626 9.434128386743584 47.58894324880432 0 0 0
4284 4 27.47411063502168 8.776194756411718 49.030303732606036 0 0 0
4290 4 30.75137845546676 7.6973804839111155 49.12987771499011 0 0 0
2067 3 -5.813147873250571 12.33652196191204 45.07715513581964 0 0 0
2069 2 -4.4766448587165995 13.5595617927915 48.30303803482144 0 0 0
2857 2 -7.697223451017668 13.56098369777305 48.51174418398022 0 0 0
4108 4 -3.731954057544625 14.416165403559832 45.070354684232235 0 0 0
4227 4 -4.7612240435423026 11.765708341985679 46.80712389583669 0 0 0
4228 4 -6.482602752509326 13.74084209172847 46.511387438957016 0 0 0
4302 4 -4.920425582312446 15.606221626294268 49.526434948609634 0 0 0
2148 2 -1.2471821284123958 13.123013864617986 48.47171835835481 0 0 0
2225 1 -0.1291488973877044 14.285424149927515 46.317133348941866 0 0 0
2227 3 -1.7117552315027877 15.212209465085278 45.1298497003016 0 0 0
2229 2 -0.19609167668517813 15.903782671544201 48.205236532785456 0 0 0
4170 4 -0.42250386824678987 11.538318664161999 46.69622299483217 0 0 0
4171 4 -2.232212747527976 14.876819974665807 47.22294133119598 0 0 0
4178 4 0.9998506849192976 13.7468979666027 48.25006617289671 0 0 0
2221 1 1.1106013818350853 11.889047090090415 49.614186168285535 0 0 0
4121 4 4.872641475697797 14.512043826922481 45.08588350507947 0 0 0
2289 1 4.587725976789122 11.586865718104658 46.778349410829954 0 0 0
2291 2 5.015455319166877 13.319995348442122 48.55801958171136 0 0 0
2366 3 5.781251828995738 12.69520265717257 45.555138514934725 0 0 0
2371 1 6.333847852445658 14.448797710552338 46.84504518018406 0 0 0
4177 4 2.251935645390148 11.128151935837668 46.46532193025463 0 0 0
4182 4 3.3492974497274988 13.653824491748438 46.98716021003966 0 0 0
4188 4 4.658904998555553 15.610145261701485 47.97391349978915 0 0 0
4245 4 6.528904928315835 11.675967335025316 49.35995553435249 0 0 0
4183 4 2.1522292847053226 16.02400858119712 48.31145846293906 0 0 0
2296 1 3.0229533901644263 14.235496189459464 49.47887566456771 0 0 0
2372 2 6.746034771384604 15.929479738974143 48.917118179429686 0 0 0
2360 2 9.204531635509031 10.994951042953593 48.20805770668693 0 0 0
2365 1 7.465138991254721 11.857501441949022 46.60725019528599 0 0 0
2368 2 7.970305269832487 13.402335565785432 48.61102599302406 0 0 0
2427 1 10.953177536638693 11.564000609987318 46.4862121631544 0 0 0
2428 2 11.09538987817025 13.328560037176679 48.11855956852501 0 0 0
2432 1 9.238687793792575 14.105394230531784 46.60922755912132 0 0 0
4260 4 10.314279616296778 15.51437574233418 48.111473958046325 0 0 0
2493 2 15.38608320552301 11.074555507131507 48.39946791409387 0 0 0
2500 2 13.652621350843827 13.184951721628543 48.76676628614572 0 0 0
2506 1 12.530624724325744 14.035527288589675 46.356746962986406 0 0 0
2572 1 15.670958435726247 14.016740324033881 45.8894653248662 0 0 0
2574 3 13.97459140454457 15.306811221088068 45.24734273137457 0 0 0
4193 4 13.678492740335848 11.930347683810252 46.80456661335312 0 0 0
4199 4 14.319834561776057 14.812228434291852 47.38200583577914 0 0 0
4266 4 16.074334984140666 13.247740163209851 48.89130556962531 0 0 0
4267 4 14.373273376073804 15.266821268290279 49.848468505270525 0 0 0
2507 2 12.605617869500765 15.97542187676429 48.44074635517549 0 0 0
4198 4 17.163940272467222 12.297448215370746 46.61265163835688 0 0 0
2564 2 18.31234218028803 10.972845156375541 48.27105240376904 0 0 0
2639 1 19.966977967729694 11.538337638521524 46.31172823777681 0 0 0
2641 3 18.57786122235737 12.592558637174442 45.080019748006784 0 0 0
2643 2 20.560888324038444 13.098880280621689 48.11002642734939 0 0 0
2645 1 18.627497594367 14.2640542291625 46.39529665830625 0 0 0
2647 3 17.220757828642228 15.238065356829333 45.00429614713805 0 0 0
2716 3 21.820835766458714 12.529831154457561 45.2365450750415 0 0 0
2722 1 21.88165847886941 14.289574826339358 46.35645686027145 0 0 0
2724 3 20.17695763172051 15.059364450875744 45.083497924329905 0 0 0
4275 4 18.452025203356826 16.026505123178545 49.10468283820515 0 0 0
4274 4 18.67081758988769 13.00486794550626 49.44234979850355 0 0 0
2708 2 25.01926616755326 10.823318259048454 48.029727239586386 0 0 0
4278 4 22.26195390302641 13.146666872363427 49.7161535586182 0 0 0
2714 1 22.604536200658423 11.678165237596483 47.42351478783093 0 0 0
2717 2 23.746468641080273 13.785372609884485 48.03088211741386 0 0 0
2785 2 26.505218616611106 13.23885459724226 48.362464769528636 0 0 0
2791 3 23.287330587792546 15.397688362996167 45.212276530795705 0 0 0
2865 3 26.36797780280007 15.52840084903357 45.3540931193571 0 0 0
4153 4 23.902009462496313 12.286054881491365 45.58867429539051 0 0 0
4220 4 25.398392959336316 14.112696272008177 46.44369598452613 0 0 0
4285 4 23.43923040667687 15.752455810338532 49.3613504554278 0 0 0
4291 4 26.389745487072272 15.637671733642236 48.45216080725859 0 0 0
2783 2 27.9636149631011 10.905604215535256 48.19580383415679 0 0 0
2854 1 29.858783941744534 11.630772794437192 46.6591218496991 0 0 0
2855 3 28.27804554359946 12.580646900137095 45.47957612190509 0 0 0
2863 1 27.95757241243865 14.459565350978275 46.72084858267264 0 0 0
2858 1 29.525731545964632 11.560993688593127 50.00200463110273 0 0 0
2082 3 -9.306388779680416 18.02099092919462 45.111065134711474 0 0 0
2087 1 -9.021984827688293 19.926655252568096 46.297646722751956 0 0 0
2089 3 -10.690760347633633 20.540616732253987 45.144356752708326 0 0 0
2091 2 -8.705212296585984 21.340912833890492 48.287622848098415 0 0 0
2874 2 -10.335882509816843 18.566448575582587 48.314040228761414 0 0 0
4296 4 -10.84762172184663 20.620926668144467 49.28538723335577 0 0 0
4295 4 -8.414556035507292 16.14932302360135 48.76299139391234 0 0 0
2080 1 -7.73668795133678 17.260010488129375 46.08592621662737 0 0 0
2083 2 -7.722825212790334 18.699796848910225 48.18514007376193 0 0 0
2162 1 -5.909442975891949 19.322314551148388 46.71032174359278 0 0 0
2241 3 -4.883052105665314 20.443146462686528 45.18177089192979 0 0 0
4109 4 -5.038640675595962 17.992453051238137 45.00892626228662 0 0 0
4172 4 -3.4957114286229407 17.333290851048755 47.103175416157 0 0 0
4173 4 -6.908748246489146 21.334585588664062 46.50632535265239 0 0 0
4229 4 -6.0919376729214 16.999393701991732 47.615653779674474 0 0 0
4235 4 -4.023361300110738 18.977231069295282 48.977402981363255 0 0 0
2233 1 -1.4459592295094783 16.996109066217095 46.36044915925599 0 0 0
2234 3 -2.8759533206532515 17.90960839844888 45.149115692529946 0 0 0
2236 2 -1.5313629567003417 18.86889362042279 48.13933726508725 0 0 0
2239 1 -3.219193215856377 19.614387543864407 46.419480819829886 0 0 0
2299 1 1.4941811989702707 17.15174232248954 46.4998734270431 0 0 0
2301 3 0.01582101657928625 17.895594995346695 45.2127293185873 0 0 0
2303 1 -0.1654706110080184 19.86891806252012 46.156245544823285 0 0 0
2305 3 -1.9164324752510158 20.597252890281307 45.24924489291234 0 0 0
2384 3 1.595559956585614 20.35493576985237 45.20802123823228 0 0 0
4062 4 1.545654616672655 19.223158522001295 47.272722946171214 0 0 0
4239 4 -0.36206720115731983 17.632479143251608 49.79595966438789 0 0 0
2307 2 -0.08909582812716188 21.49159594667876 48.1079784241504 0 0 0
4128 4 6.444135226239709 16.39560621277508 45.219564143456545 0 0 0
2377 1 4.051892176080093 16.445755677394512 45.89518333799518 0 0 0
2379 3 2.9902937956756386 17.926056776336164 45.125871611574944 0 0 0
2383 1 3.3138696462268644 19.68026921554352 45.92866957015005 0 0 0
4246 4 2.2164226444502066 18.28698184476213 49.60725111428477 0 0 0
4253 4 4.243192475506394 18.183067751818292 47.363334083837444 0 0 0
2440 2 9.499299646781257 18.28277638438605 45.214790574570294 0 0 0
2515 3 10.04098570573854 16.710245087358658 46.48711726060356 0 0 0
2437 1 8.400857862484765 16.97641166826697 47.24126078777251 0 0 0
2449 1 11.890216321144194 18.398256079298687 45.52298952399944 0 0 0
4143 4 12.04947991085233 16.268979257496326 46.138765817774484 0 0 0
2581 3 15.455388149529165 18.11781376355687 45.51994805551632 0 0 0
2523 1 14.130799804048031 19.77948573131531 45.744218872319784 0 0 0
2580 1 14.175108484414608 16.82452252571584 46.60457303199129 0 0 0
2583 2 15.88328118035809 18.349630471983243 47.3796297670149 0 0 0
4200 4 13.260758323497173 18.62207308001187 47.52982578736345 0 0 0
4205 4 16.30361514682655 16.184371638121924 46.63839841961157 0 0 0
2584 1 14.409492101305899 17.535358856074428 49.181857843543874 0 0 0
2662 1 16.42739123699167 20.77806746487937 48.21434113099281 0 0 0
4270 4 15.830348691775917 21.348450446142365 46.04489074127393 0 0 0
2586 1 16.994123218555153 19.55788476100411 45.445355625490045 0 0 0
4276 4 16.975431499333432 18.289949539894685 49.49148074975966 0 0 0
2726 2 21.563914225387222 16.192329094295015 47.98542817059197 0 0 0
2661 2 18.91891253172419 21.30661547015263 48.43267726972096 0 0 0
2729 2 19.405374387352314 18.317994930279788 49.08237858052461 0 0 0
4155 4 19.44141905748173 20.591434363377992 45.48409287304167 0 0 0
4208 4 18.08388394635446 19.373219663607614 47.38989807670723 0 0 0
4213 4 20.770493186097543 18.36439597550263 47.193332112068134 0 0 0
2802 1 21.42554543563346 19.71703039966065 49.732964121156144 0 0 0
2795 1 22.644055217727473 17.38943338290367 46.00755640142729 0 0 0
2799 1 22.320246200880945 19.944266109223822 47.04139815926292 0 0 0
2871 1 26.585734137290643 17.073519279213794 46.43161556966821 0 0 0
2872 3 24.8352398129503 18.01479147585536 45.421500486799395 0 0 0
2877 1 25.122822287631426 19.632925002576332 46.73057642480537 0 0 0
2879 3 23.559749998945314 20.886538718723532 45.791551573608245 0 0 0
4221 4 24.442475810523355 16.402108899563665 46.84535210980408 0 0 0
4292 4 24.721172523492086 18.180609669296917 49.009384757169784 0 0 0
4293 4 23.85472402678301 20.776317177000262 48.49736505936953 0 0 0
2886 2 -14.200629781555843 24.623227883469372 48.44624171319952 1 0 0
4223 4 -13.530848994945673 24.700852113870415 46.162157535263674 0 0 0
2098 3 -12.292212246481242 23.178179528025556 45.19225005783782 0 0 0
2171 1 -9.45479915099024 25.64161578794711 47.02432309936264 0 0 0
2173 3 -11.111111904052851 26.180815728508325 45.63418925021037 0 0 0
4230 4 -10.922470678405434 21.575081912900092 46.90634961315495 0 0 0
4231 4 -11.123583971510872 24.10047174187205 46.64272126309944 0 0 0
4232 4 -11.640224402444106 26.258922707033875 47.79179956196764 0 0 0
4297 4 -12.370110830857081 23.2004259850656 48.861589750978894 0 0 0
4304 4 -9.822174246081708 23.185330601818645 49.41029834960123 0 0 0
2175 1 -9.437303386761663 25.43554959618051 49.68578596016639 0 0 0
2104 1 -12.4024881844557 25.45591761773029 49.854964064621726 0 0 0
2163 2 -5.9408035746828 21.688973799870208 48.551054413003605 0 0 0
2247 1 -4.631992733470044 22.28897380063401 46.474767242429536 0 0 0
2253 3 -7.876993987478674 26.143989192530253 45.428200777794125 0 0 0
2320 3 -4.487120059112767 25.715221503632787 45.39877873605778 0 0 0
4114 4 -6.3360230684038354 24.60109126937447 45.08548792569098 0 0 0
4174 4 -8.030743519216609 23.66852315530063 47.669237640092675 0 0 0
4179 4 -5.475413380051748 23.948445993189374 47.91629254820826 0 0 0
4240 4 -4.477298409226037 25.566327924512937 49.628314638292714 0 0 0
2256 1 -6.748032298282562 25.04381794159967 49.698667114757704 0 0 0
2249 1 -4.436349608182743 23.11414677565037 49.885478757356246 0 0 0
2242 2 -3.0404221166171794 21.616518659013334 48.33916646388205 0 0 0
2312 1 -1.6305752130144882 22.537065044691435 46.38254867318102 0 0 0
2314 3 -3.2428504583060853 22.921474578211544 45.12764286776039 0 0 0
2316 2 -1.2727841840969276 24.15347147932212 48.26585622089573 0 0 0
4184 4 -3.1903951459910473 24.325607229980115 46.70434027563464 0 0 0
4189 4 -0.7097314205090477 26.18330052989801 46.821175085921745 0 0 0
4248 4 -1.8682333457525395 26.1106012546773 49.4469298219997 0 0 0
2389 2 1.2186370024933009 24.321892629057977 48.005832940662906 0 0 0
2388 1 1.4886094118889215 22.344148369754446 46.49683096185697 0 0 0
4129 4 1.039970971300642 24.68058111060277 45.55918522516248 0 0 0
2390 1 1.2676982970038022 22.592920413884592 49.81596600221504 0 0 0
4341 4 16.59700126136267 24.2747020920556 46.14682080182545 0 0 0
2739 1 17.818270600706363 21.97705069261236 46.352809762864815 0 0 0
2801 2 21.724461555080413 21.808308216770076 48.50044409471334 0 0 0
2805 1 20.393291657156638 22.431050994421504 46.58083673921811 0 0 0
2807 3 19.060297008176057 23.018779728937208 45.24431992472239 0 0 0
2809 2 20.163917061168384 24.28662248523107 48.32173019164804 0 0 0
2812 1 18.923718174223172 24.857912438279246 45.93435569052703 0 0 0
4224 4 21.41421138097744 25.594320931001082 46.85234116454593 0 0 0
2884 3 22.17872936150105 23.288027913390273 45.71158440602276 0 0 0
2883 1 23.73970673009628 22.529556359723305 46.90794606680642 0 0 0
2899 2 -16.981883607344425 29.784167425274795 48.24563974912677 0 0 0
4168 4 -16.320062984685073 29.81538936110874 46.02333181156488 0 0 0
4233 4 -14.225484808648027 29.151928593243554 47.65262005020693 0 0 0
2907 2 -18.423457745741075 32.28748574145552 48.022390729646254 1 0 0
2891 2 -15.534839395387706 27.454722666536593 48.69583783466019 1 0 0
2114 1 -15.221318634762419 30.19027631212338 49.84576809736949 0 0 0
4113 4 -13.520372673210561 31.955411841603592 45.7187863478164 0 0 0
4167 4 -13.13744770006035 27.250184777085458 45.70950067431604 0 0 0
2174 2 -9.752535772961169 27.698403926727533 48.481121290051256 0 0 0
2179 1 -11.079491083027369 28.096159307371458 46.359885313529134 0 0 0
2186 1 -12.119793400799788 30.695229050742338 46.86409951983474 0 0 0
2260 3 -9.31767493889422 28.80312070210237 45.16447783869751 0 0 0
2265 1 -9.273074102118105 30.604180690699508 46.25473066528123 0 0 0
2267 3 -11.04714179688768 31.368260593778448 45.15324557070662 0 0 0
4236 4 -10.917825355767794 30.46232898090482 48.863182108804885 0 0 0
4305 4 -12.314871938647766 28.198068511752147 49.19149054742044 0 0 0
4185 4 -4.157193121212753 27.119578932215436 47.01114158869291 0 0 0
2255 2 -6.060695106603324 27.03552886655968 48.389908756913776 0 0 0
2258 1 -7.755091122691061 27.93570611585061 46.508780303067404 0 0 0
2262 2 -7.548847852715918 29.86108267126156 48.094540907090305 0 0 0
2326 3 -6.124893945215236 28.877802352347942 45.08082867934677 0 0 0
2328 2 -4.594905751334869 29.649683428933912 47.975717928056206 0 0 0
4125 4 -4.144719588015649 29.584200974610212 45.66810228627819 0 0 0
4186 4 -5.978612828071951 31.51139631711972 47.209082933582685 0 0 0
4249 4 -3.754433504451436 28.134745336757067 49.51251836018493 0 0 0
2332 1 -5.8925658171677 30.9826509008801 49.5468580128364 0 0 0
4241 4 -8.350354814952665 31.19916337744986 49.85987008605367 0 0 0
2263 1 -7.6909831137205735 28.155025125418625 49.901467736785825 0 0 0
2401 2 -3.341415918409849 32.07413787267207 48.15381181037406 0 0 0
2464 1 0.930537759114852 27.79157577943092 47.13276346369719 0 0 0
2465 3 -0.24679936922439794 27.975082304067815 45.5763991119098 0 0 0
2471 1 0.10239717637277224 30.48496812010644 46.94149605173548 0 0 0
4190 4 -2.114550565445839 29.812799293574056 47.638546954824065 0 0 0
4255 4 -0.40777036205484585 28.406930079168 48.88463553335807 0 0 0
2538 3 1.5146125618224104 31.0758315683384 45.42954906654533 0 0 0
2402 1 -2.992342251887166 30.33641365487925 49.82166149347349 0 0 0
2474 1 -0.18939395594063768 30.522892029288794 49.87525614957784 0 0 0
2468 1 1.492350004934874 27.747155039872222 49.99462524278321 0 0 0
4139 4 1.7266010075611966 27.32455007884472 45.14420482272963 0 0 0
2467 2 1.7456541526251605 29.71477275462837 48.499368046570034 0 0 0
2536 1 3.3202783150667337 29.669224806846408 46.38471814921125 0 0 0
2611 3 4.457906755450619 31.871519637895833 45.84255554160801 0 0 0
4196 4 2.1940374016916486 31.803239779404915 47.29297766816921 0 0 0
4263 4 3.326007834896604 31.102264973263292 49.55733049255336 0 0 0
2533 1 4.659423584380082 31.528892820571983 47.80145630185871 0 0 0
4211 4 6.459745455110589 31.86047328166742 46.302652198238235 0 0 0
4150 4 8.66067972733823 31.72048168699831 45.67752110765561 0 0 0
2613 1 8.053633855960218 30.811196758489288 47.71582267129651 0 0 0
2691 1 10.645528353014715 31.267353160373414 46.41163723275648 0 0 0
2682 2 12.11682229895706 32.241834959449484 48.033331116632255 0 0 0
2819 3 15.447953454682011 29.242394140388203 45.03567200620822 0 0 0
4281 4 15.324901381800348 28.579240899258103 47.24155364280513 0 0 0
2824 1 15.848803888479146 30.748995088876896 46.136198526543204 0 0 0
4288 4 14.882864425568563 31.031697477386707 48.33775952663872 0 0 0
2751 1 13.405092076762553 30.731354864052495 46.56007830420868 0 0 0
4286 4 18.769733814511323 28.047038421150948 48.20927200569967 0 0 0
2817 1 17.25085332421727 27.992058627760134 46.52701182602556 0 0 0
2821 2 17.176277126236876 29.900044040804953 48.24866509837965 0 0 0
2896 1 20.346570943226848 27.713731861645222 46.63684461060403 0 0 0
2898 3 18.73841429744825 28.490932305737644 45.28607773322699 0 0 0
2903 1 18.729773381272928 30.38881546507855 46.34710938067595 0 0 0
2905 3 17.357386591699154 31.387859416368965 44.99996127758927 0 0 0
2908 1 18.81838737749157 30.747920716492185 49.97378725793824 0 0 0
2120 1 4.363029537550388 1.0530776564384683 50.17699938996451 0 0 0
2128 1 3.6529195452282224 4.330597008325288 50.634120413980924 0 0 0
2204 1 6.296015381288244 3.5675223318698244 50.04206204543715 0 0 0
2278 1 9.043987383613254 3.754451369724379 50.16435121203535 0 0 0
2340 1 14.126011284967435 0.8780441404727899 50.10683865399791 0 0 0
4251 4 12.991878094529007 3.6784289423760517 50.02874279387391 0 0 0
2483 1 18.47502540640287 3.774404662741902 50.27407290946671 0 0 0
2622 1 26.889841366370426 0.9129998548191679 50.15021603285592 0 0 0
2698 1 27.959738510925707 3.5681134674202757 50.14165477190128 0 0 0
2144 1 0.05481458692383345 8.848735733835586 50.21844930917168 0 0 0
4301 4 -1.806844930972141 7.248366358312482 50.51985686018257 0 0 0
2137 1 2.0200749657996075 6.630510221487617 50.36805708260602 0 0 0
4237 4 6.4530622055924045 6.0852089344712255 50.17164696189402 0 0 0
4252 4 8.780988311354662 10.648304900627814 50.46464983950813 0 0 0
2559 1 20.186813513510433 6.482008453495357 50.051856327916745 0 0 0
4272 4 21.566371018362727 8.36327579518256 50.036248469226656 0 0 0
2852 1 31.55449331216905 9.359074570422653 50.53515269232855 0 0 0
2844 1 32.63170659110578 6.42387245992839 50.09115357679528 0 0 0
2070 1 -4.435957774926415 11.785355169186879 50.059556965532316 0 0 0
2149 1 -1.470028615373943 11.484279740960329 50.29591138273777 0 0 0
2155 1 -2.8781557533750366 14.28495311823395 50.007905429941495 0 0 0
2230 1 -0.003776526919216039 14.44475247894089 50.22387348112263 0 0 0
2292 1 4.2148351857036825 11.588557065126682 50.011782010464465 0 0 0
2373 1 6.282368285037961 14.051097165562217 50.425640024208434 0 0 0
4258 4 8.659502236457637 15.120818912529716 50.05879746116432 0 0 0
4257 4 9.973348430607905 12.884888327002365 50.01835566654181 0 0 0
2501 1 13.776522356381385 11.390544914783085 50.338305965707164 0 0 0
2508 1 12.065413624038834 14.309468522154013 50.189306959227494 0 0 0
2786 1 26.43316687008207 11.402349787449964 50.08561047632078 0 0 0
2793 1 25.119896928947444 14.34365852245469 50.06185086379739 0 0 0
2867 1 27.841966547485924 14.41385289741215 50.052547581140686 0 0 0
2092 1 -8.900547075261082 19.587171671824994 50.118250415742004 0 0 0
2164 1 -6.096732114041315 20.187077618625665 50.33987398095677 0 0 0
4303 4 -6.5742978258388245 17.99131783488422 50.049396944107045 0 0 0
4247 4 0.08055229432160615 20.2535524502925 50.01052025731727 0 0 0
2380 1 4.52907082628313 16.52195217094088 50.051316536285256 0 0 0
2730 1 20.63409476767154 16.56318545702598 50.216078729775916 0 0 0
2736 1 18.29880545106209 20.042187255602116 50.40835753846293 0 0 0
2875 1 26.63587454173883 17.074481785339593 50.23662794606298 0 0 0
2169 1 -7.651962969673861 22.64713042639478 50.08136825394606 0 0 0
2317 1 -1.3922974916972617 22.410763166572714 50.04389986333759 0 0 0
2393 1 0.18218765300230544 25.223264128246605 50.037813438158366 0 0 0
2810 1 20.09824924544531 22.58929261380523 50.181446377377526 0 0 0
2892 1 21.59215745053707 25.398003521308492 50.203084919630996 0 0 0
2887 1 23.129111462579125 22.705219464280052 50.179024984690756 0 0 0
2108 1 -14.032792109313991 27.710270553348852 50.62299936390816 0 0 0
2181 1 -10.740238511114192 27.68249006709235 50.75009655869551 0 0 0
2826 1 16.100723731215876 30.39828668943035 50.40560484312157 0 0 0
4287 4 17.709704084286997 28.694266730877565 50.30901108534751 0 0 0
2900 1 20.03282810621325 28.226670950095922 50.259842669314764 0 0 0

Velocities

2 0 0 0
3 0 0 0
9 0 0 0
90 0 0 0
2969 0 0 0
3032 0 0 0
81 0 0 0
82 0 0 0
2909 0 0 0
2910 0 0 0
2914 0 0 0
2975 0 0 0
170 0 0 0
250 0 0 0
251 0 0 0
255 0 0 0
256 0 0 0
257 0 0 0
351 0 0 0
356 0 0 0
2921 0 0 0
341 0 0 0
342 0 0 0
352 0 0 0
444 0 0 0
445 0 0 0
516 0 0 0
2924 0 0 0
2933 0 0 0
2992 0 0 0
2998 0 0 0
3003 0 0 0
436 0 0 0
511 0 0 0
517 0 0 0
596 0 0 0
603 0 0 0
604 0 0 0
2934 0 0 0
2939 0 0 0
3006 0 0 0
597 0 0 0
693 0 0 0
698 0 0 0
699 0 0 0
777 0 0 0
2948 0 0 0
3010 0 0 0
3018 0 0 0
3019 0 0 0
766 0 0 0
849 0 0 0
850 0 0 0
859 0 0 0
2953 0 0 0
2954 0 0 0
2955 0 0 0
2958 0 0 0
3022 0 0 0
3024 0 0 0
851 0 0 0
952 0 0 0
953 0 0 0
2963 0 0 0
24 0 0 0
3033 0 0 0
16 0 0 0
17 0 0 0
25 0 0 0
96 0 0 0
97 0 0 0
104 0 0 0
105 0 0 0
106 0 0 0
189 0 0 0
184 0 0 0
190 0 0 0
260 0 0 0
261 0 0 0
269 0 0 0
270 0 0 0
2915 0 0 0
2916 0 0 0
2983 0 0 0
2989 0 0 0
262 0 0 0
357 0 0 0
358 0 0 0
364 0 0 0
2925 0 0 0
2926 0 0 0
2993 0 0 0
453 0 0 0
454 0 0 0
523 0 0 0
530 0 0 0
537 0 0 0
626 0 0 0
2935 0 0 0
2999 0 0 0
524 0 0 0
610 0 0 0
611 0 0 0
617 0 0 0
618 0 0 0
708 0 0 0
715 0 0 0
792 0 0 0
2941 0 0 0
2942 0 0 0
778 0 0 0
783 0 0 0
784 0 0 0
785 0 0 0
875 0 0 0
876 0 0 0
882 0 0 0
2949 0 0 0
867 0 0 0
868 0 0 0
869 0 0 0
877 0 0 0
963 0 0 0
970 0 0 0
971 0 0 0
972 0 0 0
2964 0 0 0
23 0 0 0
964 0 0 0
119 0 0 0
120 0 0 0
127 0 0 0
2970 0 0 0
2971 0 0 0
111 0 0 0
112 0 0 0
113 0 0 0
121 0 0 0
203 0 0 0
285 0 0 0
2917 0 0 0
2976 0 0 0
2985 0 0 0
277 0 0 0
286 0 0 0
372 0 0 0
373 0 0 0
380 0 0 0
381 0 0 0
389 0 0 0
475 0 0 0
2984 0 0 0
374 0 0 0
466 0 0 0
470 0 0 0
545 0 0 0
550 0 0 0
2927 0 0 0
2928 0 0 0
2937 0 0 0
538 0 0 0
627 0 0 0
637 0 0 0
638 0 0 0
639 0 0 0
644 0 0 0
2936 0 0 0
3007 0 0 0
628 0 0 0
725 0 0 0
901 0 0 0
2943 0 0 0
2950 0 0 0
3011 0 0 0
3012 0 0 0
3020 0 0 0
883 0 0 0
884 0 0 0
892 0 0 0
893 0 0 0
984 0 0 0
985 0 0 0
2956 0 0 0
38 0 0 0
986 0 0 0
2965 0 0 0
3025 0 0 0
3035 0 0 0
39 0 0 0
44 0 0 0
2972 0 0 0
40 0 0 0
128 0 0 0
135 0 0 0
136 0 0 0
2911 0 0 0
2918 0 0 0
2977 0 0 0
2978 0 0 0
210 0 0 0
294 0 0 0
295 0 0 0
299 0 0 0
300 0 0 0
396 0 0 0
406 0 0 0
2986 0 0 0
2987 0 0 0
390 0 0 0
397 0 0 0
398 0 0 0
486 0 0 0
2929 0 0 0
2930 0 0 0
556 0 0 0
557 0 0 0
558 0 0 0
654 0 0 0
655 0 0 0
2938 0 0 0
645 0 0 0
646 0 0 0
656 0 0 0
728 0 0 0
818 0 0 0
2944 0 0 0
2951 0 0 0
3013 0 0 0
3014 0 0 0
729 0 0 0
805 0 0 0
806 0 0 0
807 0 0 0
902 0 0 0
912 0 0 0
913 0 0 0
914 0 0 0
922 0 0 0
2957 0 0 0
3021 0 0 0
43 0 0 0
903 0 0 0
991 0 0 0
2959 0 0 0
2966 0 0 0
3026 0 0 0
3027 0 0 0
60 0 0 0
53 0 0 0
54 0 0 0
61 0 0 0
146 0 0 0
150 0 0 0
151 0 0 0
2913 0 0 0
2973 0 0 0
2980 0 0 0
222 0 0 0
223 0 0 0
224 0 0 0
229 0 0 0
315 0 0 0
316 0 0 0
2912 0 0 0
2920 0 0 0
2979 0 0 0
2991 0 0 0
308 0 0 0
309 0 0 0
407 0 0 0
497 0 0 0
2922 0 0 0
2990 0 0 0
2995 0 0 0
408 0 0 0
562 0 0 0
563 0 0 0
573 0 0 0
574 0 0 0
575 0 0 0
2931 0 0 0
2932 0 0 0
3001 0 0 0
564 0 0 0
659 0 0 0
660 0 0 0
667 0 0 0
2945 0 0 0
3008 0 0 0
3009 0 0 0
742 0 0 0
743 0 0 0
750 0 0 0
819 0 0 0
826 0 0 0
827 0 0 0
828 0 0 0
2952 0 0 0
3015 0 0 0
3016 0 0 0
923 0 0 0
924 0 0 0
930 0 0 0
931 0 0 0
932 0 0 0
999 0 0 0
1000 0 0 0
2960 0 0 0
2967 0 0 0
3028 0 0 0
1001 0 0 0
71 0 0 0
75 0 0 0
76 0 0 0
80 0 0 0
163 0 0 0
2974 0 0 0
3036 0 0 0
3037 0 0 0
156 0 0 0
157 0 0 0
158 0 0 0
164 0 0 0
236 0 0 0
2919 0 0 0
2981 0 0 0
2982 0 0 0
237 0 0 0
325 0 0 0
326 0 0 0
327 0 0 0
334 0 0 0
340 0 0 0
431 0 0 0
432 0 0 0
2997 0 0 0
424 0 0 0
425 0 0 0
433 0 0 0
498 0 0 0
504 0 0 0
505 0 0 0
587 0 0 0
2923 0 0 0
3002 0 0 0
499 0 0 0
580 0 0 0
581 0 0 0
582 0 0 0
588 0 0 0
589 0 0 0
675 0 0 0
681 0 0 0
682 0 0 0
692 0 0 0
2940 0 0 0
3005 0 0 0
756 0 0 0
760 0 0 0
765 0 0 0
841 0 0 0
842 0 0 0
2946 0 0 0
2947 0 0 0
835 0 0 0
836 0 0 0
837 0 0 0
843 0 0 0
939 0 0 0
946 0 0 0
2962 0 0 0
3023 0 0 0
3031 0 0 0
1 0 0 0
74 0 0 0
1015 0 0 0
2961 0 0 0
2968 0 0 0
3030 0 0 0
4 0 0 0
5 0 0 0
12 0 0 0
91 0 0 0
93 -3.7701144110884424 4.736736411857459 -8.326116962392197
3105 0 0 0
3166 -0.915964391287393 0.23430930169440412 0.27569887577661856
92 3.3011980263475196 3.039393450708854 -0.9553774045512762
83 0 0 0
85 0 0 0
94 0 0 0
171 0 0 0
173 2.7299665527987482 -0.7884908296245013 0.10150317201871394
174 -4.760162168257438 5.586177308170155 0.9667946891639071
177 0 0 0
180 4.015685614935488 7.114458376162262 0.21350548677570957
181 0 0 0
3110 0 0 0
3111 0.39222876579977445 -1.0861096080999555 1.1187901751762972
179 -1.1602535584928402 2.2321277344700126 0.5522243754950144
175 0 0 0
252 0 0 0
254 0 0 0
258 0 0 0
3044 0 0 0
3049 0 0 0
3121 1.333971216099859 -0.6230679735216367 -0.4263748350951031
3122 -2.5072792344107877 1.4089880678280284 -0.46282937267595564
3123 -2.5478912285682593 1.4219219770094418 1.8087712458641332
343 0 0 0
345 2.544326009292424 -3.57126053125741 -3.9010949156772217
346 0 0 0
438 -0.9439067064326006 -0.08412212739669907 -1.5295216426845084
439 -2.7232678521562934 3.0353313500036774 5.994211784045187
447 -1.0686480970087726 -0.6866686323785808 -1.9532362945834947
449 0 0 0
507 -5.932879707058485 3.9450311468689674 -2.263160327863508
519 -1.2383197675551034 -0.118604650476295 1.1227296865982817
435 0.06481670647333114 -3.8920702922404766 -0.8760906972908282
513 -6.4548327051284025 -0.2953123426272007 4.358797407732681
514 6.61316503510037 6.316774391928841 3.375976675002125
515 0 0 0
518 0 0 0
520 0 0 0
599 -2.2327688737721996 -0.3221196668836093 1.445752402147717
600 -4.68587143375455 -6.492023035885275 5.5824472363195845
605 0 0 0
607 0 0 0
702 -0.750715345834413 -0.3652648359167832 -1.1700990337186468
3063 0 0 0
3137 0.057917755790288454 -1.3889908493246317 0.504514269314831
591 1.9168457708763618 -2.4407575334541676 -0.1613195933603803
694 0.01754362954445733 -0.501298967485649 -4.3860823910409135
700 0 0 0
703 6.8176901700765145 3.04940327323921 -5.139952321721464
768 0.4722062642774605 -3.3665675998733584 1.797340737927813
774 -4.202703574156709 -5.828145973762611 -4.649823714191785
3074 0 0 0
3075 0 0 0
3082 0 0 0
767 0 0 0
769 0 0 0
775 0 0 0
852 0 0 0
854 -1.9672446625416822 -2.2348347398417276 -0.4855010008261166
855 2.0116804362841734 -0.35452821815327334 4.294281747847556
862 3.2265566829979457 -2.3855676611270966 0.3783079966004643
863 0 0 0
949 0 0 0
3150 -2.830710588948698 0.31083477482351346 1.0171923011087116
856 0 0 0
954 0 0 0
955 -1.665475240364808 -4.010709138653668 0.05622567979849878
959 -4.415849604375426 -6.114068967549826 4.159688382686092
960 0 0 0
1024 -2.7610435020523862 -1.9210791478386204 0.8796054400828629
3099 0 0 0
3162 -1.872410070908261 1.0854962657012037 -1.1119289578831404
26 0 0 0
28 -5.732663820968084 -9.112314824677606 -4.04516762535331
3101 0 0 0
11 -3.264047773685744 -1.332619667818348 -1.0254633980000514
98 0 0 0
100 0 0 0
107 0 0 0
193 -3.009579758106131 -3.9142808105153026 4.333024338933644
3039 0 0 0
3100 0 0 0
3106 0 0 0
3112 0.09798504257826508 0.7275996347276454 -2.585925344801764
3167 -0.08590713455137683 0.9734638977864198 1.2031376324942633
185 0 0 0
187 -8.838770145845945 1.3888535364717525 0.01916162784460307
188 0 0 0
264 0.35500797099260717 -6.101667500450843 4.32099051896307
272 -0.35329200920426085 -1.5724848457996634 1.1542192693064155
273 0.7107130715994423 -1.031853889279258 -1.2050581215048028
366 0.44305246145456345 0.4818173594322796 1.4700543497870573
3038 0 0 0
3045 0 0 0
3046 0 0 0
186 3.399805911384004 0.9431989209450201 1.6475451333036348
360 6.764262450692767 1.6219219077549643 -2.7444587399681186
367 1.460531553353884 -0.17202863980101127 2.4002071439015946
368 0 0 0
455 1.3603299031185025 1.579495038271813 -1.8248851779645276
459 0 0 0
462 -1.3818606745453834 -2.596695817068599 -1.8136208469316735
2994 0 0 0
3050 0 0 0
3051 0 0 0
461 -0.6213294262443042 -3.009473361542052 -1.208162340805141
456 -2.80267884177412 -3.1303229596133217 0.9675080763087551
457 0 0 0
463 0 0 0
525 1.530296794612783 4.047123664297409 1.5017064163838643
526 -2.621879781114886 2.4668250290534455 -4.253607591168766
531 0 0 0
533 -0.22610316988740287 2.7007002329114 0.2800506764595308
534 -0.8212582348214145 5.11128559333194 -3.0973346363264227
535 0 0 0
3000 0 0 0
3004 0 0 0
3052 0 0 0
621 -0.30987159012793497 0.4161905783414184 -0.29803905228523386
527 0 0 0
612 -0.2735875705726145 -0.0756483274386762 2.872920460303457
619 0 0 0
622 3.9707440865761656 -2.712249674023942 3.409803345633931
716 0 0 0
719 0.41590880216179615 6.469014108932448 1.5179443982782244
788 -1.8653742279669425 -1.08374900642129 0.29274171472103777
3068 0 0 0
3069 0 0 0
3141 0.2798719727355069 1.202582931449488 -0.8034032077616496
773 0.5040838591653624 -2.0292892330868937 4.424910594138442
710 0 0 0
779 0 0 0
780 0 0 0
786 0 0 0
789 0.9523627203793354 -0.7275499667492386 -5.579441845963895
3076 0 0 0
3083 0 0 0
3151 4.0011945617280755 2.6961664407405546 -2.7745582600228897
878 0.4654522514601011 -1.9060629455834943 0.6067897873214745
958 -1.5595103292731212 0.8240622698820501 -1.536465315272698
27 1.9409746218234336 1.0240466978974199 0.3163564387186048
861 -0.7993032344789847 -0.3733261700069951 1.3121442904026708
870 0 0 0
872 0 0 0
965 0 0 0
967 2.9630825473901647 9.347724004634404 4.174721654822073
974 0 0 0
3087 0 0 0
3156 -2.7181002651422945 1.6631037462326974 -1.118266437525304
3157 -2.3825463867296244 1.6133842129314189 1.4288377729025994
3093 0 0 0
31 4.69773770953728 0.4260153693124571 -1.3728703593051674
32 0 0 0
35 0 0 0
36 0 0 0
115 -2.0229637877753506 -1.537870401467496 -2.726328772209975
122 0 0 0
3034 0 0 0
3102 0 0 0
3114 -2.3813432747443084 1.0958777290127866 1.4841813052351276
192 3.5558157046770154 -0.4412780004038781 0.514028672329757
108 0.41606373860486956 -3.7355470471299523 0.22383427397593705
114 0 0 0
116 -5.680835562281581 0.7149522494933181 -0.2308168428223311
117 0 0 0
123 0 0 0
198 -0.052452150087714894 0.6291282372638705 -1.5202866273264413
205 -0.44523441564960775 -0.28860793971536014 -2.004375499046601
206 0 0 0
279 1.9782398051345087 -1.621574035114777 1.0139918912545278
287 0 0 0
290 3.695652622334056 -1.9486666434853992 3.1851720818614533
3040 0 0 0
199 0.7605523460221628 1.2282318965042314 9.284554611996999
280 -4.894646219248449 -1.123354432187144 -0.2730378208256016
291 0 0 0
375 0 0 0
376 -4.360536948755465 -1.3558187889255484 -6.454002748942244
382 0 0 0
383 1.087924665797341 0.5281638896146768 2.5099513309183195
384 7.363226608228074 10.232017326441955 6.94870971841533
3047 0 0 0
3054 0 0 0
377 0 0 0
467 0 0 0
469 0 0 0
471 0 0 0
472 0 0 0
546 0 0 0
3053 0 0 0
3125 -1.4499255065243921 -1.3763904625818786 1.38542745590967
3131 -1.055389676620885 -0.20005476045902026 0.17514064600155138
3132 0.6829237888650033 -0.20454967089082246 0.31696660845758234
539 0 0 0
540 0 0 0
629 0 0 0
631 -6.675982303320758 -10.377508445621357 1.2515318406509448
3064 0 0 0
3065 0 0 0
3070 0 0 0
3071 0 0 0
3142 -0.38070707537308857 -1.1650576710166505 -0.6689250137391121
718 -0.43931940846315176 2.7562057225117877 2.4365206428976283
632 0 0 0
720 4.436869370996521 -2.5671712975961967 2.2344750418440373
721 0 0 0
726 0 0 0
793 0 0 0
795 -0.3959406247210008 1.2493845027102544 -0.5908165710551372
801 5.597800081882058 8.459632509814732 3.9060186601313935
802 0 0 0
896 -0.9194756559988305 2.092507676055555 1.9273790341806738
3077 0 0 0
3147 -2.0637551913333083 -0.07365759888518426 0.057066057537153846
796 0 0 0
885 0 0 0
887 -0.7272023012237279 3.8740930639949203 -3.2035778235793675
888 -2.2296837783013066 -4.994711181206664 -6.411332065924204
894 0 0 0
897 0 0 0
979 1.206982413425169 -1.4788615218962047 2.2885172810432692
987 0 0 0
3088 0 0 0
3089 0 0 0
3095 0 0 0
3152 0.9367363450689408 -2.4817173243840402 0.4509135019459683
30 -4.665988443450198 -3.799267857648019 -0.08899920160874943
980 -4.022474258964961 -2.26427739639248 -3.4457340518116286
989 0 0 0
3094 0 0 0
41 0 0 0
45 0 0 0
48 -4.44798840337517 0.9219858433190291 -2.7154539814407017
3103 0 0 0
139 -0.8363408310883239 0.4009882464919282 2.705713192569023
129 0 0 0
130 -1.7654256565928597 2.7488821743511065 -0.16428905245052186
137 0 0 0
140 6.811769345944608 -2.2369912241801337 -3.3558419938720694
141 0 0 0
218 -2.0826507723459726 4.050859661014451 -4.7431369611289504
3041 0 0 0
3107 0 0 0
217 -1.006595671834199 1.427018576730585 -0.9235159426180418
3115 1.1377153964631277 3.2693754299331075 2.75742879396951
289 0.7717619490268022 0.21934111516590626 0.6224067799769747
296 -1.1561519509710054 2.5984683722813435 -2.5943265014954275
297 2.133681513250553 -5.584405987626202 1.5102504337165612
298 0 0 0
304 0 0 0
393 -0.9846221286481153 2.0562951553090043 0.12220441307483543
399 0 0 0
3048 0 0 0
3118 3.701485474749059 2.7361478356468774 -0.5708168523949512
303 0.69290179705722 -4.1827971455506106 1.1916802743651036
391 0 0 0
401 -4.080611155451667 2.146736243102845 6.518995001014907
402 0 0 0
481 2.097933822795442 3.792143994738662 -0.5160674140806059
3055 0 0 0
3059 0 0 0
3126 0.25776294302752095 0.9256981691954355 -0.5581571049315525
3127 -1.5520965578662167 -1.7478333370194032 -1.0405324439025587
547 3.8600727180440573 -2.5898574693218452 -4.14777254179114
551 0 0 0
553 -4.632263185284964 3.278247260229225 -4.474962956643105
554 0 0 0
559 0 0 0
560 0 0 0
649 -0.08041915632820504 -1.213358434099235 1.1110958332457967
3058 0 0 0
3066 0 0 0
3072 0 0 0
3133 -1.1460619358805626 -0.03244036195993701 -1.5409961204871492
647 0 0 0
650 0.10116788480301792 4.74868080980712 -5.476013597258713
658 0 0 0
731 -1.9242300508079115 1.9496573023476858 -2.3538230250429275
736 0 0 0
740 0 0 0
3078 0 0 0
3143 -1.6597944317458717 -0.437052392623047 1.2280519496762627
732 3.1257029780862013 9.31744535324826 4.589684356567287
739 0.6376109858332882 -8.898465943474786 -8.397393015394726
800 -1.8926003019565614 -1.0184953889961228 3.3419595671228937
809 0.881272338222431 -1.1276960766713688 -6.8042186543279515
810 -1.2331078698961724 7.584110564354928 -3.715785333304057
811 0 0 0
817 0 0 0
904 0 0 0
906 0.021876295326344018 -3.4867994523891723 -1.4273832405306712
907 -0.5751566779771429 -8.642324860378249 -2.0918517983161213
915 0 0 0
916 -0.7985891920651734 -0.2099020028421695 -0.42197910930649796
917 -7.276572481997865 6.298829065558093 2.8840894344725543
918 0 0 0
995 -2.344270069474672 -3.601769050135983 -2.0327196488792634
816 -2.870822661574723 -2.0893292511883517 0.9397300494223318
3163 1.231458444941606 -1.543415674384109 -0.07723395334596075
3090 0 0 0
3096 0 0 0
3158 -0.8004036843177905 -0.9768271358270968 -0.7961414000085723
3164 1.4635824108638467 -3.352661808892133 2.4620270837015736
3159 0.6199580699075674 1.1631141540318104 -1.543753544515231
62 0 0 0
65 -1.636753258632254 1.5740686155828003 1.0862063285500558
47 -3.622565517468023 -2.1934111654225807 0.412943175105019
55 0 0 0
58 -3.786091590408521 -8.46861756812192 -4.428892532424537
59 0 0 0
66 0 0 0
147 0 0 0
152 0 0 0
3108 0 0 0
3116 -1.5729326697206236 0.8422368296456666 0.9757235805309704
148 0 0 0
225 0 0 0
226 0 0 0
231 0 0 0
311 -1.3164054267556864 -0.3711041115524705 -0.2103221949919056
317 0 0 0
320 -1.140805028905911 2.7786118821759884 -2.6664083037138027
3042 0 0 0
3119 0.32045826496987223 -1.3302796069024856 -0.6110060283994336
3120 3.06846203978093 1.066388054888148 0.1428448367152137
319 0.3080236218426479 0.1552098366489788 2.83156501689423
302 3.350771285654163 -2.4749879167980326 -3.097695562154699
400 -2.602784926351363 0.2805159232953594 2.2550926133430718
310 0 0 0
312 0 0 0
321 0 0 0
409 0 0 0
411 0.955314213259109 -0.7160686982852119 3.250866306071763
412 5.26118061888879 -1.4445420180571646 0.8268152863955834
413 0 0 0
420 0.8416041201569259 -3.491408921530321 2.4459755641546366
421 0 0 0
2996 0 0 0
3056 0 0 0
487 0 0 0
488 0 0 0
493 -0.6446676687750317 0.08518797303344647 -0.3515745825500095
565 0 0 0
567 -2.9917302001088264 4.151531882158901 -3.6751611013554046
576 0 0 0
577 0 0 0
3060 0 0 0
3128 -0.4449319933887891 1.1849680870546 0.8338948495506432
3134 0.08218606865120327 1.4490209279630044 0.15030659600464472
3135 -1.8115893553820412 -0.9273188677210217 0.9928313948850566
3129 0.6738799142597616 1.8359630177642703 -1.0896430688861731
568 0 0 0
662 2.178852253581368 2.230063466180802 0.3025256020431295
668 0 0 0
671 1.8726848606782356 -2.270348972058619 -11.299142592814757
672 0 0 0
745 -0.5969778427513768 2.3412261979642204 1.2072266289498055
3017 0 0 0
3073 0 0 0
3140 -0.18880372590776123 -0.9099151726592792 0.4867198059039613
3148 0.10902038009629308 -1.8239364470524417 -1.4222231834182162
738 -2.0139142363384868 1.0651719176195453 1.3046518668256042
746 -1.448178499452759 1.538857677450718 9.895199223896629
747 0 0 0
815 -0.44717786400159737 -3.8658419906011305 -1.7849531517635657
820 0 0 0
821 0.18793814185255725 -1.2056564987892258 -0.18052232715152178
830 0 0 0
933 0 0 0
3079 0 0 0
3084 0 0 0
3153 2.586319789996834 -1.1209324269880312 0.062229295627388465
934 1.0444626336465515 -1.452635583490738 0.1878994021958208
822 -6.076316950493857 8.68298724463507 0.6536731797933824
823 0 0 0
925 0 0 0
926 0 0 0
3029 0 0 0
3091 0 0 0
3092 0 0 0
3097 0 0 0
3160 -2.0306769811724616 2.3290525223768186 0.16603476375949494
3161 0.9783634470005838 1.8522035214201158 -0.38086091668093947
57 0.4660485601412236 -2.155652030060975 -0.9741957002843702
1002 0 0 0
1004 0 0 0
64 2.364926577732796 -3.0480703835424436 5.619757761650747
72 0 0 0
73 0 0 0
77 0 0 0
3104 0 0 0
3109 0 0 0
3117 1.4705605129088974 0.8167844686615312 -0.22237946191292352
3169 1.8894668851697418 -1.917339401793712 -0.35041627843749884
245 -2.720949856368053 -0.6016353121237972 0.6065351918583408
336 0.41002417203533836 -2.0480570626784975 -0.8533270387844114
153 0.17964748245378476 -0.53473853112874 -2.724106365828673
160 1.755761500742508 -1.6905375337521276 2.6712171011364343
166 0 0 0
239 0.2663897724717473 1.1428931289949578 1.9528822650761308
240 -3.028461812574915 -0.560229492563597 -7.7448886188388935
246 0.7740744690717675 -1.141664213635536 2.8330380163566486
247 0 0 0
2988 0 0 0
3043 0 0 0
328 0 0 0
329 1.131883116415381 0.3576731309741305 2.7726474841292656
330 0.8489249109534742 -6.044098682195319 -2.1906157506276562
331 0 0 0
335 0 0 0
337 5.387246005997649 4.007300058255315 -9.429747186578428
338 0 0 0
434 0 0 0
3124 -1.9172997617667717 1.0383594163828305 0.20706187212374402
419 -2.3239717779567712 -0.5378809250518485 2.6750647461012447
426 0 0 0
428 0 0 0
492 2.4012265715999273 0.4104027478241718 0.1408526665326928
500 0 0 0
584 3.8529214173048825 0.08985450390394933 3.3114970093156777
592 -3.8574467927899145 -1.0947899337374147 -4.796668636813668
3057 0 0 0
3061 0 0 0
3062 0 0 0
3130 0.27429180382692286 0.004943204113680856 -1.1475486105459445
3145 -0.6880090304947831 -1.2633887942073514 -1.2699492819620068
670 4.632693734024939 1.2865325715879117 -4.830383892595224
583 0 0 0
593 0 0 0
676 0 0 0
683 0 0 0
685 -0.08841202144196914 -3.0005366421811837 0.9182286661270351
686 -5.14852340880157 2.7107196237421456 4.287790115137648
687 0 0 0
3067 0 0 0
3136 -0.0343515091766577 1.786200741343026 1.231204369259898
679 0 0 0
751 -0.06596937130059614 -0.34601361224958 -0.5137265871612964
757 0 0 0
761 0 0 0
844 0 0 0
3080 0 0 0
3081 0 0 0
3144 1.8527941210292567 0.8018353275005384 -1.1395095591802769
3149 -0.03156697373950591 2.053705424941476 0.6411574426233804
838 0 0 0
941 0.2922880654092009 -1.88718228027668 -1.6594032267978993
942 -6.006957969202628 5.821653528234955 0.7609987085104696
943 0 0 0
947 0 0 0
950 -7.260398055893284 7.845046815168829 -0.2472942966658951
951 0 0 0
3085 0 0 0
3086 0 0 0
3154 0.3080961648317993 1.0869689636618427 1.0901837710404179
1010 -1.556722116062759 5.895885215198104 -0.04912302949445538
1016 0 0 0
1018 -1.7817659930385894 4.152101348444246 -0.25291324205315224
1020 0 0 0
1025 0 0 0
3098 0 0 0
3165 -0.1992687473466144 -2.3622593622058266 -0.7532837028971298
10 -0.5965212840536813 -0.2297916945378636 0.576330908675892
3230 0.10478294215355335 -0.5286601429902846 1.6752713999331925
3231 -2.5800035684491083 0.9227220039571215 -3.1738967457310383
3296 -1.6469506779591334 0.8304901234096799 -1.8315436291998661
1026 3.363300089251203 -1.0811328070725021 1.2333866549920993
7 -0.31580693612759003 -4.128809523209903 -0.8513308901298798
3170 -1.01424570642557 2.1181816039747052 0.4237506634926352
84 -1.2305347462376928 -0.5042988924772795 0.8038048680361721
87 -0.08143206864385057 0.05566399186440778 1.172114263805133
167 1.8367206730283312 -2.8139334913754612 -1.6596474474707756
178 -1.5816973365262437 -3.674158556519162 0.8966010812671926
3171 0.5367055792216617 0.007422221394384428 1.1008936004741763
3239 1.1111097380245138 1.642780076956048 -0.90576885601175
78 0.3649481677116102 -2.908195586873609 0.48032144348572076
3241 -1.6109168753345096 0.20682709892664733 -1.4349800517689348
172 0.653545193167543 3.27420363465442 2.119675564678562
253 0.9722266425657711 1.0143765248430636 -0.02228418263831608
259 -1.164817193065327 6.035462849442703 -2.879557476965095
3186 -1.56807623105967 -0.7804764381588839 0.08472117448306148
3244 -1.5362489148974217 -0.1680016101189368 -2.050968087388213
3250 -0.23518512786747858 0.12999015697083666 -1.3312103528650803
248 1.1230143541313697 3.1733833620462777 2.031529242597113
448 7.116099476064655 0.46390871362920133 3.9149052653353213
344 2.3574914540628114 1.0088814738945455 -0.5767070449779372
348 -2.2812372874411544 1.6511241660918154 -1.662597375024623
353 -0.7696291573956752 -1.314031003550222 -1.155374885597596
354 4.876740088122755 0.42969693897007794 2.801789829014391
446 -2.5958043896464984 2.652763843678799 -3.1790174091424275
3256 1.7003773052973372 1.657449719175333 -0.00629012543320296
3260 0.38700239304704787 -1.7779876323669437 -0.2177981504469403
349 0.9807873007096187 1.1204412600772586 3.687530958806378
451 1.55953787693315 0.4871585728836451 -1.1320138186322815
437 1.119489303801145 4.10654147159764 -2.239001494376288
441 0.7760631977379513 6.151460340373577 -0.8415767505255487
512 -4.872786396232317 -1.1467896022685657 -2.8884719688558977
606 2.1464888995273976 -1.279944333069489 1.453814626027145
608 -1.0367438761367405 -3.1256221927910923 0.20884036794236394
3199 1.415791975653131 1.208968817134919 -2.5821620583300735
3208 2.0634253583179993 0.5051455638792826 -1.9525300618737207
3209 0.48467822301483615 1.5453293109330768 -1.8586599065215743
3265 -2.744056448334908 -1.255047246065573 0.630021229012315
3271 0.1005708726490471 0.3638933598925263 1.515783461775348
3266 2.1478117739547713 2.88958520660204 -0.4443245913980133
598 -2.4891051544870546 0.6191506490310841 -1.3397214622527944
601 3.2702590500455653 1.6340532130441732 3.872073355054626
695 -1.4362577282544442 -1.3506474395970067 3.1374595737437856
701 -3.6389054983993727 6.299169832704243 -3.1758277215759083
3146 -1.1093999591050026 0.7188949041239848 0.8990193120823249
3212 -1.5088007798981196 -2.501944570241642 1.2735857074522383
689 0.5615391132453862 2.3912167115449052 -0.6598410167895845
706 4.089288612616872 0.38371928752674994 -1.5561516009896412
705 -0.31953756967555735 0.695373326714718 1.6219241758071332
762 7.472520598266292 4.06742083467935 -5.023402961248186
770 -0.4501259742223952 -1.1981451125020508 -0.816326655643983
860 0.050858795100478374 -0.07441712796572514 2.966714032359217
865 -0.5480138519393047 -5.043919258471493 3.759877063169967
3219 0.9279342728621792 -2.7274210005610238 -0.67339525561888
3279 -1.6338792209748383 -1.074101847432013 2.814566049311405
3292 0.8449793413910044 0.19681568579513178 -1.4781929241664564
846 -1.9489153175228138 0.4905061534851082 -4.611181671334055
771 0.7036640559151026 0.22520751777799838 1.9612853731007196
853 -0.35623065318121155 -1.233736619746572 -2.209633369884881
956 -4.295781121410309 -3.076981771589584 -5.33382209727338
957 -1.7630085553062869 1.387764669152083 -0.6902786090361477
3227 -0.021587603232347714 -2.112305376063851 0.3721349584871858
3293 -1.419390540945006 0.8583719451387615 1.5310055214277505
3295 -1.6859671701227423 -1.1039482346764724 -1.719217747172352
3232 -1.3688382416479752 2.175969089735573 0.9172481129771264
975 -2.026614244187831 2.16056862823269 -4.090527074752032
3113 -0.4359683802957709 0.9661835378679002 0.1342119710901677
962 2.6927367395930983 3.8947631626428327 0.614679528929865
14 2.767086864682366 0.4731408499150328 -2.0119655012157587
18 2.6589286018980562 -2.47559469057712 4.09337173985272
20 -6.441181869313401 4.871909546238758 0.6204555398780263
102 0.5343394253900394 -1.7577528233707291 -0.5620773333323691
3302 -0.2959901429987431 -1.03371627416829 -0.41521105614732434
110 2.083618103140272 -1.6542144448212721 4.0477302638474075
99 2.823427617704481 -0.09805009399849392 2.9746867456590884
191 -0.5584456362461181 -1.1640010444400637 -1.090225087384052
194 -4.071420658403167 0.5965290980263203 -1.7769833357411398
271 2.3963184863723574 -2.1961399012221334 1.5994569407676664
3177 0.9414656264504959 -0.1884728684379716 -0.18766308862279596
3180 -2.141429048096566 -1.6595971573682908 0.13450088978275734
275 0.8445211680914103 2.8261146144991853 -2.0553360482834226
263 -1.3492330953095655 -0.5182516591048575 2.463159101829545
266 1.1277011080542672 -0.3723036947651173 -0.7550937949911042
267 -2.1187518929360754 1.380468642363029 2.2997570259583346
359 -0.13600936075918846 1.4672641254989953 -1.5930684029131301
361 0.7675232542753873 -3.3076608201172397 -3.3637944998677236
362 -2.529304227363798 -1.1767510959998895 -0.01629327906077911
365 0.0796322010985687 -1.2330777527275811 1.4623628449654866
370 -1.1806577127281876 0.5978866561709311 -0.3822516291972349
3194 0.4779875929695423 3.6443568229612344 0.9278357626926186
460 0.7696433199019376 -2.9042943039563456 -2.921564708494741
532 -1.1029006942768877 -2.0620782465222964 -2.89555270343854
3193 -2.108898957461424 -1.9975452768679198 0.9974562146140997
3200 0.5727915515846906 1.0920901162453893 -0.1145130628651457
3201 1.7704127018645426 -1.4891393353200086 -0.5675183573336429
3261 -2.4690558277333223 -0.9583271328001599 1.5593726919135236
3262 0.8945529523907524 -1.900428317264782 0.1477521480841441
3267 -0.20873933622449997 -1.4495244345439098 0.5475259431346762
614 4.273980483859276 2.6091554097781793 1.1429535622218099
615 2.5319372095381363 3.5579933303411324 0.028222203364298995
620 -0.31046491460176995 -0.09961723108370775 -0.5444795060924915
624 -1.364567508246978 -1.1575731223276764 -2.770317289612815
717 0.8439849660424373 1.2196258821401467 -0.8281788537662156
3210 -1.9340072383334599 0.4394428567444452 1.9450158940390843
3274 -1.1908717005536587 1.82231900553146 0.2527043911743334
709 -2.339555218212809 0.8551907028613911 3.2276623637396398
712 -1.5655752853798182 -0.7361124275905488 -5.534717662833206
713 -0.5146904551701172 1.222216704790361 0.9419293171381398
787 -2.2729445060573523 -1.110540669284169 2.2708251924697915
3221 -0.47281068982568647 0.7957706932722414 -2.340061523180035
3280 2.0036299541570948 0.8465380340686338 -0.8824347460263352
3281 -2.295651883020078 -1.3054862721395628 -2.1575303142994002
3288 1.2530442209076993 1.1797045780180666 1.2717402126554476
871 -0.934787787050901 -3.168884676479711 1.4277325316083709
973 -1.6071095469684067 -1.4394840543367395 1.8805126951898128
3220 -0.9483405042976323 -0.12793849035144209 1.732881539046216
3224 -0.9792228169049818 -0.05410031416618092 -1.6123728706595726
3287 -0.8373397496478885 1.200398606844884 -1.1795401609445142
976 -1.9847803974839184 2.0290549643399043 -0.09073130144995674
966 0.7415738267710237 -1.2681533111772592 -0.4259909083242065
968 -1.07940848325537 -1.6939727940634817 0.7783695393248724
969 -1.2984335518573307 -1.2353870528025264 -0.9738721641391276
29 0.7034702277224985 0.22087164621691627 -2.276606021881188
982 3.0537271275326616 0.6866632768630687 6.4612080954889395
3234 1.4787400324089433 -3.909214909279841 -0.9801680661788609
3297 4.487194366150736 -2.3217107864164865 1.6661997148833654
3303 -0.4882822016104744 1.4639559177364336 -0.5873118037085842
3304 -1.89058344026014 -0.6105870061122366 -0.45696801587877284
125 2.0503048708652907 2.6066237712246876 0.8694628972275747
204 1.9488296147239903 4.841226052445211 1.7050880561294797
208 -1.7158430545504813 0.4563691814005256 0.577755354521362
3172 -1.4101077338625203 0.9778857133984508 -2.061072971188495
3173 1.754895642156329 -0.18032393160602123 0.3491591282837002
3233 1.2333366168011715 1.2236089169596054 0.9448557067701912
3246 -2.016960119424146 0.37074711001200344 -0.6669546000026947
200 -0.31576697559636796 -1.2597911981005006 -1.9105264392989605
197 -0.5276985533768392 -2.082796166198152 -0.21110181211640222
278 1.0445149796991204 -1.0061706653351552 -2.4828288376322227
282 -2.9733232656488697 -0.029994428348214287 -2.071416222344482
288 0.3194543600974412 -0.43577365479703367 2.317173344360734
386 3.9465701321197004 0.31009306579533813 4.429119743576373
3181 0.03370831212489576 -0.27772565254808435 -0.5328230560170116
3188 0.25970141509676237 2.452284994805042 5.106947194872416
3189 0.1440206649583376 -0.664283934455186 2.1471765641153913
283 2.8115641728721266 3.895232015022992 3.361117759318653
3251 1.2156481258537353 -2.877698775535157 -4.259055041861079
3257 -0.5499839596557394 -0.1621987243077636 -0.687248150603173
468 -0.3668265761332425 -4.509174945184791 -2.769968776044325
473 2.016856517531876 -0.697170912910117 1.2207975416903616
3187 0.1398613493034887 0.4632526483830143 -0.949524855220884
3195 -0.3327318869545551 -0.43161355488211833 -2.041872616342929
3258 0.6206312218986797 2.165878318963862 1.415768349926558
3264 -0.3668088825601578 3.5011142270819415 -0.8109712411157939
3203 0.115086573839847 -1.7741755668432397 -0.15920448784013294
3138 0.5307059568800532 0.07137628721668388 -2.357927038692052
542 0.20113871949795542 -0.49378858601302855 -1.875632402550604
543 1.5486807478835667 -1.7741344415358646 1.6997047307356228
642 -4.158634769810083 0.3874001887599702 -1.941195970216778
3202 1.9730289012510358 1.3067357136492173 3.0238498102666584
3263 -0.682946214754233 -1.945579223697422 -1.3098352547310352
641 -0.3020966386274273 0.7222158738817116 2.2349224315077483
549 1.5686275543435984 -1.3079405802462545 2.827708515489134
630 -7.966073485874578 2.516285637941929 -0.5236596924177996
634 -4.888737047609606 0.7208775313955738 -2.349468242826805
623 -3.188394914415205 5.592435233675996 5.2651912442676245
3213 0.31313939438206484 0.6818376762482947 1.6694048655611904
3214 0.9452405818972127 -1.3103704707440886 -1.8799519626666221
3275 2.81317797485552 0.8396570201864594 -0.5692806250039009
3276 2.827058592545545 -0.5714572313698004 1.2341004552526316
3283 -0.3743518921337523 2.0136332994273105 2.351478603925593
3282 -0.5030673637414126 0.602930050313509 -0.6089215693291473
790 0.9052660412993097 -4.210809508371358 -0.4804725788806729
794 -1.5993779402905637 -2.152467149598013 -0.6964695723186665
886 0.7542353708385314 -2.002762309171834 4.564406646986045
890 0.3816235395980574 4.603535765584376 -4.670968896854105
895 1.935709139105421 -1.4407446011502096 -6.071291443084666
899 0.2296375509946047 6.51599002171033 -0.2585235006203471
3294 -2.532168262445539 3.0903711459938825 -0.3568188240611376
891 -0.643351633784717 -1.0228198269246114 -3.716644463952624
978 1.5015096853049335 -0.7195528787439669 1.240815391173349
983 0.01123045594107494 2.8626696282150292 5.008347815406954
988 -3.5939982608079073 1.716703601465277 -0.49051560518948756
46 -2.5065080310023875 0.9856804001193009 -4.030937004832154
990 3.1382992744116818 -4.054895525310148 -2.479364823163103
3298 0.8748547013591416 0.005403897439002256 0.2255046771193853
50 4.90281418558704 2.4468437918829875 3.4335431194975388
42 2.1116580237967337 -0.07996464804930517 5.361858062855868
132 -2.1889476850510436 -2.7044955752787057 -2.281488229012348
138 0.7364631161997822 -3.4352725056993023 0.013516063252957657
143 2.6484778495343364 -5.786223392228585 -5.402747049188042
144 -1.037636008767693 1.6209291827084389 0.9633768484122966
3168 0.2390845776347647 -0.012653316282619407 0.8846558247776889
3178 0.5021009501617192 0.8999124667934014 1.7148552645817678
3235 1.915641870066259 1.9828201406919144 -2.184060941228906
3242 -0.9286875406451602 -0.2680963643892154 0.8964418059643187
3174 -0.4141340110111776 1.5310190149753595 -0.04422585211823898
211 -1.0676579409288522 -1.5199331946885084 -1.018583042371051
213 -0.3324645590011083 3.062668323564865 0.13039690352961786
216 -0.21036172450321236 -2.958597992335246 -0.04328314823323839
301 4.662469545214505 -0.9430358709821164 -0.11618363151279429
306 1.5818889934747427 -4.001992865222406 -1.1481715995211697
3247 0.5761394010505736 -0.9777768155723943 -2.828617665902344
3254 2.277401365053982 0.4360777877065782 0.03962605371060932
3182 -0.3250241112015154 -0.494168374451438 0.023275615862768124
214 -0.06392608515602292 2.5155406992284663 -1.409673435191502
3253 0.9221787337910817 2.5923619198452887 1.0848496941440524
392 2.472148027292052 0.938970187818873 -0.6519097352407169
395 1.1071140498910437 -1.3802090482486327 0.9999205854908771
3190 -3.333900263865299 0.5818376929974645 -2.184464191391358
3196 2.9626240190841915 -0.599889396057836 -1.5086271200006145
403 -1.4310263252165156 -4.091001185180568 -1.0137891973300968
478 10.573194020442392 0.7208154485092769 0.5959182034563196
476 -5.964112837997569 0.9134615212868626 0.3669813356720543
479 -1.9253237170391397 5.3647766704663145 1.5259971553386722
552 -0.7897334786768296 -0.8084413493116555 -2.460101890185056
555 -7.820156198996577 1.8379374585229806 0.6224310906858298
3139 0.8840279614650601 1.1587182283344815 0.2421973606430421
3204 -1.5539382926530358 -1.5018629487851938 1.7352230331758385
3409 -0.9908877792581248 3.0123114937516684 -0.5504339056739624
548 -0.5661758099243818 3.373899248774638 0.4865624250388212
648 0.6805599481372336 -3.106775366666337 1.7819350990023695
652 -6.439974297891382 4.181178304792779 -1.120055481576169
653 0.1472159860093602 1.2240017198912623 -1.6259621345019777
657 -0.9047988945511477 5.569323425816001 -6.87302112842917
737 2.2585361716313765 2.5501767476164905 -0.9433423882319592
730 0.7979376901717302 -3.1777339545531635 3.5266494222289824
734 -0.42907791498854064 -3.5521232939485405 1.1299122267265211
808 0.190793448547892 0.09701301702095966 1.017035900653807
812 2.4360135930942337 -0.8404967149841208 -2.119593195053722
813 -0.48212900101298406 0.44969200322302194 -0.581343291516525
814 -2.397165920216698 -0.498783281644942 -2.8676967891979936
3215 0.5446504605040983 -2.623320486412841 -1.4394761096565016
3284 2.277906328488453 -0.39954549612623813 -4.2241113154546515
3289 0.3007238741107423 -0.3220520470817254 1.4247836818552462
993 4.3999148201376705 -1.0387246320115586 -0.37532357337813266
905 0.6282012905577211 -3.487598521879623 -3.847918272698697
909 1.655055923617551 -2.5474092965604584 2.158543977693209
992 -1.4893127399459336 -2.6075149181095045 -2.7476036712382363
994 1.1978365373169986 -4.5692511098384685 -1.2675615857762426
3228 -0.09584882274479278 1.509214741987004 -0.574437373611322
56 -1.5418644549561253 1.4462234363375215 0.37623902395428954
63 2.1564615733210104 -0.6135991084961915 0.7173331875630221
155 -1.289999177861516 -3.490788557488656 -2.8639039668870927
3236 -2.8906879092099893 2.0360287164087536 0.6073394060157442
3299 2.4887369004209394 1.413899038005842 -0.46444671090489353
3305 0.7003381857000982 -0.856963700476603 -2.019038760154761
68 -3.2053982164067008 5.064909076667111 -2.007984099698375
154 1.3504792017050842 0.9054412083677592 3.1550044929459067
230 1.1086405535505959 -1.8254356124432345 4.716164487047355
3175 -0.053790165356017786 -1.3126875463913914 -0.03991909096217629
3176 2.0958874675973123 -1.2124852864864335 -2.508555884332383
3179 2.1173917135770743 -3.471203671660272 -1.8630929520622341
3243 1.6066163373960165 -0.5995493174159642 1.1655977463009535
3248 -1.3220002425957496 0.9887383198763733 -1.975193731791136
233 1.4207317687429921 3.1081462366238717 -3.331669896314384
305 0.18773443701003528 -1.0485538544386677 -1.4512956003744537
318 0.9405385244597267 0.6061623690489236 -1.7119019815256817
415 5.700236951597292 2.7169265828757636 2.795478468210379
416 -4.846677717824906 3.1346260203724268 -2.155652725814392
418 1.3617888165300318 4.09696492964553 2.3098595219518603
423 2.599337560185143 2.3886016276863393 -2.918534505534412
3183 -1.4243629702559206 -0.3804606534899834 1.4076947539943918
322 4.899912454694376 3.1313544490010803 2.6790390198171226
313 2.288192399210623 3.5082398554359595 0.15701661649026416
422 3.2553446896061273 -4.222629126224604 4.460924362626089
483 -0.7121296535460706 -3.5195266214892724 -3.96246121444486
410 -1.7881820654960536 1.856905600836399 -1.2474396380622197
495 -7.625002760249447 -0.5500575496792642 -1.8003190057581644
3197 -3.816358673002902 -0.9066304322327947 3.1054468797839783
3198 0.5529673780611533 -0.8398676531220755 2.0321788300955297
3205 0.5452050769039329 -0.7013269829240627 -0.8277522300105336
3206 1.0857311293099192 3.005514949127218 -0.9673029097555415
3269 -2.3105223063443248 1.4892489982129486 5.383897150220557
663 2.6372337968924153 7.243965093788351 0.6609416131923295
3211 -3.177446398719515 2.171106461962246 5.856424171939832
566 0.7816421746982288 1.2169082081646727 0.2580686513532786
570 -8.557882104420283 0.38922283051320816 2.413981760171791
661 2.067180997379601 0.34424498400316994 0.028312785210252996
664 2.0454964386346495 -4.404485915874903 1.7585564666597948
669 1.373945519696018 -0.5751979695422298 3.0106526524664288
674 -1.428123927955644 -9.812973614521407 1.373966284800247
3272 -2.4304897447656266 -0.8463120781207345 -0.1094450457244467
666 -2.2633691023893743 -9.056650765715412 12.664062671328246
665 -0.8451427106881648 1.3359903522508723 0.20930301488673386
3428 4.548685226540516 -0.06748206614645096 -4.683526329969277
755 -17.525619821483012 -1.6809868771993424 -7.703291426947455
673 1.6810473393332501 14.913121975687565 4.489395313291049
744 -5.791425452024661 -0.4227715697749562 2.75232460106435
748 2.1559778438207817 -9.961314509204529 -15.347933428792828
829 -3.708936006115696 -2.8031123104155995 -1.905335976834974
833 -0.3503590610986155 -5.146405591281042 -6.629770196221819
1769 -1.7219084148911967 -11.477554191232645 -7.304792406227143
3216 1.3168335753891471 1.6881933328604963 -1.113849504892381
1012 0.7147008852163546 -1.0842177687854146 -1.7306273225061521
1009 -0.026452815830365094 1.6570703672310754 -0.11532030036151075
3222 1.1319302214062277 0.014219691244294348 -1.8922399190379189
3223 -2.073459464560378 1.036335183278237 0.013277878874074944
3226 1.8904145387078948 -3.0227247155445953 0.5968786408344814
3290 0.8382306745317589 -1.0811688508542565 -0.4401963769946602
3225 -0.6060438091777691 -0.8910701537001366 4.3821163265797685
936 -2.10454735373843 3.4086413202579164 3.2915835269088154
1013 -2.801321418299202 0.6512605328120517 -0.20095137573735272
1003 -1.0860965707390284 -1.3887520227083079 -2.5838466956871904
1006 -2.0691161528658877 2.4913218650625977 -2.971665360516116
1007 1.001088307366246 0.565305885111354 0.1769991424238841
1021 5.118513368861641 -5.460333570193859 3.174713591967951
3229 -0.02655308902218874 0.736880149536134 -0.28934406435959414
3238 -0.17481107465354678 -2.732769635101417 -0.07077163724128356
3300 -1.6025908291065125 -1.0526625884295269 0.938809820485002
159 -2.74701471465695 0.019366018869708977 0.18421946214652832
161 1.3367441569095175 2.411722824744235 -0.14950471543508903
162 0.7922683305099456 -0.28626588866745556 2.266675863124826
165 2.522999094256995 2.8543619543099283 -0.3927954369848954
168 -0.5518800920938282 -0.6204164700723471 -2.5094843076349513
244 1.896724972614072 -0.10400353357793438 -0.09818146424575083
3237 -0.9636906916497148 -0.40039625543914825 -0.6155753839702854
249 0.46070898503531144 -2.262030754758524 1.97924402163828
238 -0.7463594209375707 -4.097246494731707 -1.7746112724898016
241 5.741779058274565 2.9988874008848967 -5.53917865279344
3184 -1.4868611160969334 0.4776539604247063 1.486038682825568
3185 0.5883413671551476 0.8537567388580094 -0.9617466903165377
3192 -4.436714734963137 1.9986817644735302 0.9207351875841029
3255 1.8908837485739285 -0.7127279806262844 0.8315056395826576
501 -2.5390165263733095 -1.7328158827603448 -0.4852154874188054
508 -1.4381214364459658 -2.0427234214848156 1.9037036810395525
427 -0.05701040417631839 0.5908092845864663 -1.6831729444958385
429 0.8041824589466895 -1.0244449473786434 3.195369200787465
503 -0.12210095395445583 -1.086598905707698 -0.6611372357196278
506 0.17186868336713693 -0.7674136992072884 -0.2192532065988187
3191 -0.5712068782146823 0.703459054152537 1.9815217581602511
3259 1.5802386476414392 -0.2790337579278231 -1.4655772409598413
502 3.055590907837742 1.5743212736620218 2.2045195112309663
678 0.9401622744281144 -0.6718456446007538 2.2704980629077993
594 0.9339902286116689 1.8015793712364916 3.202716926233436
590 -1.5577197388418174 -1.4457724856679302 0.017924532669248004
684 0.8278634756247195 5.141684470386419 4.0778404354889695
690 -0.11239421405709375 1.1434250964350725 -2.5755827774026905
3207 3.770467583453667 -0.7244312742820963 0.42032259655934356
3270 -4.445004200875336 -2.128058524410477 1.4569364819748525
3155 0.598774187581077 -0.8154253408406809 1.2907299136623551
677 2.7931166073951146 -1.870181548913491 -0.05189028024037001
680 4.866888194452375 -4.414124492362059 -4.780739825858794
3218 -3.567252805324833 5.199363693413528 2.6613548689772486
3217 1.78512005973601 -3.683168295586697 5.197528382876831
839 -0.4922882332404601 0.9108201769595263 7.387604698887592
832 -0.6828596684454437 5.7982502072955135 -1.642278989764669
759 -1.0759571547379585 -1.472922909083822 -2.2960679897093312
840 0.9850095302848781 2.0090979659284307 2.177858565468533
847 -0.5201446240544808 2.211935530570855 -1.6225250202696804
948 1.7832117445542128 1.5818196871893093 1.0997014834321572
3291 -1.9431483057598404 1.558893867526978 0.18652691760034865
940 5.463929570204641 -3.2741394131231534 0.38052186921140535
944 1.7365521019468932 2.604020359059754 -0.8637673034916743
1017 4.265083355173958 -2.33968663254907 -0.73058938866584
1019 -4.96704942869692 -0.7195323372886859 -2.8728303229133147
1023 2.5477005663196923 -0.13198894605212014 -0.21007887513045073
1027 0.4126449465037302 -1.9212806806443583 -0.011551543168786288
8 4.2386168275125025 4.466548042076564 -3.39556009126817
13 1.544817329572645 -3.558877246745337 1.782846353309867
15 -7.348915183467562 -2.289626800444069 1.9746196468298902
1029 -4.051100882186413 0.9397845681193643 0.3297046462663281
1034 0.014544311374969691 -0.8009468453358427 2.120299623608239
1117 -0.8127188223970212 0.07983700410350134 -0.7586530926416962
3505 -0.563785259411888 -1.3294022709859483 -0.3853824055314511
19 -2.4921654738355343 1.5818758450842743 -2.3017619065099084
6 1.3899273276654924 -0.365221843695575 0.7965258656927747
95 2.7865520002963873 0.9060144941478042 -2.8730235095103347
3240 0.9839946614765873 2.6510257527846117 1.8282516791101204
3301 -0.8801849873871261 1.7083795154508215 -0.5801436016003692
88 6.238726628396289 2.3928393827975007 -0.7824892551374201
89 9.333086606477437 8.098197898889229 6.123214622952068
176 5.875355313752871 4.444753405580909 3.510797854006255
182 -2.069766057637621 -0.31513569636781974 2.044661664240926
183 -5.240503135002892 2.6616195507239664 0.9565650862162495
1110 -0.8660462324051187 2.4539478737297533 -2.040506572911654
1118 0.3652297913891688 -0.026115582332835754 -0.5612184576109456
1194 -0.4535459291093418 -0.4118528626570365 -0.3793989433804999
1201 -0.9735579825862279 5.241697375514747 2.8848623930867268
3449 -0.004740712643345841 0.273068370466164 -1.5373079908480936
86 -1.1092928588559552 -0.369392513524712 -2.5544700762306096
1286 -0.14582974981829483 0.7891563036576963 -0.0911887893584088
1287 -0.48221061181389663 0.590118821896497 -0.685702684778539
3313 0.05720547829729243 1.0786120929918501 0.039911239852568774
3314 -0.7517462951207758 0.8628729136618708 0.6474120709339334
3315 0.08376799530453785 0.5593475171443731 0.5970053566130057
3321 -0.4830563794652473 -1.7491985113464479 -0.4259003555523684
3391 -0.39797492328850514 0.43655118664667486 0.45572961870443157
3320 -0.8997178631572496 1.1244657993428382 2.3111174554300304
355 -0.758823297387789 -1.5872856405244735 -0.5382345361516193
350 2.13327233566031 -1.0643936787208501 -0.5362057781793377
440 -0.13129724096279663 1.2190824900955195 1.2453589530535467
443 2.264719400516374 -2.9443990437853858 5.683154121156415
450 -2.194564896508064 -1.659170176174962 2.143827662579407
452 -4.946556418478202 3.9291565476544617 -0.9009550054829802
521 -2.634466744067034 -1.84187629634432 -3.6735021886868937
522 2.682569678417103 0.39950795333696254 -2.738084682602303
528 -0.48482379847975104 0.7204495039459994 2.0740639248817647
1363 0.03319226674836219 -0.18363024882094847 0.8132301398226546
1364 -5.2276205651521765 -0.9779825927095619 3.866623473539055
1461 2.8736578131335895 -1.0353221386142475 -2.0670439081989684
3395 -0.4833202350119984 0.008317312487612244 0.3804333710238664
347 3.2805120069109135 -2.4675616681672987 0.013708914436022172
1454 0.5659860425984368 0.08542726666131154 2.608519647598988
442 0.040089749850166986 1.9226760401777057 0.07163847756783212
609 1.4424400548891403 4.674598598768679 3.594590908656601
613 -0.1551310630243277 -0.8755848264928274 -1.4375762562089465
1455 0.5485794065210083 -6.546060221200269 1.8191924196295255
1630 -0.521042669561464 -2.6765987189035902 -0.3265498031198324
3332 0.7035567888478627 0.6514960022168214 0.29194928645895357
3339 0.34588725381910196 0.7881443234404701 1.1509023513720629
3413 -0.1480394771066738 0.26948831641154947 -0.27884993582738044
3338 2.3427493879253607 -3.1517117138549375 1.2761777589783136
602 1.6589941260227579 0.13834909653178737 -3.5487423017436943
696 -3.0510634564142483 -0.22560594168028505 -2.079681894677908
697 8.684557175990992 -4.481792894250493 3.418335479840431
704 0.5509063355462691 -1.029148251050381 0.011694922632074577
707 3.933661193871249 6.217110185980622 0.45230748655903663
776 -1.7664895815010855 5.962966971256221 -9.541984442747921
1624 -3.6850422841060047 -1.9644158798175788 -4.651566096542039
1721 4.630989699766257 -1.8494977781260633 -0.44278344301579914
3354 -1.2172114050924525 3.2226047789805055 0.11949683570427562
3423 -0.5885966175315065 -0.08938755335627553 -0.03096010669183862
3424 0.17632323849533182 -0.42976948491823547 -0.454738651737146
3353 -1.255188102869828 -0.25126182665428615 0.34392148318273297
866 2.1955718174181516 -1.1802961369336358 -1.2412828033746706
772 7.057548279063365 -2.048839797658069 -7.603423854794531
857 -0.02069162888688171 2.285002314474596 0.7567836599985556
858 3.0211939538997625 6.227351459059442 -3.316453657854453
864 -1.3839775923306599 2.216357709098509 1.3223898770259896
1792 -5.344681731324814 -0.0340905901348072 1.1451628277709092
1880 0.40157403811455794 -0.11495003301163018 2.1663397196649385
1886 0.9282496157353327 2.830409232144976 0.854431943600517
3359 -1.2760539911563331 -1.2856480684560714 2.4741472540476632
3364 0.32604394092472017 -0.6408015942605029 0.12443432577859725
3430 0.7091282253409369 1.1370034371142386 0.9597452052103589
3431 -0.016624636664279487 1.0229588106922598 0.8730105161264626
873 -3.4334115452771945 -1.092416584395869 0.760456699851013
961 -2.9024440056864895 0.1438011895468249 2.6956095000576616
1881 0.5537565105778929 1.6597917336910675 -0.9525632351258081
1957 0.1312511945002474 -1.0552873474389328 0.276367637928492
1958 3.3053988320480254 -3.3922400704243043 -2.0871756134689496
1964 -0.37188338043213137 0.5296061031865261 0.3323580349652078
1965 -6.911887587351838 -6.413090357126692 3.6782594866076814
3369 1.308953507536504 0.26463961338509623 0.5508496958090295
3370 -0.1669234114133437 2.3390241715936266 -1.8117875095555818
3441 -0.11235407722946038 0.13430202029127658 0.209058933676311
101 -0.6808333177905688 -1.5142456554602786 -1.1946199453186481
21 -0.6018196676320382 1.1457514459666902 -3.2268602813805374
22 2.99924662783308 -2.034061500901322 2.585958069495877
103 -1.0861326572693097 0.2621900456117283 -2.885492532899906
109 0.4186476566421569 0.5605899364457313 -3.8929661151494845
1041 -0.886317514372459 -1.2803342559715871 1.6032046036280394
1126 -0.8069757386485076 0.5639355572791361 -1.0002744891346511
1136 -5.0711653891137125 3.4525267804337205 -3.791999972714745
3306 -1.0781223287696413 -0.6060188767436671 0.05250491396863089
1125 -0.9707465011841517 -0.09861034229630211 -0.3359339017252938
196 0.8483061008120907 5.772184312406185 -0.6392284065304052
3245 1.769571026355908 1.6764831346734386 1.4101764873176283
3386 0.4634828301925562 -0.33370916001889833 0.18665798208911066
195 -3.0615762353751705 1.9830775348450438 1.8110975311597726
265 1.67410731499396 -0.03986739040951557 -0.2703594129063822
268 -6.740889258976551 6.728102511642584 1.8129030688224146
274 -3.1054520293654515 -2.5309700799330566 0.7686970334126135
276 -8.2439079582568 -4.397289819326 -5.249474082035644
1206 3.9213529790820867 5.743466585780344 -3.198025238701652
1303 -0.7499506453522299 1.772131468427456 3.5335183926258575
3311 -3.6417052957473346 -1.3567670344507516 -1.77394890669194
3385 -0.11221961406439564 0.44628521063956367 -0.6257356952172239
281 -3.884805806517647 -1.5093176154606196 3.0444786827730637
1299 0.4349941359364035 -0.727244322198773 -0.17211665625217132
363 1.7980516969024287 -0.6664929931775815 -4.665538455879626
369 -2.9062068645755312 2.7635201521252273 4.319803801490031
371 -5.229246034025808 1.7982207385076745 7.9187010197102286
464 -5.7848076008345 0.1619844293695809 1.5382545627979793
465 5.1843725691577 -2.7527968086203085 0.4645842541386437
1300 -0.15807654656405407 0.5747603285730722 1.9253799315027054
1389 -0.3451544022284374 2.5313387282278317 5.350453160480032
1472 1.0720296499080855 0.07690963560478101 0.10295381587722088
3396 -0.3471920448105851 0.20148073021501356 -0.677084188830056
1388 0.3631206950157016 0.1674949416343876 0.027621468445173315
458 4.215643011024133 -1.7195186961454467 -7.797608192873806
529 -3.316385030542604 1.0105362543084166 -1.574904478359516
536 4.752875504279575 2.0182431426256486 1.999580285777809
3327 0.039721538565861136 0.857268808080203 1.3786623830728324
3333 -1.0254352146897834 -0.3315311291757225 -1.6123568881819763
3341 -0.9012159709300984 2.0746899134298364 1.1834999534175943
3401 -0.4793167934834845 0.8627151779167559 -0.1282878557952336
3407 0.17293171811158323 -0.4157461746554765 0.8735989329447055
633 -2.709147907756469 2.511751998445821 2.949289114112906
711 3.640201239819729 1.2960755903026 -0.7120893851514204
616 4.362367958435583 -2.3055996365407596 -10.970117101019898
625 -8.13764964427384 -14.54372959667835 8.00969161832327
714 0.7374845430698633 4.094052456493649 -1.4243427813857341
1554 3.1918677070686408 2.402281748388521 -0.3981453675472903
1638 -0.22238636453974378 0.10969433508607675 1.185963260814691
1639 3.738336726592894 2.553582694399233 0.428074871221068
3340 0.5372090210438937 -0.6353505173214177 0.70999536414058
3348 -1.69979861756639 0.28292012452505266 0.26366940237324016
3414 -0.06553733214773111 0.41671617577561393 0.22996122781558553
3418 -0.539565120153683 -0.3102306922454507 -0.06259249363138551
3419 -0.42698807688698137 -0.30788771036890916 0.08008783598262509
3356 -0.8836177396217213 0.2554186817028976 -0.6812243347587925
791 1.3046398642503425 2.56662763538491 0.35091273922528443
781 0.12792622122517966 0.49532213850064866 0.6600577316906084
782 3.5732304363674983 6.183404259749523 -7.87385381138384
879 -5.205472562201867 -0.27506645048821415 -0.8722665662687976
881 1.4222052179602658 1.5360246574389238 1.5580156189179313
889 1.8628852332299721 -0.9970831665180627 -5.979427986211485
1729 -3.7278554387460905 -1.2165265902227909 3.425171620453061
1806 2.139406682213576 0.03640623854191105 -2.999257813563277
3355 0.02505665834288618 2.964171658131942 -0.5993052364324671
3425 0.23675774148745216 -0.0733515186739354 -0.09942928134359169
3426 -0.41812688979036916 -0.15502063061826732 0.04812578940737461
3432 -0.6170973154615327 0.5225184662420286 0.7930284930353414
880 2.695736838249493 -0.42914628502987917 -4.11518109451573
874 1.7824741559394959 2.3746502169861072 -1.7167358772749695
977 0.03345341450464913 1.0361916208294213 -1.1334744747009042
1892 0.5524756437273707 -0.13908128894591243 0.5368159009671768
1898 0.2766701042226463 1.1461383019553868 -1.4610409270220999
3365 2.038647780231787 0.7114087242240782 0.4794957165139469
3371 -0.16321384879266929 2.695197292074357 -0.9636005583413633
3436 0.1909340628530165 0.6331774751506314 0.18200279393257873
3442 -0.040476033511956326 0.17299053146185395 -0.022582196080893267
981 4.532925554282874 -1.2967681133621418 0.5173684642766685
33 -2.5233153977458675 1.2746279640719675 0.4907320136426423
34 -1.1145508626076983 -0.10664636796161599 -5.753288742900448
118 -5.43748986059075 0.1116275086943127 -2.5784566488486025
124 -1.441008449898168 -2.2732661783272325 -0.15381129015485245
126 -0.9594290956955996 -0.6638958828762339 4.236706068334438
1053 -0.2302816853683432 0.6843610799507784 -2.307635297378046
1063 1.0992057744307997 -7.242321202826367 -2.362901549361159
37 0.2854757573675871 -3.126057635132354 -0.7900594280925103
131 -2.2269400584789802 2.2889921205509096 -0.3355581351399013
201 0.9183118838212642 -4.149009448005912 0.1002448076552922
202 1.1408851591310376 -1.390189023780601 -7.287358285903297
207 -2.793185113980332 0.8492807039900516 2.3477170070231312
209 0.11627110094696513 3.3818685415001797 0.3320260357802162
212 -1.704065616088297 2.4635942533684076 2.1343256657296528
292 -2.083154664110093 -3.3914060523720093 -0.38783217781203094
1144 1.1360486593120085 -3.627959641539109 2.6333984271125064
1230 -0.1515222966495383 2.374761841367693 2.7329942213459746
3307 1.6812402125006936 0.9247399223630527 -2.8792852918407026
3380 0.34278195397934336 -0.3737340519494784 0.11762958160086705
1139 0.45599695438562565 0.2813820553051292 -0.5079501485408472
378 1.284247291510693 -1.3327706850153982 -2.6097413827880063
387 1.3579676433883672 -3.8585861485039508 4.179420437513843
293 -2.442413609989263 1.7617805363817582 -2.4381075083867554
3252 0.9391311104996816 -1.323148832853032 1.6616276923932585
284 -3.1664174303105685 4.94650417113773 -1.7680552960516915
379 3.9984596274630246 1.931742239261452 4.335503940452756
385 -1.3260337011834393 -0.8363928944685328 0.2769175700827981
388 -4.9430444829814295 -3.0950289962331223 -0.31288784239354317
394 -0.263262452857676 -1.647346351073319 -2.1758171880424673
1308 -7.095241348546546 3.6390060641692927 -4.131642686917176
1315 6.087303416120081 -2.9097091334655767 -1.6981134868202874
1410 -4.11622927944073 -1.3914086780467394 -6.005247677356846
3387 0.43128269388003954 -0.05499251209244999 -0.14834536342195082
1400 0.9922120701961593 -0.9428753980187422 0.19999549031994782
474 -6.936583376579406 -8.394060534323154 -0.3761140282491927
1401 3.6729367677126152 0.20062715932572517 2.270569954824606
1479 0.2544208536279614 0.25478343755356553 0.2879405129002331
1486 1.0113494650649515 -0.4257705881898029 1.7186054953182606
3328 -1.1173015131887152 0.024663815929434126 -2.4956887391898936
3329 -2.173696193112191 0.43837029788815135 0.8797855966985181
3334 -1.0688660225696982 0.3105018824269553 2.5402667795694933
3403 -0.20906311923256188 -0.3443946563284845 0.09538474722599834
3408 -1.521141450962371 -1.2537225852363818 0.5755608045498769
3268 -1.7051863195763934 -1.0112245908283803 0.4897236128450675
3335 -0.27371719508459796 -0.7838100983227443 1.140298804949792
541 1.5369066294877731 -0.4320677192392301 -4.366724985706826
544 -6.697360745185406 0.010223475464947049 1.2679879142055386
636 -1.3106712036475894 -0.05934336651760097 -2.0959566620609933
640 -0.8996255149927459 -3.5508922368864972 1.8461697930428425
643 -2.7343895305301116 -3.696967679755061 -1.034449887952696
651 -1.5083199994153738 1.6175625196976136 -0.34112505885208877
733 -5.210175820340602e-05 -1.6827145664454646 0.44795723943864685
1571 1.0663374246094153 6.978466782521407 -9.107392553535343
1575 -1.4953013617158093 0.22518017569173604 -1.741078110993021
1660 0.3676909957806407 1.9134328664871634 -0.059725389899264375
1661 0.4976952184954074 1.8985569881868654 2.384732575623156
3415 -0.5378073595296397 -0.06849631762285623 -0.34426440360668
635 -0.918764099917371 0.7476842858063082 -2.1263133996015458
727 0.16134353902655219 0.12610346992158847 2.3639113501396336
722 1.237857299138783 -1.8056360279238934 -2.40559662737768
723 -2.7349354307470364 -2.5225680730345688 -0.3043631508416
724 2.0980762828246626 1.8717157978180416 -0.7962352330082012
799 0.9885498240860575 -3.1094714971464956 -4.783556916107036
803 1.0777670104067605 1.6210768332839578 2.172641614213461
804 -1.6468293266688832 0.29516292612541156 -6.2739667290104295
1740 -2.425890087419146 -1.2243950125837955 -5.064601498518244
3357 -2.2928516387705096 -1.7117650356075162 0.6339443804343817
3420 0.05649068408590235 0.4355439329983985 -0.03594124334576375
797 1.9964498959037504 4.355295497393215 -0.985783328787957
1739 0.21803060773883298 -1.7176256558475054 1.315923203687546
1831 -0.8344628943875697 2.1918123159474243 1.7193558096357426
798 -0.8820639774793346 2.8196749136699473 1.2512659307280847
898 0.12844659019442634 4.020599621541546 0.8658269639927909
900 1.4294426724794025 2.738651659733723 0.7484048320583346
1902 -0.6868931136597047 -0.41953487882614304 -0.5245627928294824
3366 -1.048192043014152 0.12041448624452564 2.9413812888073374
3433 -0.13631055604086212 0.6531002398960526 -0.18996436391298788
3437 0.21485061911241618 0.40974095811544753 -0.13395892377327395
1991 1.9565447634978475 2.3479810394622764 1.3258617938305841
3372 -0.16715863415926452 0.5960481551681975 1.2212303305465286
1990 0.014309192097548938 0.24243397818873294 0.43797122773408576
51 3.8094284910762126 2.960348250683107 -5.974397644780699
52 0.25348787079365714 -2.101643989211526 -3.155561076558834
1077 2.3541451376333415 -1.8989297231797069 -0.3515204738149546
3443 -0.29930357926636175 0.7991867916136093 -0.455582657030717
3446 -0.012895477953223324 -0.392750996978755 -0.4050654120061987
49 1.2619271051586112 -0.23725777754972938 1.1109564137537347
133 0.21190380380538476 -1.555371899496699 0.9677149160142315
134 -4.791591112857524 -5.210210716808998 1.1039896098980897
142 2.3789163003961247 -0.1583120617569026 -0.4428469315820732
145 -9.751665372431855 -0.40249279431564144 -1.709323496158401
219 2.4500295900409212 -3.3897107389206336 0.5030740302621612
221 0.10897041699078443 -3.493791673959995 -7.963473243212771
1150 -1.9430841409739432 -3.8502155403629437 4.3048256860804655
1157 2.829290759991634 -2.7369078138593665 -1.2735560245305118
3375 0.9142280698379018 -1.8554342564294708 -0.7940748435562042
1246 -0.26184749779023003 -0.7607826243667491 0.14432832777532806
1156 0.7870693279138544 -1.1136281179005059 0.6349322987700781
3381 0.4401426090421193 0.1257783620315091 -0.2598123788470124
220 1.1172643584509778 -1.7564917433754295 0.25601103371933887
215 -0.578468278616939 -1.2901086669087762 -6.920685143636983
307 -7.736100732519137 -0.4131599094359287 3.0604637270162756
405 -4.134954280375918 2.0681244998284325 -4.793549271116543
414 -1.8024649393558092 -0.9382927047515683 3.1356203258543793
1239 0.27493836399213334 2.2447355154102326 1.007115220739315
1325 2.7729430098383503 1.0869047768352356 3.126027458370021
1331 0.3262602365115311 2.036548460707712 0.9685909467197584
3316 -2.158799428141659 -0.22294427643315 1.3877106911977373
3317 0.49898785537905765 -3.310640141389128 1.788493940138123
3388 -0.9186704646274583 0.08699024959192861 0.32755437856910147
3392 -1.0920731508247632 0.577388601771452 -0.6170456811400454
3398 -0.9963645370844979 -0.3159246635532949 0.6490602498829969
484 -0.8960837583600094 7.677695183360648 0.40973958193251514
477 0.9926815088241597 0.9878673955951659 2.3407454106059693
404 0.5136158800226318 -1.2984886552467256 -2.6754963966091583
480 4.859175342886664 -4.0738248789643094 -0.005770685958666085
482 5.399872474677705 2.1462982051636055 6.127970705870468
485 9.2130843887662 -7.307667407777569 0.9915397362528517
1415 0.21106012447040756 -7.147286453479645 3.260526603909512
3322 1.328941603291449 2.5270394362902766 1.167397497404526
3323 0.5201151204061898 -1.8965274029617878 0.09139128077733387
3397 0.9025275124030547 1.5534274972478885 2.624291589198759
1414 -0.1465080000574872 -0.2554283008898344 0.22584825303580128
3404 -0.3750157980680367 -4.598905599883495 -3.2498172394198166
489 0.21077432446775965 0.8277958592463578 2.5656006675875913
3343 7.521502820280841 0.6008005484553602 -5.495799803838491
1589 1.8780369555771996 1.4617843566514332 0.6404559707707763
1493 0.5706657085252247 1.5357182349791325 -14.215257744736288
3336 3.4923401891806996 -5.688067887604068 0.8105387342039087
1684 8.467774701245526 1.5285133974076939 -0.40821926458955704
1682 9.073309711937897 1.6580759082250587 -0.44048258797206413
1588 8.401904911955723 -0.8070814963694969 0.11585154407267591
1760 -9.788756899678996 -6.762581447227285 11.170620180864432
1867 7.864564993316735 -0.6369941025459644 0.5377024449896346
3540 -2.6128746555445086 -0.17737266900643875 1.0242842136029424
1582 3.66218422200387 -3.4483593535643915 -0.1579127967145275
3607 -8.274682263874835 0.5285019094126219 1.758134037449758
1689 4.791814535768912 -11.990274338499251 -6.475450699930776
3278 3.1745994515855402 4.093929687099882 -4.373893757184696
3342 -3.6498229254763426 -0.6258285174078052 -1.3432033670011838
735 0.012460204162268148 7.255956959474611 1.1142016772182857
741 2.118731949167679 -0.862095186172486 5.689511171252495
1671 0.9746564198724059 3.3441224887858674 -0.7864542012496984
3349 -4.7020315845583545 2.0818652581338393 -0.8304318659974688
3416 1.0874753864340738 -2.6434560732112424 -2.2948980169345856
1764 3.754741907288325 3.2461204118555824 -3.9982961767505745
1757 -5.051398985673965 2.187410315693313 1.0334157194840203
1853 -6.727868411242781 1.479241058687426 0.8507720142007634
3285 -0.892458664114543 -1.537083183338253 -0.7964657626672329
920 0.5982499106871904 -0.10821815450788705 0.6965071266261342
1758 -0.06623171455403305 -0.10973456824870838 0.28531153339284426
908 0.14507270019873267 -0.41846696116672844 0.30405513620320784
1844 -1.0213069953837028 0.9959984600485128 0.021978212064075627
911 -0.3354954297096143 -2.8895767528918195 0.6511454274206427
919 -0.40456302396785987 -2.377649425861835 1.0569796452281124
921 2.2699415314652756 -5.87448827254089 -1.7920369880346252
1923 0.6826630612836976 4.1640841065608125 -1.6778644851311517
3358 0.614215794639481 1.8112753433862014 0.7668013943277318
3360 1.01457381851419 -0.13383684526947964 0.254896570707267
3361 -1.1376505477483438 0.8049938741726045 -2.8469268069333964
3427 0.9460346258217508 0.4876850637854243 -0.15520696816115512
1922 -3.7394342074019846 0.3266600343713753 2.7002531592532804
910 2.9895366759423636 2.560345036855515 -0.7173999040665998
996 -0.5834351178999053 1.441229077384796 -0.10434668084593188
997 0.11804629075231697 3.022604264372779 -2.2549063381838335
998 5.761626132057637 -0.43052709563773833 5.858806609406793
1916 -0.5375966914681927 -3.67357959919083 1.5494990309557837
2011 -4.842131440702261 -3.6365585608844615 -2.0035132597406493
3373 0.9219662193678001 1.25767855468004 -2.0426468398557787
3438 0.17622478184624663 0.5126111772585856 -0.10908067077406598
3444 -0.4830747349623149 -0.495017830562884 -0.8409284947747925
3496 -0.215064499097912 -0.9722926761367767 0.23158579042164107
70 -4.327333299535507 -0.7624360912276902 9.24708430622739
1091 0.3075390413117008 -1.1136363703626386 0.15197335899762732
69 -2.328761705502358 1.0099299316882921 1.1573894304553365
149 1.1156712179678672 -0.39474302958989405 -0.6462126552517377
3308 2.5080764094248695 1.6304270175722289 0.8098419227746956
3376 1.7334630699636466 0.9164942827782314 -0.33212141763300923
3377 1.4554344061480011 -1.5409780902392507 -1.4545160914004671
3445 -0.067440455068941 -0.27320930547330446 0.18617532851559868
3447 -0.5511370010567944 0.24139198023802758 -0.24965914078524418
234 2.559592497453219 -1.4202403383030981 1.5257995365271393
227 -0.44894203167909236 0.17466071977707415 0.5922151024690275
228 -3.8786182694632534 2.097608389655858 7.348340838929256
232 0.9061836820485982 1.0703609253731183 -0.9137289614392219
235 -1.9893220878574651 0.5383642790637165 2.6796006582478267
324 0.14535346485102923 5.961772029400689 2.8877396683580274
1165 -0.33669952330002684 3.7553743886659445 5.636190900912245
1254 -3.0710060738723826 -2.033496226454953 -3.801567991503209
1262 0.47891375516146306 0.12219870649449388 -0.5190293047866155
1263 -0.6624387061728595 -4.296687113376991 4.169760578612518
3319 0.4891782170125856 0.2331228668196916 1.999507478617244
3390 -0.10425337849678265 0.42431278267736333 -0.7669835028097236
3394 -0.5918202494816183 -0.023811952789111815 -0.9792518591532888
1253 -0.006637303479976647 0.14205378980900674 -0.2122427263467834
323 1.2173514662053095 3.9892548821545857 2.2376373083914007
314 5.497892441693301 -5.4762636615310365 1.446089769532258
417 -0.011147304603354474 2.4475222621872725 -6.49348479950612
1427 0.22667567648540643 -3.7493825527357014 -1.9226808820893557
3318 -0.3739986176238402 0.4124170394127469 0.18978787140035006
3324 3.0402276639866006 2.297257813033064 0.07590343361992877
3389 -0.02765957309055304 0.04446463834542483 1.3033980168089934
3393 0.14875571644347282 0.1581010440037894 0.2119476669001775
3399 0.12723783071154363 -0.08358951407184037 0.2879099116154453
496 -2.1003474211367537 0.8812096848613965 1.2636743271296433
1511 -1.664981483449677 1.8065588095696978 1.6219364822361946
494 0.9621393879902079 3.3256898864308186 -0.6517307518344693
490 -1.4433494467283636 -0.746198417040946 2.4732619452615774
569 0.5535450461272552 -0.2857026999619451 -0.14878728321440032
491 -6.934024072270372 -7.306546392868566 -1.604092485844184
572 -1.3215449551714828 13.209858633433718 7.219984227294345
578 -1.9051246341548151 -0.31457405317110787 -1.390409429752257
579 4.624287854319348 -7.126824658297436 -14.790021155849786
1512 9.169843891472915 -3.987497933990537 9.038146465703267
3405 -0.4597319384915624 -3.362970291996214 -2.661448834340708
3411 -3.1938149400212787 -3.0811686721352314 0.853821281272358
3469 -2.2953380370355316 -3.0843476837851505 1.8493294388688912
1604 14.988148907580044 -2.6451443104121113 -3.0198767213491386
585 -0.5079887918769406 -3.9049359826717764 -4.272564284027823
3277 0.21824546368017517 -2.4167029510409277 -3.3974913439382917
3345 -2.8307330086323175 -1.1836961858945205 0.2645223969852724
561 1.947652409764697 7.9240208139424695 -0.27650502135868715
3410 0.930979794350032 6.497248303205087 -3.552955711385796
571 2.0988714288845154 -2.8720958904911784 0.4362351041575795
3344 -6.949771612759442 -2.0882056699097373 -2.778984633602987
752 3.1572452878627146 -1.5237529672855177 1.8545687771738129
1770 -25.104437350628874 16.068982878246935 -20.66107288158339
3351 -2.7953980854608447 -2.0823410647860614 -2.2309865138185567
1683 4.4634183534269445 0.1535849102287451 -0.316391147998526
4331 -2.100955649701541 5.015619810021165 -5.8347518473561015
749 18.986814742101615 -24.45893492375618 -68.75604806031075
3545 0.5689889397513453 -26.27978481953468 -21.859781350134266
831 -3.6377657875884992 1.0635074247930305 -1.3295965052873973
1692 7.151338600946795 1.4673002065422118 -4.488787792126494
3350 -3.0708203161378727 0.5213643369273593 -4.821020585344896
754 2.0822579054142243 7.375149809698385 -0.45491458306968346
4320 -1.55196704845272 -2.425160131412985 -4.884726422048249
824 -2.80192340228289 -3.3417084226328213 -10.518822937222241
3286 2.5828541040894937 3.7525698212910825 -6.040370480615695
834 -4.621955240962081 -11.444883385123532 11.778652035982292
3362 5.615235255023728 -2.1434464800758066 -8.749166367547254
3490 -0.8598844985298331 -6.315602079462677 -7.901544764336456
1763 19.650006290169856 13.000554558945248 -10.478693853887775
938 -6.634877024483777 5.371478177084173 2.1345790153578257
3549 -0.1380141848650021 0.8855307586577198 -5.885169215154276
1005 -1.2175110225201091 -1.054228141715064 -1.2655294530467758
927 -0.1485388469624048 -2.7058285856368314 1.3851414460612117
935 -1.2014092192933612 -0.9615145567510786 -0.2866340753385621
928 -5.644488411870675 1.116267835336639 1.7719927253066086
929 0.2261807895529593 0.10288780078029919 1.4746859459106059
937 0.6375156888673719 1.1552215143657332 -0.8060026481291582
1008 3.4684969387301168 0.8294197603468684 -0.26027436236411017
1011 0.6783960383005626 1.9821256148467377 -1.757239724759966
1014 0.8479781112496197 -0.7507054551441456 -3.0890719654751813
1929 -1.355238727651624 2.756882879287911 -5.5661234790652045
1934 -8.197018032039676 0.041920032001328024 0.8021026038093958
2027 3.258438287015573 1.8078373748328096 1.0589272418037494
3439 1.8341749227920725 -0.7569922575667412 1.7646553737117476
3497 -0.04849182141092303 0.0011517129352932591 -0.07934232332466543
1928 0.7757959838988834 -0.03401789663622705 0.46111963867032685
67 -1.9507575345306891 0.938958428824664 3.0079182965888545
2019 5.308419079556708 3.712447620632669 -0.12419807758298153
79 2.3567490663653237 -2.2746759001679733 -4.239476907803524
1099 -0.530109538885182 -0.9684626664636228 -0.6019932630171314
1105 1.0317443937742983 -1.3229496073659832 0.4375189489415379
3378 2.3679370814643743 -2.923642361849655 -0.23196973851343936
3379 1.288390960907103 -0.16621107733767382 1.0563424206641092
3448 -0.3141955432948609 0.441232387677427 -0.07577269304902626
3382 -0.6148982443280666 -0.4349991032771156 0.15775408314863515
169 -1.6052665350624482 -6.40644556141316 -1.4185853896763099
243 -2.7160207649129076 2.944976475702054 3.455739368396334
3309 2.0065603733535573 0.8377332615869257 -0.5355985353870276
3310 -0.24863702877878432 -2.428560488894208 -1.6455574166319729
3312 -3.1517745869144047 -0.38211091312599516 -0.3797706203427144
3383 0.27604124466807156 0.4997458284760672 0.4927076355472075
3384 -0.31337481876569084 0.006163814591943334 -0.7939658609675054
1175 0.2376384012238685 -0.07933130932071891 0.40471326572062394
242 -1.7793698354024658 0.9647452841163723 -1.4020508603517163
3249 -3.330002797828474 -0.09852321807419911 -2.7717815710480393
332 -4.002984194080766 2.6136844442355613 -0.2004193878581411
333 2.436988746652705 1.5004346704248472 -3.4105780420374385
339 1.9810835133094147 -4.90432271202815 0.7968049969929626
1272 -1.907481606028244 2.2269264737447125 3.8390590396344892
1350 0.3271935411475991 0.6504717818538499 -0.39880884979590303
1356 -0.6891374271598438 0.1336331628493674 -0.36030757082553083
1357 -4.615907999450535 -4.330413994461519 -5.452636789764613
3326 -2.7608059002583154 -0.8496679169450863 -0.26580525288379253
1349 -1.5352879154657764 -0.255362340664179 -0.16464880035875137
1444 0.2934475722853416 0.5908269457865708 1.070534361188604
430 -0.4778016725835488 1.965073355684284 -2.6103833189568997
509 -0.117795079110328 -6.245032368026528 2.026946117915712
510 -1.659130296456373 -1.358951603441477 1.194794381027408
1445 0.7346142504011896 -2.68900287416804 -0.3956372058272114
1521 0.09408273952723467 -0.07508844387812 0.8673298726532634
1528 -0.37612925408429937 -0.4565872208342995 -0.37982218666642803
1529 -0.9951073993352895 -0.6184036041401771 -0.3508211422409679
3325 -0.44207606823992857 -0.7173235488385769 1.0169574776451848
3330 2.6487591721890262 -0.6374162329360576 0.16974854255125327
3331 -1.3999532409514217 3.2776401577372307 -2.22603531261434
3400 -0.6018354389218964 -0.15537981178390167 0.24590687136000702
3337 -2.7453682929039736 -0.09451563853476211 0.3150297654243184
1603 2.4637025687371508 0.7364126228041483 -3.1606813736415624
595 2.1010365029035274 -4.100528558201838 -5.175350467102415
3412 0.7361831479193695 -0.5515552498024754 0.05148478650659674
3347 0.952172099284661 -2.451199959219746 0.8161172696570713
586 2.7725563033647687 -1.5504906633337248 -3.042829103638593
688 0.2914901967783313 -6.713675339759923 -1.3134700091799454
691 6.100716113212967 -4.276317193436716 -4.861173685337464
1609 0.14708661554739755 2.432762302252142 -1.9166162611916953
1610 4.3225846223553805 6.328064833483471 5.198830517874229
1617 1.991848967763282 -3.364285768304423 -0.3083463685303909
1703 0.418849674450772 2.9253903017478935 -0.6261110109333682
1704 2.881872517992978 1.4929206744616936 -1.0823741340038562
3346 -1.504462714209212 6.719920976928497 0.9041225076460285
1697 3.4465655644224573 3.2676864971137918 -3.7548418080690067
3352 3.4832359781185778 0.336670823746888 -2.6064194171420563
3273 -1.2011386671442936 5.710924826840798 -2.2584084372229833
763 -2.048266812044095 -4.197202072608663 -0.6221309467556636
758 -0.10832024997684549 3.965540163721874 -2.514889559523992
3422 5.7797293287932945 0.25549277126480385 4.16519693703404
764 -2.347200378359737 3.6124686681925375 5.244899507341122
848 1.7783091371723379 2.8212740229850706 3.814308006086155
1780 -4.70225479611968 -1.1670728773635506 -7.192679936391355
1702 1.9886508519636157 3.708030132878969 0.9200677694548226
3435 0.3979672866520132 4.915459657746445 2.4049505996900837
845 9.128579881702043 -4.293230901186819 -4.0411537205679116
1864 -2.7445338467881917 7.589051147610248 1.9504043045897668
1781 4.140791473804105 2.9911206742466785 4.444145049247805
753 -3.01380357464609 -5.932762614450663 -8.005196152585134
3421 -0.8039315240463059 0.8557707322352018 -4.55776002164248
1768 -2.9175155289551014 3.4742728079461385 -7.260259969664895
3429 -5.856003706645907 1.3642508875272847 -1.8754371426081198
3546 -3.5672896171723605 -1.509046929260159 -1.4248177785616898
1871 -10.904299534669025 3.999938626966234 -19.76989216978168
1872 5.0822452173811445 4.980785816734477 4.862774792486489
3363 -2.281041807256803 4.590580554186773 -1.6085901206668278
3368 -2.452142909285262 -3.0182426532272504 2.430944859204143
1857 8.185271132282393 8.130265786475466 -12.243823761127883
1863 -2.917926915611414 8.62852477011109 -4.098741365577173
3550 1.3116245743188704 3.5602283871291505 -0.7079987454314464
1028 9.684759577651255 -7.818400324020656 0.9273276571937529
945 -5.5261296776510545 2.28247585121044 -4.331744334731391
3367 0.2223388682542604 -0.4336027024795811 -1.066076918121633
1022 0.9984774112816318 -1.0477785559331065 -0.6252059436775765
2042 2.9722338494201113 -5.116812609398663 -0.15885804721571448
3374 1.079012289970375 -0.5414704962341154 -2.5827334732717047
3440 2.248143392970306 -0.5240589517502392 -0.8430162603043044
1033 -0.05425563661134975 -1.675948296466737 0.1771797757428336
1032 1.7637885833645515 -0.7451176103897903 -0.10345815297587958
1035 -0.20479376033264726 0.15669964245592627 -0.37227167895061625
1124 -0.0007361814857011976 0.2123586919300873 -0.40393514058955016
3570 0.21201818417170112 -0.0785477844911047 -0.09791678064888577
3569 -0.06270546719538549 0.14943577436994362 0.6493613608289055
1193 -0.5940305203077322 1.4599214932151685 -0.23351708836735882
1195 -0.3077355700568 0.5114202046830559 0.23994215317057005
3506 0.2943174161264986 0.46606621415231503 0.08429299378903699
3509 -0.12389721745622895 0.27385678985683903 -0.2849058976083132
3510 0.5323980142965381 -0.24032251650319278 0.04386260622925114
3511 -0.1306393762507866 -0.035563965906509475 0.206274568844496
3516 0.11945010748250905 -0.0625837028550348 0.2639630620283159
3574 -0.031335037817130186 -0.04311686681293702 0.2890049692169149
1122 0.03578202821213007 -0.3097654101374177 0.5059698082952507
1285 -1.1609861778492874 -0.48871672571994457 0.02432200981465993
1288 -0.24150876923163908 -0.08811384189486537 0.04751870822646797
1291 -0.008101752701182066 -0.03911917227451487 0.20849601584778263
1292 -0.17422713071559637 -0.35778726258324867 -0.03549772227548207
1293 -0.0286115366757501 -0.07969304834047371 -0.10697262728928551
1370 0.22255414627941955 -0.2382880405522911 -0.27181247649441714
3459 0.2466860497782113 0.045878696559653695 0.19524947277041413
3528 -0.07445138877069621 0.4487316142993969 0.4694353193749896
1456 -0.3157897536497401 0.5171308887704769 -0.6861871698452314
1460 0.17996390281193206 1.0605503258576878 0.5246431265752443
1462 -0.16514133869705988 -0.033087773203337695 -0.13577399360515457
1465 1.7457759401713322 4.057439566470955 0.7239144151907881
1553 0.04499568567112596 0.33658988627282593 -0.05816748879778338
3462 0.2838849676804594 0.057149699294642156 -0.16676531721799912
1543 -0.27012409150752836 0.41619363081391836 -0.023684845997553994
1458 -0.4776169591625799 -0.08614153735702923 0.1289450907290836
1544 0.4741648585545536 0.9940248184884152 0.3143406117563571
1545 0.008037054578277561 -0.5238786712461604 -0.5414372841034454
1625 -1.6586591417349863 2.811118682317131 0.5567235239078395
1631 0.12235026217294653 0.5870393139379103 0.17963999247556073
1632 0.40476526289764386 -0.3953415578867366 -0.9861622894315231
1728 -0.4440062181262164 -0.10892638655437742 -0.15035954826596815
3472 0.06662506488994956 0.1505973621250883 -0.3908942142894057
3473 -0.3473838678675188 -0.05740442150803001 0.36359254922805184
3477 -0.10826904656529195 0.04823530432375119 0.3098734027185782
3533 0.1536055752228307 0.29771901462865547 0.349380174869724
3538 -0.2534813804375961 -0.5104288577643252 -0.5753813307937057
1720 -0.3555544890767894 -1.5025872981085475 -1.4524072567997421
1712 0.03880899986416406 1.3371791827324107 -1.2533203078006432
1719 -1.6719913273836067 0.3670462429619581 1.1719563474545724
1722 0.5543840354392985 -0.15664532793369573 0.47772710439858956
1798 -0.5310821881733662 -0.2197030871776288 -0.08639261753764751
3480 0.36140932894098826 -0.1810614093484727 0.3380807114603801
3484 -3.641194147370111 2.7746672727586628 4.323017643573783
1711 0.34508806250645113 1.5889124257338916 1.2124918346641358
1714 5.85527484601811 1.0421659737955935 -3.651407341432314
1723 -0.5773524858300201 0.1488560681279256 0.3360559694287668
1801 0.6427473538874007 -0.7992377171878621 1.2525848298453037
1879 3.4858951997425454 0.15160653832265714 -3.204741349228478
1884 -0.740489245523312 0.070714624816 0.10931361131788837
1885 -1.064115100618243 0.328736454678675 0.6101996711918035
1887 -0.10912054424574345 -0.2684481076125301 -0.42423674899468355
3485 -0.5227626059894367 0.33998865795748107 -0.3216881597654883
3491 0.4880487205690674 0.9514866852702129 -0.8899049399749203
3553 -0.17784629878361538 0.1572165556360305 0.13561856198193276
3558 3.007394731639878 0.17104594045662935 -2.700885988360759
3559 0.23775958708973122 0.7513385354498354 0.388692057804603
1782 0.5284716269721048 3.0476608062980186 -2.522135986989366
1963 2.18957883245781 -1.0900962695862935 1.7274586992375456
3499 0.5995771257816909 -0.9193060622031736 0.26968726117891617
3564 -0.2527569771545648 -0.10707605685520692 -0.3165133881328904
3565 0.4117890603368871 0.05705074450252389 0.1811272534944224
1046 -0.8531620007629156 -0.4457388183027517 -0.0772307512486732
3501 0.18757455840064796 0.0754748039317048 -0.17536659129770965
1042 0.4819532859298809 0.13443766897980414 -1.0384206556273672
1127 0.04005415590859977 0.05868200330689715 0.10321425016643128
1134 0.0965620722795852 0.3223663682715457 0.09328144151687134
1135 0.046605168939807956 -0.3874832339575881 0.06970086204572094
1211 -0.16649016965969612 0.0629959116093277 0.06607327615626242
1212 0.3824597856577137 -0.05143690667131812 -0.23167405127348045
3500 -0.030659982842899995 0.13978423522604194 -0.24811761715339925
3571 0.18129687026177632 -0.643243081404919 0.15005853534935387
1304 -0.08650017112609777 -0.08121289964470722 0.03492763750908221
3450 -0.2274228206967585 -0.18884641216174863 -0.022316194787909464
3455 -0.014613443090869864 -0.030726678554995463 -0.05883779786847826
3522 0.09390914838327657 0.025803922521694108 -0.17543286477984
1377 0.7842781550246181 0.37419792969597754 0.42951760635249236
1378 1.1417520491149507 -0.423532815342143 -0.7593680772097925
1379 -0.04650543332114114 -0.306809672513629 0.10242953682800106
1387 0.4450008690912194 0.23955896168417093 0.04866017724158229
1390 -0.09035975901716328 -0.445495210377662 0.4215782390542457
1471 -0.521660214596484 -0.05670136929358854 0.06904062754618945
1473 0.07092567353241712 -0.16655304233766594 0.02954376145569261
3463 -0.018284888077167633 -0.2239201353788646 -0.12236713001051894
1394 -1.2228260211077033 1.809692491314329 -2.077278091014486
1466 -0.04222169059194021 -0.05785179796660458 0.1476814438798517
1555 0.3513900873264122 0.07637753243836409 0.11524722832775297
1562 -0.6956597666378602 0.3926030503272039 0.3109159627906758
1563 -0.1675655205003307 -0.3766053011021058 -0.17302619216500045
1564 -0.1344532280917074 -0.026341035017251543 0.1744529522016052
1566 0.10808302668911465 0.9807882716681328 0.016863039763899454
3406 0.2443095500179218 0.50067825535754 -0.17981493243878727
3466 0.1456585018553212 -0.09951177484646836 -0.10166463291824956
1475 -0.20834880953127005 0.14944160333607734 0.3409139556620004
1558 0.17056445054041813 0.09244492497513973 -0.3900719874748986
1637 -1.8348193893302494 0.3471185145408476 -0.47289729259661173
1640 0.15329845470632572 -0.005256448777539387 0.24748945328371347
1644 1.2615063303311578 0.8045216706332694 0.11030580160652306
1645 -0.030959501956503117 0.21631550292333554 0.3011691120348866
1734 -1.4079889916476946 -0.3874724468901932 1.2889896661316593
3482 -0.088825420676385 -0.11093503464277787 0.09949242881905566
3542 -0.4401147076408584 -0.4024662138331203 -0.15987160405415532
1805 -0.3970853339596032 0.651474103476307 1.4398643680714842
3481 -0.24573087674548533 -0.0728604788816577 0.16520497091694658
3486 -0.38905452516834077 0.19790971811200622 -0.02213606224678757
3547 -0.4499941326416591 -0.17486068593590898 0.5334963255739589
3554 -0.013899772488820974 0.003943880062125386 -0.0337502519434229
1981 0.4532837013125151 0.2536305816747835 0.2970955105156351
3560 0.04120254957087674 0.5815200718947403 -0.14581463789580795
1891 -0.22958533970920147 -0.20289387776606266 -0.03349681435903806
1893 -0.12326465543447815 0.44463671589293313 0.14014207372185628
1897 -0.606939378447024 -0.6683147263545972 -2.2532426480195484
1980 -0.7709113775958703 0.09462255724661955 0.5716219977714562
1982 0.258315352195967 -0.8226723045522716 -0.07022196257896925
3495 0.1535744611989845 0.1103973135363945 0.17694179209020539
3561 -0.17469785559352544 -0.10380031568025175 0.08417459830781893
3566 0.7927256626984556 0.9796672442690892 -0.5670702266915536
1069 -0.23203848995027068 -0.4153539318005421 0.6236584389073052
1051 0.41157048634989446 -0.43759684875752586 0.3312192101509887
1052 -0.5859195510937977 -0.19473593875120054 -0.5028098424945885
1054 0.6848695530368221 -1.44812150453925 1.188180953094463
1062 -0.1520798160767569 0.07452550897959256 0.07202701435738591
1064 0.3151015804977863 1.5589100464920111 0.42292863377944256
3507 -0.3599250935554834 -0.6394718440150957 -0.14056247347498724
3512 0.05042670575563903 0.27943031983656497 0.6722239554988659
3572 -0.579538240927977 0.33901336969905416 0.022981274638464434
1067 2.6516005062276213 0.04347599317973098 1.4051440370313957
1057 -1.3781267951855354 2.2553960472130377 -1.0513719270106203
1138 0.3239569838206622 0.6386544892692775 -0.34638111747643163
1140 -0.0024797282231751746 0.6265396738027883 0.3304154498513536
1220 0.04494952899670538 0.1609153495750339 0.07866033720813265
1221 0.3266280899246123 -0.0007938433284403832 -0.2614442641559614
1314 -0.013232261179639456 -0.34177895786448376 -1.0688851996022095
1316 0.1402222119278328 -0.2955270749197376 -0.02887231905352084
1323 -0.6231298374013307 -0.546841202709629 0.1450626140888554
3451 -0.03044871126118383 -0.11408321339601497 -0.27241680762133025
3452 0.1849260610515635 0.4693952481137097 -0.1903031538708232
3517 0.5128879673463573 0.8604994304373746 -0.10936251246516887
3457 -0.0658148377184505 0.21646011107623706 0.06459510518140085
1399 1.4170720710522253 -0.010455114479380967 0.0785082064703027
1402 -0.0647222580969237 0.4867131017352892 -0.05606697009191995
1409 -0.43792796042148535 0.5087842709074707 2.0486921076181996
1413 0.2412911226302579 -1.8772851484559516 0.4811906617500764
1491 0.33279575091381314 1.0444060902195764 -1.5152143724120406
3456 0.4629312468713478 -0.0038225495387206134 -0.45042975710620553
3460 0.19434016303344823 0.05583011396090124 0.3881686461889298
3523 -0.06269954116397698 -0.4553750434559669 -0.23482444782103284
3524 -0.22311230698347526 -0.48489188664638433 0.38517956554913163
3529 -0.2539724549919079 0.8101018152536701 0.4138488354136251
1480 1.584169092108015 0.8907747776292371 0.0053332210151627035
1485 3.1650137487605385 3.267269958798008 -0.9064698417569793
1487 -2.596715013740771 -0.9586091275405284 -0.4481759968659793
1576 0.5429407270591282 0.7951598483928412 -1.6441799902225367
1581 1.483389256025077 -6.805188256406158 -3.0750077849183084
3402 -0.24627835466303732 0.4556897184643783 0.10205901402356601
3467 0.14010353741886258 -1.014266606827524 0.2449862535253068
3534 0.104833599974594 -0.25460685813512296 0.137448860766357
1651 -0.14731871702279126 -0.9021204224917215 -0.439182186954983
1652 -0.13921098291581002 0.46082177193175317 0.7025868233392207
1669 0.37713996781861714 -1.5789734884004891 -1.1846942553396695
3474 0.9951511971072385 -0.5384547540447931 -0.10070613083866883
3478 -0.07785550820453556 0.050939489008087535 -0.11957519903908993
3539 1.9376380984785626 1.495804217612594 -0.10513456745694248
3543 -0.7507147659679885 0.28083982810495633 0.2866081501037527
1738 0.5824812194854354 -0.3576158734384524 0.6994433870451848
1741 -0.1196545057067354 -0.2506964580983938 0.2572332018787354
1821 0.29329905999732514 -0.12630779635889455 0.044496642821177664
1822 -0.30926004652274025 -0.17603676990712136 -0.5495949701920063
1823 -0.0593324609283037 0.19905505467555065 -0.8276851150299762
1830 0.1519051958606581 0.19316758581229942 -0.2700772143953447
1832 0.04188244711782545 -0.5430783334773162 0.36639725499318687
3483 0.33695790271073794 -0.15976907904403348 -0.2568866520493068
3488 0.242299451453153 -0.20458900152273038 -0.22141851040661517
3548 -0.3147927033518073 0.012853399074865043 0.05500388360815207
1903 -0.14489070005368607 0.17534995177759005 0.09780012181321812
1907 -0.07980289462145417 -0.21155746620113064 0.007451497985418796
1908 0.07030276273438849 -0.780816852722138 1.354230624289914
1909 0.0776737137804664 -0.4422927861540778 0.1401896367728764
1997 0.6949480827999918 0.1509413120923774 -0.10123417436805948
1998 0.04534171157030448 -0.6456337349883114 -0.25531299653945105
1999 0.07381595237181228 0.1307494898687544 0.007040456363208348
3487 -0.06556122649107772 0.3326334062026974 0.27387512792103813
3492 0.030480909892396876 0.1403657543235421 0.019614420667126736
1910 1.0120169153506469 -0.9555854614935989 -0.39489413092033543
1905 -0.011279711829148201 -0.030477085691762735 -0.0635125080685857
3562 0.15309819222529034 0.1027471637582053 -0.20292983398981104
1061 -0.3304622547799391 -0.4558393658428572 0.16242598000543507
3567 0.19376338104379773 0.27439598731810755 0.7989777664398446
1070 0.10864546791602375 -0.02677729670209705 -0.2588154098611513
1071 0.7625136594724372 0.3645436033946219 0.1784760651262547
1078 -0.5330362185815274 -0.13413764299290315 -0.34683517426576566
1164 -0.22582691308113775 -1.5307732533324903 -0.6675740615609533
3502 0.395767211524564 0.1394129041078325 -0.4415871628456585
1155 -0.5525877233788912 -1.4778891014967592 1.2217998632358262
1158 -0.17398917003231298 -0.25260325989192306 0.018134080506075654
3453 0.02425096119096033 0.09906867998200423 -0.1565599678210294
3513 -0.1338189188760395 0.31055888576017876 0.1602062660850353
3519 -0.040293341037345505 -0.12280159199366251 0.03081112496454367
1074 0.17492931103401646 0.6210807336869171 0.5763531738037526
1324 -0.7561152319120586 -0.5161794310992089 0.46261572095913045
1326 0.21850917542718198 1.233589698296911 0.5648301293087494
1330 -0.4047463163910683 -0.3084230913448758 0.5493998298020388
1332 0.4410228673646832 0.03194230959167406 0.12997284334757472
1337 0.0929246915098507 -0.37967926805779606 -0.20417459654896006
1419 -2.4428598720237686 2.062442517863484 -1.8333207421149609
1420 -2.2727420548734134 1.2757127586010064 -0.61239959790088
1425 0.5931792014898911 0.7522390676888406 -2.1365542618186466
3518 0.5875676301296072 -0.17024556589564824 0.6084261546560715
3468 2.7247825338284177 2.1780984948193383 0.5286181886241101
1492 4.704653747513051 1.9468026866889334 0.523646659486408
1499 6.853183820099966 -0.08788980989857997 -3.895878514654962
1416 0.41416225040164006 -0.945396214658598 -1.7797050869121394
1498 -0.3086081999279259 -6.329862622302739 4.669725275691387
3464 -1.625084568625615 -2.282224463456217 -0.9996072631728968
1503 6.7215252830612044 1.1351812401466956 -5.226152734130316
4317 5.154610431182071 -1.956990756461131 -3.3383741461123835
1495 0.20486355183379018 -0.2955924617208286 -7.475056292479964
2585 -0.15427308190967592 -2.395532017767775 -4.0515099779523025
1501 4.6304381088419335 -0.35459108831061137 -0.11752555765009144
4318 5.902872383028166 1.2686018809538233 -1.4924353861883999
1680 9.952914700404344 -3.8073829352317152 8.66456288754596
1767 5.162941870851626 7.710623534108351 2.2449297961045223
1494 5.414176809530259 3.2177130408367427 -4.548371464029637
3802 0.1860493473143825 -2.2931317800688893 0.6026639054996569
1681 8.58368988143551 -7.836928638262982 6.791910149522402
1583 2.4129320808529986 -1.156068865863682 2.8616529710783833
3475 -2.607396050228075 -2.964095010190938 0.03012978830725245
3745 1.8094439152307664 -1.7422491322864586 0.2609547683590055
1584 -3.456577653854107 -1.386356949169571 -2.412214531997806
1593 -7.835345136477162 -6.09215454511701 -3.298573451074023
1587 0.7439788643706142 9.386068573687673 1.7649312020277712
4335 -0.4984696936529241 1.1984869340642945 0.3786010990704442
1676 -4.848399770723269 -1.3401507621156217 -8.541484178598223
4333 -3.164719823106472 2.000780501954375 -2.3349307092995706
1670 -6.892787059195457 3.4911195124808585 1.5829313489912151
1672 3.8669074981675733 -2.413807681225812 -1.2818225544953763
1748 -0.6131942799097324 0.1938872897863866 0.45710051741860996
1749 -1.3825741595770265 -0.7149126607088565 -0.22543201479566707
1750 0.8721547747166232 -0.3377192769739004 -0.3047852622973087
1756 -1.8942788370953096 -8.521204874088049 0.5195512415333888
3479 0.9664499102227945 -1.943627088215133 -1.2691667863415927
3544 3.249695028989246 -1.7803120826740726 3.681953080284973
3873 -5.379144169521481 1.2753604604583455 5.68308247939261
1674 -1.1960351327360257 2.940047448882071 -0.5147390854254755
4322 0.09986447880441522 0.004588254171291634 5.003240514185973
1845 -2.492657163063637 2.4967128227628104 -2.1996888957239578
1839 1.2142329231379212 0.20021984760369554 0.15876763550256953
1843 0.26464014857574486 -0.2133120534147146 -0.05397499316158681
1914 -0.1211574394312502 -0.04790585443353078 0.25729841199802056
1915 0.643368402013155 -1.0754969508493444 -0.33122799396133884
1917 -0.05168856554706429 -0.2881950159491687 -0.17000005578844027
1926 0.5315029140807438 0.0360346423543251 1.0278998262643846
3489 -0.1420825700204249 -0.09327302909652821 0.505474929444007
3493 0.22440377615764154 0.000395115901417474 0.17464436758995974
3555 0.5684914696710033 -0.6761332177876702 -0.7340714809915265
1851 0.9144241537599171 -1.419196930106299 -1.1721262923489384
2003 -0.4152634468299611 0.15097752055593963 0.34784020798622356
1076 -0.43403350901148635 0.5103084084273095 -0.14379535001626031
2004 -0.26214885884900135 0.07048060838744209 -0.04688945121889882
2005 0.653701205941406 -0.044952331095722046 0.01470330024978028
2010 -0.4396974448156042 0.22443314646978046 -0.069863962688069
2012 0.38294046880044674 -0.1610653544653575 -0.1473661733986807
1092 0.059656750889627505 -0.1884920968245552 -0.30139635596153663
1084 -0.30783700515352824 0.19386612348249857 -0.08865500125184259
1167 0.608652656566446 -0.09287642927958147 -0.2609656938149316
1168 -1.3200095295394543 -0.43671000213204947 -0.1355868888654426
1169 -0.11434162524453444 -0.3908999268347436 0.9094107622418193
3503 -0.14777441446920567 0.12651171176720025 -0.14926871203583
3508 0.02592327311161441 -0.10373723677258216 -0.06799658971840356
3515 0.02490520811581929 0.05276672796238013 0.014587229300416489
1270 0.7997290627586903 -0.838098006344113 0.05826508428924074
1174 -1.5114544953665308 -1.0528581601440308 0.5932553376549985
1252 -1.40586985018163 0.19903048798867465 -0.4899150415421804
1261 0.47301646852222273 -0.25177351367102 0.2889402863370685
1343 -0.3440417254520886 -0.1683668914220504 0.2085800680082239
1344 1.1867265318546527 -0.46823184870662377 -0.18466146109862658
3458 0.344608769578627 -0.28006588270885624 0.3371606609637483
3514 -0.21730158736822378 -0.24831108036586585 0.08318226657649376
3520 0.037535281869388204 0.13865756700084947 0.24512264187031588
1338 1.3729629961087437 0.30461899976393114 0.4709187447432015
1426 -1.0789157220834984 0.4747411392431042 1.3363344392252157
1428 -0.74174485303736 -1.5859828344437252 -1.1310822671669385
1434 -0.1519791236384634 -0.0007041683396996512 -0.6235909279356838
1435 -0.40573287015593634 0.039168607995234146 0.274272120102327
1513 -0.4767862334075121 2.1417355453761004 -0.3574619722709527
3461 0.006674610606452714 0.37979116301190274 -0.6378709297931144
1510 -3.126470528655655 -2.6515486339182264 -2.9319254614879653
3602 -3.907911069993242 0.3012108719820487 -3.43283152506182
3465 -1.30824376421283 1.5550660683424116 -0.236809289415056
3532 1.9207998639266095 -0.42127507725144053 -1.3775648310999706
1509 3.3124447559924697 0.8122752933117079 -7.5094300809626775
1591 1.6672201985752584 -0.6142032405777428 7.498827270045672
1691 2.333419033378246 9.146287476706798 -2.3319188386163896
1601 0.6944891057176429 -13.504126601040397 0.9702229371951294
3673 2.215746960234145 0.6746783444711419 3.069404306866067
1600 9.620003467113108 -6.128571158309218 1.3819593527109957
3535 -1.7337568891897956 1.7490046862398472 -0.5200724145466757
1685 -7.163595566574788 -4.220118672103732 2.1226965222361307
1590 -2.2089578827589826 3.425298566486514 5.1263382302494795
3936 0.5181682949788873 0.42439145329866423 3.257497848667342
1688 -1.286824985778894 17.145904947022185 10.083372645854691
1500 -4.526118784723652 -9.041247036720328 0.5951475282033287
1687 -3.2427203045912445 -5.52155472153418 1.0946417101983912
2740 0.6126804481370888 -9.514053859951385 4.437097583400812
1596 4.300475492924904 2.418867437533644 11.350478039573755
3612 0.6420344004541265 -3.3502757747470864 -7.1883157121900485
4326 -0.25907199898782884 -3.4642678750274394 -0.44416574686128985
2677 -5.455745514708098 -0.4157703607520907 -0.23518761976225977
4339 0.25958759411503074 4.741549281442117 -1.887125641929137
1779 11.823167546407662 -0.6615956646204926 -6.7410175579199025
1852 8.88336202366614 8.74621776521446 -1.6245294646017339
825 -25.058415614341722 -37.066071706919864 2.82509306917999
1679 0.3717743460316478 3.3990036474909995 -9.870970126377294
1762 -21.850690688812346 11.328853920217407 1.2014180183261283
1693 -46.837384325591735 -7.923656574165436 -19.091359142704775
1761 13.671976982285019 -2.8688119516311015 -4.096596408482684
1855 5.738868159136837 -2.6975648270416066 2.9356852659863515
4323 6.047145986396703 3.3951386998294555 5.023522713626076
1859 4.309495109903221 6.455241640223013 -11.686637579539694
3746 -1.1500226619620244 -1.0737999128190128 -5.160111361142874
3618 1.294213331528756 4.701809984589445 3.4748111595053937
4342 -33.144415772443125 28.95067896283328 -42.804004019480494
1847 4.911453607001456 -8.023520137900706 6.623582195619583
3617 2.234458350432187 -1.2646107303249978 5.280830546910863
3557 -0.9083049697235077 0.03034036887591164 -2.702136935454164
1097 0.4404682054536869 0.1339680192883906 -0.779965366392685
2025 0.13568514276572327 1.415488840914752 -0.2156196730979388
2026 -1.503505755550058 3.381111601042389 1.6582588563973955
2028 0.6995501100411405 0.46887637345597705 1.2741879077692861
3494 -2.991388143602783 -0.5631281277980127 0.4249636133895572
3556 2.1022742941108272 -2.4463129970611215 2.3159836069373485
3563 0.35157166390707034 -0.2919524532054374 0.4085312301723457
2033 4.142737399492045 5.233740584517495 1.690319086559246
1774 23.15547133596569 2.0113180485403954 -15.05047768821722
3434 4.512957515204529 4.013485070533449 0.84438956083744
1090 0.6233842063526662 0.4924306808408618 0.2831799339473714
1098 -0.6554615877521572 -0.054437601307804784 0.7759358456665563
1184 0.27651196206789413 0.3212742579277347 0.48853315785938894
1100 -0.6135889139223505 -0.0199074998017826 -0.3870577818069799
1183 -1.1449895629041453 -1.5299720280456928 0.9443274269077818
1185 -0.09239372147523528 0.22147127317298354 0.0017776216124950042
3504 0.15363855109840044 0.2507053133313394 -0.04776492853044059
3573 -0.04384466567044819 0.05502925350182615 0.12818472202351755
1104 -0.7341619112384474 3.3389864721968343 -1.7875355169401
1176 -0.1916904559994079 0.1989717169428278 -0.055405936039124
1271 0.4347342531734382 0.6452842503645708 -0.4119539180131402
1273 -0.5548995619141338 -0.08884753455337747 0.3941625521826143
1279 -0.24282946984081977 -0.5152373872873629 -0.971912031600011
1280 0.29433705623109085 -0.09417779990573857 -0.014888172120074457
3454 -0.40769734005792496 -0.245701711782536 0.22703269118746278
3527 -0.4412046319364617 -0.26334856459610745 -0.48494620566251745
1178 -1.365880096064854 0.5410909473235017 -0.2590301910789609
3531 0.7280219817129422 -0.3181786224145021 0.0583608812907753
1438 -0.3962017627548377 -0.6469065125380337 -0.007319853184218659
3521 0.04377234591733785 0.023381931669531578 0.35882829114721887
3525 -0.038686739319836995 0.1951371927541089 0.22117896886809316
3530 0.3315168411644223 0.0010793230411053545 -0.29013565515417233
1439 0.7603935858677638 0.26151180427004345 -0.629071554316923
1448 4.452817516200554 4.279196709583066 -1.228874182116763
1453 0.24389530479645766 -1.1333637641182153 -0.9995530704711875
1520 -0.033121210636394706 2.773705850321477 0.34735317683180245
1522 1.4487985388439804 -2.633349060487421 1.7510192944850125
1527 0.11736233820181735 1.7129755677954293 0.6141290687986422
1530 -0.6733253090332687 0.6777545139067576 0.6277389666339513
1533 -0.4708816860554221 -0.15136424070525034 -0.9504121462933518
3471 -0.409424210950313 -0.0051904573740559744 0.02150446224482529
3537 0.6927733578653287 -0.0035116856976258907 0.04872149018486621
3470 0.21490503294903382 -6.888301453462693 -2.356326374999769
1605 0.6085430109003089 2.7520214488997508 -3.560889551007407
3476 0.2834169022277684 0.8701800098222898 -1.3908958570440773
1597 2.3384610130153853 0.4302647845608102 -0.7120787792555038
1524 -11.27761837021756 -2.44102185020131 -2.654268103289269
1623 -0.13812277032258735 -0.24064565250587217 -3.040150882499802
1705 -1.349775380778398 -0.7546423182812458 -3.6374463499473833
3541 -1.5521825317807012 2.6293251483482276 -1.901856695879323
1694 5.815888990413127 0.929230898641928 10.95580469614351
1598 -1.7627591909771676 6.859586444590433 1.1948081707981242
1709 1.0988253992146921 2.51197753725242 -11.775054705604866
4319 -2.593068631130904 1.8298608422014522 1.2606847775991952
3417 -0.6963576513637135 -1.7576210315059368 3.6322661591905696
3613 1.9682179585624404 0.3733637569087874 3.318861512426172
4007 0.6767815891094714 0.7360023699524957 -0.9486204908063011
3552 -4.678061157446154 8.483273773500814 -4.524061997146186
1785 -5.8704185918810685 -4.662495277524935 1.033249458368272
1695 -17.718462694581696 -5.8030908938603964 11.690623023496451
1771 -9.58423887256654 1.1068420649059472 3.6521629359915027
1786 3.4859049895175382 -3.2482293124704475 -1.378067360290901
1873 1.163432080844123 3.7999137747113223 3.079997536124457
1773 8.786575621417061 -4.58353443828405 7.842760855785439
1865 8.822324044651548 5.054378126200673 7.302971723507839
3816 -1.4002407030069783 -1.0687046372786586 -1.569781293116436
1766 -1.3898427983019939 1.511846512442561 0.8499996056387724
1950 -1.4347117589557685 -4.018832160012514 3.2177523048785845
1772 0.21817267257066722 9.539716847548126 -3.954938121862037
1686 15.656495574045366 -0.6009800140621185 3.2358011418787136
1877 5.1432034526596615 4.831827701962718 -7.798743271762841
1951 -0.48208051886614434 0.8555176660272784 1.7640252773120508
1870 4.099375916778819 4.07238394777378 -11.230588289647528
3551 -3.5006712412512484 3.2675994292817334 -3.3027751420483
1942 3.3399195325691746 4.864346783113516 -6.292042567208854
1952 -0.2248712634020021 0.8622844516609864 3.79145492264718
1954 2.574631846942634 1.2812266037441418 -5.298427481214542
2043 1.0097240414767972 -3.4620547573672673 1.0277471338639814
3623 2.2030290133624386 0.18451409371955585 2.7763374573834576
2041 -2.220107186167492 5.852045759640595 -4.269934492935462
2034 1.539045089536218 -1.420995632518832 2.010257859946919
2035 -2.011617241552742 -4.038619157962814 -2.9049440471818846
3498 0.031171904624399366 0.11202453098826194 -0.27672522194423305
3568 0.1887317050680405 0.5645196764022388 -0.2873829943639046
2044 -0.7949650650929181 -8.108386308811038 2.5089269701527015
2038 1.4524191966786664 -3.1476763823627207 -0.5119243603294905
1031 -1.3225777783086314 -1.854766494297524 1.5906662685201152
1036 0.32824961017178866 -0.11612902983665324 -0.23263784183238498
1038 -0.26674559266811454 -0.5111737089656742 -0.008246844681730212
1039 0.7234380266934392 -0.11405890700415165 0.5032118990578519
1112 0.14913716685064465 -0.12147284006554739 0.2869809193828071
1121 0.14579035259460438 0.5106821843065342 0.45015455796435355
3642 0.4003298377356073 -0.015991198076051524 0.4574499868728614
1120 0.060100737407899764 0.015067162090292407 -0.21872288040417154
3706 0.8199167159697364 -0.40843310515040476 0.02297920198267357
1111 0.2214166846943799 -0.501733927055496 0.25207322610143523
1113 -0.32129841974604856 0.05764259824945248 -0.11499534660915559
1114 0.40746997323916667 -0.7357248108406823 0.36768615911735714
1119 -0.14325422196054655 -0.12188044231202465 0.5263261523656407
1197 -0.048623810612138926 -0.13137818191533376 0.2665754082402086
1198 0.26932656308666975 0.8280873662795035 0.3384635863036925
1282 -0.16803208256650373 0.16743800830580166 -0.20346052063177747
3579 0.21357333803409168 -0.25817870731380904 -0.24498546786165806
3707 0.156224114774962 -0.4009856086137481 0.0887451576923748
1199 -0.060409148548846825 -0.24909184427060452 0.8736237967894029
1196 -0.052311338058976385 0.22976640134076404 -0.11449153322436614
1289 -1.160292850384534 -0.013124753995830934 0.5055050038360384
1294 -0.1416594660094577 -0.18534180207386122 -0.05609524039102472
1295 -0.7509589407427498 -0.5028851128121012 -2.098148737431001
1365 -0.3709352042981498 -0.28740503666990896 -0.6288672094858615
1372 0.06858262528131483 0.4865825850433074 1.3638139867603234
3585 -0.012832349260353731 0.1785580753781863 0.11329443415749924
3592 0.19055766995035905 0.12128831306278479 0.16072277583904618
1464 -0.9337471986058902 1.9616270131049087 1.861935287365873
1366 0.06826179518819435 0.02533217066636389 3.8277608743557137
1373 3.0493870287743716 -2.3999923034231267 -4.205537632650706
3598 0.4193365952305885 0.1994318569232606 -0.1855761255223199
3599 -0.05431371989929529 -0.21266613122677147 0.3198545435499075
3604 -0.13805660091908206 -0.032578381503610275 -0.23357398931897144
3657 -0.9369090844221987 0.3061304938727971 -0.8194364945680703
3662 -0.1233939516733457 -0.19914186734826791 -0.07766548358719526
1457 -0.1361153537100479 -0.06716857898623611 0.3599641816680025
1537 0.7277628782073636 -0.16072415388050712 -0.46179838462450673
1538 0.3133381808926725 0.45360113040020916 -1.1389391611375874
1539 0.19877500947695884 0.9322564147670347 0.3899915692744896
1546 -0.1233701858501806 0.01507938620774654 0.03658894797132402
1548 0.27499449156215117 -0.19375703074320272 0.5107022944004538
1549 -0.327187112396365 0.7476976369486715 0.7856710815085673
1626 -0.20288415515868238 -0.9319509911460108 0.043222573640701256
1707 -1.158251857595154 -0.22030329722722164 1.183367726645881
3675 0.03669136584622939 0.0854836813895917 -0.15083620758468078
3676 0.010607591678427866 -0.008155543983685882 -0.43618424517317395
1618 1.087343079377328 0.2651683895190551 0.09214404079416937
3614 -0.431156827589345 -0.023600763416588386 -0.12421022163092497
1627 0.9908817048345501 -2.450694161131154 0.7761914355225975
1713 -1.408330583810949 0.912032545646784 1.3708640115310946
3620 -0.8581974354455839 -1.2653256009637066 -0.6325328872875211
3621 0.3929728610137424 1.0003829529768276 -0.4558889918918477
3679 0.43104694777122327 0.016272522587872137 -0.7483209434544039
3680 -0.2693333752117176 0.11824313663025224 -0.22616934526775626
3681 -0.059618055760127124 0.11327221434843435 0.3158281799541469
3685 -1.2663207179813525 -0.7478968999819727 0.8566000511995269
1793 0.7223739175604437 -0.9203776397081614 -1.1283754491836726
1794 3.5161665105175945 -4.377773196342846 1.2227556895411762
1799 -0.20957057867761097 0.9238688096065344 0.2486168784935036
1882 1.2813242094366264 -2.6791818155561296 -6.002053616595747
1888 0.6567789093748208 -0.6474201876254457 0.989484243394811
1890 -1.280017088534864 0.21026435997527035 1.705024486096867
3627 -0.5275689731934013 -0.7693574629188893 -0.12256747843578725
3689 0.1554722751352832 -0.6391811689452184 0.3465842389793859
1953 -0.4806189237462194 -3.037149262455639 -0.5434417073844579
1876 3.6564479075627707 -0.10961727884404669 -0.180408180492453
1875 0.8021507240374443 -3.1791099337988356 -1.7281203890425363
3695 1.8613014091132454 1.6592739668561134 -1.0443369348093388
1030 -0.16273057266612753 0.2432572171038068 0.20784906272424875
1966 -0.7964586501768732 -0.26393242307502746 0.1902593804610238
1968 1.1741094047718186 1.040040542887683 1.1198793506700657
3628 0.15227790807092365 0.01113239994538413 -0.026798420636467073
3634 0.22097320592157702 -0.15091703895041078 -0.6632147777651571
3703 -0.40547284988456883 0.03992922555589688 0.07239056184534005
1048 -5.393081494656305 -1.9833024902746301 4.430365271384246
1037 -0.21605749450848677 0.253448178312588 0.3209539507316767
1129 0.029908606045997828 0.1641877611027612 -0.2251397224421607
1130 0.6920651209444316 -0.9057865599376687 -0.02561196835443743
3575 0.018929122581108557 0.6330498265685404 0.16011416527238773
3643 0.2074786645291274 -0.17615420650270955 0.1369593241082079
3647 -0.35550684016342265 -0.08839440613644287 0.29247477274033323
3708 0.05375870713667197 0.8592331406365763 0.2725926104346587
3709 -0.6176678391604415 0.14443815588691963 -0.4709452282203899
1128 -0.07507186087853775 0.18263870772147717 -0.22675410499489032
3644 -0.4394519902162186 0.7307027305093793 -0.2810526138267582
1202 0.05811790618052511 -0.09223227544045279 0.22919760608724832
1215 0.16696888541652144 -0.18038392400874476 0.4907735001656729
1207 -0.3156698675715713 -0.011127180687346574 -0.04366379955522641
1208 1.30742995773846 -1.5685077656583613 0.9029682827454267
1213 -0.04558236389138111 0.11036007098397861 -0.31792473444018116
1214 0.771745767965808 -0.02624989340348803 0.6399695780576897
1301 0.2735942275791308 0.1330996636854541 0.10931715384999616
1305 0.6125908186673504 -0.03894407875617321 -0.5268600346751245
1307 -0.2596439658860301 0.7897027296486336 0.07745911544391137
3580 -0.33580416923706735 0.19955606455145403 -0.2343347789723625
3648 -0.6010727903067141 0.3121717808209036 -0.6481812913527116
1382 -0.07065882471379373 1.0887176597165305 0.28411359312312606
1371 0.23479406568903796 -0.11438967247197594 0.25410411141498707
1380 0.28097881454911294 0.11531575769927525 -0.7456733520687857
1381 -1.1327260837115378 -0.49305820604934136 0.9428842878268672
1391 -0.8951220795451016 0.6314029372984487 -0.6580037252450266
1393 0.2001538625459851 -0.6770264766167454 0.9899644770120122
3586 0.5231614771725649 0.6911264769730281 -0.15061707369932723
3600 0.23018378385970764 0.24375729461765222 -0.17601161713360816
3651 0.20512370315898662 0.010577153641318579 -0.2829472065811918
3665 -0.010284448606265852 -0.0743448495666279 0.3534388111243055
1474 -0.34586557478702096 0.47690891600891466 -0.5147468394383619
1463 0.057762791496881016 -0.1916042007214735 -0.23809036747369397
1467 -0.4349186486520995 1.2463507119847974 0.4333193798063766
1547 -0.036700907530913665 0.17552410448442998 -0.612987245606992
1557 2.4716386111445217 -2.876880403330814 0.2709862659138283
1565 -0.3426051398767229 0.19092694305639935 0.4540474359271628
1647 -1.859229499965214 1.7083314323883771 -2.824300129521762
3605 0.34409035253316494 -0.38078401617682994 0.31181576197106503
3663 0.19865081403102525 0.2998590049375123 -0.19370006304396517
3664 -0.31181077489908277 -0.27885432289085094 -0.1940998356886017
1646 0.21345090548370715 -0.2947102617874032 0.08655295283275052
1556 0.08781443563728486 0.13709864262506483 0.01293151111360383
1735 -0.3763546283363543 0.2510215856920558 -0.033335378167831366
1736 -0.19077907884401982 0.29469445061281463 0.4727908579304869
3608 -0.7753232005306055 -0.09191938754351972 0.7483414502593121
3609 -0.5318973889532415 0.2898185500924174 -0.5616680322827858
3615 -0.10580278570387437 0.518649084907307 0.4781037975503391
3677 -0.08593779153332312 -0.06821664073674934 -0.14267645403455756
3678 -0.414754818787987 0.8470791365406447 0.08775628325948144
1731 1.3111630024517662 -1.6821216023532606 -0.12394062748775125
1809 1.181826283213708 0.9454161812591202 -0.9783134292903676
1730 0.07043123770364541 -0.11963235033997273 0.04511485997273056
1800 -0.45417406086595646 -0.4834883118878062 -0.2976952055591636
1807 0.03140881237195817 0.18982172873622954 -0.07911371804312509
1808 -0.15733493308323857 -0.0969250913570648 -0.19622773195253515
1813 -0.0749151573014049 0.24689087899658635 0.3304544400924786
1815 0.05256006717769616 -0.8212956523297527 -1.3674348699776995
1816 -0.06083221271436719 0.3929824220333931 0.4357210452439858
1895 0.43099821496437185 0.1409685476642709 0.1315860767589348
1899 -0.3678637512874749 -0.13106998608477327 -0.03284794209274164
3682 -0.2112085715584315 0.06955339389267559 0.02456592085822406
3686 0.533367102930596 -0.2277495507505582 -0.7544774527817165
3690 0.06202406055224423 0.06920188657198724 -0.13262592816878158
3691 -0.117241626029606 0.1545620767240418 0.13420405678989383
1985 0.03311423253029767 -0.221143259921038 -0.05506970389510729
1900 -0.6833294294115169 -1.1190926400618653 -0.19969721861566148
1889 -0.41018329372754037 0.9431495806161727 -0.7564617482299824
1894 -0.22827338867387717 -0.4943027641560935 0.13945758822105084
1896 0.8470171431134109 -1.1412989677570662 -0.8208666758493812
1967 0.007777822942057342 -0.06697726801364762 -0.3741061384012486
1974 -0.13247768400176763 0.21002410930018747 0.3351438136239835
1975 -0.42602254019993335 -0.5910555702646285 -0.31122098124033654
1983 0.21665652032050106 0.020196029425317674 -0.1066391049143307
1984 -1.605421148532181 0.30350180035094193 1.7113025179539019
3696 -0.13680850978720682 0.15970641317160908 0.06073237363116528
3759 -0.27833056062049044 -0.5366764842947893 0.10737655576386194
1973 0.3638220298473507 -0.3010374801059581 -0.47199015289927687
3635 -0.04414368609058484 0.16225741321441994 0.02611614563171047
1047 0.1591994231176014 -0.01165441999028892 0.6943001428111729
1055 -0.21951082906185299 -0.4044508696862719 -0.07860725158532686
1056 -0.6156327341487235 -0.7163517952376977 -0.7524593057512314
1065 -0.5880656369394848 0.013971015774531477 0.17225826322938959
1066 -0.5794765261564122 -0.05860431257605574 -1.611963378038741
1141 -0.045924216955373284 0.1422325208295727 0.12446497855067765
1147 -0.993150657826928 -1.0627463619791817 0.10134203868375785
3636 0.33004241618648644 0.10069722375539626 0.007198037668190116
1146 0.13145898013509824 -0.2690216535543945 0.08336772514029192
1225 -0.2335172694318115 -1.383283648299896 -0.36589274886412976
1142 0.21070636650661578 -0.005243746459216277 1.1493861887588743
1145 0.20147310664525916 0.2117173532681563 -0.34534784299562193
1148 -0.06839078672455984 0.4043327585507423 0.7472341157014959
1223 -0.129494749791139 -0.2787038380257727 0.0002131112964404568
1224 -0.10256135757481236 0.2046244175374425 -0.049754805314052575
1231 0.2191710084052143 0.5683160145641502 0.2849488510864873
1233 0.31144504227695574 -1.1975858583162076 -0.5000105705384127
1234 -0.2784604490870269 0.11382941995474466 -0.23414579778077774
1319 -0.21309864185618707 0.8866946073956844 -0.676540930781959
3576 0.09671570774471043 0.08970841946126953 0.11129022801502701
1318 0.35038874020780586 -0.35138911586298316 -0.03036158846987345
3715 -0.12380134326330425 0.41694502222767404 -0.6907146197847053
1222 0.27429757506733854 -0.14612083445557852 -0.44297482581579656
1306 -0.30472370270202104 -0.366953411522106 -0.35254769435663486
1309 -0.4711796915576568 -0.35465292367064866 0.4480049738096165
1317 0.14095659045520567 -0.7277587878456696 -0.2983448909232845
1392 0.16374053201737668 -0.12947856678750094 0.22229987412307595
3587 -0.5803587982667069 -0.2157193920818714 0.1368473523545871
3593 0.17104982000096142 -0.31807221906627087 0.3086076438802751
3652 0.05288093281192572 -0.30721203489840304 -0.1941619999311686
3658 -1.8986315826150177 -4.830017515168448 0.08625860839342032
1404 -0.045999385676308506 0.9394831492204995 0.35132064929698814
1403 -0.33863643334414667 -0.3819396442828463 -0.25746169679882225
1481 0.7458445273416261 0.356412658612159 0.33381294230144815
1482 -0.5597654441520507 1.1889819852040493 -1.7327035283746173
1483 2.1575422737194496 2.8308314827249155 2.2014494136316216
1488 1.517068323937354 -0.9458785617122215 0.6543694431545426
1489 -0.9003923980463721 1.0113178626667143 0.31048136378843183
1572 1.6864629404139309 0.10613977043339914 0.7324683644837894
1578 4.23392510551012 -1.7629782710612483 1.954190190238703
3666 0.7263621527350419 -0.27556611310386614 0.5925765849501756
3601 -0.2173419284684685 2.920243282609482 -0.2553875512872465
1594 -0.7429192630473852 1.71626158853979 0.8635554675976639
1577 -1.1454881512474107 -1.5754301337441334 0.9513529076573632
1579 0.8502174152712497 0.11724770753180568 -0.29421798732883164
1653 -0.5156051899156994 0.29443354291944507 0.28922419844768876
1654 -0.48737063674445913 -0.24278191995212461 1.2493035712170073
1662 0.028497039979886552 1.902311458940536 -0.35763610942646684
1663 1.03001700810759 1.9481239643457773 3.1361415531717625
1664 -2.983846250977608 -0.2614144169706804 -0.3492668743403312
3606 0.07408756725212755 -0.06131801344787691 -0.20372108107584047
3610 -0.05496512253043035 -0.1555318905944725 -0.012431189158674078
3670 0.042634911085123524 -0.11187443401302545 -0.1433740422731476
3671 0.2903150276165511 -0.1812921768025027 -1.113034690685866
1655 -1.541975034614667 -3.515513555253507 -3.452717066238452
1742 0.11029328192207644 0.28996292780307653 -0.14214469874373373
1743 -0.844321425357486 -2.572824556642486 -0.5545433310329341
1744 -0.1962703468097554 0.29987708187336376 -0.09039468313001808
1814 -0.07709181050674994 0.5423917247612849 -0.10138974415882848
1825 -0.14347601744093813 0.34700313561345636 -0.04557735454889258
1826 0.7392880480000833 0.28428213891751597 0.15800877703378963
1833 -0.4719885261507267 1.6824554296438239 -0.6559827688960301
3616 0.18929169877831611 -0.254198332888716 0.27383342430169766
3683 0.10319217823499016 -0.40932330815137813 -0.011474165761130296
3684 0.18628822530362327 0.5281279648133714 0.04589991891411695
3687 0.05413456850070667 -0.24442044404617075 -0.27992073152955393
3748 -0.009056745795132543 0.11256427295736544 -0.4540518252336296
1824 0.1914558487776061 0.055202067640065196 0.2486213207118181
1827 -0.797761648531607 -0.6918603805269988 -0.5847051762829675
1904 0.8764304825163992 -0.11422165380336084 0.20509405419146956
3630 -0.15340764551683525 0.002487206699590527 -0.47003086465196264
3692 -0.25625589703194884 -1.1084381813929123 0.08067700506659545
3629 0.1682398453870736 -0.22000015207748494 -0.22858033364730615
1992 -0.6603035820024028 -0.10417325864014156 -0.14175793381716428
3697 0.32037067288468263 0.07147181406405315 0.12880508135317478
1073 -0.45504621952572427 -0.250150253391005 -0.04699461319153184
1079 0.3046793897981064 0.4792126674085776 0.16587956705568252
1081 0.17484283370916565 -0.36862457505444524 0.23961165492418884
1082 1.4255255943625886 0.1329096896310641 -0.6246341274609679
3637 0.051746340891296656 0.11837642164454719 0.10531559668625978
3638 0.29474892610805936 -0.20474374900418027 -0.06871573988118804
1161 -0.4460271386290085 1.818941872660112 1.77299889402185
1072 0.18633101258642085 0.2891460170357761 -0.04090853996187014
1151 0.6934683135491695 0.5046875590225207 0.28554655668014534
1152 -0.15474706177253528 -0.14772839820156877 0.1038898903967403
1153 -0.30007759245408816 -0.43692162372492177 -0.5479240179981244
1154 -0.05415903437517603 -1.3013954091636963 -0.9743776952987542
1159 0.033116574228588644 0.13169067631830428 0.20291387836290692
1160 0.6652909740102694 0.09649802294314547 -1.8425172042803277
1247 0.07734880260227822 -0.021680593071017096 0.08477345210134657
3577 -0.06632330305949487 -0.008459175044642766 0.004413755442214909
1232 0.536339078360222 0.30677312568808246 -0.10846844425505407
1240 0.5748146483830116 -0.18887999557450957 0.523549133455411
1241 0.8368002912652251 0.2534685590699641 -0.6997922716802809
1242 0.6882253827319521 -2.0062210629150306 0.15828688489322287
1327 0.01982634714989283 -0.3523675971029561 -0.22440807128043486
1328 -0.7041920078798432 2.0095019869903914 0.7488699052725263
3581 -0.21310597663571618 0.6588122666634145 0.3286475668606169
3588 -1.1543317170680365 -0.8331368448491014 -0.14563107961178945
3649 0.028734182069805617 -0.339518496464556 0.07797524587890015
3650 -0.12101203171631303 0.02131359263712929 0.5505486030203852
3655 -0.45375416302588467 -2.50421529391686 2.2736129368237146
3594 0.06844963635701899 -3.394172989398515 -0.7886298973534589
1421 -2.929531702387372 -2.1125240311827973 -2.927547248766564
3595 -0.9016800524085217 2.8863114357627757 1.3917884972207397
3653 -1.0266766067141964 0.1270262330203232 -1.0655612591848138
3654 0.007980244309706654 0.41545331840682653 0.6697641809313832
1505 -2.8542902329664277 -0.4102747994008384 -2.024249739036341
1595 1.7512419797452987 8.790038524137055 7.612221111889621
1504 4.752156341536807 3.083597328892077 6.03065985741808
1585 -1.700598434332632 2.525388703760093 0.7136240692816227
4321 -0.8074718052323462 2.3070630236940013 2.0526029840940585
3667 -0.8824373425977156 4.470258739210442 -0.5498571355074902
1678 -5.511554067670628 -14.887122867968126 -3.4706782554783135
3813 -2.605630863860538 1.3504333316737398 3.7374196190550837
2524 4.9193039671382355 -3.115595825230459 -1.5841516193821752
2595 6.152554434166318 5.175973725432049 -3.4479634076476526
4329 -3.9980400596385306 -1.4289870334343064 2.7095755975939606
2746 -1.0488318369145417 6.806330004794221 5.449246502156256
3611 -2.2750504152507665 6.093496893920287 1.7634144794939086
3672 -1.1928577992491836 0.8107396195007289 -0.9337566551462912
1752 3.690083456535458 9.703075275904022 8.319789124594905
1745 -0.48479899285696926 -0.04087299708241778 0.11147126180067184
1673 -0.6628313834035244 -2.5922276844921677 0.8588576784781708
1751 -0.423481556393976 0.12434598419154895 0.4696007576436836
1753 -3.958044232199436 0.7945899424876509 0.5482512392118652
1759 -4.95224798385089 2.1482223544642385 0.6597004318282415
3751 0.006192586287648968 2.3562546513970855 0.3524960199902821
4149 3.3916387308300737 -2.6233350302547653 3.7063430851237555
3750 -0.16547570255850141 -2.175935576350437 1.8718654988890777
1848 -4.593173406187703 1.3812314754713948 -0.8835499057292401
1837 2.4999624459089955 -0.5486518145291639 2.410622913153272
1836 -0.53707419712745 -0.49962058955237776 -0.6151059446748569
1838 0.15604778182051643 -0.3355327832835138 2.164398864316119
1846 0.30988366008594886 0.9514571943538607 -0.35458618166184175
1849 -2.208813802486663 1.6827738272500843 0.4159810853441591
1918 -1.4579232526926258 -1.0421702449982215 0.07158199476221998
1924 -0.9821640297255826 0.03251599997410313 0.011396834758501425
1925 -1.1461574711493143 -1.2569399145598061 1.6744779042823115
3622 0.03459803240564829 0.07185401838781809 -0.17599533602965703
3624 -0.25698520881476844 0.41157681351228664 -0.3626197057997184
1777 0.9644560851329421 -1.9763748059088666 -1.448995263989537
3625 0.7197930277790072 0.03185533498621351 0.3497917581831354
2013 0.6181477068345622 -0.032253636830037846 -0.17123095520726997
2015 -0.44698610550439255 -0.19016958535324058 -0.5712715920678841
3631 0.23029843256056834 0.12196922396943922 -0.11086036904186175
3632 -0.25374664203842606 0.46230985746393416 -0.10232048047856744
3699 0.10202824599301964 -0.06677837987967734 0.2518826075589348
3698 0.019251266408155752 0.027286359291229433 0.0942766491950558
3704 0.07201246089536782 0.06480382886218651 -0.45734301602808775
1087 0.80821677153119 -0.7141826432566369 0.032968661324894996
1080 0.14883617585866463 -0.27438461095550437 -0.4761860518531512
1086 -0.05358479704597411 0.003252614001333372 -0.454939881710123
1093 -0.7705844829658997 0.7280016085493083 -0.8641954373106766
1166 -0.11893325641061782 -0.0029258656034653486 -0.13869359604192508
1170 -0.0070641516672670344 -0.14510174039877316 0.14206516402009922
1171 0.5942770894483191 -0.2286462971317914 0.1318490322436725
3578 -0.18371219316259121 0.15286819278106198 0.02272882181959745
3645 0.39857381421185994 0.09917614861031897 -0.351968016799048
3710 -0.19283423719020995 -0.11534297015460196 -0.5663176062579283
3711 0.12923995665044835 -0.2542479770691029 0.026030154556446135
3582 -0.14233860249299068 0.4925444992575344 0.2867735037249979
1255 -0.22921853123672437 -0.21738901589057932 -0.6379993909222776
1256 0.7346383678988447 -0.13269398691396248 0.046375456480760024
1264 -1.1740810599460973 0.36577765891564873 -0.1932093836479927
1266 0.4066383868523559 1.1178084777348363 -0.4439258676984638
1339 0.04571482957700873 -0.2904883472541746 0.6693339001969839
1347 0.2278134041416474 -0.051815179617296175 1.0185966442489147
3583 -0.46136014759989186 -0.010977628967612266 -0.04162950742658622
3718 -0.7459659383278576 -0.6136212858063756 0.5546225149062647
3589 -0.47364598472825403 -0.04806367496025841 -0.3193642673859822
1345 0.6372754221047586 0.22513395901447328 -0.519777999607667
1348 -0.5571272650271926 -0.12496544594411155 -0.8582759602244079
3590 -0.011766013298694247 0.29289772280937665 -0.0008782969636252443
3596 3.993098240248665 -1.207346528927172 -2.410682750117562
3597 -0.5283208064529343 -1.7019593282228556 0.15121676981500842
3656 0.03370103393774516 0.8788677464063536 0.7041182392522011
3660 1.6839368378655497 -0.5102140584423663 -0.1991604840333386
1436 -0.07159121381275207 -0.17371521290446518 -0.5444950099516297
1507 5.914300946677021 3.0876094129320677 6.151149318986275
1429 2.1244962854010496 -0.9790514255622809 3.148221173989962
4334 5.7515228417164455 3.540683785953804 -8.326838137388346
1515 -0.8650430399464083 1.8009755437189952 -0.12580566842327298
1502 2.123790445394923 -6.262038192615338 -6.33849939173823
1506 3.1900644588316966 6.251871366874048 -8.752265904339655
1508 2.3043228935250695 0.9849428180621599 3.0150284241102665
1514 4.720515157577419 3.9953837446722615 -5.736293638492196
1599 -1.6528302273767872 3.6458839456639476 -8.196398415046865
1607 -2.3363011703074084 -4.952013848067714 -0.03717753571719821
3874 -4.471118898326459 8.985608986145921 3.3310819356731143
4330 -1.0249333578980808 0.1358850330962103 1.9177390430938457
1775 -5.096953978185149 -6.91354463604218 9.033389273783712
2679 -2.2617769014119187 13.517033179099624 5.466391972581683
1765 -8.006586365611277 2.0344150552937132 -2.5499314742884076
3693 1.9929380833918633 4.755861101217765 -4.635321071009875
1858 -2.705049475926122 -5.320564260314841 5.08079120199616
1856 5.949619450617848 9.596882071095049 -2.181846990160183
1854 -0.8576213606648613 -6.213882166322958 5.078775507269088
1937 -1.7128942515749572 8.836660779114908 -4.1332847577637715
3626 -0.09430190761588891 -0.5828255782738843 0.7745022431359565
3639 -0.06778968641375234 -0.20035732920889218 -0.1080030970856634
2014 0.3142672567525713 0.45349001726010846 0.12755058541542058
1930 -2.160264000269274 -0.560286464533568 -0.2617064897604121
1935 1.1602634585175406 -1.8258525424691894 0.3922509883379306
2021 -0.8426724512807806 0.5373477303163848 -0.6136417185871142
2030 -0.4847675541074749 4.279850147227714 0.10329661771402916
2031 -1.485262355340897 -0.05786922703558655 0.16555840070858857
3700 -0.18588897465970358 -0.03133229230401125 0.24360175813116847
3701 0.6851880973899593 0.4496881110973378 -0.18561933843311715
3755 -0.9774914127880909 -1.4216180866693147 1.6751896873609238
1085 0.7191308649065805 0.06908884309505697 0.06636204696771325
2020 0.9517664021947971 0.23249742202770354 -0.26998139844039554
2022 0.2540846233942367 -0.9606575606466475 0.06758190344132844
1187 -0.22779196344179123 -0.006694286884666554 0.1090177291169829
1106 0.1949104969204204 -0.2928064763945867 -1.118195806887854
1107 -0.7584544542451666 0.5838132019690371 -1.1651543246044906
1188 0.943633189775598 -0.5617896957658897 0.6865083971689128
3640 0.0005839579928450985 -0.5291260533960727 0.019467085036101322
3641 0.010911024723715418 -0.17764367343777168 0.336917995494379
3705 -0.1117200501858528 1.076898112907631 0.5029994796945305
3646 0.32901299695748437 0.9081327115032934 -0.19198275526703984
1283 0.23512032146834347 0.39647717722841574 -0.3190693104915224
1177 0.2985730722110431 0.1259612764573846 -0.18889238535964578
1186 -0.16673875651274345 -0.023995819326376025 0.5220640120921003
1265 -0.5381499428064429 0.2639163974593778 0.3399528184101353
1275 0.01828203605609171 0.4862609113695816 0.06188457866189849
1276 -0.23070700279336664 0.8236677775831888 0.4091284975656607
1281 -0.19196807805603938 0.07548801606063486 0.06037297328665757
3584 -0.11208203978224303 -0.17284831934840117 0.06214611257940667
3712 0.3292809145212078 0.2250934033511457 -0.6763402508315135
3526 0.39493210591753186 0.9131134326760221 -1.3173922062029126
1346 0.5982702428443023 0.05472206668397984 -0.03049884304925071
1274 0.08690317017019603 -0.030331442758315806 -0.21686892067583258
1351 0.2825340921802032 0.20170397367288848 0.3535846668539876
1352 -3.3204122499038697 -1.4309212422192996 1.4757339089367207
1353 -0.33924493004835826 -0.03300311763368801 0.796477641233785
1358 -0.01624640421122493 0.5473049314702265 0.025529669237801943
1359 -2.8486426584813724 -2.500501509991687 3.674884378704672
1440 0.10238995122088383 0.12324266018419462 -0.12427806524752853
1447 -0.20401761460811674 -0.007047741112645471 0.31832504377789633
3591 -0.015155623062150137 0.19976539690890707 -0.17589616051031243
1441 -0.3577569140076081 -0.42741896507819005 1.5373787497453908
1442 0.05842081151275357 -0.09747857177616398 0.45106959738289254
1446 -0.1270860362298337 0.14948152396456904 0.31475151378337407
1523 0.19182584429077487 -0.12409750892512911 0.5948138207649238
1531 -0.16104653565227559 -0.297613893637962 -0.14376012055497853
1532 0.38773372734154393 -0.2704349696093681 0.1884340277987756
3603 -1.1404011574490445 1.0806314486963857 -1.1938900744712289
3661 -0.2950725095993963 0.0667246533532299 -0.5277110957060459
3668 1.467755522403949 1.5259481017488568 0.22680372814544364
3669 -0.3086079913625367 0.30802429876711507 -0.9422716710669381
2591 17.679508530546922 5.426526645535353 -9.805167026348954
1606 0.23813011566238446 0.818279389043049 -3.4250124913951416
4312 1.8672014337600438 -1.576775786962255 3.589543328136744
1611 0.6642010245469248 -6.612380261468238 -3.1856234090711824
1612 -0.6232444446384683 1.4153966646760257 1.0654119564087268
1619 -8.700796154387815 0.5515167301783052 -8.686649485737647
1699 -1.2913908552102353 1.174186681528074 -1.1327437965516465
1706 2.8267538076691285 -1.7800211763136768 -3.051184456282576
1708 1.7878301690163343 -2.3518502189203754 -2.6886223317320477
1788 -0.82949787592124 1.0627700712966028 -0.7239993277282746
3674 -0.48363440940140523 0.3704159936871886 -0.6966798536154923
3536 1.7940332847206386 -2.0468439897116966 4.223762878346402
2748 2.2676011938220366 -18.56519707144505 13.919352883210545
3747 1.6381461519747862 0.20600680706592775 -3.7197517673326597
3619 5.148951181850369 1.9478210042895117 5.944617350719425
1787 7.56800816640792 -0.6441537957626284 9.013624868123575
3740 1.216788432334048 -3.749024856489196 2.4508421362283164
2460 4.2745927741087275 -3.616024973624067 -0.47063172961866945
1608 2.093884736472914 -1.1200792712334058 -2.173818860607824
1700 4.9614295698579385 -3.081508570514685 3.448949758467735
1698 0.35923569048786425 0.4653056379982758 -0.6198273817842757
1789 2.9841242107371313 -0.07415702282842812 2.8914334079147395
1690 -9.091745418967585 1.173007517033122 6.5060982485189465
4316 -2.852997659639449 2.6992559738511384 3.750880466573407
1862 0.6596018640495614 6.449044535917154 -15.794779416162074
3815 -5.139693537076023 -0.2942113097835348 -0.3412047973617397
1866 -2.869675556888101 0.8154559796594162 -4.44451627570994
1936 4.796990617512046 2.3828064542493212 -0.2563560897512643
1874 -1.6515046323171245 4.27020264601899 -2.2106048982643496
1944 -0.29140783749057847 -3.597978101005117 -1.7536556558767689
1945 6.552080767759692 4.9176677779134526 -4.187726373754136
3633 0.3496857011497289 0.5537754225309662 -0.5684074516594265
3688 0.7578423939618969 3.0449622454406264 0.9054754468979991
3694 -1.461582915439643 -0.17845818346886805 -0.021307862628062713
2029 1.1247256583092504 -1.4021448602688733 1.3967803251804516
1946 1.310023243566156 1.1615859801899875 -5.282249058465642
1943 2.0067040795826827 2.25550375729215 1.2302536174285283
2036 2.5520558225234073 -0.9755302585188771 2.6384074189350684
2037 1.0727322085268503 -2.8756117374753267 -0.8982979707533265
3702 0.16900723784532604 -0.13551000009983735 -0.2036879358951008
1040 0.5702304667287683 -0.22881871750107344 0.19544806996229486
3766 0.02713044482199208 -0.06268916847753139 0.07446117144822227
3835 0.0641417637100245 -0.1692788591444218 0.134437382934121
1108 3.0579800154794907 -0.9430664896076718 0.5099503421414635
1115 -0.3955125621449069 0.45637353232973615 -0.09207084292016006
1116 -0.30132157779237667 -0.126815324563097 0.15623786968693718
1204 0.3131264543817656 -0.0598378837055942 -0.04509780625512049
1205 -0.3566455238745357 -1.5931027053321152 0.7797329633617686
1209 -0.26411342363047713 0.2634865540363164 0.5034061086081062
3770 -0.13425072514210357 0.0625750606703664 -0.16029966732103335
3843 0.3151239721166861 0.29548693702308154 0.05671039863715811
1190 -0.4911628258562395 -0.09176194073455737 -0.03207602450650425
1123 0.5879057277437943 1.3408915578631657 0.20881512790509116
1200 0.07464938174570339 -1.5564081163991221 1.004497574004787
1290 0.4753663904928775 0.010726954391704438 -0.652025778804237
1296 -3.510415956668122 0.8307795261199442 -0.894882877862342
1297 0.028394591421182343 -0.12417425353166864 -0.05557033239214663
1298 1.6046877200401808 0.47165142066418675 0.12902980246681678
1376 -0.7067300302970062 -0.2775880766628681 -0.11386477264471802
3782 -0.3222645886487024 0.22991010723030855 0.11434673277413884
3791 0.09781851131444402 0.36137318921566164 0.06946027171823314
1368 -0.024400292657847517 0.13815137713608394 0.30941387241846224
1369 -0.1758888843738954 -0.05919950499621046 -0.14992194507640516
3730 0.13203519078514867 -0.06386520649955815 -0.02639209767800662
3731 0.1328752143799232 -0.34660489691476143 0.316223238451269
3733 0.00026040232879280534 0.2273377966547501 -0.4618730123181864
3795 -0.15029576784083204 0.07612376557765932 0.3832611362985743
3800 0.21895509207235736 0.1162062150798869 -0.18416761847005117
1459 0.37793183875578695 0.24667276147710948 -0.05621962778665841
1540 -0.41027263753177673 0.22038774097430752 0.2342708276266344
1541 -0.11862688483743593 -1.3878052373555583 -0.35215520876951834
1542 -0.3965115761795359 0.5877633195169925 -0.8816694749806683
1550 0.05052850038608377 -0.04980119098981324 0.02971769654747839
1551 0.3819544206767273 -0.3176812447512542 0.012116571243011076
1552 -0.5789133840813409 -0.5672045806736101 0.10754765683390734
1629 -2.2099197977375478 0.9244781694400729 -3.116802786847127
1634 -0.1261787101850894 -0.3509172034047431 0.02879629831355569
1635 0.018775704373907624 -0.20530022170774306 -0.023078238657993477
1636 0.48871422196601805 0.3875844116948265 -0.8160374960986184
3739 -0.7051320688957107 0.38483285522774807 0.4434356156846472
1716 -0.24492635116263922 0.152450138518107 0.7188216396108307
1718 -0.5249560435854679 -0.03569941981897001 -0.1807082504349074
1725 -0.20027287962732615 -0.5350042194098996 0.36236614240141235
1726 0.07306134649360822 0.5511605503844054 -0.009038018037666937
1727 -1.2563466990662149 -5.081823273582 1.0226176336858674
1804 -2.063421569758951 0.8679559003279548 1.785967243802095
3742 0.13933135029015678 0.008760151997559636 0.3277713900615914
3809 -2.1632072456395353 1.3320061089672526 -0.4972206034309
3818 0.19135238147612912 0.43708901816886336 0.742504558363031
1717 0.16149279387498583 1.0382035572863222 0.7593083206324718
1796 0.008181824154240508 3.69678301025225 -1.544371555010608
1797 0.3373263699805782 -1.5380193359924186 -0.47305138217021114
1803 0.09105606111304904 -0.2895372110130366 0.811069265508245
3752 -0.004858372467122793 -0.01647743346330469 -0.21767728101555156
3758 0.12136637072709752 0.43225890433394665 -0.3946981805741309
3824 0.03592984265498113 -0.14605934204729595 0.20683992446773888
3830 0.2692439634955564 -0.14535841399458913 -0.358140658327117
3831 0.12665387945648204 0.2440322104928182 0.18905295494276772
1790 -0.45081475528660664 -0.21764699327832024 -0.19472385519208063
1783 2.0037995673364852 -0.9149752642772123 -1.4040214627110303
1878 -3.0604806264177795 -1.636903432215026 3.07657514675599
1883 -0.8279346267959651 1.5913993159217545 -2.421443306518804
1960 -1.3693186654450884 -0.39199176058648905 -0.49100519865633213
1961 0.3336879748702071 -0.15138397737732884 0.0847963492564911
1962 -0.554645011806325 3.2800168751357206 -3.3964257248410337
1970 0.5402369934339899 0.19373051240437422 -0.17614569082963022
1971 0.1126792700641947 0.17164445736510114 0.31643163365082416
1972 0.7710905344982119 2.9576638888033404 -1.6802911110625889
3763 0.464084078139049 1.08390131829835 0.8769704406937099
1969 0.14173888603856843 0.1336205794428674 -0.9236278837315901
1050 0.09608415787362116 0.24041035720196138 -2.6678723053097526
1987 -3.8676439780697605 -1.752313371217259 -0.10324817842942097
1044 0.4826969752288805 0.10565475282616205 0.00949127734979647
1045 -1.2842634528798105 -0.028800915542016935 -0.5253209864285316
1133 0.570961628445435 -0.08405196817762146 0.1367640855010918
1216 0.28023715825447354 -0.11461446304412433 -0.5232704571076897
3713 0.30784374451227536 -0.13447051824572645 -0.015465726019920821
3714 -0.1942300315680547 -0.3630423680360811 -0.05372447237964846
3767 -0.04231347899106666 -0.1609819463203731 0.14233073497972112
3771 -0.15503770382466908 -0.01175312919057283 0.20922142755145925
3836 -0.6164489387129104 -0.3176533346463313 0.2507851873591077
1132 -0.15571672918770774 0.16261884160149317 0.06032250824030003
1131 -0.8672665721860608 0.8481797292910807 0.26281069107721394
1210 -0.28446757232437975 0.19275028134757655 0.26650176103661327
1218 0.16656492252076904 -0.3469896396302959 -0.17647263596553142
1219 0.4549645269949146 -1.2091651507401724 -1.817791683245431
3722 0.09677388497149608 0.005408802689324284 -0.0438552782517745
3723 -0.086455503561731 -0.21282595642463795 0.14149160545195197
3777 0.2544832884930611 -0.5440176604746759 -0.22035784149482832
3784 0.12794640788788056 0.11512504674920171 0.013469503927462679
3849 -0.059274904024413565 -0.48273876404562194 -0.5152771159001449
1384 0.11466953538924873 0.14318316071571835 0.7063219050498861
1385 0.06644195081127714 -0.12180161382842455 0.5824827462238149
1386 -0.12884179508564841 -0.6749694675041 0.3009332561685633
1397 -0.26835604615119296 0.3927059386393553 -0.2889143974150235
1398 0.6156075348189989 0.2594531843480429 0.09811470725377675
1478 -0.22022016752369325 -0.8401168507088216 1.1623014712856392
3726 0.24005776728714903 -0.0513505569567403 -0.02556352386706621
3727 -0.06648032654464188 0.3389346944828376 0.2103229706622025
3783 -0.03036097081435434 -0.10676641213043514 0.08691073821899982
1383 0.13411080256880054 -0.09426747448999166 0.19112594210158157
3859 -0.08573707804392652 0.004596534260245149 -0.002101575453564586
1375 -0.07583772553638371 0.10922374455410605 -0.24350776439401273
1468 2.041183313807959 -1.8852832651274753 -0.15021748536311252
1469 -0.11571177056067308 -0.5048766702250849 0.19364535937256375
1470 1.266081575105575 -4.5729243985323205 -1.461352745069612
1477 -0.15023224273989647 -0.12279875098427366 0.6578947720684433
1561 -0.15627300150290727 0.011615903472034055 0.09767132442018057
1569 0.37936315697486206 0.07515359372638718 0.13036031874730714
1570 -0.14668763739779528 0.4104268954459112 -0.2368103311347353
3734 0.21853732627194847 -0.17505951658446672 0.0937737966624177
1568 0.7123976194660218 -0.0982331364377775 -0.13991860945700255
1650 0.21363327397408427 0.5999627993729868 -0.35968469935652797
1559 1.8127583075758413 0.3060875814039332 -0.7492983214083305
1560 0.17968996421404365 0.15815730360516184 -0.1669001387586153
1642 1.7869550155620286 -0.2228629158863796 0.5934507583476577
1643 0.07409645649866489 0.3282329917857549 0.0031464251438300763
3743 0.05155416908429018 -0.07826227995480875 -0.21553883667535595
3810 0.26004848128742114 0.11997649877409963 -0.18669131474413508
1732 0.5251664385146806 1.1064220870710084 -0.28749381798402374
1733 -0.14915379054909536 -0.18383640902164747 -0.30817472000700713
1810 -0.57504738565587 0.49236294881206766 -0.12942978567624108
1811 0.390350506644084 -0.4389910498155812 0.07576315568689085
1812 -2.333614416798139 4.737697803107361 2.7219112373667995
1818 0.29003291709759826 0.13422001855031804 0.0714855163988323
1819 0.1699519982765853 -0.3069085076160224 0.5898648339927391
1820 -1.151545812731575 -0.45922143289279016 0.09611754181700795
3753 -0.11140284397524915 -0.09388724785098002 0.07965696482832843
3826 0.09188938128772424 0.07547479890024428 0.13111615180408429
3760 -0.4973804383965413 -0.1456909275998564 0.031024864967766057
1979 -2.640473534765583 -0.4740214210422964 -0.6077198507164746
1988 0.037404416662011365 -0.10082229069242642 -0.32501023997418926
1989 0.2641692103662336 -0.6847676678869223 0.8097776348788722
3825 0.005680667305892374 0.13035576620760847 0.12666991002560513
3832 -0.174792568161139 -0.05855417107236231 0.028702804038348035
3833 0.20288881643011403 0.09669526420206041 -0.18825857387493805
1977 -1.0716437218291315 -1.097559181485825 -0.002455806363180044
1986 -0.3194283344858419 -0.15000776317528602 0.5958430681442287
1978 -0.0924779849261281 0.006873501980502276 0.3187624985981494
1059 0.20705162351540482 -0.6894875439032527 0.11712215266149904
1060 1.8608793493624047 -0.6729367691949129 -0.014749939378379904
1994 0.9967548168181901 -0.6523841929372747 0.4198405782119867
3716 -0.19890213817377916 -0.0002756307142215398 -0.307248924042987
3837 -0.5694825244110735 -0.20719289023844176 0.4247341379155796
3838 -0.11983024295022326 -0.17041787063507066 0.34171603494704544
3774 -0.26839361822681274 -0.05466483230453425 0.2037654257007047
1227 -0.4479016619038443 -0.5935867383100413 1.1058718382632555
1228 0.08505968744022142 0.252566091371851 -0.3881605216520413
1229 0.0972884560830749 -0.02963821900535052 -1.192775401896602
1237 0.6090109350872678 0.8489761395471774 1.3122978012250108
1238 0.06000372540324896 -1.6974288546969538 1.0374049016926372
3772 0.05940284398409713 -0.036025666592860175 -0.01871537461122734
3773 -0.5289749797468354 -0.2277499976069371 -0.03980853308061531
1217 0.5393288861280563 0.37244190594233073 0.17471697011160167
1311 0.6103326658401753 0.06894658812097433 0.35708443935248463
1312 -0.6208156999127463 0.3982369446327952 0.05425026972508153
1313 -0.7649509167733166 0.5406831353310376 -0.32252972723651874
1322 1.0006275988823778 0.4915739859699416 -0.18156531635842485
1408 -0.2084085856355087 2.1054346693815873 1.7846354138090197
1412 3.579831819890456 5.270145484185489 0.20190274283214663
3785 -0.44242157027126783 0.018351694603947064 -0.18162265917418385
1396 -0.220533739548342 0.24133445414027205 0.07201432241515036
1406 -0.9734102873222684 -0.9671518311533939 -0.9503204593797272
1407 0.30075685117625744 -0.12687158139638033 0.6279259989274122
3736 0.1104997289894534 -0.6306412025851992 -1.0315099446988498
3796 -0.11104350261897528 -0.07298893273409392 0.03334554783819607
3797 -0.3021487970849583 -0.8238570852510566 -0.8490966872169369
1586 0.0863323574788405 5.849578284060958 0.690063087952466
3869 1.498103947510103 3.5790268995450556 4.188292602538951
1496 5.279631149196521 -4.651027950904217 -5.131161571827689
1490 -0.4084467295322989 -2.069022556234769 2.840178357871422
1573 -0.5424070637037646 -0.4178243283585098 0.03543316865688532
1574 -0.23053090471579207 0.33428541757676444 -0.12989191195113953
1657 0.2460586535803428 -0.10395716652466924 -0.5504738700399304
1659 1.1899015789676763 2.546392999642735 -3.1751035238320475
1667 -0.2738538113049091 -0.8114230714212517 -0.5142656772290611
1668 0.8178025943841354 -0.7121242114558549 0.9334577026708675
3735 0.336958472601971 0.07428340202499172 -0.04643763222629174
3801 0.18205319055925828 -0.36244044831949424 0.1435876056284803
1666 0.6061868938268834 0.15582067068489183 0.2550614131526689
1580 4.845642620830664 -4.965601596244979 -2.6114112751714553
1658 -0.281703391904181 -0.0941287332243762 -1.020061903814156
1649 0.6289275079351136 1.1902911139267944 0.039650523897010605
1747 -1.0839764495830013 -1.2672212905114784 -1.379740522753291
1835 -0.8644652104279941 1.7721899437203423 0.1601751525684476
3744 0.025150262581815228 -0.16098809390336943 -0.026171377589418714
3749 0.7641322644553067 -0.023385757064273142 0.24348199150565927
3811 -1.0667375894033173 0.493985687647656 1.6273602659942408
3819 -0.07956262812950601 -0.11863876754655162 0.1570613902981931
3820 0.272346627662041 0.0409099516129163 0.47462901439292987
1737 -0.5850079673235864 -0.03417942263450618 0.03808191851162226
3754 0.4745849804932382 0.31949116379392184 0.5921306160948795
1828 0.2593624020344912 -0.8843847338887222 -0.1312800273545041
1829 0.22966460867182373 0.15605642174781642 -0.3650942059738264
1906 -4.047041982822793 1.1139497531668412 0.3165418846981883
1912 0.5941690073973984 -0.32737573193853253 -0.38669621208676647
1913 1.4473460569420742 -1.0338061051769412 -3.0072051144316854
2002 -1.1766692001791161 2.4994045442554382 1.1015368698880628
3761 -0.1324517888712265 -0.04155144144518906 0.22754838401411817
1995 -0.5225429643526253 0.18148829817417905 -0.2542123171788328
1996 1.605807535048923 -3.8644188059777655 2.370488958198951
2001 0.06198955453776774 0.2024428973839681 -0.4838336812657227
3834 0.1629165767970006 -0.13432424156320982 0.05506468848389701
1083 -0.8378618470260442 0.24176837278430144 -0.47816038998700067
2000 0.3759906304233153 -4.1204062262641585 -0.574537606525271
3841 0.250867691895709 -0.11772407101119794 -0.09679168304554409
3840 0.34164475380364867 0.2269917275794332 0.36598305036338885
2016 -0.552273624235199 -0.2208659791027037 0.28500057821407165
1088 0.31736059144300555 0.5099726677990584 -0.0028171919024709167
3895 -0.28634186883838225 -0.9833002971211797 -0.35955188729005805
1075 -0.5995066125946676 -0.4969249083602167 -0.29104474854157264
1162 -0.7116131324362889 -0.48211848947666236 0.21923328342516057
1163 -1.549718835116453 0.266468114339799 0.10489140456314346
1251 -0.04869795329056452 -0.23616227159940215 0.10000569358732404
3717 0.04665088549044071 0.3317679925032903 -0.10789564183526527
3775 0.13751657276980148 -0.09104567462146787 0.12828029833796992
3839 -0.18407362322555698 -0.09076034851405647 0.0890887250831839
1236 -1.8777751637798012 -2.1909978105735637 -0.42702527745201946
1244 -0.3790314051871726 0.6617300358617002 0.43844403404915167
1245 2.0923862807202593 -0.21090560393783672 -1.226571458401492
1250 -1.904659980791192 -1.1260191795394006 0.7420215844670189
1329 1.7305821328968634 0.9903223161139426 0.3427635083240937
1335 -1.3766038904968938 -0.8757068692557215 -1.3786127842449651
1336 -2.9120815322214897 -0.9620241528322705 -1.8558616761413016
1424 -5.234905850168756 2.3714715414125562 -11.022264518288084
3720 -0.19031784005903066 -0.11027616397671454 -0.12522638480983592
3778 -0.5216857992750928 -0.14407917251680646 -0.18162702763239683
3787 -1.127791118344048 0.11799852660304315 -0.2752148295070706
1321 1.0460891965158683 3.997207670096578 2.3340975675070808
3786 0.572455713551717 -0.37157854944085567 -0.6522264178547105
3798 -4.438158899085543 0.5221056521526823 -4.076956231983242
1411 0.8406007493817558 0.4518717038066587 -2.2002326197535003
1422 -3.9654847956463706 -3.427415344712643 -0.5908668348469975
1417 -0.7409979323189414 2.0222691122850813 4.334427813450143
1418 -0.9730152395409333 -2.0979335209964733 1.1643018798453753
1423 3.5877799046789463 2.284140129595078 6.178082414288659
3792 -0.48615027211432116 -0.9933230446842026 -0.5461467503824626
3799 4.3680147232029 10.49041885469662 1.8019895503028032
2744 -2.1989373833270887 0.0792072284902902 0.026413745406062856
2442 11.828555205534927 -10.22699499095956 9.833113804121277
2589 -10.22302342994196 8.973224080722984 3.8655249861411125
3990 -5.621471821950882 6.129473995157265 7.964829390442724
4325 2.927070041464686 0.6724637063233501 4.778938367041419
2598 4.692032538938814 5.278450834304616 2.0946588049009174
3862 -5.760463968899437 0.7576773658361579 -1.9874058754376465
2443 9.724776413524848 -2.8609151664690375 -3.3665583621981177
3930 2.0276516546650387 9.606338611015689 -5.58182371172651
2579 -9.262760774947386 1.1709280330412797 -8.949965161545089
3992 1.395822197421863 -1.4673579646697184 1.5981264781392184
3993 2.765756218366178 0.15955120017014088 -3.3419495096092398
1677 -2.202413268532294 -2.338345747188457 -0.4261455127246747
2656 4.656377682887363 1.831214121691668 7.8367504507952574
3812 -0.6510955328017496 3.011320852434187 0.05077750634467584
1947 3.8240851761433126 6.676224290149943 -3.1460821819472278
2655 1.1499071580576836 -3.785350067675058 0.8311054779445022
2664 -0.343525880614016 1.8661132221029781 -0.1326445664985446
1755 0.10271712940973295 0.7714302015864201 0.5961697702829104
1841 1.3857303291968905 -1.459489271996921 -0.24553073328358185
1842 -0.6636673695992391 -0.1552282416349878 -0.18021032149291977
3821 -2.0482941837875592 1.1088120922353097 0.9374140316499578
3827 6.387570924933279 0.39588086418957935 -1.4898644009265762
3828 0.28627963785999977 -2.697185353969979 0.2284851556880504
1850 1.0079053993451614 1.721402148953515 0.5257274538620339
1927 0.5369978687380309 -0.7274919316887696 -0.022009989549908005
1911 -1.565168766487945 -0.7461262110883005 -0.8741606544592834
1920 1.9904712043749613 -1.8559725643782783 -1.4019588404227328
1921 -0.3609733880356365 0.07715457029809501 -0.427345736459041
2007 1.2803699076680726 -0.8590986069413683 1.3005893252117593
2008 -0.17382118186009923 0.2711283718287435 0.034705411198830825
2009 0.8713442207894339 -0.7436724479985235 -0.7836680689866913
2017 -0.15840152057245238 0.33545302149898965 -0.4734587537854565
2018 0.4448672085666557 -1.1880132691871892 -0.1395691304764176
3887 0.37981959025826734 -0.17930978966944006 0.07430289336626192
1096 0.07949987385304333 -0.18827000542894257 0.6262159678400955
1089 -0.37785194736619726 -0.29131507541829377 0.6036982081425135
1095 -0.09318259368291952 -0.501024579181365 0.3573835345967527
1173 0.8675534174597497 -0.4358208369633005 -0.09364596102128467
3719 -0.38335939918719736 -0.20391420972153274 -0.08767294393432226
3768 0.6358889778300447 0.09867044546802661 0.10297104052569196
3842 -0.17629276620780007 0.08095935347998817 0.12527103065778197
3769 0.1342578587078372 -0.056873446768452705 0.09521100670971237
1258 0.11419153888199776 0.32483997823896504 -0.21518276176342846
1259 0.07154821626599181 -0.6288300130118706 0.001677214526891933
1260 0.30443024108552647 0.20702721452268225 0.4211103815847724
1268 -0.5886059218056288 0.6355507774560446 -0.22339035347004546
1269 -0.3290121188308379 -0.037451123634497346 -0.37643439999436334
3776 0.14276904056527823 0.03688683499249632 -0.02004186523625849
3789 -0.18274164209633836 -0.03282471780071598 0.1823606095191934
3724 -0.04789491868438991 -0.13255892036599476 -0.24852650228756656
1249 -1.1648910334650127 0.5336496732190467 0.8299542597023148
1334 0.03273217445429834 0.11208944861517264 -0.49381580435688627
1341 -0.612300981282911 2.3412014748923506 0.741797561621942
1342 -1.1128272880852332 -1.0614134484449096 -0.07973209064310018
1431 -1.5742121777613856 -1.0488914930489934 -2.3626235470582566
1432 2.34803463380451 4.42819830988535 -1.8547703355843153
1433 -2.728459023792812 -1.1494659431828038 -1.250777234438727
1437 1.6263168757105768 0.45584352009119733 -2.215583057879089
1519 2.2604201834289843 1.0572251507384982 2.936027439606945
3788 -0.6572801502341612 0.3735431311706042 0.17934249839128358
3732 0.39621516818464314 -0.8535075608451318 0.7659718263650745
1516 -0.7005033180191763 -5.184238678314777 3.225154421766343
2663 -8.795911317123677 0.5375412129925596 -5.282191846364515
3659 0.11784733991039423 4.253324335230924 3.0411790739183435
1518 -15.700405809646073 3.866268378311263 7.141124333145922
3803 5.2911613151528085 -5.182622415443212 -3.3060360635651964
3999 -2.1695512370413987 -0.37235322428304984 -4.740766958929742
3737 1.9272591902326115 8.689804194950803 -8.15534341215273
2517 -5.425545489646243 1.804760602776101 -4.665174233294005
1861 -1.3147178496259828 4.994158256565462 -0.1504009611448338
4308 10.457221524661811 -2.6805790037633024 9.487184078134682
1860 -1.0361493003637852 -1.976100186324297 1.0994653010655022
3823 1.269847917617485 -0.9894101431642878 1.5711688555445646
1931 1.1394710770157788 0.7052550918857462 0.365749312024015
1932 0.9506497394740221 0.06658695227149682 -0.6250916783182159
1933 4.240137171928495 0.5866567932619225 2.0641414522297583
1940 -1.6454103423990243 1.504027696777988 1.3217571626559026
1941 -2.563737873902823 -0.831932357818802 -3.3038291903684702
2024 0.8172794602503769 0.9250374719892044 -0.37464305021628097
2032 1.9041977199158509 -0.18565357766625357 -0.42865761606495467
3892 1.3118763047067685 -0.5256025817387128 -0.7237853468195707
1939 -0.006133465402725401 -0.2620899626554422 -0.3245951101213336
1938 6.033599573065002 -6.747652077055698 0.017570642941623194
2023 0.9370517338009365 -0.3688886907307292 0.15201004017239628
3764 -0.18544466519548228 -0.3472426204236049 0.6414192739009006
1101 -0.9040185664228882 0.4325925372436462 -0.044749839884323274
1102 -0.07486651069546725 0.28574006692648884 0.27755747857488666
1103 -0.4633335197777395 0.3100298418383936 0.18166632238498379
1109 0.13786945900441486 -0.45896219745874556 0.5197835704920445
1192 -1.2083846252210766 -0.7996092923484649 0.4343411720118002
3765 -0.03763798926592619 0.14078856253341487 0.13107574408029588
3899 -0.06276188831624108 0.20328834346651153 -0.13044265857946274
1180 -0.3280011438254864 0.23483778930817717 -0.3015266382908554
1181 0.015481746233327808 -0.17651512454389806 0.04628099785576539
1182 0.5560479952167089 -0.3366039474447436 0.7670860657318731
1191 0.1396590930163917 -0.05301311721890934 0.0469197681829157
1278 0.5496740184049346 -1.308553240335253 0.18957023084916055
1284 -0.3560468616320588 -0.07009730522269089 -0.01970380036612883
3781 -0.028871687120580965 -0.3887659466531197 0.911622946456381
3721 -0.2812251320267177 -0.023055010446032122 -0.13285563531423172
1361 0.879623438607393 0.21084565913659628 -0.1861220861443094
1355 -0.017951084396892605 -0.1744074012336616 -0.10083152103328784
1362 -0.25623864946607816 0.1627494410222647 0.19660267482951632
1452 1.3279308882454628 0.30272863396680133 -1.8758816430281622
3725 0.15455162702769282 -0.4986064472047446 -0.2365157038287639
3729 -0.07660406987253811 0.15062740298911786 -0.13688292611315214
3779 0.028199570627320227 -0.09730478212546496 -0.2145935979903173
3780 -0.2197759090376794 -0.06345087628615144 -0.050200779094281923
3790 -0.02981559135782585 -0.22530344002078853 -0.18435424086352487
1443 0.23328271705405226 1.425753691839963 -3.3092940068404766
1450 -2.154230896593126 0.5137680103618055 0.14450620256599928
1451 0.4830086427845214 -0.08481806936645195 0.38143889675335635
1525 -0.332447613734568 -0.18861367719268612 -0.5256109484008721
1526 3.167316415378272 7.669233111077336 4.53155222854006
1534 -2.468259933324899 -2.040870382185766 -0.9940884351812284
1535 1.6082823699771034 -0.22390546274092996 0.46973351468005925
1536 -0.08217085584282237 -0.49224429150431254 -0.3820485712844368
3728 -0.08551323154370231 -0.218916686319418 0.2740355561362114
3793 0.7119705121961742 -0.7831587765779808 0.9283198935169685
3794 -0.3732215652533852 0.1828090335096298 0.01314134265022917
3871 -0.03459146901756953 0.5775535297979753 -0.002513116050065733
1615 -2.3438625433286004 -3.8056594046307266 -0.464621652305138
3804 -1.7603301513117415 -7.300480787539261 1.7232946180487057
3738 -0.13280466175573688 -0.10236415199941705 -0.4985612396775946
1517 -4.3604032534642245 2.7836095437992165 2.018724036746572
1614 1.0296003206727276 1.6027018180691741 -3.9020212031748356
1616 2.740458406941405 6.586156493249643 3.340657073950077
1621 -0.2563921973406615 4.27677703245719 -0.7559257173132576
1622 -2.1523062047236294 1.0152015760942847 1.7826257870562703
3741 -1.5475290346413126 0.38244065579655534 0.3270624789723401
3807 -1.9155309558681628 6.053928810221654 1.6080820866642764
3808 3.59670477001166 -2.5317160324258308 -0.11567242338689059
1701 1.1794802768841557 -2.0695169904117594 -2.1912647361437774
2590 2.1177717612390032 -11.660299927214869 -5.0299938461061995
2435 -4.122046109749581 0.32862345100171103 -5.097091738118837
1613 14.595871798805073 -7.953380929274072 -2.1692435803990864
2671 -4.887553937485134 -11.900522819530739 3.0744440414499548
2597 3.5390471823110854 5.4792950525839474 5.82647874525794
3817 2.3654131920869723 -1.0328856863411005 -1.4398184797891682
2654 -7.262919308199873 8.777045323364288 -14.31468526733596
3806 -0.1452884960015357 -5.015085644228676 -7.579850742315222
1791 -6.169344902760156 -12.350715799669137 9.595187788241859
2673 -1.0263455707726865 10.070082917145141 6.931453480788356
3882 3.846553798302139 -4.25709886689375 0.17548304439481374
4340 6.754878566137464 -3.868296052306292 -1.240568643265627
1868 3.668224347288968 5.328993445719372 8.16277488335914
3883 -2.8257255221076867 -2.904080649794406 -6.032705625630927
1778 6.614730008513173 7.742333389105821 -1.3118619342017397
1696 -5.894542879481701 3.7556781428861337 11.600456017724712
1784 -0.2457747447653348 -2.333223779566506 2.833696193607524
3756 -1.771600493545748 0.004827985208095995 -4.055464840073612
1776 -1.5353311117484265 0.9303249951078714 -5.85515396303645
1949 4.942699235716194 10.344214123735043 -9.883020086909971
1956 0.07511583609667224 3.87439040342126 -8.84561134619969
3829 1.4629527679229786 5.318378993595851 -0.24978881597913002
3762 4.045174753983675 2.536053337575782 0.007146352385897738
2046 1.0929355972723482 -0.2163998863639116 0.5155866060410731
1948 2.395896037556312 -2.214189093364861 -0.07557954566750297
2039 -0.07173602683761254 0.24683996831425675 -0.12312280936621266
2040 -1.7121285013459957 1.2634072269843384 0.13938688450583128
2047 1.1741120686121036 0.9021950890507349 -0.7080998077608658
2048 -1.9118726815403893 -3.2705773111134904 -6.214681286946917
1043 0.4846317975137734 0.03768940020487763 0.13571150139146199
2050 -0.9189318139018253 -0.05283562590746605 -0.7506497487676632
2053 -0.29032383188267913 0.6411855185430134 0.10642861760351592
2121 -0.24944827208483386 0.3627075414506151 -0.2737762716311318
2122 0.056748666735999806 -0.09753997365368831 -0.18854758678304404
3894 0.9388708578358571 0.9407339931565076 0.8307732311345422
4028 0.09993112950191767 -0.05805242128170901 -0.11767678492690505
1203 0.4130541922212486 0.5241537442728129 0.010258815675329136
2116 0.3581570145102266 0.3619804434057255 -0.15742124066589377
2189 0.38757582595295764 -0.12709301188095062 -0.21190887260679356
2190 -0.10494159991086462 0.10278596253593097 -0.20179509174936344
2196 -0.7763496107932233 -1.311346988736028 -0.03100980570103524
2197 0.24157317962918046 0.20674788759606963 -0.44103307075533016
2198 -1.3043909529556743 -2.777903611553072 1.5560763989711404
3847 0.16417208148879206 0.21079310306962784 -0.05720957242218521
3901 0.3823929487781894 0.1823300857128274 -0.06957323457459266
3905 0.051797562283097676 0.062077723508932335 0.07495729257737359
1374 0.11388433102200074 0.40360937585036327 0.10490096991719022
2272 -0.014630885167412878 0.9874239017122818 -0.06664844142138181
2273 -0.10584014442815524 -0.3131342593483893 0.22030022202544855
2341 -2.25665118883997 -1.618605915212247 0.31593853325327975
2342 0.1212825893119853 0.08072244238764906 -0.006250186016375355
2348 0.06304697209003075 -0.4553434286506722 -0.14163171056582347
3848 -0.1382099002498151 0.10503303639284708 0.041081928867217406
3853 0.3287343939112986 0.054687740917205935 -0.10128006864450848
3914 0.08289781559866853 0.16736327572822884 0.2954199999516033
3915 0.019001240012913923 0.10137048688678428 -0.03375886967886485
1367 0.21228462458455583 0.19849504677167673 -0.7768029122763437
2333 -0.03243693869914449 -0.3317584933004452 0.09850649028486207
2334 0.10681412556952256 0.11326810063615798 0.2235227069752124
2335 -0.6495656999656108 0.8479636293275212 -0.6945572728242816
2343 0.677563759065951 -0.4425148552097812 -0.14813826416623704
2404 0.263058595236318 0.46080686915718294 0.10729109702668353
2409 -0.08752082459396447 -0.14627573776502775 0.1714376921037661
2410 -0.1156861250318584 -0.282573494259101 -0.2566180700712712
2484 -0.32313278427072567 0.08191838904166623 -0.6373697219657494
3858 0.2852325419644253 -0.19858979250597375 0.4556423053969558
3865 0.07672281138198844 0.08021897923020425 -0.07752298599503442
2415 -0.20779618328168492 -0.0356813444337027 -0.2375198804366163
3872 -0.43167750399161714 0.02502254258133787 -0.31637308847389406
2478 -1.808732309341195 2.0022295709336553 1.59645266336582
1633 0.8509444102633829 -0.5388387876179895 -0.523887670775087
2479 -0.17384851684909008 -0.1619791892966973 -0.2935821537484966
2480 0.2867167136780946 0.03515459115871861 -0.23716506889369848
2546 -0.23878384407742573 0.5596131169304254 -0.6896790776451321
2547 -0.024342330642839565 -0.5613303947819952 0.6445021364403601
2548 -1.2851125066346427 0.3076140411970492 -0.1626707205715621
3932 0.8947465617249134 0.7482794170971852 -0.6204909284965614
3937 -0.8055717184899177 0.49820092706977936 -1.461286116470346
1724 0.11005507406739518 0.12386965963057298 -1.3548612493363632
1802 0.00859294200878298 -0.8168984671556723 0.6732620600985105
2626 1.7548097050653444 0.13784812640508107 -0.13198067231032834
2540 1.1929413222249383 1.0475704487409896 3.0318670615573553
2615 0.619144548953983 0.6542880577296064 1.0562591414762779
2699 0.4976608994085762 0.14866178409268072 1.02821139096471
3878 -0.32490954696381197 0.31211278586726116 0.22632163490023968
3938 0.39298978137381946 0.12117347651428492 -0.019863845942828584
3945 -0.5094323108491006 -0.6470163613396203 0.647447247242728
3946 -0.2931343612767594 -0.41281918483086705 -0.48285434359956764
4003 0.20958266213277685 -0.9739076997722499 -0.3492609577617116
4009 -0.5204377120168278 -0.4944387392509422 0.8555336342578707
2684 -2.167347560800163 -0.21451214285113013 -1.8328008600344616
1715 6.504317277747992 0.1401740378165093 -0.9476216517578734
1795 -0.6567075495659231 -1.2264374073849476 -3.4185691047879
2692 -4.379004625015379 -1.7497533380594854 0.5484048464913035
2693 0.4561843811778646 2.287524701819999 1.8256685755651965
2694 0.8240534145587228 -2.410320857724672 3.55273017718848
2758 -1.2265364078047072 -1.8639144136853552 0.6523878452615915
2764 -0.16447907623593416 0.079766534140051 -1.5611759501457576
3884 0.9481414814330547 -0.8039765730801535 -0.5187511421647117
3947 0.08532286611962901 0.22096809877170429 -0.6348530727786501
2757 0.6102274501878765 -1.8517578415231655 0.679549998975422
1959 -0.5350353264805315 2.116707882583721 -0.8793886302895917
2759 -0.6350433155949654 3.1796358775100857 -2.4588100347603166
2827 2.8771164128016387 -1.4054032000895356 0.5274886105262591
2833 0.004584319893236229 0.030394912795155955 0.394389184409661
2834 -0.0724712840135016 -0.22251931921734314 -0.1764896239176486
3957 0.8284585184262229 1.0277192090330112 0.295648874332676
1049 0.42168104865277467 0.30397972134239 -0.048770556141708936
3963 -0.06595191475226528 -0.04622966519973478 -0.4369905499801101
4029 0.19296813907072108 0.01431983200757508 0.20311748979750188
1058 0.13896800011370608 -0.1225704863358151 0.3478877174694892
3958 0.11700283512544396 0.14775050529834477 -0.41590439874149826
2129 0.0886990129531839 0.1809465023351567 0.27448846984974334
1137 0.26155589293033177 -0.3642082245853353 -0.26136371366704425
2057 0.07491438992224664 -0.39254029569389376 0.12224498890176606
2058 0.4850316565345651 -1.6290799334394168 1.1941197879424172
2061 2.2962513437532968 -0.050369956234765104 0.31783847783990427
2130 0.25515409672616157 -0.7321549074314146 -0.10493508681039138
2138 -0.26190286387602324 -0.3445791998290657 0.5645335653784272
2139 -0.597991027996267 0.6995291712071326 0.1462475757520048
2140 0.9928876567733814 -0.16318826408333645 -0.2081327098334218
3902 0.2587540444921955 0.12088064183920588 0.03288002611000065
3906 -1.0532481418983553 0.09109440235708037 -0.5736173423935796
1143 -0.20605832944162297 0.16216401200681674 0.33268028715308945
1226 -0.5618735573678141 0.26662462013803623 0.4848689315899334
2211 -1.114267769250836 0.7400463364244962 -0.6898091783990596
1302 0.056678327020783514 0.06077221443031492 0.14505012350440377
2205 -0.007973221222168848 -0.16456996156051237 -0.20324822932827072
2206 2.1448310602729137 -0.22758958254521236 -0.7335713101155146
2282 0.06219404847598202 0.7365634008464077 -0.873867760079319
3844 -0.3247927460700197 0.04044705761066905 -0.13694298861960763
3845 0.009187199402049373 0.23383467849463507 0.20840940473240557
3909 0.304426245548902 0.0333126457701488 0.25857050901629014
3917 0.2484296668570016 0.04145145515350175 -0.6028963906297127
1405 -0.29220025219273094 -0.04438959737722891 -0.12181092422511876
3916 0.3791288254393423 -0.07661368010379073 -0.2578465379966789
1395 0.38692740504674933 0.4552848070839328 -0.2079830903909334
1476 -0.3538703994335449 0.2592121673332301 0.23230688783942663
1484 0.058680265412494534 0.1562073222807525 0.05149035329700036
2279 -0.17153531946337544 -0.12909677913068524 0.5390027597095811
2349 0.2630892227451768 -0.5072989037482194 0.19263240876278506
2350 -0.46172649024983026 0.6062448046328414 -0.8216036589505996
2355 0.24325335526122294 0.8767940013190686 0.0378918845647156
2356 -1.6207448668769087 1.0974296657609075 -2.1185335522527717
3925 -0.15364924705903565 0.29106915476376893 -0.07618171485970088
3987 0.07180579664040355 -0.09237233184457767 -0.2528224413846315
3981 -0.0022243963739385394 -0.06929070655475533 -0.2200757727306302
1648 -0.08559158716157399 -0.024629717512100014 0.21004347599136222
1567 0.3287065496525756 -0.33448001697841695 0.22463714070025023
1656 -0.05521564133539098 -0.11225593002599189 -0.15995143849343496
2485 -0.714094140582803 -0.391029653132323 -0.12786680019282104
2489 -0.30461449848315336 0.01169633110769879 -0.4843282310257889
2490 -2.9105791132878793 -0.4821832891242041 -1.2909816041698248
3866 -0.017756990184848893 0.33194547460735235 -0.11847577271569919
3867 0.4025854794313255 -0.010337322163077778 -0.13756947292145172
3924 -0.21287749064919753 0.1160358539915065 -0.1483111854441882
3928 0.1258294092088762 0.05920576271724994 -0.219861978056546
3929 0.012980184090644085 0.07110418019059662 0.13101106304034837
3933 0.34887046348073963 -0.014601294674093278 -0.28333281364703816
1641 0.579141805344859 0.2053696196648722 0.20365709547053423
2486 0.1918562545044252 0.06070482158606394 0.13030858065995327
2554 -0.3772910053186067 0.3928745972422827 0.8093312217647055
2555 0.09518231782782761 -0.002923854349560064 -0.11875732910726863
2560 -0.12508609313081817 -0.2836812172953566 -0.02419482314886115
2561 0.008006781738758456 0.12486910104408831 0.32422522598727244
2633 -0.022193367407286044 -0.2955522149190054 -0.07062144456431095
3875 0.176880698033838 -0.07450515514839826 0.06398997225721388
3876 0.010482180575247534 -0.3199477418864618 0.14135962829968934
3880 0.3189349664145417 0.6461509124736767 -0.2999161818732067
3939 0.06727569399825269 -0.02744696205670121 -0.02713358172021037
3940 0.03602389195264629 -0.12088864758832399 -0.05634427088524147
1817 0.17897537392206686 0.5148019755477151 0.13309821582724177
1901 0.051219964106645 -0.7456828333211319 0.14555286166921141
2700 0.2677522032694484 -0.5209717351907338 0.004414856820897767
2701 0.6225382089008145 -0.9647014286171758 0.42867289196340336
2704 -0.036487720105309214 0.037591009301203945 -0.04336092896751937
2705 -0.2531043786911662 0.2645615289585706 0.14700563201153358
2706 0.35085300043527307 0.04915316226999295 0.13695880932042104
2777 -0.042304707655966146 0.2955791978152696 0.015672696995689468
2778 -0.5822850954368942 0.09396364847692973 0.07973483444716764
3879 -0.1665653467154839 -0.0876981590051098 -0.02141399268198123
3885 0.00667884924994961 -0.0481323160204673 0.004242042323882974
1976 -0.041022060093324555 0.019157528997079593 0.09422966809091415
2771 0.006566766064273501 -0.01653568560887713 0.7860758742849072
2772 0.46607971395620745 -0.30294684744820577 -0.24886551469504664
2779 0.11998421743414964 1.7058431994419607 -0.05887075412837644
2840 0.08653187698080572 -0.07091914554170946 0.1608621888559464
2845 0.25675017857253024 0.9801069770093773 -0.4463247626165282
2846 0.15644151089203132 -1.1997889535514825 -0.3659082412036851
3952 0.13846394002713022 -0.3838413727190959 -0.17373016725876758
3959 -0.10416635552618342 -0.2019160305137504 -0.25250352407600535
2841 -0.15173466119683676 -0.22205283433328296 -1.236024755116183
1149 0.06589725259789729 -0.4224958330921585 0.2199691866608747
2065 0.6385575427812074 -0.012007318584466752 1.9229403588743557
2071 -1.4693070618892323 1.2062914250047043 0.4825490259120874
2072 -0.14404981128959132 0.046994170833946296 0.17123345949559757
2073 2.1307815136197847 5.899260531194378 1.452687011207024
2150 -1.5267192434390644 1.1052837036037786 0.13685408433504428
2151 -0.16669764734147627 0.13504148770380292 0.39389527594750107
3964 -0.07596878829949358 0.10267651860360855 -0.10313647121549792
1235 -0.09000682133727593 0.21882563486433784 0.20404642347878865
2145 -1.021690726499207 0.3716191437980749 1.6240912492211728
2152 -0.1865673386283602 -0.011134714758345456 0.8839794541527572
2217 -0.618829187670738 -1.4487155554716846 1.240685105957786
2222 -1.1623127462362812 0.13910530767363888 0.6299413117250953
2223 0.5448379873101543 0.508126962426857 0.489519070718142
2293 1.1166440367864456 0.3078079673313032 1.3105732718572576
3907 -0.5485571840744183 0.11538523576888994 0.08718959157141253
3911 -0.3168897030663538 -0.19758881092181002 -0.7099780113531746
1320 0.07187563243193004 -0.03794563239521931 -0.05796941477155225
2297 0.8663573679164188 -0.0652719709428184 -0.41106024040824873
3968 -0.35443328061891227 0.3212864462549187 -0.3409465723750098
1310 -0.3051493660028476 0.09743609413478511 0.2796380102309544
2288 1.3454577098130853 -2.1048197666961173 -0.17295003294355174
2294 -0.6279474991287921 0.10217509605110539 0.39783701371082486
2361 2.131007592383499 2.126489758368951 -2.926790938164416
2362 0.7810864026762244 0.5812908462454315 0.6754363407387277
2369 -3.6833282475580935 0.4844584444012124 5.756534455206275
2370 1.0853762410274301 4.31397830231833 -2.9242152288668217
2434 -1.7020432671606283 3.317019780004417 -1.3430227033109126
3861 -0.9444164603628352 -1.1882729537021006 -0.5238828827342177
3910 0.360472987994293 -0.21374645823620186 0.2851657017189579
2363 0.8670291190583097 0.0017308561449358244 -0.2661446109125578
2423 -0.5674747183659142 0.6188351576771443 0.6125082848915065
2424 -0.17249004664111287 0.9560188067516961 -0.3615393165690457
2425 0.4794037981681259 -0.03358984222684576 -0.1975492050886571
2429 1.3244048759602247 -3.6716827775672316 -1.0899014661714264
2430 0.3514306496633772 3.1469292144677374 -0.6894242417895238
2502 -0.9262530339683749 -1.514466775271988 -0.40287927896538306
2503 1.5546301014957973 0.0014852415646910274 0.04342856860121484
2509 -1.0149883063828333 0.4678952785225066 0.949981772848828
3860 -0.37491848467030225 0.053907035991051816 -0.03897289763690867
3868 -0.02120851753795104 0.39742554557230125 -0.03822240490438368
1665 0.038012273080834005 -0.4744810752743721 -0.4109234697140565
2495 2.740095436958855 0.06698240763040143 0.7861646893273072
2496 0.4774913324479627 -0.7106361423665639 0.18408155854556985
2497 0.27513372649307805 0.15589204778692337 -0.4680940737983375
2504 0.663203589096681 -0.6374280412946998 0.5795381478327147
2570 1.8756839103822696 -1.2545528014451812 0.2925029785316859
3934 0.03229910941244532 -0.4241390621229074 -0.09138295418926848
3935 -2.425100552928871 2.0836857770382324 -0.3487700158365856
1754 0.4579884480379758 0.20875128159015385 0.6160174988509002
2566 -0.7352585797076627 2.23235865748447 -0.8883732719264983
2576 3.3183585099762825 1.0483511498730804 1.093175890138385
1675 0.74843617029187 -2.962647335195685 1.7364031365804529
3942 0.2590793985159298 0.9899464592579009 -0.6191776626877191
1746 0.15148316321118513 -0.10611318721444228 0.3057920384404681
1834 0.5346204922684966 0.6926739118304472 0.623339921873112
1919 -0.16834804885078075 0.4507553857249755 -0.4162075351417578
2637 -0.39274629212103224 -0.3028152189245538 -0.3468698441600548
2644 -0.4668460262759895 -0.7448652439874816 0.5970313390168837
2710 -2.1077479883322825 -0.03313017823156533 -0.861503048512861
2711 -0.012089468764447204 -0.7993710768937385 0.5264930659934789
2718 -0.5643108344224329 -0.3551375781727385 -0.1508945598199718
2719 0.6696783587246697 0.24192682807002894 0.043087722928364165
2720 0.03441898696094864 1.3912469371399878 -1.45912068108914
3881 -0.35166939256272894 0.1387119675963534 0.1121253406950288
3941 -0.12790534416893823 -0.3323736277343437 0.022605026265881196
1840 0.6770113721894859 0.1955322589203248 0.582485744260677
2712 -0.12096121859274504 -0.6950487638225324 -0.2581987322559905
2787 0.046032808911529985 -0.5437498615532386 -0.29191069380650025
2788 -0.07718532982073185 -1.0251425620184655 0.4065316161443496
2859 -1.9488228962346692 0.0046460840641088085 0.24851895253657158
2860 0.23666208318545903 0.6136711860531264 0.13230748883563745
3886 1.4249260574577318 0.23033681777556328 0.4199956670234925
3953 -0.21927015283812631 0.4585658723802692 -0.2667727093819062
4016 0.37006114403548324 0.15733566886910982 0.03841830117188672
2868 -0.4596069528026951 -1.2157910125268918 -0.12789752318002923
1068 -0.2662550801301307 0.05487282157228952 0.08799905441973971
2077 -0.9162642362593193 0.5710950104582426 -0.6887816639447841
1993 -0.15409043418274987 0.30064471185006225 -0.1666317837045865
2853 -2.275644832440124 -1.0684389026041912 -2.8106706801205132
2861 -0.46526126634575987 0.5843756741253755 0.5967520022812269
3960 -0.15867520072744762 0.09612372580311487 0.0525584631718462
2078 -0.12092846333712431 0.5490511565300058 -0.816027470351063
2084 -0.3312229405545665 -0.04478611006107146 0.1872419957128571
2085 0.4580531182124734 0.16157993604494106 -0.25339531618097555
3896 0.05391235673788643 -0.1615228415913747 0.10234131783019
2093 0.6772637418903985 -0.4637557893255079 0.462248894696528
1248 -1.118855362935804 0.15213354004057197 -0.23893273420032107
2156 0.09428044285149602 -0.15821682100753548 -0.007492975510735302
2157 0.027092582990509297 -0.01576368122003377 -0.26822311760113665
2158 -0.9444886465400111 -0.0003400463142757981 0.07406568774672687
2159 -0.0077619540577100726 0.5140139962513349 0.17234740215400102
2160 -0.26348993166331885 -0.026703803856514035 -0.2880442375824776
2237 -0.06334643517672517 -0.21477283210238143 -0.14751214426807846
3903 0.19713963314056873 -0.13375392946184775 -0.039871828349815945
3904 0.1781613464645394 0.004238047181404152 0.018140522739294125
3969 -0.054646804495712444 0.10447055255432901 -0.026103840196338785
2308 1.1889168933940786 -3.0898290103694626 -0.21117802626645293
1243 -0.30610921880778713 -0.08138412653319782 -0.20536857704980344
1340 -0.9632949090140701 -0.0366531637603625 -0.4839931940498511
1333 -0.02229737164212178 -0.33896013086116866 -0.3078711319502477
2231 -0.0039450714523316666 -0.37291892418400735 -0.12027148051883196
2232 -0.47787788309709395 -0.6123270271728556 0.30104064340602243
2238 1.6656323291130195 1.2351935529095646 -0.9204363689760428
2381 0.3312099874481556 -0.22218230674293932 -0.06403057968562588
2382 -0.9795521328973065 1.557329315624047 2.1433003168604587
3850 -0.07522092565822487 -0.10895421814618851 -0.4402789957434662
3912 0.18162567554198467 0.05687389270107444 0.4869764176804083
3918 0.008060008768989638 -0.17907087805613037 -0.6958424003522763
3919 0.46238249011469035 -0.0890749186415747 -0.06366764382249397
3988 0.2736910401160579 -2.6176196620053633 -2.296361895896845
1497 12.605731425090747 -0.22962134505240506 -9.44155781863663
3854 -0.32885791384512625 0.07526001695473343 -0.672502752446533
2374 0.5822080438818773 -1.7292294218680957 2.331176849221091
2375 -2.935671776884853 -4.90413775426524 4.536675000796137
2441 5.50095382117119 -14.27488383345102 4.9473782900744965
3855 -1.7703462162366108 -0.2581339916015629 1.545144184938415
3870 1.933406755526199 2.715327976088856 4.178869798671393
4070 4.5789289311984085 5.949847032286731 6.354398846283761
2451 -11.985799233197243 3.565583356771263 4.812769754952426
2594 -1.267807263084948 -19.823580507258946 -9.753827549023713
2450 2.78618137031818 1.5307307325738106 16.819855444628978
2593 3.9612177589993705 -8.552715819077143 -4.642883753045987
4138 3.887879202100259 0.48406231361466495 11.071542322665296
4315 4.835270979003523 0.3035943407671161 -2.057456348552376
1602 -6.654686065207811 -0.25272556443100175 10.839367241475918
2521 -2.8728679098527383 0.1283312104965964 -19.138201896284208
1592 4.896545600686305 3.8318891952789653 -0.12149212748677317
2511 15.388131071617071 6.89841087653567 -8.312803193375935
2510 5.82385057060476 7.360616905869764 -15.765048100520499
4309 1.6663401991673554 5.826834994171711 -9.7365528852315
2577 -0.38566848251262353 8.821405625330424 -1.6749810292015272
2513 1.4501464320143327 -1.3820790931392097 0.3318671752540727
2526 -14.307830336467294 2.389233220482707 -24.369915129169442
4327 8.512737597342861 7.391506713143828 1.215513250440729
2737 -2.3967146014319853 0.3977927638310956 5.133516595521355
2601 -10.234014000993428 -0.7976702886332143 4.286134882492361
3814 1.0804562122566603 -2.1189705256837708 0.5084070372050487
2578 -0.7840400646044843 1.0072003359484956 -1.292935570162274
2649 6.046548803330201 4.433417341738764 2.119661181616146
4012 1.3334404798131043 6.907610043661424 -5.530546740303952
4006 -7.44100949616313 -0.06541710060439943 -2.0634122754040276
2752 -2.4928343030744173 7.767297437380186 7.374548568500623
4077 -1.0931412403261127 1.1729887430282275 6.7627547979732725
2732 -0.5558572076644115 -3.9206628056866974 -1.5211076220347621
2650 0.694135443943779 0.9206320374354605 2.0540495292981142
2727 -4.651909728569911 1.0371441379905009 0.36551469040624746
2728 -1.3018394610572517 -2.099414712219249 -1.3889261453602908
2731 -2.544697726308012 2.0057466556203187 0.986208154328243
2733 -1.1003213847230457 -3.870221836921731 0.28601040493866825
2796 1.4199852336148748 -0.7599061970521046 -0.8494621310856316
2797 -1.4211164335454862 1.9471559452374585 -0.570898404146404
3888 -0.39251344780442754 -0.059172700950606616 -0.970832815076389
3948 -0.31657800152250154 -0.4999555444143139 -0.9391431163828707
3955 0.31673962262058575 -0.12057676642743029 -0.5817614825538423
4011 0.8495608086087081 -1.303498989808012 -2.2310537394944534
2006 0.4083974448586661 0.6569507755930161 -0.22811558991297337
2794 -3.053918365043893 0.392976380167265 0.3278902742516109
2869 -0.5652341120547173 -0.5863271801151975 0.08590595070185121
2870 -2.1866294709005314 -0.9058560789505948 -1.9241369013117622
2876 -0.7246851839748831 0.6637672078419534 1.4626978024522503
2880 -0.02075615763037764 -1.162732782261891 -1.3908535898926417
3889 -0.3237920088385095 0.16422788465330915 0.2570749569474309
3954 -0.32884536453430646 0.18849763887393658 -0.012770377968694933
4025 0.16240976007087302 0.2117444028487528 -0.3617716781366307
3897 -0.16728600156630496 0.12523680923127545 -0.2878866919984119
2100 -0.8534115587981077 1.0761986544707107 -0.559448207244903
2105 1.8686383150034696 -1.0053044042766694 -0.6706497744297725
1179 0.6182883728532319 -0.23738834824086869 -0.3082986401414448
1172 -0.1738722674689212 -0.17609730550554092 0.037852851924928176
1277 -0.049308309594187805 -0.20834243848000727 0.15199543158060114
2094 0.4786171207687475 0.31967811135647056 0.3061051528152968
2095 0.26943899485049666 0.8236022424361693 0.6613531088464649
2101 0.42044739889915456 -0.886446464695713 -1.0214602863721498
2165 -0.13766679146548466 -0.3160317694829069 -0.18692049900053725
2166 0.08012191712712383 -0.01692610058699565 -0.14889682824355124
2170 0.7426938705515144 0.09674443740354306 1.0338737297505576
3965 0.1571586489421228 0.20817831652390523 0.13360004543169948
4034 -0.14529463726724154 -0.570160795818579 -0.5030204587098146
3908 0.44077955561652443 -0.44385140280074165 -0.817749678917469
3851 -1.210006902564846 -0.7202752235773586 -0.05123720823590656
2243 0.7104956525074683 -0.023626267705467583 -0.03255176010730112
1257 0.08875124569896671 -0.6451661616733319 -0.4553161137905864
1267 -0.10197874308347239 -0.13366168837477976 -0.3177710416588995
2167 -0.25828076305072795 -0.5941590051297414 0.244866674052924
2244 0.11576553455003345 0.23686736136889544 -0.7969930693938999
2245 -0.14737718664189692 -0.6606520669485746 0.28837853420652676
2250 0.09777697997903144 0.11591788865904659 0.32427984064662646
2251 -0.1391117810174231 0.5470239745911906 -0.09465448779621209
3852 -0.10131671105830677 -0.16558601915483592 -0.10631860827665401
3920 -0.004000446936029594 -0.15242057552517904 -0.15409489303638924
3970 -0.27310641995518853 -0.17166360278193868 0.034005593164909115
1430 -1.1401480300893303 1.7444701944689913 0.3444185220438174
2309 0.028564802642787244 0.5865088935217577 0.4609966788926102
2310 1.5359934237408726 -5.2768908505682095 0.972700695932138
2386 -0.8228677502696345 0.5456849688781547 0.176319433371587
2387 1.5414391455499319 2.690844072379326 -1.0510263968547569
2391 -3.81699935709211 1.6412839696625172 2.097920730993848
2454 6.13866699255765 -0.3348888634512642 -1.2085482016037572
2461 -0.014115652583139881 2.674682834817366 0.19047230329106726
3856 1.027848918016739 2.4002820012522883 0.8259172899241446
3863 -1.0865449404867196 3.9940336072111142 -0.5898320548332768
2455 5.832822314912016 2.004791041633629 0.565687192428152
4307 -2.6915682264317846 0.5052697464721194 -0.9308869051972214
2604 7.655996861477447 -13.158994810430242 6.555191647003869
2516 -8.969296397984865 1.2792894719432084 -8.291984771201665
2525 8.62093789855848 -10.317753942613695 -7.321911968276122
2599 -1.267084257853694 -1.0057193387367382 -2.4222944169265843
3805 6.682563548122473 -2.8862383752537366 1.5093617370612442
4332 1.558344588826411 5.792690149850974 3.3752870697291377
4064 -0.3865494295426338 -2.7953571046380827 4.011608544039859
4262 6.357294013007276 -4.51845260238582 8.194016588510458
2456 -19.762169982559737 -4.369647305341582 13.730990449400315
3991 -5.736075075997437 4.444522617199604 -12.776273291566103
2686 4.950348364169637 4.690172800199595 -13.06900210553491
2657 0.2544798834732423 -8.025948223165235 9.70674124242899
2666 3.7376793980671295 3.4184170855284775 6.597357500830126
4328 -2.443935690279665 4.127988987468971 -0.33159213233365775
3994 0.504635125247914 -5.632177712970704 4.4073116877867635
2738 19.38823066540339 -17.6044653119406 -2.699418169605861
4336 0.10602744690453059 3.4049953876563945 -2.066417627340233
4014 5.135564678874329 0.4347028122715751 -9.196556769160765
3822 5.488707893563 1.2927867007274352 0.5791417465336529
2749 4.812056869460408 -2.56679603124204 1.7534091402080387
2803 0.6982204477552626 1.0462931814466612 -2.3794977296477344
2804 -0.2964222289271395 -0.970617736525827 1.0785932957228015
2811 18.030244763680514 4.349777166488955 -6.17124796219741
2881 -0.8814914183546005 -0.07270794107744037 -0.23802892252479485
2888 -1.3323513205466955 2.4610314699978355 -1.912873961701492
2889 3.9525360333992388 -2.8354812885299383 1.8953177712250997
2893 2.0677247412944224 1.0055878718146918 0.6981567241879701
3891 -0.16445508695369143 -0.8152247756409581 0.37486963087183545
3949 3.601053677423386 -0.3182626981254065 2.639015084249899
3890 -0.19690723840531824 0.35993081909505126 -0.22471480697683155
3961 -0.20984286326554244 -0.0414151870442518 -0.22765478663285146
1094 0.007659915349762338 -0.2712478065556336 0.404369792247888
2115 1.0392088986163968 2.4249846413065703 0.3037219400642967
1189 0.07552012418444276 -0.014166880815483195 -0.04240264691588379
2106 -0.5080505311476771 -0.7181143247256994 0.18182758568972307
2110 0.677123966435561 1.3247362081165504 -0.7201543883422032
2183 0.3578007142830984 0.5928311590815043 -0.08963267700028799
3898 -0.7558682694125668 0.1216137682687851 0.2901360223936159
3966 0.24938738326470383 0.2413837055329984 -0.6227908470660112
2109 -1.6102232195154282 0.6994759061801673 -0.6242012525536342
2176 0.3588327992199331 -0.3917704310528365 -0.4661155174614501
2177 -0.44900498629678837 0.3301348810297083 -1.1646824491462175
2182 -0.1678664299259 -0.1695509547595203 -0.014045174313764066
2184 -0.925075908065755 -0.34402297595120096 -1.070456495061287
3846 -0.03480173974117488 -0.12137824829767349 0.23181027646453603
3913 -0.10726424062501644 -0.028434686763702175 -0.46848948359572845
3922 0.29661374715491035 0.0054432676162590775 -0.09517551918054913
1354 -0.13174938057390623 -0.039033609921069724 0.26899404363908835
1360 -0.13880173924663544 -0.21487583925992304 0.11441169954093593
1449 0.17121751723226508 -0.12339267885912134 -0.36779041758336867
2257 0.3317477660418347 -0.40406381346460923 0.4117982707433442
2322 -0.3163354300921318 0.21988678973929796 0.4280774432773407
2323 -0.035318487535143224 -0.5216797446480762 -0.4389770297120621
2329 0.27876927436901755 -1.4493540370224565 -0.2661038737979655
2397 1.3321656373330524 -0.6060521207743436 0.33281796097195043
2398 -0.19490969127340865 0.18402459494578804 0.6480944073923292
3921 -0.2918429086425464 -0.18487931191519127 -0.23575133317358077
2475 0.29930425794678384 -0.8195264412866625 -1.0697698918678014
2403 -0.45486855610711907 0.501829079939195 0.714511961094798
2394 -0.6049666355313357 1.3559603035373384 -0.9020140721013384
2399 0.2052453609433496 0.16030940165884752 -0.05769487080799367
2469 -0.924032900644401 0.2849280333056258 0.302073807111854
3857 -0.13715173745643439 0.1908704664566802 0.04310280043749038
3864 0.48206623766566925 -0.38472803408163053 0.9436406869686981
3923 -0.28477670659552357 0.21074067425718343 0.013563726939455603
3926 -0.4402184714561807 2.011968239989256 -1.0390556122729924
3927 -0.13923222121248838 0.04089602572112891 0.0924068841079575
3931 0.1717476935598927 0.8115184668272332 0.39942340821185385
2462 4.062699054641838 -1.522553214352192 4.484688907820198
1620 0.16810194371969034 2.7816801320542 -6.755325537134123
1710 -1.9775361800026257 -9.865406807854407 -1.8556240124535872
2658 1.8295509651330295 -6.293764944768402 -8.351501627919735
2600 -0.5350918764676567 19.153183443709512 -8.072842215340462
4144 -7.969359860284405 -0.941098660355023 -3.3499126936985872
2614 -6.145789125125 4.708473484980591 5.448644109919264
2529 6.38193750768689 -11.951666481332168 2.145269949033427
2527 13.873635973343651 -9.388376181729324 13.496092000066806
1628 -3.2493753532259966 0.6460134985076803 0.045789031375496884
2528 -0.2745996317798928 -8.382890317126616 0.13926099979274453
2534 -3.1382282635073824 -0.9060513325532391 -7.829679963163511
2607 4.573070472796424 -7.311977665768545 -2.6076489192169814
3995 -1.1186002718894903 -9.07320356594872 9.235115117625794
4002 2.8304593285750554 -3.2353307989869826 1.567501116351752
3944 7.172378723711776 6.634566291394296 -9.552957202535527
2608 4.129228074940803 -5.688999535670441 11.064218721387547
2606 18.134717642967004 13.922307564412826 -12.589890783192688
2681 -3.56886222501888 21.53870423723231 -20.75560399880531
3877 0.466333573984491 3.7622744068877414 1.6759947424523427
2453 -10.944219439019356 5.441274470618659 5.928274801275317
3757 -4.488470967436947 -2.639895708744718 1.679445380120009
2676 -0.6284943772310183 9.621993645532033 2.8359607712541455
4311 5.347742521396368 -0.42901194010356286 -4.0881034412303014
1869 7.234830705120877 6.211067709169739 -3.9026155961110516
2522 -12.530248009735908 -0.7946589721998146 -6.69786608594282
2605 -5.3410888485924435 -0.45821170848750997 6.597263919242552
4000 1.6733952696811547 4.201090313685904 1.0511173047816766
2753 5.671936279650772 -8.49460668342825 5.471219313002535
4008 -1.9097921364238042 -0.9094398359980786 11.9241476447685
2592 -2.190883357385706 1.0732934732030268 4.379058275406849
4269 -2.2014543340163177 -9.586419602989862 0.5525966069835423
2609 4.740684097687424 1.5545180217383152 1.622533435195832
4001 -0.7565066072693002 -1.2862106077137696 6.667458714920184
2747 -11.51038838017154 -9.903719532226667 19.285038225361205
1955 8.580654953182767 2.1942075044387126 -6.702268008115812
2588 -6.769453839412017 -0.11897038997721686 3.7219017934103724
2665 1.4758358536761418 2.046580199588291 0.354362830684539
2603 -22.446452003425406 -5.000151163451112 12.382056338984714
2678 21.67858574658865 -4.946451667959248 -18.65420387489049
4020 2.596454783999956 3.2271440994931186 3.2755563164871324
2674 8.751709136152842 8.40445402039089 2.4231821067700365
2754 -7.249991352893896 2.0492824761307635 15.094387504653099
2822 -1.6141332490147342 -7.0896778137939185 3.087785994101711
3951 -3.066864500231459 -2.787793957405329 0.5662608448302142
4026 -0.11703193004445597 2.8143008005873424 2.837556116320742
2816 -8.429720179961446 -10.764019809958047 -2.6930390136867763
3950 0.7343331905415523 -4.068345990329411 7.8516695133000916
2815 -13.734433919248806 10.951676252503432 4.7620006413168
2045 -1.0682195453283183 -0.849135229591652 1.0280026829090774
3956 4.083640618778798 0.42714434326941597 0.4795268970310224
3900 0.34704833098025195 -0.27711283667151915 -0.3398078683705628
2049 0.6398280075066674 0.15527076919864982 -0.28873458846185657
2894 -6.845548479429269 0.9269456508472297 -1.4763258502510552
2901 -1.6257905558059926 0.8958846896475063 -0.14878557917991103
3893 -1.9223196767861936 -0.6619741411871838 -0.9741665096954613
3962 1.8441774732683194 0.4238695535247055 -0.40001991680275684
4019 5.306597466239267 -0.2604819432644619 1.6062093475452552
2051 -0.105899923596948 -0.5145949120676229 0.5528105150958633
2125 -1.5447582898319538 0.4074225935673382 -0.329034782637657
4093 0.2976527871984261 0.4779836888502528 -0.36390284224923525
4164 -0.524464718363346 0.12879670968777676 -0.49752981744664426
2123 0.3385799099011639 0.08804585383484247 -0.13602608122706342
2117 0.2733798977370356 -0.20433059902731782 -0.1063226255131555
2191 0.19690639242716437 -0.024722063737040077 0.2070534936896473
2199 0.019133103311827934 0.2313372721725423 -0.4333709529863144
2201 -0.9689559732934417 0.18355274524062795 0.6313912395770643
4036 -0.002393228471054377 -0.19287039714621143 -0.1863742093424703
4097 -0.14151141774730794 0.014716051134384353 -0.11614698904454744
4104 0.6573788221763471 0.11875802547870082 -0.09409588796896134
4041 0.10898788470085441 -0.0875521293991812 0.03446736074899478
2202 0.45487607474906205 -0.17768342600201187 -0.23451517623764676
2194 -3.1034378356904693 1.6862834486084803 1.4634658772958402
2269 0.18485104087331197 -0.0970406452221135 -0.06767946779477867
2271 0.6681012107070199 0.26389081218727434 0.23547477396089037
2274 0.09408695113982017 0.318705230718402 0.09193729946015815
2276 1.3332227234382077 0.16729629369491053 0.8057274472477168
2337 -0.3986432013519556 -0.15145011134936479 0.09797097529873444
2344 -0.20820035811710716 0.004506896839125586 0.03237028829389404
3985 -0.6501536392503016 0.2195454767783671 0.5090431099588384
2330 -0.11991270633113361 0.47696799436866477 0.1461655262963782
2411 0.3144313120688384 0.0975403578496272 0.06424544896075075
4050 -0.0892616814367473 0.0882640504559977 -0.4641191751874842
4051 -0.20146161334881169 -0.13195505871087276 -0.23852767604708544
4057 0.17959813063273058 -0.11842078298416123 -0.03973908057747504
4058 -0.586090829903183 0.02039854741194634 0.3960138679516157
4133 0.3262750328691334 0.17188811945089907 -0.13282250648397462
2476 -0.5260282046754041 -0.99484216166547 0.3278873996461175
2477 1.0725988110231492 -0.9034678858411245 -0.5644094276848166
2541 0.1337868910075457 -1.354944657105557 0.6205300003994901
2543 0.1535021088809138 0.29728827392770657 -0.17179189436842263
2549 0.24872241247066593 0.38425905334315874 0.6514566385900776
2552 -0.08048050688735155 -0.03404155858674267 -0.410688581635463
2610 -1.1198424749672773 -6.772203041129876 2.0741155613435636
4065 0.17929414807727714 -0.14361695507017266 0.32516773780992003
4066 0.009510889997758698 -0.42463404700412877 -0.2636626292186322
4132 -0.08593357318272146 0.004713926357063307 -0.18963984090241912
2545 1.602707938475171 -1.1147183763796626 -0.0425571741939444
2616 1.276219215894283 -3.437543887824599 -3.756437067762013
2618 0.30237455180566225 -0.3586552983161038 1.5917179676652
2620 0.1795993250925953 1.5194490451420286 1.661377259834221
2623 -0.39694290958466 1.5325340848823386 -0.5785422662157058
4010 -0.7252693796463877 -0.2869848135837715 0.426052937730897
4075 0.729554512346291 -0.23414942470407443 -0.6284834321234841
2687 1.715143762373106 0.481569959383343 4.111826650107568
4146 -0.34122642787041013 -0.06048924961602434 -0.24824408684911808
4021 0.36787322828623564 -0.2743714008353205 0.9380580518156408
2695 1.3126772825387694 -0.20978567333756343 -0.2098452428106708
2697 2.0846869731454905 -2.472632116843059 -1.9359573565196708
2760 0.2633151368115622 -1.7866960045827522 1.7754619459872725
2761 -1.646284817325414 -1.1939937284328812 -0.4200871006798332
2768 -2.1351743771139704 -0.5621679697786972 -0.9378019873304585
4015 0.17188787073588158 0.009566274292535789 0.8619349801607055
4078 -0.6097811280446789 0.6368510751359676 -0.38780081604545846
2836 0.4989308969133643 -0.8799721129493893 -0.15257215313753597
2756 -3.393123488852812 -1.2697908795293782 -0.5330031770710627
2767 -0.8701432121817928 0.8759623694543631 0.8286903531049739
2766 -0.32696980101298667 0.30621489292199583 0.8715746367695515
4084 4.101889298724466 -1.2377575425011285 -2.592055842834683
2112 0.15680224947867497 -1.0620353454904459 -0.8722271614893794
2052 -0.8564147459719851 -1.0239075467273218 -1.7990276845675457
2763 0.042796816542881415 0.12230688188737623 -1.3333718920412712
2829 0.9888787469040424 -0.7330681910932226 -0.848761922198685
2831 0.8664297809254512 -0.30032455583896633 -0.13985652510725705
4027 0.3242474142596873 0.8278194764320863 1.0838883648231856
4090 0.7390551597849412 -0.23263028253098855 0.607319787592031
2904 -0.33806781823900073 0.3090695025939118 -2.415230114912049
4166 -0.14803086831336287 -0.07822565385317798 -0.05621392904968045
2063 -0.3178296807888028 -0.7425688190102002 -0.3318747530818358
2131 -0.32092469721595274 -0.07181799361631477 0.1783162959335358
2133 0.37048930082624837 0.776290554896152 -0.10807980640609915
2141 0.14497236310207479 -0.32664782114613494 -0.36305004074399233
2143 0.6982091747625689 -0.607255302887645 -0.427241393644286
2209 -0.1624052234901129 0.08277027473626826 -0.2702958225635876
2212 0.19502302796696863 -0.20783659308118146 0.4162941256003362
4032 -0.4919341332351335 -0.1751356855906839 0.545577004273857
4094 -0.1412951560244434 -0.027108488606346837 -0.09124533101243673
4098 0.0705656469161783 0.13286962619131035 -0.015445575739326324
4106 0.3931917753202935 0.25114242249963026 -0.37140460832455074
2055 0.10263996809947351 1.0501351095568192 -0.3789942252029573
2135 -0.6232827131520333 0.7820657227732786 -0.06510301106019571
2207 -0.9888011781831982 0.397332648546943 0.061971433723946555
2215 -0.3186432889365555 -0.11032713563033317 -0.07174981319850904
2281 0.2850878294370898 -0.18029326681528282 0.1963942729432555
2283 -0.19171989958349556 0.5146620222678038 0.24396065272520787
2285 -0.5723269217192157 -0.20521159619420784 -0.198708482429557
2287 -0.36050041593584436 0.21514486335087546 0.01984278600422625
3973 0.27946288220230664 -0.21797758778065338 0.22854068331182797
3974 0.15893024162715153 0.3118144101491162 -0.028374039030080886
3982 -0.041133869058853856 -0.22630197591566606 -0.2686676236945577
4116 -0.3905147061618114 0.23025613652007415 -0.23927682188783067
2210 1.528456795249857 -1.1803474356434704 -0.48067501064325263
3986 0.10665700720957919 -0.08341290110911903 0.278698421442052
4043 -1.2055533820839879 1.020792960013611 -0.6678092890899319
4044 -0.0354618944251879 -0.5073376707421562 0.34408967519164974
4052 1.3725930256868337 -0.056627038876352766 0.7895411788287716
4120 -0.03493883050429122 -0.10841333731266306 -0.20914249280014902
2413 0.16099408315331815 0.0763958660871915 0.4638107595702318
2416 -0.24278704888492886 -0.11005548235468018 0.09203159553918802
2418 0.07682263378951353 -0.7007141501422052 1.1637574898813894
2420 -0.47365538564122134 0.3867097056174234 0.8728367408765701
2487 -0.1878714012817035 -0.040360531818647585 -0.5159752603525011
2488 -0.2733439846329968 0.26982081804218117 0.15344212276637204
2491 -0.311332118738393 -0.14841178242025185 -0.13182779706447617
2492 -0.055803340422664015 0.49143737947054017 1.0871206868853527
3989 -0.04418263323167766 -0.0661575077148834 0.0011014305309046605
4068 -0.294755834297803 -0.34299787846521634 0.1970705946690597
4135 -0.04550141968514227 0.3652143094645533 -0.06465292367873744
4141 0.12222817244123041 -0.09546135894324996 -0.1465016360991647
4067 -0.8265091949765543 0.024510054734334968 -0.3265840655008016
2562 0.2790807972045355 -0.3992422613013116 -0.18159694767910142
2556 -0.221402287839487 0.2775096350291553 0.1323839027362886
2624 0.5010778056132331 0.11226580385225064 0.8464804741336324
2627 0.31608749975174627 -0.030385145335154656 -0.5809305211742779
4073 -0.17445782150113617 0.23788576350712978 0.16522805729397885
4140 0.3639089570872359 0.41383961668005176 -0.2859798887133787
2630 -0.5533186172997137 -0.6885704514769718 -0.757171250826977
2702 -0.6249646495071236 0.03433645881183383 -0.4636601897288513
2774 -0.29822366180905974 -0.2150456580444527 0.13002777312914665
2780 0.0171336400360469 0.2623654231036833 -0.2326642520182985
4076 0.4653278528954733 -0.18050402155214335 0.2669558665795127
4079 -0.33138261563834176 -0.18708166031875612 -0.12018020247235353
4080 0.1593468008343538 -0.08503651244843533 -0.09041107258696385
4152 0.2745430021917839 -0.09724039899079567 -0.11988079042907192
2703 1.1251071798567072 -0.11217276528721397 -0.3715169672580092
2773 0.22836976538213888 -0.3801912666076844 -0.0547813777303842
2776 -0.699373410273372 -0.37551592841019166 -0.38758846594652274
2782 1.0722372130165994 -1.8267853808943173 -4.058535515613296
2842 -0.2330187805553129 0.1768545622468399 -0.10261135799228652
2847 0.04596900530943492 -0.14447670525048295 0.4184345806953711
2850 0.6380258257558151 -0.3495409055033271 -0.23067247894898438
4022 -0.23245747061839123 -0.21744864470049002 -0.05736131939734141
4023 0.15700670198747654 0.22436075538054095 -0.003568433421228018
4030 -0.4160661236851951 -0.32737459628208504 -0.040445255370730064
4161 0.3265099208430993 -0.23860787446293427 -0.5247253048865466
2848 0.540491546788378 0.04282928569431062 0.05300970401229189
2062 0.6038130037237291 -0.3198744657887504 -0.06955115955301276
2843 0.5483398478642196 -1.5870939205035002 -0.057265993935682956
2068 -1.608221388849584 -0.4686291572662998 -0.0866788798361755
2074 -0.22579913171957036 0.07326959558723423 0.13291110810029572
2076 0.17135716056784606 -0.52514339107252 0.47329513336502677
2146 0.2456623857742484 -0.32487079799023516 -0.3457273784287555
2153 0.6039577456412359 0.5155089517020282 -0.6620735155831529
4031 0.0950898378872272 -0.3488252244219999 0.19169884604943807
4033 0.2666224582673434 0.7889123168503499 0.5385520349797213
2066 0.05059462696561466 -0.27430010539412125 -0.04802977434699921
4099 0.053572572400469906 -0.2679374642413962 0.12459458781891385
2147 0.6558022003028705 1.636840643972468 -0.6518342293202648
2154 -0.3236880169695842 0.28392515392803225 0.25916550527901144
2213 -0.22280617865286872 -0.5689432790558794 -0.4020427660267272
2218 -0.0844980555524332 0.3123155999429837 0.14669103330913624
2220 0.6864263813299483 0.3564592966790088 -0.19959697390748035
2224 0.13607189869897965 -0.20602047479749297 1.2514530933906958
2228 1.761388044788064 -0.5039920689953875 -0.2821365490872542
3967 -0.5149761023182323 0.7574544333736992 0.5640376275208473
3976 0.34906324648871817 0.20431160039847654 0.3120584832126175
4118 0.841508220739388 1.3927676030976097 -0.8668317115375327
4107 -0.16667593283279813 -0.06359779645436969 0.1315987494715477
4042 -0.9804431698546799 -0.694943756563356 1.08307062022183
2219 0.8561204924130693 -1.2642245380688568 -0.4200965451020864
2290 0.24603714616852726 0.08033089835181056 2.066794988074965
2358 -0.3656061039238905 -0.07475597839225542 0.16625691344902405
2364 -0.8288035826677899 -0.253936553860242 0.4450544264039819
3975 -0.803715554093884 0.5642218768190562 -0.6599724595092658
3983 -0.0364325493987526 -0.010165721440422187 0.19514928910077578
4045 -0.0931108174324993 0.2707142218168417 0.08835694372864805
4117 -0.11438774786248461 -1.8624569556413266 0.414251498941844
4053 0.999852643293784 -1.599625252647188 -1.0641134538021477
2367 -0.30261460050170697 1.781450923650609 -0.128699574117836
2426 -1.4935245693600265 -0.0405502370881202 -0.3477008224543044
2431 0.17734709866379444 1.236716869177806 1.599940233077695
2505 5.709760504181115 -4.505608749766337 -1.9735582421231253
4060 -1.1244673531600249 0.7500205298274328 1.637659200936035
4061 2.595553828964336 -6.505105516912212 1.229297958873031
4127 -0.666127602466504 -0.734308035111473 0.2499333561791397
4137 -0.5242330843205002 -4.577582261064843 -1.3327584700471653
2433 16.990967118828443 0.21699354466610035 7.060822603111063
4059 0.18025713517842767 0.21685292574062395 -0.16076244299048148
3997 -0.07053632352712867 -0.21408316513536377 0.18860846698721365
2498 0.7426494104759076 0.9834244155666505 0.27782716872922575
2499 -1.1490320369561524 -1.0199333310530996 0.00925310606182174
2567 -0.37997578801289894 0.2898480938370471 -0.2796757971358977
2568 1.582761980683676 2.0180712573621498 0.5209615482917334
2571 -2.0392728006807794 3.771002306335088 2.5467960835356434
2575 -1.897854298570881 1.5063692259458397 -1.5882055384611793
3998 0.2961792462520787 -0.6284730341549233 -0.5283747020527622
4136 0.2726010858230411 0.197183149744209 -0.4212017870969867
4142 -0.18565837616104855 -0.23582810621995257 -0.4583962339027558
2573 -0.09727231347246529 1.0618639314299603 -3.4964805421962386
4005 0.06432421897592663 -0.027738425580685105 1.9716406958293504
2635 0.39087070460521506 -0.09060824308373128 -0.1681683294863677
2569 -2.6665101475574264 0.8261029036657267 -1.214477450569186
2638 0.1933042902383229 -0.6800049183085127 0.9534524633690629
2640 0.45631522707018574 -0.5840891004776491 0.3756214134082542
2642 -3.3995519478856235 -0.7098480911472892 -0.275778969817042
2648 0.09359622305536197 0.18021694886403364 -0.5093523614903369
2713 -0.4237150194784293 0.12589071189694723 -0.7089650241712372
2715 0.8661519902422073 -0.4176548707359182 0.18942408754772394
2721 0.000601788850702142 0.48231705449953405 0.7798926160198099
2723 0.9165287293226871 -0.6654630914608881 -0.7742087588565564
2725 -0.8849383781128919 -3.0951204424673637 -3.516177477627419
4004 1.7006395191690833 -1.65988927406556 0.5024155773988339
2790 -0.07391071173067476 -0.027722533285350282 0.05088769211393783
2784 -0.1664488982496776 0.3502972916604474 0.6245847031949074
2789 -0.5284759621092577 0.018216263860536548 -0.4004185610670935
2792 1.6480528370560246 -0.9434478342519772 -0.20664895648473736
2862 -0.0795447729135792 0.30485041770519117 -0.011024658021548958
4081 -0.3308961154630241 0.39615821286408237 -0.006606522253536744
4085 0.14315814850384154 0.22006396164421457 -0.42301716421567065
4086 -0.6815418546320524 0.12060814952942898 0.19578837306445543
4159 0.13356560085891475 0.6453962912993324 -0.45773875050247326
2075 -0.003394595620057294 0.009000367835685336 -0.07039256710523945
2856 0.030676385330198425 -0.06591137375258882 0.39572282044812185
2866 -0.5290192059314142 -0.907420130969393 1.3533001745643884
4024 0.016213409360753446 -0.21869336889238936 0.4948499691960221
2079 -0.11629340917136571 0.39320153237096567 -0.3479447184231839
2086 -0.3271455489525209 0.22203316058062278 -0.0841500099813589
2090 -0.23916507911414722 0.18327332605038088 -0.3032060921707732
2081 -0.030122426983307755 -0.2830583170298105 -0.007395394500981627
2161 -0.363313280102495 -0.3426804157671668 0.4305351813995159
4037 -0.3169170535266125 0.18047358265087138 0.003961047609714661
4038 -0.09833586588927207 -0.04374941965129276 -0.0010731030259585551
4100 -0.179018706900046 0.37766739684741074 0.11615865053980706
4101 -0.5357308985971981 -0.6980418957524052 0.5329103539364026
2226 0.644609656404233 -0.12090521853320178 -0.34671934247734076
2235 -1.0232294979354035 -1.6185334176044 0.6849011234475999
2295 -0.8404478226123099 0.5823879130972127 -1.181112046384154
2298 1.8180412493353584 0.27946434300565887 0.40179425867189517
2300 1.3065434684879906 -0.6861527945922741 0.07450955918810166
2302 0.6145829304396643 -1.1278104141358636 -0.8241155337353254
2304 -0.4411218560283516 1.0688411525131072 0.4183879321562112
2306 -0.2530961548399414 -0.9336760888043442 -4.197721817299155
2378 0.08681021630891174 -1.6564423018872372 0.17977036918065356
3977 -0.03635106297180469 -0.7042028144991754 0.2686111737809577
4047 0.35257502022634846 0.9651580037004548 0.3208962407279983
4046 -1.4825169853579228 0.7929891995338308 -0.21548920202878938
2376 -0.8181146870871574 4.328582379833274 -2.485111192754862
2385 4.433058932814677 1.0314542990279423 -0.1263320654455454
2436 5.4520097507349785 -2.009868755918262 6.843755366883529
2438 -1.5704152008166246 4.747943220250044 2.2497338440725336
2444 4.652102155695982 0.3519220459470931 -3.6595947657784413
2447 16.29196982967413 -30.10886074735038 12.525859537150009
2514 -4.176255870002124 6.01126312512155 18.249250704486805
4054 -3.6179454183324014 1.630842737241908 -6.554622926205
4063 -1.1862886088531315 -0.7365626312462942 3.811845018341593
4324 -6.279989039002662 9.622383944747597 -0.6941861246902035
4337 -12.815792854842792 5.253059532466923 -4.857338496682607
4310 -4.427287983230643 -0.47437261927406793 0.1566126194053911
4306 -2.447750474590089 -8.395414210300078 3.093669102061265
2448 -14.840051048617967 -1.5176208178451582 -11.194406708129147
2670 6.8962420180698105 5.521137703500581 13.608303545831829
2446 25.589723359465655 -17.525880625061415 4.254565207301468
2587 -1.3898544398801809 11.652891411180093 -3.5459326229604566
4261 6.008527811983946 -2.794380000394411 9.22495894842015
2445 -0.7270214032737049 10.682657510084553 -2.6972013219442297
2439 5.716534869284789 -12.877447489669299 19.051256374542863
4069 -7.761690379237736 6.4462604819045675 5.919196201622609
2743 4.982522594788301 -1.2082985312185253 -5.906349344995585
2646 -2.120820655137932 0.3976854559928615 -0.8163752953398205
2512 0.4962490223757614 -1.6854787822594857 -7.245692289263266
2668 -15.863490187027969 -16.296612902801527 -5.0612750127149955
2582 1.0020052445282275 -3.079942318823968 -5.610477661019711
2651 0.13503564936632562 -9.195546266634269 8.340320131758377
2652 0.4268009985698329 -6.436840267684582 9.836349157741482
2660 -7.939520812778971 13.394914159482564 -5.723854878980668
4148 -2.149712143866349 -1.5144994658834452 2.20118798034598
2659 -18.03842329121917 2.08585397682708 10.971879923223835
4194 -2.7192696712037874 3.1908924427128267 3.527431027720464
2653 5.820823249318373 -5.3261284250845415 4.829782439883031
4279 6.769185366114283 -2.4279320049588433 -0.728554848023297
2734 3.391402867244422 1.8589421293535935 6.577639709881549
2798 5.9287996133303285 -1.390885061144049 2.0420699887419183
4017 -0.29248454246404004 0.020864525881850313 0.2219682703690422
4082 1.7865007754832722 -1.0090598579191972 0.31505404749936183
4088 0.22147191831115084 0.6450614396313773 -0.38848904883354374
4154 0.2304628711101455 0.0775828177642291 0.12069739150901038
4147 1.1756980744251884 -1.080480901243959 -0.24981122993833801
2088 -0.06202537715385896 -0.12066670092318084 -0.02781130683974635
2864 -0.11244755657425379 -0.043927724974060216 0.33912857323741885
2873 0.47294171937343116 -0.40013002746197285 -0.529266765737844
4087 -0.4580964847093917 -0.19971343189883703 -0.25980169687850174
4091 -0.4487966169829866 -0.4678302605847076 0.2251479622987199
4160 0.37204937916697944 0.6842422808022793 -0.6142668173053735
2102 -1.0365172297582446 -0.09851416264389115 -0.24536744736640442
2097 0.5759050395444063 0.3711310964490742 0.2614333754445256
2096 -0.28294128238425853 0.08869154952778655 -0.2994306517699366
2099 -0.06150671094455373 -0.6769917621298909 -0.031124866975402458
2103 -0.47735497213682293 0.7159246511202477 -1.5866179959310585
2168 0.34772825862563617 -0.055794773171582206 0.009061556403874455
2172 0.15071160405888717 0.3036925799025241 0.8424106151721635
4035 -0.03236657726568947 0.013985200444435669 0.23603614753512228
4102 -0.034905694048172016 -0.3926749617963248 -0.14688456309492856
4110 -0.33274215424089554 -0.3850162069431729 0.013293525296348849
4111 0.14935704080075984 0.11913560481315837 0.14703940952016722
2240 -0.553803088474106 -0.5070260418543152 -0.24854220203467386
2246 -0.061140259526028876 -0.4163285033912501 0.09841936151567145
2248 0.867517468701574 -1.5559831996254805 1.329462008342102
2254 -0.3498103639026551 -0.5878116301710172 1.056951443785057
2313 0.38921375002289443 0.20336240842593312 0.4928709180345765
2318 -0.5366799386502649 -0.8169075030394136 0.11805846512896422
3978 0.21428845274389632 -0.028886519786116803 0.3137270561688822
3984 -0.009918845583044561 -0.17812440368662497 0.31512193566051305
4039 -0.26982196138503606 0.0494861444994112 -0.06295894326280435
4040 -0.05299729771166855 0.09811619812134506 -0.2007336883809815
2319 0.2487940630898594 -0.8158141244094832 0.17010922508288162
2311 0.6931998141855513 -0.24743084965442302 -0.15379772956664925
2315 -0.5018102466060592 -2.6051888034785797 -2.106511814622071
2321 -0.40965629161604583 1.6174863938720083 1.6870133885289995
2392 -0.8437551155880619 -0.9831149634814123 0.6824308597397388
2457 3.353112266450006 -0.897226061973206 -0.4660724748570232
2458 -0.9365838553907322 -0.20018517609303146 -1.0274598211619104
4048 -0.13485254135680833 0.9691522592869891 -0.9517827246167837
4122 -1.7062044820278974 -0.10036941744113227 0.5981037596502756
4123 -0.27884301646842957 -0.30849001794444536 -0.4783007531199231
4055 -2.019400989293596 0.39895932997775635 2.9350029955324586
4124 -0.30603327665364166 -0.9547582109921251 -0.8140780613850638
2532 13.499629819399901 -5.046923897016074 -8.49486565915913
2689 -16.569077288188662 27.428304610904036 -2.8407212702112052
2452 -0.4069673999547737 0.9693727643038385 -5.0160097266236745
2519 5.443982517080922 -14.02369029303944 8.738745989666352
2520 2.3218615163182275 0.48916000207922194 -2.455766885712058
4071 -0.5355941987424463 4.6088091925470085 -4.758369304995749
2518 -3.2112913466403117 1.2060575464498937 5.237634308158741
2683 18.2837241169286 2.4042096950875385 11.14411520874556
4338 -5.044559482419509 -4.998920723715762 5.792452920714881
2602 1.2381116431413308 -2.915942294493816 -22.806546944408083
2459 8.396527288836937 -3.0819509402604632 -41.341367401890544
4201 4.308012111237397 12.354067003903598 -2.0033349594891363
4314 -5.052867593475844 -0.3340659312350307 5.3262004137293895
2735 -6.348782283171364 -6.683436285354566 8.030367839505471
2750 9.309679262753923 5.106120121795926 12.368626667688611
4215 -4.99896844667177 -0.9182750581923497 4.281821298686971
2806 4.706778556545526 14.765943342863325 1.8197812961538384
4206 0.7218161159219773 2.226478538359538 -4.5843914646459885
4013 5.782387822418145 -2.875236229861473 1.8070699659373326
2672 -10.255828568552623 -1.2923015222807326 -4.5480527820431105
4268 8.573876926773652 6.3013438743140595 -0.33937869597548553
2745 6.946668834914576 -1.8674022431203376 -10.755759607738375
2742 -0.08708725019258674 -7.057156899704126 -4.625575161375397
4214 -2.0821664418127352 2.0527200085103847 -0.5038142883013417
2878 0.00988112363623386 -0.0009639177623128924 0.38526039737006745
2800 1.5159199937302406 -6.767966603936613 0.4070016660965011
2808 -0.09363396247419367 -0.44084585529538095 -0.23208536712404176
2882 -0.06102061616807347 0.6321199116087238 0.42485972634644065
2890 2.49997504151901 -0.29022426478303504 3.1882884841468524
4018 -2.5336231256731603 0.5438409556152564 -1.3636810713989211
4089 -5.15958214457781 -1.4498559679461223 1.0366301868574381
4092 0.4467768762629695 -1.0474860404416897 0.1682360386311217
4162 2.0087233580836132 -1.3970844946703356 1.3780059073417246
2885 -0.2912140378637094 -0.1651086173781165 0.6356887555347569
2107 -0.22935130644963792 0.2705410294586943 1.347378102820514
2111 0.045958498870739814 0.6356428341000526 0.5781681442741172
2185 -0.02704706209491886 0.30741563637839997 -0.27175674809474937
4095 0.7160454978165119 -0.14328433216963563 -0.24096874417130595
4103 0.17676551793695708 0.2949919871535888 0.0694051971978152
3971 -0.25945401927921286 0.3745431968406788 0.7693753575393175
3980 0.8685961005293362 0.3653713292145392 0.7234530441327159
2266 -0.07286352088372963 0.15438725707079076 0.14963017212619806
2178 -0.031538867060182746 -0.8382928981483252 -0.38946663905840356
2180 -0.9310370370419248 0.16836544798332745 1.0413842797276818
2187 -0.8231866585177365 -0.3461154298770151 0.973336857839545
2252 -0.19294741605290594 -0.3787868297150072 0.06123832270135034
2259 -0.12578345928591608 0.2608257155686318 0.2429469330572047
2264 -0.0052002194122265765 -0.16527519716898004 0.13668017421083958
2268 -1.662381152324056 -1.7338658070394644 -0.6312333006299605
3972 0.16608930235176284 0.21153878136186405 0.6594711763983512
4112 -0.08233820701654851 -0.22500909322945012 -0.3309555489990386
2261 -1.961302970801541 -0.34292639553838017 -1.1346949732802247
2324 -0.7927642419915103 0.24628972243625327 0.06589573749748438
2325 -0.03832192993803665 -0.15373372997662385 0.08295531452038632
2327 0.7293895312492954 -0.14068910790973568 -0.09743432345239883
2331 0.5173693468095248 0.5833729981093103 0.5376713287207313
2400 0.11671171407628382 -0.003671956859273335 0.2653254758093801
3979 -0.24633766747405134 0.20939885456105495 1.0466503678597157
4049 -0.3854073315911062 -0.24354457716760025 -0.17163912173994278
4126 -0.5055477304460354 0.1276348714240516 -0.5953585469087169
2395 0.2735459565924905 0.6921283675516604 0.07538670342743022
2396 0.526353964404843 0.8188580352034037 0.09959470112073315
2463 4.777186304963589 -1.034798751156693 0.43089806758903215
2466 2.824034464521427 -8.866348433274123 7.049390649762784
2470 -0.9743417983222461 -0.11273623577375526 0.7777545069749069
2472 -3.6359244802439985 -1.7422569539473955 -0.781663662845941
2531 -5.666069796208555 2.360769741659676 3.867611776123756
2535 -0.24220187750118688 -1.3816705286740212 -2.1950137484864602
2537 -3.1483139550486277 1.1371993041023851 -0.856306873639292
4056 -0.18323567468130822 0.33050027060252174 0.0988671902132913
4131 -0.027055049394139042 -0.22126181611959647 -0.3056746513291505
4130 -0.9716330980356107 0.11359993649141187 0.24858521004161935
2680 4.08999519643797 7.418293196290645 -2.2060416149721203
4202 3.556128234920532 3.945169193504665 -2.78105259373558
3996 0.3638023072730613 -0.19013959236289774 -1.217264212454387
2530 -7.152868648385262 11.428989189354034 33.5303643225678
2539 5.258515486076057 -8.48400781785912 17.952583274710037
4072 1.5087142990636084 -1.6590733423196917 -0.2251560042607739
4074 -2.2060788690963733 0.34789011070782405 0.2414508101397353
4145 -0.03322201596068245 4.447479532429384 -1.2738719427583083
4195 19.187312215532558 7.451886994147686 65.72257091695919
2688 -4.515681906699618 0.9738541991127888 3.286254363454124
4254 -6.2664612953129515 -6.121438331801742 -3.123453769507038
4343 38.89063975085153 -25.94959607226044 -17.07878394425015
2755 5.203658390060444 0.8687217487322695 -10.70121391269211
2596 -22.931043113393887 20.219578834908557 5.927460602002101
2685 -7.308959503273112 13.576770735419888 -8.34169448160137
2675 6.472717208747388 4.793480540641766 1.1461452215853647
4083 5.322306973099073 -2.8856154756478998 4.739892038184857
3943 3.1319908657319226 -0.36208823897016484 -3.8096649056680194
4209 3.316579043949079 -1.4107728790548713 6.303789379520891
2667 -7.008472160192711 -1.8889491611450937 -3.9744883963265334
2669 13.012255888190682 -6.148708553683565 0.2713424880031353
2741 1.269037536714697 -0.14410641250176176 -16.319424820038325
4313 -6.456362185965872 6.657002781100642 -4.122933751523734
2814 0.3061067680344142 -3.923466231683691 5.696212035511304
2818 -21.881348193199077 -11.953979969653435 10.679840752207257
2823 -1.1445405003529907 2.526284762293064 4.834575549236844
2825 -9.389334731540815 -2.4681348503427434 2.7429856197433353
4156 5.829338321738837 2.1057491227754896 -2.58759680759294
4157 -0.3590641614342289 -10.948577310234509 -1.7533032374866688
4280 0.4036807281669874 2.332808083935694 2.7982667964154433
4210 -2.289554291952813 2.078751339174251 0.6044235391226072
2813 8.82740759057348 0.6580836576426375 3.7772850878323534
2902 2.211067908947801 1.0934952781879739 0.28246255669273707
4096 1.7146757747320411 -0.27956551929867196 0.45650152545991807
2820 -4.459626684148139 10.180642732453425 -4.504495378912091
2895 5.416933383758258 2.9518676683377087 -3.019722872118712
2897 -19.34841860555939 -3.622477312281905 1.9962864675052796
2906 -1.9049420026637296 -1.4851438737304201 3.130340513306403
4163 -0.02700051585401095 1.207560795052506 0.17210774400166784
2054 -0.9216101231759068 -0.8596032089081442 -1.601294159277652
2056 2.027608378773254 1.146525810787193 -0.7184883411081091
4225 -0.2807959666354599 0.4452411850629683 0.05699481121066526
2126 -0.5704039628367149 -0.10503590015985935 -0.5221357760611022
4294 0.5112709922716158 -0.1235443072270187 -0.6135138520549648
4298 0.783011248415236 -0.012728070367044337 -0.31305461840357734
4169 -0.9077614585483951 0.8650921569150523 -0.49558161625731634
2113 0.19897122867255262 -1.0219817593709106 -0.5464356490806425
2118 0.3991964063204783 -0.3308047190569871 0.03511149116357033
2119 0.44988617091893957 0.28234512552913593 0.10880351799806244
2124 -0.2523925432644343 0.4093719735330455 -0.552656348800724
2188 -0.5364420373489845 -0.12745563021669282 0.10185097912645574
2193 1.3086033806525879 -0.03397481088386211 -0.1880150887872108
2200 0.45458546045554604 0.2397161194297038 0.3537300511917761
2203 -0.2026665417951695 0.13927166345509284 0.3074534275251376
4105 0.1862770103077856 0.5091565846327547 -0.2546248913454879
4234 0.22349418864142467 -0.1518151438319065 -0.001884864428089945
4299 0.03584153222786045 0.28533639697528906 -0.5123608845211761
4115 0.09992850892180284 0.0058382768672585895 0.12769623705070599
2192 0.37583335077126645 0.6454271856411521 0.06936759530146613
2195 -0.06765777290269642 -0.18549470752395186 -0.1957826519045218
2270 0.1314417682316008 -0.729847993765004 -1.0935401268009814
2275 0.3246569748588463 0.6099587000118731 0.20408855324480285
2346 0.5540218050462935 -0.8175298659317364 0.42971464259479136
4119 -0.15481819343576128 -0.06007084223548715 -0.0035486077989820303
4187 0.049399763787227505 -0.035551911901026155 -0.3222925338314634
4243 0.2044182171455554 0.363655523652903 -0.43353447629765923
4242 -0.24864978467167434 0.2594084103906089 -0.3539907218679585
4180 -0.06639693443882319 0.3300119514455588 -0.06443365693957878
2336 -0.2757953724853802 -0.5619178255983799 0.9479644817239313
2338 0.24079482151302148 -0.25765193442382606 1.2544700658523702
2339 0.33298793860569165 -0.05144174935085901 0.0035276805543752133
2345 0.0023623967766183687 -0.029830165505116937 0.12059010457406369
2347 -0.7940755028407057 0.19962488783059834 0.34570803310487935
2406 -0.9284070975077283 0.18162960599620914 0.8584618362922707
2412 0.4963833862885194 -0.2933767331069284 0.24134936011268335
2414 0.06369141697274486 -0.46324408872835676 -1.6424579950541955
4250 0.05037787442168202 0.32703639026973763 -0.24228867436839324
2408 -0.5506487916076134 0.119565587544561 0.6867043251768139
2405 -0.05133526891708436 0.3391848974669142 0.47320995726590515
2407 0.3111053308779697 -0.292419863283837 0.17949272945707986
2473 0.49264806887560586 1.2501440365423213 -0.15573288782302622
2481 0.012155150538259817 0.8936779398899829 0.3951884618566386
2544 -1.3847693924199507 0.5155317334340012 -0.39755764602544763
2550 -0.08432944021419359 0.2506324971107424 0.2134520344898692
2551 0.5237650094814006 0.7275261094628112 0.35106287472269404
4197 0.3874212057248089 0.3704006533284048 -0.668620765605741
4203 0.19148707252890443 -0.1429266114713059 -0.415889492306453
4259 -0.036859845912869206 -0.026016699411111285 -0.6707945707421983
4264 -0.093304511207083 -0.25525201575391526 -0.13847459466511994
2542 -1.404614547792324 0.7964403847887568 1.2411477237219037
2617 2.421938157630335 -1.2213877086953109 1.261990622706181
2619 0.24166648485599107 1.2716568838265894 0.6262345903796362
2621 1.8725112153955017 1.8064201453969129 -4.647697983514886
4204 0.025889622575451167 0.06376362157373827 -0.2251343197216441
4207 -0.29857652996507983 0.14412103333354237 -0.10983398656484232
4265 -0.20974181869849842 0.7233112461547179 -0.02566465281228246
4271 -0.6639004253010774 -0.7977069897045379 0.07274592755106181
2612 1.3225752009246747 0.5214226911595106 0.18425850969545468
2625 -0.10184443124425682 0.570889014887442 -2.2504097912274674
4158 -1.19564000569567 1.9156065659477934 -2.3799379253797652
2696 1.9945946799548928 -0.43488156909734094 -0.4975366420249747
2762 1.9234305986240132 -1.3443729856791327 1.8427804498617946
2765 0.12682528883616037 -0.30582675889173516 0.7092556835429642
4151 0.3883120552832405 -0.6205494785932111 0.14240416690227256
4217 -2.0294741717911053 2.411457703139966 0.41849219301410184
4289 0.3487671719508489 -0.11601171840109058 0.4571309682212087
2690 -1.8882599171789785 -2.923669125123526 0.8872230702085986
4282 0.059410040344881496 0.4008659210656172 -1.0178541489235202
2770 0.15997461377125258 1.1858920031418179 -0.23420558084923346
4283 0.4106958579935143 0.2193595380266699 -0.3907563104297866
2828 1.7785639364234298 -3.8734867035429867 -3.2500944099778843
2830 1.4264328837271751 -4.1186460294871425 2.9817436942568194
2832 0.031784243672021255 -0.3436548352607525 -1.2738486402106233
2835 -1.1057871103305468 1.0451982749545514 1.2011548227665694
2837 0.6457402777728688 1.634097299725279 0.24128594436750192
4216 1.269114893426138 -1.5416010971153322 -1.417802322457797
2839 -0.42498849689426393 0.19427567726214076 0.4494722803960171
2851 -0.012838264960883406 0.3988540394441228 1.425796429636577
2059 -0.6354788825189913 0.2423764345717743 0.09374031323323147
2060 0.25519832018777916 -0.8339781787927734 1.3212693358993632
2134 0.38689765131041093 -0.837774473131351 -0.568122961886428
2136 -0.3967596341015443 0.5277370071335781 0.3857678083614752
2142 0.24925890417864294 0.5177084816144271 0.24671101954751828
2214 -0.30076582362288085 1.0610199273744314 -0.7162025226711937
4165 0.5994752305025517 -0.17393219612992503 -0.19102581783320632
4226 -0.04999089297450298 0.15719330779011817 -0.2891424477438608
4300 0.15754038600454273 -0.04957969808777175 -0.33654394268860655
2838 -1.420469734228729 -0.5633631464161362 -2.708697205445084
2064 -0.42822773357655874 0.7075966862132895 -1.0415466493840264
2132 0.18755855209220257 -0.27747209142371854 -0.20449230292717827
2127 -0.18231041689197403 0.32089261278922004 -0.22526600042426315
2208 -0.3999159342869841 -0.1883556680155972 -0.32537867453036035
2284 0.5114725072844518 -0.023375201099552514 -0.031018246853091944
2286 0.6333527282872783 1.0637037923531216 -0.9284905264729029
4175 0.48875246424703644 0.09763775000562826 -0.1555354528640436
4176 -0.228538867823087 -0.33981081215425124 -0.5326629213933063
4238 -0.31083179501105984 -0.035520776546781624 0.023332096887321654
2216 0.471219565822719 0.3402639483463084 -0.3375137383453454
2277 0.718906865696802 -0.7043133732989977 0.37976190659531883
4181 0.46511505599763653 -0.05324866376717703 0.10917260830546992
2280 -0.10977729822742695 -0.2544952209852939 0.25504584930293334
2351 0.9113777139086094 -0.7965747027267592 1.0787230450681593
2352 0.2315848654353145 0.4961894593854787 1.1629719788092452
2353 -0.3388587361615299 0.49486502755931994 -0.023892674498664012
2357 0.06776867103204547 0.1347505978523036 -0.7910772731169767
2359 0.377865127690856 0.8506773592303869 1.2935782398035431
4244 0.13654018222920747 -0.47450699186621387 -0.6602088761230367
2354 -0.3409981761607804 0.07597095916876145 2.129068676008112
2417 1.6806528605996929 -2.666896137597196 2.2109769127350507
2419 0.272109539981479 0.023397703451446542 1.5166217396562232
2421 0.3531884310610348 -0.3766664202944783 0.4131035862382998
4134 -0.5366723116650751 -0.39915891301911427 -0.08637829411546889
4191 0.18151994589026113 0.4363240029283913 -0.4204690856098415
4192 -0.111062446156008 0.012908490714529604 -0.11078021495393763
4256 -0.399304217194769 0.740700912660434 -0.23887208805187005
2494 0.1103447774920257 -1.1772857783414952 0.41542656470926187
2422 1.2149056111191618 -0.7556237342452485 -1.2532418737286544
2553 -0.22540047679226655 0.2342605992927882 0.22017277187083875
2482 -0.024859616887474692 0.005409222553525717 0.03188104684991762
2557 0.8121568199472948 0.17281053162447885 -0.1376146907173928
2558 0.34729393441045303 0.29990715263353057 0.4113477032362923
2563 0.24382087067135677 0.08752391507977307 0.5719809747365078
2629 0.3881498360642509 0.9239487449068917 0.4009002994555746
2634 0.2265809979456171 -0.11539690632660399 0.5735546317141912
2636 -0.3630264004963131 0.45308630355821405 -0.48011512451358307
4273 -0.01555164746784112 -0.16719211602409972 -0.9257143666747202
2565 -0.008629362689035571 -0.3836040177679479 0.9474432894203353
2628 -0.11234374690275527 -0.11594929094371735 0.2420332074825837
2631 -0.16027554932119925 0.24143168900455222 -0.45307728822852283
2707 0.1847125352956872 -0.0018048051568010672 0.35993495386502306
4277 -0.08714798832563492 -0.0779010159745585 -0.31659179477075206
2709 0.6116230132315649 -0.4727063065040119 0.9309475185299906
2632 0.2804780701043374 -0.546515068898893 -0.3243426272326181
4222 0.4459346063403745 -0.3601609869915076 0.6175287598787488
2769 0.15065998774958242 0.3598676616032677 -0.6369488144783609
2775 -0.3581483160977587 -0.6858650491063941 0.3707263976885388
2781 -0.10542169257985587 -0.1586322154593578 0.1273665762675352
2849 -1.8747630528314625 -0.0892783101953611 -0.1455389813262733
4212 0.3131114424062696 -0.3413112120074357 -0.1614311418024482
4218 -0.21720127029657404 -0.6148643202750872 -0.43596609593783636
4219 0.033913378793443874 0.004765177318481188 -0.002858063514336427
4284 0.5007949680025174 0.20751439082175976 0.0828558082993293
4290 -0.04594325564476418 -0.29625561799299094 -0.29843549013065884
2067 0.14461845559289702 -0.25566897254726445 -0.7848247824645249
2069 1.5565973458145592 0.749886607861291 -0.9924681616381013
2857 -0.13192217131966116 -0.406263450161564 0.14154715477208143
4108 0.14692379572277098 -0.054099185701932805 -0.08091138178905151
4227 -0.23984940952286654 -0.48345639731012774 -0.8192646064145169
4228 0.21813470108458952 0.0481277819222659 -0.3961738443990541
4302 -0.22197617029160632 -0.2274235530231014 -0.1948087733987623
2148 0.0782484808121178 -0.09625586628688515 0.48409948911693534
2225 0.00829873406825751 0.003984371885537163 0.3434959411403977
2227 -0.9870457269200229 0.6418698354628504 -1.7108011368200093
2229 0.10828849583664324 0.3611931538226637 0.2782525798038539
4170 0.8976815977894667 -0.08509562550915373 -0.7189969673103834
4171 -0.01228556631229798 0.22547306863721567 -0.11859607425140435
4178 0.30657291244521595 -0.4992390544367498 -1.1351646597371312
2221 -0.04708245611698155 -0.4529757711542081 0.35968432601778927
4121 -0.9138296050948551 0.8789968850974573 -0.2703089829687224
2289 -0.7444575440240473 0.12368097474566359 0.36206843892644347
2291 0.03707578235200031 -0.3230424009677036 -0.18187677406810174
2366 -0.8704978862031879 0.06081596674049741 -0.7363527011313261
2371 -0.11998834488377186 -0.43921866419453254 -2.0749196220143533
4177 0.2168383054343353 -0.4444390460922863 -0.38072078618059535
4182 -0.24375973419497854 0.11237657593875372 -0.4562800885978832
4188 0.5550455812940798 -0.4725469011086811 -0.4469294862536342
4245 0.48818445517055226 0.6157306516775641 -0.3267631998515612
4183 0.46413430389142896 0.2608764828324829 0.399717090515851
2296 -0.4464539855891708 0.04840270759145424 0.4100235083385411
2372 0.9275464143952122 0.9683542139004782 -1.3185285827752338
2360 -0.4263668121238853 0.5277299120776153 -0.20978267170921813
2365 0.12948364581740007 0.06643858310822351 -0.22682697618856293
2368 -1.285525416357901 -0.3231490269220797 0.4000961181074731
2427 -0.9378295322485096 0.21883257126211345 1.424940038309544
2428 -1.7828635238885215 2.2274095120638666 4.1210559681121754
2432 3.061098973565261 -0.8613556108842421 3.0941942542644583
4260 -1.3349557041085875 2.233206054197076 -7.494378865503026
2493 -0.0032815888877884875 -0.5972203197500956 -0.9912464468269245
2500 1.161155266153071 0.5195264904644807 0.6445636012667548
2506 3.070790550340601 -2.987782381587665 3.4293036056367554
2572 -0.2878261533790117 -0.6201713246640838 -1.505219646426023
2574 -1.4929403479044934 4.084680040869598 0.6167577665821005
4193 -0.042857489453474354 0.1708897221713651 -0.36266424649527
4199 0.6786850003629623 2.2830022008397415 -1.081685634081296
4266 0.002095008584226252 0.3880562584036967 0.21007024873453065
4267 -0.5060857758456088 -0.5435369749545607 -0.3262804958628616
2507 -0.30220230554944644 -1.8015703803354834 2.120464497800723
4198 0.2906379045889028 0.182795844748878 -0.6933710400889266
2564 -0.0893148946824182 0.08733064907073056 -0.5545669980608092
2639 -0.17933985838208003 -0.06743933405615826 0.025599739200445223
2641 0.6782833529340809 -2.7247350070638037 0.8554252233094626
2643 -0.05085124215961266 0.3748288553976735 0.14324838237990264
2645 0.32661943522646 0.24555356840538042 0.35933560640521833
2647 11.13202948301761 -3.4116606066446353 1.287311885182322
2716 0.8201260286149656 -0.7828535707646833 -0.3075892710124293
2722 0.13082817210745348 0.1728187249140102 0.23943732572804816
2724 2.002657809162579 -0.6563990745929197 1.3213119279454197
4275 0.757345045612133 0.5505876529946551 0.001994066921868707
4274 0.11279183390594712 -0.22382608078007424 0.44680780285489885
2708 -0.49175777479463056 0.23884418511055194 -0.742627265328687
4278 0.25571535712640747 0.4111301028002747 -0.4564779358821641
2714 0.5620112126200536 -0.3911103315262321 -0.19414849607184734
2717 -0.31368740937622563 0.5022389361676779 0.003184951341577
2785 -0.07106695482017483 -0.10099401982298896 0.30641268294347945
2791 -0.5258787038100875 0.12948306150540018 -0.4026191618063537
2865 0.892852318011335 -0.3484909880066494 -1.2183427699968226
4153 0.14215730122636508 -0.506297950689555 0.7860604371229327
4220 -0.2973295744915557 -0.06328559933679515 -0.0952246359109413
4285 -0.35156082557697416 0.14265126585203072 -0.3169342228056293
4291 -0.2952433320075802 -0.24512320462438314 -1.0664126296552146
2783 -0.34902280384339557 -0.2784058995144147 0.8399510013724466
2854 -0.47206784185196593 0.8659886886042351 0.9179654512401126
2855 1.9042772305272133 -2.236617594948458 -0.7966026000803615
2863 -0.10405619844433261 0.07218313620732891 0.7959073027134866
2858 -0.058314934575563596 0.3074070257905756 0.7471972912304101
2082 0.23644328731462436 0.09488376277330403 -0.2588836381514821
2087 0.46436284219954027 -0.01634122418192431 -0.1376158876314875
2089 -0.49763965515992964 -0.8956876738405601 -0.03247735889116263
2091 -1.315225276394989 1.5761614400726067 -0.5605157347877063
2874 1.0008881264079343 0.4808898787602621 -0.07694739301010028
4296 0.0908832748468667 -0.012544745315860743 0.037977623556446835
4295 -0.22763680384678986 0.7424958614129898 -0.2590933905503221
2080 0.30201639268657376 -0.4120602164034394 -0.15939812150840538
2083 1.6902715930927104 2.770348678462334 0.20446840580484463
2162 0.18865760041458154 0.4863234714027631 1.6413254435036801
2241 0.03201142460127307 -1.4551848339200368 -0.6241635513830871
4109 0.1250724535405581 0.841228851546922 0.2190645383661352
4172 -0.29330628142186005 0.13194094694376982 -0.21029510729075634
4173 -0.47274837023069904 -0.2423114183127629 -0.1543704697222773
4229 0.2163078548308078 0.47448077484911827 -0.09893910244333196
4235 0.49647979148650273 -0.6522010328956341 0.816232953618653
2233 0.11625456192765304 0.4072375070184889 0.29967524195355244
2234 1.7486767734072897 1.6705216836792212 0.1616054441708631
2236 0.2637135423079934 -0.06802588663563497 -0.11241884154913202
2239 0.103036037527976 0.5304760723045022 0.20113591790577823
2299 -1.316703266435226 0.4452713010931213 -0.3340164949714097
2301 -0.8661952084156562 1.55425115151087 4.316605432960617
2303 -0.45111778147782017 0.5702343437829227 -0.3745196345027635
2305 1.8509349162062814 0.5195509872721134 -0.6961249831615314
2384 -0.5869992760180127 -0.49126242746770066 3.5499545011249025
4062 -0.3950494092005709 0.7772560371034102 0.42543073722088914
4239 -0.18976112768152611 -0.1896669296782684 -0.13103572002460712
2307 -0.9471220293831623 -0.5788812821185363 0.06903680963045497
4128 -1.640930350434677 -0.37195252487519975 2.1532530997874173
2377 -3.4927799827146395 -2.947571043769677 1.7542716240509213
2379 6.719101454164625 2.534636542372532 -8.225700307752216
2383 1.5283243307094316 -2.343760652183293 -0.20296070532355664
4246 -0.05846648179212377 -0.20681733129989413 -0.1331598228196042
4253 -3.6913988446194423 -1.8224595514789024 0.2675764068648932
2440 2.5751562110193054 -10.712726295491752 -25.40866263040496
2515 -19.822559478749668 3.354534054281607 -6.379431469763601
2437 6.414633524683709 -5.568259413299848 -16.984373878793747
2449 2.352224848099777 -1.597586535540864 4.759474066685081
4143 1.630782723371447 -0.8333878303463413 4.312723232189776
2581 -5.529797911680691 4.780373707003066 -1.9781319439734333
2523 -7.848039903668068 4.504623407915396 -0.764255348592543
2580 0.0030038120065925267 1.751558949182185 2.9972485690993262
2583 0.028526130866056272 -1.0727477123816047 7.601967718941149
4200 5.295465769510725 2.4135385471924664 2.424548828138556
4205 -3.2438606961120993 0.4586063479352064 1.7937952808725448
2584 -0.8783406968058443 0.4953011775579313 -0.07088493661381524
2662 3.857585492757626 -3.2171002576882914 6.228493535673378
4270 -3.849985770025868 -7.240263948833542 8.081629936850854
2586 -4.212590792530496 -7.262016012635166 0.32676211503508107
4276 -0.23560266062154403 -0.21771593407017212 -1.7589784803519473
2726 -0.40010683120046137 0.21250935962944784 -0.7706246533510809
2661 -2.7908580620787506 2.1880828098994933 0.38399278514035
2729 -0.12293246524975518 -0.2871019721913805 0.3565361924265397
4155 0.5968437021299426 1.481076399765939 -0.18128758296930392
4208 1.7670733126124498 -1.7132493831772448 -1.1345807731458706
4213 0.03700706995064041 -0.20697363521254034 0.029413028567519234
2802 -1.8794579018193003 0.25153448613886464 -4.617210284767635
2795 0.12306326206039479 0.4570519296684553 0.5895594378633664
2799 -0.31335447761015284 0.372471401212518 -1.112115909931973
2871 0.4504788551039793 -0.3531963459360803 0.9826947699929093
2872 0.571440069161452 0.4905034999645664 0.17885007193617605
2877 0.20088727703598244 0.09778743271562601 -0.10696614012372448
2879 1.072679260657752 -1.0484725424778916 -0.303703800189568
4221 0.23126511808875125 -0.4265468257954486 -0.27858007650529465
4292 0.34276104413071495 -0.08884199956233514 -0.24628862214085076
4293 0.19442290154206782 0.14731295856328805 -0.5641746081098394
2886 -0.03700492451776244 0.8994253196710277 -0.04142501289677363
4223 0.2468577671358235 0.13059684291940432 -0.14413387324401886
2098 -0.8484923661893888 -0.4007545681102635 0.1561703542211595
2171 0.2531886917244268 0.23678193757897623 -0.2381250074007246
2173 -2.1533033184065595 0.6624683084552183 -1.218462573351435
4230 -0.44112654267648826 -0.25943759774213176 0.04727744750623872
4231 0.3568002729021498 -0.348019676745728 -0.12407120825786115
4232 0.6650873626515251 0.19114273967283982 -0.3830473780963165
4297 0.10928560228449684 0.14838432730095336 -0.5535222383108178
4304 -0.09787642389807528 -0.056739113632101316 -0.10027172424507214
2175 -0.9587109491952697 -0.16212778310790066 -2.5307005441996817
2104 -0.07872886805860377 -0.11300682255888438 0.10291136381255445
2163 0.793011356023835 0.8087405548994803 -0.5655804252825668
2247 0.6547580150912345 -0.4100102318788548 -0.04495593414359051
2253 0.819783086271942 0.18793837236116973 0.13820457318400062
2320 -0.20493683125857864 0.537328656098589 -0.40922346138823074
4114 0.19420587557207314 -0.31164769261609765 0.323800698325327
4174 0.1262721393020302 0.1829732589109239 0.014390087044574753
4179 -0.02199766665589482 -0.03225189249250157 -0.568863315095041
4240 0.011088475031726419 -0.09026798657470109 -0.08503097760799255
2256 -0.35706394755373244 0.81749439333051 -0.24230958513912676
2249 1.4060909341196597 1.1343669025088505 2.0001242172654567
2242 -0.4776714459134672 -2.7414019979367867 -0.5842537530728821
2312 -0.020768693540471533 0.48114148043688376 -0.21478309117126143
2314 0.4340657898954613 -0.4853148315746004 -1.2280037906560557
2316 1.4762905452431443 -0.2199512332120212 -0.47113076168494694
4184 -0.4275624456205152 -0.12477417608227406 -0.3622736715715557
4189 0.4554621312158746 -0.9359144080036261 -0.2568045153475064
4248 0.08553548987956815 0.5577924822829742 -0.6853856203942723
2389 1.4249281723492933 0.6236057417552636 -0.0005670647252208321
2388 0.6564955651007118 0.7216289095690938 -2.1738742878287023
4129 0.5825224095784903 1.200452078588059 2.0457690468577923
2390 0.4568491165271555 0.9010463502039587 4.070931299295982
4341 5.525171647612671 -3.180560329199078 1.4129595424741017
2739 -1.8075919163077374 3.460996534216588 -3.301701147721008
2801 -0.6009649122019206 0.5661672866232386 0.3141212912021557
2805 0.33565200980351395 0.1252891583994214 0.7689747788549968
2807 -2.503948391192356 1.6916505517883336 -2.85187996564812
2809 -0.370326598243656 0.007404345531546562 -1.0603190996047445
2812 -4.060782045209835 -1.0340827709306746 2.0626025583126477
4224 -0.22644924521852208 -0.46410176018965776 -0.4902748326882715
2884 -3.0172466748765405 1.5612760214143244 3.6216363593839276
2883 -1.0793070329344188 0.5386727929581656 0.18229952988421297
2899 -1.1009416958760299 0.5182127698743374 0.20629421715798046
4168 0.159103992238516 0.10443481609616473 -0.6193466503779371
4233 0.0016810790121958416 0.23894400194485638 -0.22408108590664438
2907 -0.1485974019116317 0.3943905748659918 0.3613302105794654
2891 0.7748058689165417 -1.2527429970553063 0.37245143938444664
2114 -0.49066664054539466 0.09193154955278898 0.8977984796454821
4113 0.5394126591329388 0.030769677901850596 0.18908124503975499
4167 0.07720054895163178 -0.03084065050200173 0.5150986582430007
2174 -0.17747859168505095 0.9711464443000829 0.423360381026013
2179 -0.0029926688132118485 0.023330888314242983 0.1585639076214047
2186 -0.4437819185980971 0.4278840991484636 0.3955548309016773
2260 0.35983847717428813 -0.13658928283728297 0.6170435704788118
2265 0.49140367194895973 0.17530261864341126 0.5683569976109255
2267 -0.37660520188993996 1.7174155846157175 1.5977513360562048
4236 -0.8166824445746903 0.5130295571669 0.29632565865575755
4305 0.02092348447683523 -0.081682983507105 -1.050615712984791
4185 0.4121025655792705 -0.2651692135172299 -0.5375900772440768
2255 -1.5921587129224457 -1.6375904533064929 -2.4036636011706336
2258 0.25868934246706593 0.6294731083270902 -0.0008247984507711529
2262 -0.10908279434978828 -0.044252700131334005 0.40194193780905574
2326 -0.517280997771362 0.5582729201021186 -0.7509676221659447
2328 -0.7306639651714342 -0.7128432564417687 -0.030823535875080934
4125 -0.023958056792480628 -0.3282079306187155 -0.45590370584352113
4186 0.5644142237791723 0.4670872302571432 -0.7311156498189433
4249 -0.1468730252417345 -0.11413232193525209 0.16624954631339997
2332 -1.1368239677684917 -0.32324495178257817 1.6937708545698622
4241 0.22893702905137042 -0.2116575681496716 -0.7016987108455366
2263 0.17584472302587836 -0.07500857294735339 1.7286219781903343
2401 -1.3232734579503325 -1.2420508195693318 -0.1398687806776881
2464 0.2583766958420245 -1.5456260750189048 2.463336742223356
2465 -1.8461804148335752 2.3449862121635023 0.21743935460408864
2471 2.3960430371352857 0.0006115706244707977 0.15024254176554347
4190 -0.13022293494785872 0.9395813941355227 0.0675612260903876
4255 0.16507003139823456 0.08294157910929609 -0.7810634856618556
2538 5.414948222591464 -3.30596831386014 8.938365659864441
2402 1.3989718542416878 0.338992043535055 0.6606113506857988
2474 -1.2755299726251728 -0.547941944445805 0.2989140629825334
2468 -0.2948418537619432 -1.3954704493390255 0.4066318425816305
4139 -5.79216785590901 -0.43038009622777346 7.392376633903376
2467 -2.121320454199811 1.4776994758367539 -0.6545538551621527
2536 -19.122900075611685 23.232977834821938 -14.954993647763647
2611 -0.8378099360833398 0.5569274397753721 2.2562463050429558
4196 -0.01748718992180613 -0.3027970369854971 -0.5841947302247497
4263 0.14188704044872286 -0.8534136125447999 0.963175691702834
2533 -0.375353999558126 -0.3373038207840317 -0.9807086034298086
4211 -0.5187443882090891 -0.2279816149859597 3.724104201368334
4150 -11.25603026550081 -2.6669040540651396 -1.6493042794348034
2613 10.127612700903303 0.706491623349022 3.2027013371685067
2691 -6.711524473229699 -3.9914741236086675 -6.458901943134439
2682 -1.5213446531795272 -1.2809668326761736 -2.208400116668684
2819 1.896255238261275 -1.3459858319174247 1.0160529565237841
4281 7.672621792940995 -2.924034166726202 -2.173672715193768
2824 4.705667080045025 -3.441479251725523 -4.850484023368334
4288 -1.9634187525434694 -0.19597285013688437 -1.349891131603281
2751 3.3717057377554123 -12.513263861908678 0.3861145568192476
4286 -0.5564499478150663 0.4550895457856775 -0.6904915732313576
2817 2.1930728847509666 -4.522070562644245 -3.605615691334433
2821 -3.3077242094293675 -1.037362426314309 1.6775546000967747
2896 2.199610396823462 -2.2642201904310366 0.18115337304923515
2898 -0.2774250134898331 -0.01611998946281907 2.378893413455568
2903 -5.737402520322342 0.32415168194087285 0.8704451174762872
2905 2.554534048584868 1.5313936654829963 -2.864418366657896
2908 0.45770920527715514 -0.40225811296938424 1.3263474907176136
2120 -0.3666773911082317 1.750786188641677 1.1926619530763123
2128 0.7268859459224588 0.9088340445215896 -0.33821223169801046
2204 -0.18209822086422328 -0.3860820995832382 0.7273023266951126
2278 -0.4194513708249387 -0.24428099122520452 0.9197136446624278
2340 0.2503966685887371 -0.5003620603579082 0.6189671466689208
4251 -0.32254299102244594 0.09873264391032202 -0.6418307769430727
2483 -0.2592407259338156 -0.11044344996440641 1.021477556604474
2622 -0.6329872747398906 -0.41954579811886356 0.739407950542797
2698 -1.9787077634961832 -0.9621293308841748 -1.0419084178149385
2144 0.3445994102776761 0.5806471911691714 1.0292420025271736
4301 -0.25515390411873046 -0.0481336923175945 -0.6370242802097976
2137 0.8615650810422852 0.5928110171878758 1.0980942992188256
4237 -0.4786919390813928 -0.18747732313301038 -0.4870543210090651
4252 0.058069031272275404 0.08146464978214926 0.02358401910963891
2559 0.3787859699086319 0.6916978912898121 0.8064418656273001
4272 -0.018623071789337243 -0.0012227610144453641 -0.623503403241194
2852 0.15438832384839216 0.020178453703816088 0.48817888521737235
2844 -0.5153665669098153 -0.31212528767135933 0.36123667108784685
2070 -0.011970170879276425 -0.6302903201790475 0.6118546448925584
2149 0.45576613472875693 -0.31258303984633684 0.44966101676091835
2155 -0.10044828993506766 0.8683354001881789 1.1907437030983814
2230 -0.09808612138197122 -0.008594617277233986 0.5125107332692186
2292 -1.4985321225398505 -1.643004977966858 -2.153370815585059
2373 -0.44901691433946395 -0.7108165155938014 0.30445574978979417
4258 0.8652721987858218 0.5379398508753552 -1.8743292432629102
4257 0.014491143659738586 0.046263232788067474 -0.19364122208147544
2501 -0.7328370457005496 0.18899540049572247 0.5001031723079384
2508 0.0020551372854403526 0.44055736978343607 -0.06157223184059426
2786 -0.16140463270489824 0.29409370221398107 1.03366877593525
2793 0.2287058120272455 0.5778759181113846 1.0621331340229705
2867 0.23947043042204041 -0.057053888553553256 1.3018208879916127
2092 -0.20202621698778644 0.7113171395711168 0.5090541468180162
2164 -0.22588268299127207 0.44952068118052196 -2.179997169502802
4303 -0.05836530142792697 -0.5393453285223863 -0.05585900770691435
4247 -0.02386066461529821 0.13652338252779816 -0.35714705346253867
2380 -0.6861847939178456 0.3229999884323638 0.29275105635699833
2730 1.4200242336633482 -0.047114964013156346 1.0797285625182913
2736 -1.2777589840604495 -0.32493169491353746 0.730581810510254
2875 -0.10438010523275354 0.13150958105398178 0.7323291776959815
2169 0.8217327082576016 0.5945280649484821 0.11469914476642558
2317 -0.048030760982614176 -0.14994168003368957 0.8381115523856701
2393 0.4387712889182858 0.6764224141558492 1.128786878539529
2810 -0.18926792592011468 0.35834224173491824 0.6987647030964372
2892 -0.1853037823020929 -0.03583120258090721 0.8200980688803938
2887 -0.46484145792211723 0.11597907189884767 0.11963703136062961
2108 0.007991357663377751 0.1573524780801725 0.31549270886528347
2181 0.5494610359914177 -0.06535364561120416 0.4011163997247226
2826 -0.3992497436370186 0.11101731740838036 0.2636687789908449
4287 0.27209945714447703 0.41994753187404044 -0.780462638308797
2900 -0.8718798333690757 -0.26445384719154325 0.6406069620011087
