48
Lattice="6.1150000000000002 0 0 -3.0574999999999988 5.2957453441418432 0 0 0 17.6235" Properties=species:S:1:pos:R:3:PW_PBE_forces:R:3:local_new_id:I:1 pbc="T T T" PW_PBE_energy_eV=-389.8045908244336 config_type=Ti3SiC2_Ti4f_id0003_z_p020A_k10x10x4_v19
Ti 0 0 0 0.025692193881371572 0.014827817080156463 0.04131916538676144 1
Ti 0 0 8.81175 0.0011394564556914705 0.00065036854030015023 0.00035730160663202882 2
Ti 1.5287652899999999 0.88261540000000005 2.4079842500000002 0.00074869214601716496 -0.00042765001676452376 -0.39057548681775406 3
Ti 0 1.7652308000000001 11.199734250000001 -0.000727202292181856 0.00075035453047052998 -0.045185557645194434 4
Ti 1.5287500000000001 0.88264187999999999 6.4237657500000003 0.00096641319886768117 -0.00088816508707373039 0.02747252024682903 5
Ti -1.5290000000000001e-05 1.76525727 15.235515749999999 0.00085953503663394049 -0.0004995856452919338 0.036684182572328097 6
Si 0 0 4.405875 -0.02783201487527108 -0.015266978688400878 0.03328542291774602 7
Si 0 0 13.217625 0.00042301341102419561 -0.00053383990610865949 0.0023270581118426531 8
C -1.5290000000000001e-05 1.76525727 1.2724167 0.026646614601444237 -0.015378129738553101 0.1404050061970907 9
C 1.5287500000000001 0.88264187999999999 10.084166700000001 0.00046618627566109779 -0.00069570916000076999 0.089002814664992089 10
C 0 1.7652308000000001 7.5393333 -0.00053656191995123516 0.0007360624810578201 -0.087480648032572147 11
C 1.5287652899999999 0.88261540000000005 16.351083299999999 0.00010305323107838714 -6.5482564619887188e-05 -0.079411802564619841 12
Ti -1.5287500000000001 2.6478726699999999 0 -3.4327699249518041e-05 1.9967719634435725e-05 0.013758126482603212 13
Ti -1.5287500000000001 2.6478726699999999 8.81175 -1.396616192912436e-05 8.1505576571561179e-06 -0.00014878029235343559 14
Ti 1.5290000000000001e-05 3.5304880700000001 2.3879842500000001 -0.011896188738869242 -0.0076601780787685248 -0.054611469356073847 15
Ti -1.5287500000000001 4.4131034700000003 11.199734250000001 -0.00095754602914160122 0.0011599258794530217 -0.045122126466339597 16
Ti 0 3.5305145499999999 6.4237657500000003 0.002092918146083761 -0.00023581581467178522 0.049006956566950727 17
Ti -1.5287652899999999 4.4131299500000001 15.235515749999999 -0.00068419078889169112 0.0022161117995193099 0.036581960326676773 18
Si -1.5287500000000001 2.6478726699999999 4.405875 -0.00059685343485112099 0.00035445012822565635 0.0045302750918545832 19
Si -1.5287500000000001 2.6478726699999999 13.217625 0.00061543621291883092 -0.00036528956231017908 0.0023488584078105333 20
C -1.5287652899999999 4.4131299500000001 1.2724167 -0.00012257844546174033 0.0310126226638054 0.14038893832632013 21
C 0 3.5305145499999999 10.084166700000001 0.00054339181472332358 -0.00067787258855636547 0.089256083329364494 22
C -1.5287500000000001 4.4131034700000003 7.5393333 -0.0004799126730601716 0.00062999828741444911 -0.087476072783358227 23
C 1.5290000000000001e-05 3.5304880700000001 16.351083299999999 0.0020021744053733597 0.00097338068763021463 -0.090992668831790455 24
Ti 3.0575000000000001 0 0 -0.025710398300859191 0.014844040100475284 0.041381803952626493 25
Ti 3.0575000000000001 0 8.81175 -0.0011392949824445087 0.00065786022069278666 0.00033925734103724904 26
Ti 4.58626529 0.88261540000000005 2.3879842500000001 0.00068898863394004323 0.014137528020466094 -0.054611244203638845 27
Ti 3.0575000000000001 1.7652308000000001 11.199734250000001 -0.0011969738418715185 0.0007451104821706245 -0.045122176287389126 28
Ti 4.5862499999999997 0.88264187999999999 6.4237657500000003 0.0009643327047121899 -0.002190171564431154 0.049006898590000472 29
Ti 3.0574847100000002 1.76525727 15.235515749999999 -0.0022644112357828074 -0.00052065501405736667 0.036581935525348074 30
Si 3.0575000000000001 0 4.405875 0.026545380926713141 -0.015316207866579402 0.033259903005146772 31
Si 3.0575000000000001 0 13.217625 0.00084691867891724826 -0.00049893646059047674 0.0023224571308402687 32
C 3.0574847100000002 1.76525727 1.2724167 -0.026915336938348331 -0.015391733143311995 0.14039019055614788 33
C 4.5862499999999997 0.88264187999999999 10.084166700000001 0.00048937200245482775 -0.0007714409327704353 0.089256146111917942 34
C 3.0575000000000001 1.7652308000000001 7.5393333 -0.00041632353524660384 0.00074007135067554711 -0.087475960952957621 35
C 4.58626529 0.88261540000000005 16.351083299999999 0.00015292886002851819 -0.0022297598106014709 -0.090992582486804294 36
Ti 1.5287500000000001 2.6478726699999999 0 4.9452379880421956e-06 -0.02966405974862105 0.041319349373797165 37
Ti 1.5287500000000001 2.6478726699999999 8.81175 6.5711601529898276e-06 -0.0013119161624803167 0.00035723453355027542 38
Ti 3.05751529 3.5304880700000001 2.3879842500000001 0.013297771515822718 -0.0076738042118369969 -0.05466094036290986 39
Ti 1.5287500000000001 4.4131034700000003 11.199734250000001 -0.00097434674933761123 0.00089309198278480725 -0.0455602025524217 40
Ti 3.0575000000000001 3.5305145499999999 6.4237657500000003 -0.00015937059160115304 -0.0002386351079722256 0.049064092953654027 41
Ti 1.5287347099999999 4.4131299500000001 15.235515749999999 -0.00071382905597434563 0.0004085264466721173 0.039501471023537467 42
Si 1.5287500000000001 2.6478726699999999 4.405875 -0.00068594258601608249 0.03175200682824008 0.033285500336612782 43
Si 1.5287500000000001 2.6478726699999999 13.217625 0.00066520234302270978 -0.00011436910187871723 0.0023270726651181605 44
C 1.5287347099999999 4.4131299500000001 1.2724167 -0.00011562878571062868 7.2571048759795714e-05 0.086941268436554156 45
C 3.0575000000000001 3.5305145499999999 10.084166700000001 0.00041864784459831324 -0.00066822425319012699 0.089225650162026854 46
C 1.5287500000000001 4.4131034700000003 7.5393333 -0.00048105626632327154 0.00070414273066299858 -0.091337187717383153 47
C 3.05751529 3.5304880700000001 16.351083299999999 -0.0017242344830614635 0.00098949797587028691 -0.090943944148879463 48
