51
Lattice="27.86 0.0 0.0 0.0 27.86 0.0 0.0 0.0 27.86" Properties=species:S:1:pos:R:3:lammps_id:I:1:lammps_type:I:1:central_pair:I:1 config_type=AgSi_registry_strain_acq_v14_01 dataset_role=acquisition geometry_family=AgSi_existing_cluster_motif correlation_note="Derived from an existing motif; not an independent material morphology." pbc="T T T"
C       18.59997229      12.48568832      11.10844207   365143        3        0
Ti      17.68639525      11.50950205      17.41787882   365320        1        0
C       16.41880913      11.23745333       9.78030353   366772        3        0
C       16.47896696      14.68517760       9.59220696   366778        3        0
Si      13.03247546      10.81256428      11.54588199   366929        2        0
C       16.85595198      10.57457416      13.54804023   366931        3        0
Si      13.24756583      10.09299501      13.89543918   366933        2        0
Si      13.57862136      12.84027175      14.30526025   366934        2        1
Ti      15.29981075      11.23489767      15.30672895   366935        1        0
Si      14.07452393      13.07440001      11.84527460   366936        2        0
C       16.32293638       9.78228197      16.33324608   367109        3        0
Si      13.15366079      10.13595433      16.63871231   367110        2        0
C       16.48100250      12.76445334      16.24568078   367111        3        0
Ti      15.25461263       9.99188169      18.18059921   367112        1        0
Ti      15.21048961      12.94153364      18.03487212   367113        1        0
Si      13.17741765      13.14324215      19.70608455   367115        2        0
Ti      15.40588122      14.54471635      15.86904406   367117        1        0
Si      12.78455653      15.18854922      16.36834406   367118        2        0
Si      12.95712017      18.30295279      16.70442317   367120        2        0
Ti      14.51271213      16.54892641      18.01865841   367121        1        0
C       15.68829271      14.87916034      18.37964165   367122        3        0
C        9.90649004      12.77431746      10.77224184   368645        3        0
Ti      11.05639828       9.10291227      15.13117419   368823        1        0
Ti      11.06514563      10.57972820      12.94209330   368827        1        0
C        9.58869661      11.96959291      13.50714254   368829        3        0
Ti       8.41925107      13.28695754      14.63229457   368832        1        0
Ti      10.95041350      12.38211774      15.00689863   368833        1        0
C        9.56136862      16.94432396      11.26681068   368838        3        0
C        8.74996730      15.07383077      14.18303296   368841        3        0
Ti      10.21724449      15.52569843      15.45789755   368844        1        0
C       10.10142178      10.76686600      15.98766623   369024        3        0
C        9.73645404      13.62008341      16.26033390   369026        3        0
Ti      11.11186787      13.46402473      17.97657710   369031        1        0
Ti      11.68602437      16.29832535      18.34290273   369042        1        0
Ag      14.09197856      15.15232698      13.71795822   683609        4        1
Ag      16.12538059      13.12050930      13.71829332   685172        4        0
Ag      12.08854379      17.19725852      13.71397964   696217        4        0
Ag      12.08619018      17.19660466       9.63054985   700029        4        0
Ag      16.13567093      17.19679278      13.71503183   701518        4        0
Ag      16.11715484      17.19075927       9.63473704   703887        4        0
Ag      10.05728489      15.15219953       9.63702147   707313        4        0
Ag      14.12054979      15.14317032       9.63909963   710704        4        0
Ag      18.13107594      17.19899850      11.67442682   714846        4        0
Ag      12.07877319      19.23307260      11.68116928   729574        4        0
Ag      12.09901372      15.14556080      11.67845050   730721        4        0
Ag      12.08780489      13.12467486       9.61141820   735549        4        0
Ag      14.11516063      17.18751707      11.67590227   737082        4        0
Ag      16.13201046      19.24623853      15.76315800   737200        4        0
Ag      14.10514044      19.25766994      13.71347117   744883        4        0
Ag      18.14419536      15.16383374      13.70696502   752169        4        0
Ag      18.14428412      17.20305253      15.76426284   755982        4        0
