49
Lattice="28.0 0.0 0.0 0.0 28.0 0.0 0.0 0.0 28.0" Properties=species:S:1:pos:R:3:lammps_id:I:1:lammps_type:I:1:central_pair:I:1 config_type=AgTi_registry_probe_v13_01 source_config_type=AgTi_2p70_periodic_PW_PBE_energy_force_holdout source_structure_sha256=28d3ddc63332361c014b42bfb54c87eb06d0945ede734b965229ceea46c5f60e validation_target_distance_A=2.6 validation_source_distance_A=2.6999999924868017 central_pair_elements=Ag-Ti source_method="GPAW 26.7.0 PW-PBE 500 eV Gamma single point" dataset_role=acquisition geometry_family=AgTi_existing_cluster_motif correlation_note="Derived from an existing motif; not an independent material morphology." pbc="T T T"
C       13.89902107      12.90667166       9.57093308   478831        3        0
Ti      12.62304525      14.70227784       8.74620905   478840        1        0
Si      16.74663914      14.99666412       9.05588053   478841        2        0
C       13.77615718      16.76659830       9.46205532   478844        3        0
Ti      12.49439364      12.82858132      11.26096292   479021        1        0
Ti      12.74652762      14.24815681      13.89771094   479027        1        1
Ti      13.27333691      17.52276133      13.67525409   479028        1        0
C       12.19406070      16.00730532      12.98699267   479030        3        0
C       11.92979276      17.83928667      10.04608242   479031        3        0
C       11.14030857      11.60980287      10.51944505   480798        3        0
Ti       9.67365027      11.73672021      12.52949502   480801        1        0
C       10.41266283       9.58775109      13.76894219   480802        3        0
C       11.34811906      12.99570560      13.31832051   480805        3        0
C       11.26779912      14.20441406      10.34350882   480807        3        0
Ti      10.63277880      14.68120764      12.23793466   480810        1        0
Ti      11.15181567      17.42898892      11.87855887   480811        1        0
Ti      10.57490139      16.47263116      14.34546801   480812        1        0
C       11.98467917      18.76062403      12.89743879   480813        3        0
C       10.74527181       9.34898918      15.92141080   480974        3        0
C       10.58950093      11.90905331      16.64358691   480975        3        0
Ti       9.93014220      13.54071165      15.28648610   480980        1        0
Ag      13.17921387      11.93477149      14.08448967   682693        4        0
Ag      19.27103991      16.06172680      16.14325276   685396        4        0
Ag      17.23061775      16.04744124      14.08084112   685467        4        0
Ag      15.22028550      11.92319346      16.13660310   686309        4        0
Ag      17.24075717      13.99811487      16.15267925   686324        4        0
Ag      15.20543632       9.88047407      14.08505358   686418        4        0
Ag      19.26799971      14.00431639      14.08329543   686622        4        0
Ag      17.23987145      16.04230202      18.18247801   686899        4        0
Ag      17.23652607       9.89177748      16.14439265   687243        4        0
Ag      15.31257904      13.97927572      14.09960194   687247        4        1
Ag      15.22219692      16.05137911      16.15723208   688096        4        0
Ag      17.25172922       9.88253321      12.04485225   688280        4        0
Ag      15.20875603      13.98728606      18.19713620   688689        4        0
Ag      17.21273800      18.09581139      16.15000652   688707        4        0
Ag      17.25143735      11.93238003      14.08784430   689682        4        0
Ag      13.18170587      16.04176470      18.17151177   690927        4        0
Ag      15.20634649      18.09577674      18.20004601   691757        4        0
Ag      13.17617624      11.95798587      18.19172182   694331        4        0
Ag      17.23960348      11.93172895      18.18219469   696686        4        0
Ag      13.17664715       9.88304979      16.15300997   700223        4        0
Ag      11.15662076      13.98813182      18.20237906   701905        4        0
Ag      17.22145846      18.09982138      12.03659182   703736        4        0
Ag      15.20366532      16.05436369      12.04745982   704767        4        0
Ag      17.24398153      13.98686690      12.02973371   716228        4        0
Ag      15.21598282      11.95285569      12.02298661   720990        4        0
Ag      13.17576280      18.10103246      16.12750949   721910        4        0
Ag      17.24565333      11.93660568       9.97615916   728014        4        0
Ag      13.17551906       9.88412807      12.01790751   741114        4        0
