LAMMPS data file via write_data, version 30 Sep 2026, timestep = 4000, units = metal

4752 atoms
4 atom types

0 37.28597486102 xlo xhi
0 32.290601434511 ylo yhi
-10 102.58565381248471 zlo zhi
-18.64298743051 0 0 xy xz yz

Masses

1 47.867
2 28.0855
3 12.0107
4 107.87

Atoms # atomic

743 3 13.709077422199998 22.6869631293 1.7763568394002505e-15 0 0 0
2 1 0.03164569620000002 1.7473227802 2.0601724761999645 0 0 0
3 3 1.1638999270000001 0.7955488483 0.6109038571999346 0 0 0
9 2 -1.483562725 2.5923322781000064 3.8558349945999524 0 0 0
90 2 1.519023372899995 2.9154854454000088 3.729582101399835 0 0 0
2969 4 -1.0626214355000003 4.7187361273 2.2578584916999613 0 0 0
3032 4 -2.2169102255000004 4.40833075560002 4.963468017700011 0 0 0
81 1 2.855346163500001 1.0243127964000032 1.7834777459999156 0 0 0
82 3 4.732023700100001 0.8858499638000024 0.9171016392999132 0 0 0
2909 4 3.642818147 3.0939985453 2.181960682099911 0 0 0
2910 4 1.7401789480999996 5.040046469600005 2.3127014441998828 0 0 0
2914 4 6.2947130764 2.4921079354 2.3534615557999796 0 0 0
2975 4 3.3728361956000006 4.0066235206 4.7350875863999295 0 0 0
83 1 3.1208900815999985 1.8487145381000079 5.32028144349996 0 0 0
170 3 7.6728844084 0.8326752832 0.8780570372999339 0 0 0
250 2 9.4608650689 0.3626176511 3.897736338199957 0 0 0
251 1 9.008217930700008 1.9361728674 2.0127068618999875 0 0 0
255 2 7.665259484 2.694287669600008 4.126375952399984 0 0 0
256 1 7.561520459099997 4.4815472256000035 2.039605577099909 0 0 0
257 3 9.332381394800006 3.6118070787000063 0.7903352302999309 0 0 0
351 1 10.667920308900001 4.6654503125 1.989452369799908 0 0 0
356 2 9.1038331443 5.2562894618 3.8438638423999425 0 0 0
2921 4 10.82148071190003 0.06204456620000023 2.1311348707999684 0 0 0
341 1 11.9146352167 2.0352330904 1.6728343411998807 0 0 0
342 3 14.116058266200005 0.9588784144000014 0.661660994099952 0 0 0
352 3 12.4824309653 3.8168714894 0.7831009480999533 0 0 0
444 1 14.038139364900003 4.053050230500008 2.3061954999000296 0 0 0
445 3 15.584860514500008 3.5145789198000075 0.9576766050999428 0 0 0
516 1 16.870930701000006 4.773005839800012 2.134309182399914 0 0 0
2924 4 13.549957367900003 1.0205128038 2.838408785499885 0 0 0
2933 4 16.2042772719 0.6939663257000016 2.3166954459998603 0 0 0
2992 4 12.0281898964 4.1608410764 4.715711417100005 0 0 0
2998 4 14.854715588100001 4.0870217659 4.858605840699973 0 0 0
3003 4 16.251109792100017 1.7474825347 4.829093056999978 0 0 0
436 3 17.4075710282 1.0073186097 0.44149037759983756 0 0 0
511 3 20.271103269800008 0.9115097132000016 0.9219647829999555 0 0 0
517 3 18.6977196514 3.649391799 0.8675315855000303 0 0 0
596 1 21.6285616728 1.7984287789000084 2.229481161700056 0 0 0
603 1 20.17281067609999 4.4686764949 2.200029589299957 0 0 0
604 3 21.7501520023 3.5878446038 0.9613520121998871 0 0 0
2934 4 17.818440231500013 2.8386543234 2.7847011468998986 0 0 0
2939 4 18.8906061069 0.34022304990000013 2.604331807899957 0 0 0
3006 4 19.1778624783 1.7541144128000095 4.916632426699884 0 0 0
597 3 23.2209749071 0.8477134577 0.8818106857000121 0 0 0
693 1 24.5554938188 1.7893925657 2.154819935200031 0 0 0
698 1 23.2830575369 4.4723322421 2.203884056200028 0 0 0
699 3 24.857316574 3.5878446038 0.9613520121998871 0 0 0
777 2 24.757126294000017 5.338102671900024 4.0237368995000065 0 0 0
2948 4 26.555032981700002 2.7021410205 2.635687228599908 0 0 0
3010 4 22.0369671935 1.7111258879 4.850445012199929 0 0 0
3018 4 24.761001187200005 1.9751569807 4.919979897600031 0 0 0
3019 4 26.413065120600002 4.1414381205 4.966265700699948 0 0 0
766 3 29.45313990570004 0.9359180560000031 0.7999548612999909 0 0 0
849 2 30.7238642604 0.242275738 3.9598145795999713 0 0 0
850 1 31.3273035155 1.7892825772 2.095161158799952 0 0 0
859 3 31.084615332600002 3.5448117679 0.9153784081999792 0 0 0
2953 4 27.5947923723 0.14374905 1.8899258659999827 0 0 0
2954 4 29.2760114133 2.6245762954 2.515305828699953 0 0 0
2955 4 27.794957066300007 4.9848854001000165 1.8135570967999914 0 0 0
2958 4 30.6211020158 5.030785320300001 2.5400439144000764 0 0 0
3022 4 29.387586128800002 3.9750022534000116 4.936226725399969 0 0 0
3024 4 32.1025387618 4.1717254763 4.815546297099921 0 0 0
851 3 32.4670838484 0.9628747140000026 0.5318893726999168 0 0 0
952 2 33.65139491819999 0.5724434707 3.7762019129999533 0 0 0
953 1 34.2572886682 2.0747273986 1.8761132164999488 0 0 0
2963 4 33.52566714150003 4.9974814469 2.520577642299937 0 0 0
954 1 33.7439867176 2.6157336607 5.268859521799909 0 0 0
24 1 -4.512137476300003 9.8732230722 1.9088460572999946 0 0 0
3033 4 -3.5601909624 6.7725204123 4.789009641800078 0 0 0
16 1 -3.1071645718 7.1756892076 2.229162589399907 0 0 0
17 3 -1.7297240774 6.282008566 0.7835270045999945 0 0 0
25 3 -3.1006495982079803 8.8433014961 0.7974431872999865 0 0 0
96 2 -0.0687399258000001 5.520836716500024 4.1102445381999555 0 0 0
97 1 -0.026230423700001282 7.142647275700031 2.212291710099988 0 0 0
104 2 -1.5535822859000001 8.072650358800013 4.150010340300046 0 0 0
105 1 -1.6120625013000005 9.8443657223 2.310492832299971 0 0 0
106 3 -0.2169869868999994 8.7410316398 0.45997805119998425 0 0 0
189 1 1.2218223069000018 9.716054487300024 1.5857716034999658 0 0 0
184 2 3.1241454772999844 6.032861946900036 3.7890376855998653 0 0 0
190 3 3.107164571800004 8.969611509500021 0.9613520121998871 0 0 0
260 2 6.175314834100001 5.483675565 4.135817227100034 0 0 0
261 1 6.254612101300004 7.3113699925 2.232583559699952 0 0 0
269 1 4.980847700499992 9.941595564600018 2.0536270548999767 0 0 0
270 3 6.31948365519998 8.90141542920005 0.8643701508999637 0 0 0
2915 4 4.9239926477 5.4972986344 2.2659222609999397 0 0 0
2916 4 2.9425619740000046 10.635694266300055 2.7064042288000305 0 0 0
2983 4 3.417335475500005 9.043395307200054 4.865896235099937 0 0 0
2989 4 6.1356344443000035 8.856245961200004 4.873474505900022 0 0 0
262 3 7.695408787699998 6.293981327400014 0.8405107305999788 0 0 0
357 1 9.178633629300005 7.180958176500015 2.1532606239999765 0 0 0
358 3 10.8845990243 6.3966386149 0.8739748118999469 0 0 0
364 1 7.904932752599999 9.817241407 2.1363938752999108 0 0 0
2925 4 11.248602420000001 7.9531332422 2.5803671199000355 0 0 0
2926 4 10.3041795452 10.4547777709 2.0568489344000707 0 0 0
2993 4 10.3133195358 6.8419054641 4.885719662099952 0 0 0
2994 4 8.833799277500002 9.1144476328 5.151808605199905 0 0 0
453 1 12.812397553299999 6.62976241720001 1.6499188028999079 0 0 0
454 3 14.3204857037 6.058755101600007 0.3507369069998916 0 0 0
523 1 15.562682822600001 7.3864613915 2.310165108500007 0 0 0
530 3 15.534394112700006 8.967078675600007 0.9617035077998768 0 0 0
537 2 12.1252941414 10.7528878096 3.9050049267999007 0 0 0
626 2 15.5224159488 10.6879087297 4.027170127699982 0 0 0
2935 4 13.5227987026 9.9109479895 2.35561209000004 0 0 0
2999 4 13.5668844669 6.479612596 4.655550981000024 0 0 0
3000 4 12.1971913789 8.8052323544 5.029268367599972 0 0 0
3004 4 16.267625189 6.4322521868 5.013305275800006 0 0 0
524 3 17.1869046573 6.2916535128 0.7621401277999347 0 0 0
610 2 18.6429874305 5.3817669059 4.150010340300046 0 0 0
611 1 18.479060308700014 7.2193025501 2.0880563345999406 0 0 0
617 2 17.209662429100007 8.2057438167 3.998518004999969 0 0 0
618 1 17.0217190141 9.9213111814 2.1747484410999665 0 0 0
708 2 21.6172235099 5.4847988307 3.9650985604998716 0 0 0
715 2 20.134366210900005 8.0349632286 4.359215201299925 0 0 0
792 2 21.7224623645 10.7615848475 4.085064137499998 0 0 0
2941 4 20.701798467100005 7.533469115700008 2.2404835325000825 0 0 0
2942 4 19.2470115027 9.9953528069 2.4989261278998907 0 0 0
778 1 25.44222520480001 6.69611461590001 2.0436499017999523 0 0 0
783 2 23.299295635600014 7.9566993897000025 4.3263396782000925 0 0 0
784 1 23.1809123082 9.9136551789 2.2376220634999378 0 0 0
785 3 24.7872758162 8.932995587200022 0.8251662405000655 0 0 0
875 2 26.410898859899994 8.072650358800013 4.150010340300046 0 0 0
876 1 26.16907513030001 9.7420704895 2.1382850863999803 0 0 0
882 2 24.8642749786 10.6386350222 4.06908019109993 0 0 0
2949 4 23.418865548200017 7.678811781200022 2.0967700049999483 0 0 0
867 2 27.955768087000003 5.4677911338 4.005232662099949 0 0 0
868 1 28.32151880330001 7.195177912100037 2.2258361943999407 0 0 0
869 3 29.583229539600005 6.2325633949 0.8955309169000323 0 0 0
877 3 27.796580009800003 8.824728333 0.7720274771000977 0 0 0
963 1 31.248310647900002 7.1667777457 2.150532357499909 0 0 0
970 2 29.474772507600008 8.1364919902 4.230389802000035 0 0 0
971 1 29.077297014100004 10.0126242675 1.9342412989999342 0 0 0
972 3 31.053535177400004 8.8983048134 0.8198985072999658 0 0 0
2964 4 30.935252680700003 9.9664083013 3.2024544817999576 0 0 0
23 2 32.40395252810002 8.405915438000042 3.9844710174999705 0 0 0
964 3 32.641375886900136 6.282622448400034 0.8991765268999821 0 0 0
119 2 -4.6069336274 13.439971124400014 4.196327461199964 0 0 0
120 1 -4.522366009900005 15.067918647400043 2.1362337665999416 0 0 0
127 2 -6.127860810600003 15.943988304700014 3.8359954935998886 0 0 0
2970 4 -5.304899532400003 12.44647553900004 2.3020439509000177 0 0 0
2971 4 -6.89287404630001 14.706477920900026 2.1196555812999804 0 0 0
3034 4 -6.608800073900004 11.871317296400067 5.133503186799963 0 0 0
111 2 -3.112310655 10.7664316047 4.080620320899943 0 0 0
112 1 -3.0301030114000005 12.550384746900011 2.224335652999928 0 0 0
113 3 -1.5535822859000001 11.660494962400033 0.9613520121998871 0 0 0
121 3 -3.0382060623000013 14.3162816246 0.9031223148999761 0 0 0
203 1 -1.5535822858999992 15.248339566200002 2.229162589399907 0 0 0
285 1 1.5357626224999965 15.237443202100028 2.207554998899951 0 0 0
2917 4 0.5296424052000006 12.45172371890007 2.458526747099963 0 0 0
2976 4 -1.1022758285999998 11.6964633146 4.62401360869994 0 0 0
2985 4 0.19699822260000133 14.091436360000012 4.609089904500015 0 0 0
277 3 4.659290475699999 11.6681630768 0.9564404802999036 0 0 0
286 3 3.1071645718000056 14.351378415300047 0.9613520121998871 0 0 0
372 2 6.219001689600002 10.934274376700008 3.9976432305000014 0 0 0
373 1 6.214551801999979 12.62181499770005 2.1557539205000236 0 0 0
380 2 4.614262079700003 13.4693854173 4.068229987899899 0 0 0
381 1 4.6607468575999995 15.248339566200002 2.229162589399907 0 0 0
389 2 3.0271444133000056 16.1343917 3.9979642452999435 0 0 0
475 2 6.1959023367000015 16.0598055951 4.188972956099967 0 0 0
2984 4 2.0909174047 12.142914994 4.810499912299974 0 0 0
374 3 7.713808447499999 11.665955817 0.8662035690998824 0 0 0
466 2 9.182315661900002 10.9782329548 3.94047048749988 0 0 0
470 2 7.6668404652999795 13.500658897900038 4.172554797699986 0 0 0
545 2 10.6991090289 13.5057845319 4.095330686600095 0 0 0
550 2 9.1946968505 16.0411334037 3.9473106480999096 0 0 0
2927 4 8.986221998499971 12.799881203200052 2.490103350199936 0 0 0
2928 4 7.5952409211 15.142757156700029 2.4717918889999204 0 0 0
2937 4 10.566501550300002 15.01887947090002 2.4353732041000544 0 0 0
538 3 14.010669334500001 11.4952977722 0.6912110501998807 0 0 0
627 1 15.4476777217 12.5294948506 2.1334646716000414 0 0 0
637 2 13.607604526999998 13.2916510785 3.639303153599931 0 0 0
638 1 13.920836561999993 15.233157225700008 2.1008816121999487 0 0 0
639 3 15.541254636800003 14.3543510806 0.9537381862000149 0 0 0
644 2 12.371032461999997 15.95725203830004 3.919698722899984 0 0 0
2936 4 11.9398670029 12.6219060209 2.285570025499924 0 0 0
3007 4 15.473330465900005 14.1816661596 4.527806236499995 0 0 0
628 3 16.9505858945 11.4786937289 0.6066787780000062 0 0 0
725 1 17.008584529900002 15.1253330052 2.2330103315999033 0 0 0
901 2 21.563678753400012 15.912519130500062 3.7545936804999673 0 0 0
2943 4 17.657785228900003 12.398545288800054 2.5344343945999857 0 0 0
2950 4 20.3792387147 12.5322942997 2.528634168399984 0 0 0
3011 4 19.19575031540001 11.514999364400019 4.763930260799993 0 0 0
3012 4 18.192402196099998 14.0451748123 4.638484661400092 0 0 0
3020 4 20.906339939 14.0776569483 4.878731264099933 0 0 0
883 1 25.258453479000003 12.5404348777 1.9742050944000127 0 0 0
884 3 26.598094329700004 11.5085343612 0.7788823259999873 0 0 0
892 2 23.366973119800008 13.2131806806 4.07470483660008 0 0 0
893 1 23.366610324200003 15.2223362746 2.171120635099955 0 0 0
984 2 26.554773788300004 13.162450166300008 4.015516436300025 0 0 0
985 1 26.324653751300012 15.259485286600032 2.180528967599992 0 0 0
2956 4 23.045944927300013 12.156227755900016 2.1145284785999063 0 0 0
38 2 28.091109451300007 15.8469349818 3.8537309683999865 0 0 0
986 3 27.9576045331 14.2500091411 0.7694810131999095 0 0 0
2965 4 29.207291478900007 12.2559055447 2.2327168032000326 0 0 0
3025 4 27.7693319348 11.3905158276 4.703860159399985 0 0 0
3035 4 28.929728724400004 13.8408084686 4.432241203399956 0 0 0
39 1 -9.401179807600004 17.736866849900082 2.1469514961998826 0 0 0
44 3 -9.276986706800006 19.688717385400103 0.6087131211000045 0 0 0
2972 4 -9.6074458597 19.8653851587 2.846497060299889 0 0 0
40 3 -7.9230044176000005 16.907726451900054 0.7979684496000239 0 0 0
128 1 -6.476470027100017 17.7575039875 2.011916243600009 0 0 0
135 2 -7.707460433200003 18.99892584020004 3.9781133171998917 0 0 0
136 1 -7.6351948897 20.4451672626 1.9318502353998852 0 0 0
2911 4 -4.299006346100001 17.3010629901 2.347793389599998 0 0 0
2918 4 -3.6582778643999996 19.96547671800001 2.2758511859999686 0 0 0
2977 4 -3.6639964157 16.7723852803 4.94423206049991 0 0 0
2978 4 -4.924367563899999 19.805610804200004 4.683275401700003 0 0 0
129 1 -5.934320730999997 17.91231605060004 5.359980269300021 0 0 0
210 3 -1.5535822858999992 17.0422618681 0.9613520121998871 0 0 0
294 1 0.03020100710000051 17.8082093051 2.186555253299984 0 0 0
295 3 1.5536409667999997 17.0408943604 0.9588403756999941 0 0 0
299 1 -1.4291362576000015 20.346035034300073 2.2351665183 0 0 0
300 3 0.04015926039999762 19.70865251500004 0.9146314400999422 0 0 0
396 2 1.4816422342000006 18.702580908800112 4.010759032499928 0 0 0
406 2 0.05221915639999786 21.28519746350003 4.012203727299932 0 0 0
2986 4 -1.0247013357999997 16.5097503608 4.3202320913000225 0 0 0
2987 4 -2.289732965299999 19.1236233527 4.816786631899948 0 0 0
390 1 3.1599816787999995 17.8699385635 2.2078433495999015 0 0 0
397 1 1.7098502877000037 20.413500072500074 2.206603158199931 0 0 0
398 3 3.162851812900003 19.7060854114 0.91176578119995 0 0 0
486 2 3.0780901109000016 21.3234136197 4.1448851866999465 0 0 0
2929 4 6.187097567200002 17.4736275335 2.3801012510999406 0 0 0
2930 4 4.828055719199977 19.926336953500073 2.489080012199965 0 0 0
556 2 7.678726743699999 18.5585472092 3.668701601199846 0 0 0
557 1 7.767911429400002 20.630106472 2.229162589399907 0 0 0
558 3 9.349374742499991 19.771816054000013 0.8727210102999727 0 0 0
654 2 10.897672839799998 18.8562591725 4.114922251300012 0 0 0
655 1 10.885783239999995 20.6076470688 2.1871167111998293 0 0 0
2938 4 9.147739552599969 17.559769072900064 2.287780398899937 0 0 0
645 1 12.2528000868 17.6618762006 2.099100238499977 0 0 0
646 3 13.981448384999988 17.041916783900025 0.9607160794999956 0 0 0
656 3 12.240270008099998 19.716631828900027 0.5907090591999342 0 0 0
728 1 15.5291996161 17.6783602473 2.182968202799838 0 0 0
818 2 15.60581381299996 21.349269269500066 4.133828019700022 0 0 0
2944 4 13.152396906800002 19.6502476557 2.6464613067000133 0 0 0
2951 4 15.849861216399999 19.8988896707 2.35304174669991 0 0 0
3013 4 16.322534558999998 16.7697389607 4.457352952300038 0 0 0
3014 4 14.809367195499998 19.0590616586 4.727129536099987 0 0 0
729 3 17.0272147322 17.0203761018 0.9136138776999516 0 0 0
805 2 18.638730558000006 16.2031927769 4.184338502299928 0 0 0
806 1 18.654245867900002 17.548270569 2.0808113444999226 0 0 0
807 3 20.129103880100004 16.9831046618 0.7415450725999477 0 0 0
902 1 21.612384096199996 17.69008478890008 2.001827446200032 0 0 0
912 2 20.018475528899994 18.790729288000097 3.8465232525999724 0 0 0
913 1 20.662934234400005 20.4596236463 1.973770063599991 0 0 0
914 3 22.005243159800003 19.5286116209 0.701105034799955 0 0 0
922 2 18.65832411670001 21.4075993113 3.9695673761999153 0 0 0
2957 4 18.570455184500005 19.769496589500093 2.4295719997000518 0 0 0
3021 4 17.834599626999996 19.1572821188 4.985148015699901 0 0 0
904 1 21.7560825627 17.8200788372 5.3541242888999285 0 0 0
43 2 26.226756125100003 18.7913429937 4.188618115600001 0 0 0
903 3 23.2519551511 16.9105377553 0.5243273704999165 0 0 0
991 3 26.370863268800015 17.022476645100046 0.9279724038999415 0 0 0
2959 4 23.769257720700004 17.53450604680001 2.6232703310999774 0 0 0
2966 4 24.945624545 19.9868962012 2.4614827634999283 0 0 0
3026 4 25.0049597267 16.3431240691 4.739370765200034 0 0 0
3027 4 23.5012174653 19.162713684 4.891160439699997 0 0 0
60 2 -13.9177910228 24.3561716269 4.0405175726999705 0 0 0
53 2 -12.3966730942 21.5279681772 4.099904222099957 0 0 0
54 1 -12.578506139700004 23.543832336400044 2.096109639100037 0 0 0
61 3 -12.482324650400004 25.1663691826 0.812997755599973 0 0 0
146 2 -9.234203442800013 21.6502795119 4.16457984100008 0 0 0
150 2 -10.850510277799998 24.1176516202 3.9767668978999033 0 0 0
151 1 -11.2725473157 26.1630964484 2.1768235908999163 0 0 0
2913 4 -9.3822138914 24.9649092823 2.408096220699921 0 0 0
2973 4 -10.7492397045 22.3244100999 2.574955633899938 0 0 0
2980 4 -9.1316882796 26.8225498595 4.385630037199965 0 0 0
222 2 -6.2043943037 21.538751849 4.035005698599976 0 0 0
223 1 -5.97444677271657 23.432346555600137 2.157489907599995 0 0 0
224 3 -4.725213373400001 22.388278658500063 0.8778059783000813 0 0 0
229 3 -6.309410018800001 25.010064415500054 0.8586986314000065 0 0 0
315 2 -4.6048990568000026 24.141742997900057 4.121006428899953 0 0 0
316 1 -5.2034765591 26.3009916348 2.041352810200051 0 0 0
2912 4 -8.0402605705 22.594137471 2.461329899600031 0 0 0
2920 4 -3.4004780488 24.9598445199 2.1554613555999396 0 0 0
2979 4 -7.744593494415952 24.235522530500038 4.616014948099931 0 0 0
2991 4 -4.4542180092 26.481242723 4.155264144699975 0 0 0
308 1 -3.133079498799999 22.7257920789 2.158214992599893 0 0 0
309 3 -1.4983079015000005 22.3915416711 0.882305494900006 0 0 0
407 1 0.11985024429999847 22.8689498428 2.0830962364000083 0 0 0
497 2 0.20890723850000548 26.729095186300107 3.433986753799987 0 0 0
2922 4 -0.6860960366000075 24.946740892 2.3925059814999585 0 0 0
2990 4 -2.1128229022000014 24.05493106150001 4.551568389299947 0 0 0
2995 4 0.6936779411000007 23.77635032700006 4.450586411699973 0 0 0
408 3 1.696957085699994 22.36807483190011 0.838061670299945 0 0 0
562 2 6.016343513499999 21.5281704483 3.86204091629992 0 0 0
563 1 6.134201560899944 23.219106686500133 2.0286981824999764 0 0 0
573 2 4.356788918099973 23.968576191200068 3.8032272893998673 0 0 0
574 1 4.764102641000001 25.8033488369 1.8978960530999025 0 0 0
575 3 6.314952881099996 25.074838407400026 0.7349735953999712 0 0 0
2931 4 3.430510184000001 22.526648252 2.276590175699969 0 0 0
2932 4 2.0643743303000015 24.9369924963 2.373910620999858 0 0 0
3001 4 1.8275935711000084 26.211258787500118 4.9085031346 0 0 0
564 3 7.7679114294 22.4240287739 0.9613520121998871 0 0 0
659 1 9.251297016399961 23.232139896700094 2.2144825292999677 0 0 0
660 3 10.875076001100004 22.4240287739 0.9613520121998871 0 0 0
667 2 7.3078153661 24.269924203 3.9888975507999334 0 0 0
2945 4 10.634556242800002 24.9829718177 2.5037600722999187 0 0 0
3008 4 10.395551831799999 21.6672886806 4.110481526799962 0 0 0
3009 4 9.377498527500006 24.1089794052 4.8566580054000354 0 0 0
3017 4 10.7672062654 26.4889830949 5.168512809499976 0 0 0
742 1 12.388931734500003 23.3478698817 2.2303569947999478 0 0 0
750 3 12.428658286999932 25.114912226800126 0.9613520121998871 0 0 0
819 1 15.945466828300004 23.4768211259 1.586425062299874 0 0 0
826 2 14.237365516800006 24.2301224371 3.9956386741000145 0 0 0
827 1 13.945900107699941 25.941005207500112 2.1290768622000638 0 0 0
828 3 15.406841586800002 25.2831870103 0.7289998822999113 0 0 0
2952 4 14.249989699 22.0900176832 2.1008496333998714 0 0 0
3015 4 13.088771077099995 21.6260183086 4.521698165000036 0 0 0
3016 4 12.147744208500006 24.1647755846 4.827331144400016 0 0 0
933 1 16.7098503748 26.070619414 5.096915665200012 0 0 0
923 1 18.7944665336 22.9549172073 2.0146828328999202 0 0 0
924 3 20.29878124840001 22.3709284327 0.7168974326000548 0 0 0
930 2 17.171808644899993 24.012459009800097 3.7609247159998116 0 0 0
931 1 16.998864320900005 26.20704901350001 1.6802184595999474 0 0 0
932 3 18.48652804939996 25.16591890900009 0.4459113081999373 0 0 0
999 2 21.818156718599987 21.63368085970013 3.881261044999869 0 0 0
1000 1 21.813057086499988 23.151002164600047 1.8944825478999778 0 0 0
2960 4 18.987790138700007 25.108020349500084 2.638600068099965 0 0 0
2967 4 21.965951412399995 25.3593911371 2.2971493935999305 0 0 0
3028 4 20.419616739000013 23.8013402151 4.553460705600017 0 0 0
3029 4 19.7422461712 26.3570984383 5.211868337799896 0 0 0
1001 3 23.43308703030002 22.366341304400123 0.8707329640999184 0 0 0
71 1 -15.311024871700026 29.066012930400085 2.180208098099911 0 0 0
75 1 -17.5226827741 30.9895588999 2.177103592299897 0 0 0
76 3 -15.549796688600004 30.6152608587 0.8270370750999643 0 0 0
80 2 -15.447281188137104 32.0180061026 4.005462761399944 0 0 0
163 1 -13.608086660400001 31.4420695894 2.344354185599933 0 0 0
2974 4 -13.673892961100004 27.5236286836 2.122329457099978 0 0 0
3036 4 -15.01529050940001 27.01582948560008 4.43901337689984 0 0 0
3037 4 -13.663565501100194 29.379290272200105 4.5444843570000195 0 0 0
156 2 -12.5755729659 27.0863154413 4.104963075500029 0 0 0
157 1 -11.985842764399997 29.0073859382 2.229337272699926 0 0 0
158 3 -10.892188414100069 27.8008019613 0.9454802100998769 0 0 0
164 3 -12.414885828900001 30.5330996953 0.8965310621999247 0 0 0
236 1 -9.171152866 28.2018203849 2.1950936000999093 0 0 0
2919 4 -9.713348748900007 30.39266979260005 2.6463969125000677 0 0 0
2981 4 -11.028075045400005 28.7353367376 4.796963059099944 0 0 0
2982 4 -12.168046071299994 31.658867204500098 4.356410437400003 0 0 0
2988 4 -9.718710657200036 31.051590981500006 5.384127949999952 0 0 0
237 3 -7.646007340700013 27.771776263300115 0.8619597020999521 0 0 0
325 2 -6.655019523 26.9486875074 4.176898879599989 0 0 0
326 1 -6.350915572899998 28.9863697837 2.252813535799884 0 0 0
327 3 -4.736604827199999 27.8648997488 0.7668038570999443 0 0 0
334 2 -7.860577737600007 29.64307922320009 4.170314021199946 0 0 0
340 2 -6.2316469498000036 32.117084011 4.368226539399947 0 0 0
431 2 -4.795565387500016 29.548867893800153 4.1335007761000995 0 0 0
432 1 -4.764718935700024 31.376721222600136 1.6673325683000169 0 0 0
2997 4 -3.572346028900002 31.423106904000036 4.3736170440998645 0 0 0
424 2 -2.5391695903000002 27.6510299892 3.991902848399878 0 0 0
425 1 -3.336461489700005 28.8358034819 1.943747911599905 0 0 0
433 3 -2.9600308756999993 30.5160145433 0.7933377528998857 0 0 0
498 1 0.28201714980000503 28.62232542360012 1.8077531568999117 0 0 0
504 1 -1.3817726556000025 31.003268153500176 2.1758604078999824 0 0 0
505 3 0.11439701250000311 30.45416716720007 0.851813812699902 0 0 0
587 2 1.5460397944999968 29.539559814100173 4.093262629899959 0 0 0
2923 4 -1.7463722983000025 27.30076731680008 1.521526399699976 0 0 0
3002 4 -0.8860611634999991 31.5204485372 4.819296099199949 0 0 0
499 3 1.7307409914999994 27.8789124759 0.5283825620999849 0 0 0
580 2 3.4776316230000006 27.0557343443 3.6330688413999734 0 0 0
581 1 3.274702499300002 28.616505560400125 1.694741029199884 0 0 0
582 3 4.7758577548000005 27.826681983400107 0.502439170099894 0 0 0
588 1 1.8815423167000027 31.1496271733 2.1584083203999676 0 0 0
589 3 3.2679014057000018 30.4728455809 0.7770220399999044 0 0 0
675 2 6.3715145005 27.0601576825 4.214947218900003 0 0 0
681 2 4.816709481 29.677200782 3.852030742299892 0 0 0
682 1 4.797799725799944 31.3664814289001 2.0134783556999984 0 0 0
692 2 6.2055496535999985 32.28184673 3.8621843414998764 0 0 0
2940 4 6.431396236399994 27.5316466506 2.0157173209999293 0 0 0
3005 4 1.9820774513999986 31.6236430462 4.889283302699958 0 0 0
756 2 9.264374367199967 27.168505336400084 3.638073383899947 0 0 0
760 2 7.7577533488000014 29.663825165800002 4.103511689799953 0 0 0
765 2 9.145563568700002 32.268947433 4.125456966499948 0 0 0
841 2 10.702503144199994 29.7317766365 3.9111787673998837 0 0 0
842 1 10.9359220296 31.3863833966 2.0558907696999764 0 0 0
2946 4 9.189697766 27.6045046293 1.4319845476000186 0 0 0
2947 4 7.671472143999999 29.95369951520009 1.8739313690000454 0 0 0
835 2 12.552608510199935 27.01169100840011 3.902963448899939 0 0 0
836 1 12.422541726599995 28.7826019918 2.147612079600032 0 0 0
837 3 13.714659683799983 27.904288097400055 0.46410282199998676 0 0 0
843 3 12.441029231600005 30.489581871500164 0.9519649736000009 0 0 0
939 2 15.4371424839 27.4477391649 3.4482625974999266 0 0 0
946 1 13.921681227499928 31.323870201500135 2.1378281534999974 0 0 0
2962 4 15.9717304031 30.137007279700047 2.3401782652999934 0 0 0
3023 4 14.656042044500001 29.0685259695 4.799347886999984 0 0 0
3031 4 16.5584040824 31.4784528832 4.638127193900104 0 0 0
1 2 18.5461391367 32.2698682848 3.941656817399963 0 0 0
74 2 20.22130478069998 29.554530437600107 4.174286744600009 0 0 0
1015 2 18.398395890499998 27.0758635314 3.5565910561999186 0 0 0
2961 4 17.870878073999986 28.280576471100044 1.7309702871999306 0 0 0
2968 4 20.3610214344 27.5453776313 2.5615251095998524 0 0 0
3030 4 17.3711146576 28.8880213555 4.40704793519998 0 0 0
4 1 0.18826883370000003 1.8596050738 5.559475683900034 0 0 0
5 1 -1.4143424379 2.7599096366 7.843072312299874 0 0 0
12 3 0.2741660943999964 3.762326169000007 7.1855371781999615 0 0 0
91 1 1.5365020654999997 4.6975719625 5.836435301499915 0 0 0
93 3 1.4730259874367353 4.528037328127417 9.597449186697624 0 0 0
3105 4 0.5649296607000001 0.7223769656 7.464032963999909 0 0 0
3166 4 0.10730790453268213 2.9895548883819854 9.385777032932015 0 0 0
92 1 0.10091213990990644 5.348361508743432 8.347770132142038 0 0 0
85 1 1.7856935051 2.6020055227 7.996212010099967 0 0 0
94 3 3.2049231555 3.7217525064 6.9861591040000235 0 0 0
171 1 6.1831910180000005 1.8077716629 5.929668490000051 0 0 0
173 1 4.699387024065343 2.585806968724441 8.129904848999928 0 0 0
174 3 5.178909860308691 2.0486074305087514 9.99786760769939 0 0 0
177 1 4.872907983200001 4.8666348905 6.174762742600045 0 0 0
180 3 4.596723929176152 4.418733485225841 9.017381584877462 0 0 0
181 3 6.116958673999999 3.5134501703 7.128430397200059 0 0 0
3110 4 3.2727797933 1.0198152245 7.406511106299941 0 0 0
3111 4 3.187828248875304 3.071667530589829 9.786680703819052 0 0 0
179 1 2.856660292091265 5.304484983785417 8.358398883688817 0 0 0
3122 4 6.629925555518831 4.062070567747344 9.1379094894465 0 0 0
3170 4 2.0447107346063453 0.7407350468627139 9.72848967750987 0 0 0
175 3 8.0631758544 0.846276720100002 7.043071337000029 0 0 0
252 1 9.531528151700002 1.8175147076 5.952708422699946 0 0 0
254 3 10.9465924011 0.9445556538000035 7.3838090044000495 0 0 0
258 1 7.7733149794 4.6208110536 5.858855103500014 0 0 0
3044 4 8.304958170799999 3.056737364200012 7.386444173299978 0 0 0
3049 4 11.0033634913 3.2826366486 7.083442801700034 0 0 0
3121 4 10.840401719346232 1.6649473056373387 9.253043295319074 0 0 0
3123 4 10.878922146020988 5.026076302080805 9.12333531889982 0 0 0
172 1 6.884404977300697 1.041331994212315 10.329836685807223 0 0 0
336 1 9.264083815278596 0.016960483105255348 8.51431353444903 0 0 0
343 1 12.4569078834 1.7938453451 6.071792115599944 0 0 0
346 3 13.982721977300002 0.9022166449 7.341601533300121 0 0 0
438 1 14.146726927126446 2.5823761940446137 8.810163279168421 0 0 0
449 3 15.537652239999993 3.584350846200016 7.33880016470005 0 0 0
507 1 15.703597491490932 0.22013312056425702 8.50905164137405 0 0 0
519 1 15.771906411091967 5.2496104668136 8.671712332645313 0 0 0
447 1 13.055628125191921 5.143749960711156 8.546349123979809 0 0 0
448 3 14.314027791364754 4.419703019450117 9.98303325189885 0 0 0
439 3 15.770852824941592 1.8629289075241828 9.962174963674983 0 0 0
345 3 12.731039726026712 1.613690255164682 10.232375032858045 0 0 0
435 1 12.52275084035609 0.07838043587655223 8.61055525583847 0 0 0
513 1 17.047313525678888 2.6855435635037574 8.466835769766554 0 0 0
514 3 18.713713477495173 1.8463179423808052 9.557695697272656 0 0 0
515 3 20.1965697164 0.8969611509 7.338668668400004 0 0 0
518 1 17.0894682504 4.4660979806 6.057468828800058 0 0 0
520 3 18.642987430500003 3.5878446038 7.338668668400004 0 0 0
599 1 20.289279383696638 2.436750985063113 8.291419154471 0 0 0
600 3 21.944907512165575 1.6481536301953112 9.615207773107876 0 0 0
605 1 20.0991820556 4.179160274000001 5.844101576899915 0 0 0
607 3 21.745212578400004 3.585225407000002 7.331585008799973 0 0 0
702 1 21.848789096144557 5.181097938737504 8.35530526768769 0 0 0
3063 4 17.650140325399995 1.0593302157 7.063682746699925 0 0 0
3137 4 19.729693968352905 4.403653918122556 9.016010765341026 0 0 0
3199 4 17.581232347688893 3.677948154701519 10.347638065004684 0 0 0
694 1 23.398232531061613 2.6785064323037147 8.522306781449831 0 0 0
700 1 22.973229389300023 4.732655465400021 5.922093661799924 0 0 0
703 3 23.11910313243762 4.490612634356218 9.52252221098053 0 0 0
768 1 26.479214720773637 2.9870534335577674 8.327317994089825 0 0 0
774 3 26.463122457452126 4.368048455042779 9.687139336956022 0 0 0
3074 4 23.49087178160019 0.8891205936000018 7.129287379500109 0 0 0
3075 4 24.66184297810002 3.7196961374000077 7.010669354400068 0 0 0
3082 4 26.35260452020001 0.9247894929 7.214403271500068 0 0 0
3146 4 25.68971094894333 2.0611880503090445 10.418930090710383 0 0 0
773 1 24.8633854090929 5.351788574732998 8.51088278427612 0 0 0
767 1 27.981102004100002 1.8283684274 5.791182697699972 0 0 0
769 3 29.458719223500005 0.9204009603000014 7.314556260599861 0 0 0
775 3 28.19302206890002 3.8004770799000176 7.04568787210005 0 0 0
852 1 30.89539165210001 2.0959915024 5.702405017599933 0 0 0
854 1 29.60891814901949 2.9058908050438994 8.274272841463208 0 0 0
855 3 31.15823317191507 2.0014127916432902 9.385876753880034 0 0 0
862 3 29.662670092503678 4.605527337309814 9.683784318490016 0 0 0
863 3 31.1290272905 3.6535836592000095 7.260120780299928 0 0 0
949 1 31.313398211867998 0.21506078930000117 7.906936243799905 0 0 0
3150 4 28.09120638823245 1.4566496770915311 8.925793441580836 0 1 0
3155 4 30.342914734102873 0.10373954426485964 9.909846892849409 0 1 0
856 3 32.852707201 1.3224020535000045 7.074724846800187 0 0 0
955 1 32.74998725984546 2.8565905250221717 8.456890842719858 0 0 0
959 3 32.732827830695605 4.613297279718065 9.728455809049947 0 0 0
960 3 34.2064890242 3.879920627500004 7.332067714199983 0 0 0
3099 4 35.0156930473 1.1985572407 6.467555932600039 0 0 0
3162 4 34.70522543944465 3.8334438377508584 9.413646388905804 0 0 0
956 3 33.97050526579364 1.7599419993248373 9.874086487214669 0 0 0
1024 1 34.28355726267993 0.0058380734670679425 8.216959071337758 0 0 0
26 1 -4.7397706421 9.9633241524 5.930889289800049 0 0 0
28 3 -5.083345129498114 9.36503670676263 9.101895333002496 0 0 0
3101 4 -3.7847626292000003 8.300490628200006 7.107938208899942 0 0 0
3167 4 -3.55714877277089 6.492217968190575 9.207348787315794 0 0 0
11 3 -1.5317867417721263 5.72994097793587 9.339715653093364 0 0 0
98 1 0.10283470959999885 7.24970468140003 5.912478633799946 0 0 0
100 3 1.5010359650000002 6.3957102011 7.193634082500061 0 0 0
107 1 -1.6071159639000028 9.925079313600005 5.95386812989995 0 0 0
3039 4 0.5651777696999982 10.662158853700046 6.514527916399928 0 0 0
3100 4 -2.1520544522 5.927078688500007 7.224762275299941 0 0 0
3106 4 -1.0253177841999994 8.3931113417 7.49564790670015 0 0 0
3112 4 0.8595992826978716 7.283376677466287 9.183391617779655 0 0 0
192 1 -0.00502400533458669 10.389726123597015 8.5999538081956 0 0 0
108 1 -3.259023646077901 10.572566149196017 8.294882763041791 0 0 0
193 3 1.72277046514444 9.429251829092122 9.62884755473302 0 0 0
185 1 3.065152253200001 7.182732001 6.080967578500022 0 0 0
187 3 3.0970872735110238 7.119039352841819 9.242734707514003 0 0 0
188 3 4.3930229027 6.4099469835 7.469425242699899 0 0 0
272 1 3.049761187387187 10.430928875658878 8.592876774293106 0 0 0
273 3 4.738864914940275 9.441495824386957 9.390401919733293 0 0 0
366 1 6.104077685509653 10.434418620636436 7.981855224534474 0 0 0
3038 4 1.9884529148999999 8.567807715700003 7.520615767100004 0 0 0
3045 4 6.557152588699999 5.8098583425 7.331816558500101 0 0 0
3046 4 4.7010599833 8.6299419196 7.271349374100119 0 0 0
186 1 5.136081241070658 6.283417465485318 9.228439554625403 0 0 0
271 1 6.475211053585184 8.804537804045815 10.39266624419021 0 0 0
264 3 6.855993576058011 7.0610232377647275 9.122954342916728 0 0 0
360 3 9.400890538279263 6.637444574402501 9.300226259612579 0 0 0
367 3 7.741021717029423 9.556628636000305 9.073595779512726 0 0 0
368 3 9.615443326200005 8.8613672876 7.385456623899994 0 0 0
455 1 10.88965465175642 7.579958418244936 8.029792858645173 0 0 0
459 1 10.653302555999998 10.0726603673 6.064899874799984 0 0 0
462 3 10.858083705757547 9.463177932781143 9.566444833593174 0 0 0
3050 4 9.278683951700007 5.863424222100009 7.210864797600092 0 0 0
3051 4 7.4141779079 8.3961135914 7.363799329299983 0 0 0
461 1 9.42672540686286 10.535249628991243 8.454474694886198 0 0 0
365 1 9.226043740683078 8.31644434296478 10.211995239713946 0 0 0
456 3 12.226350013497933 6.839167935435848 9.157505296668706 0 0 0
457 3 14.1948296898 6.1584346233 7.235010932500035 0 0 0
463 3 12.513838987200007 8.7087756843 7.259481229899986 0 0 0
525 1 14.058901533438982 7.858611209576064 8.409033352232402 0 0 0
526 3 15.660973100684648 7.160554886576086 9.552062441871826 0 0 0
531 1 14.135832004600001 9.5902037251 5.8587213696999605 0 0 0
533 1 12.425778806472458 10.351892234953747 8.305728251063172 0 0 0
534 3 14.031065969437652 9.426871517010207 9.745487667318447 0 0 0
535 3 15.752250643699995 8.7232091965 7.215949545099846 0 0 0
3052 4 12.0001117096 5.9044826396 6.809310544499869 0 0 0
621 1 15.709430898504689 10.453167725248424 8.564504288205743 0 0 0
3193 4 13.718266543786228 6.503410362820261 10.487161341632252 0 0 0
527 3 17.0998109554 6.149001038800014 7.264110100899931 0 0 0
612 1 17.194478139146334 7.884234766676398 8.37721344559468 0 0 0
619 1 17.0976239361 9.7092626162 5.988789370100017 0 0 0
622 3 17.36515390280374 9.548274777414818 9.736093356773274 0 0 0
716 1 20.283988453399992 9.948022341800048 5.956750633700013 0 0 0
719 3 20.277636476334173 8.902738870597606 9.056739341935206 0 0 0
788 1 21.731553199954224 10.323868879731135 8.237538657030566 0 0 0
3068 4 20.426211983600002 6.1118405352 6.948772744700058 0 0 0
3069 4 19.125087518100003 8.4904770676 7.219687793600006 0 0 0
718 1 18.8375072352791 10.506222775907952 8.47648531054497 0 0 0
3141 4 21.313640249091645 7.065411117540878 9.450140345461392 0 0 0
3213 4 20.640757271672136 10.619638162488245 10.390241053774346 0 0 0
3210 4 17.58949515692833 7.382329268520931 10.45294174647583 0 0 0
710 3 23.303694263199997 6.265065748800007 7.362612025499953 0 0 0
779 1 24.906069211999995 6.9318363786 5.940017250000052 0 0 0
780 3 26.410853582900003 6.3097115766 7.296918049100007 0 0 0
786 1 23.272255952300036 9.9292083782 5.85695321709996 0 0 0
3076 4 22.039789657000004 8.3390587816 7.211900857100048 0 0 0
3083 4 24.772445717100005 8.837080035200044 7.129425230099919 0 0 0
3151 4 26.43579691601762 6.843812301961922 9.301808793723062 0 0 0
789 3 22.9264527352111 10.356163583006076 10.026350786788083 0 0 0
861 1 28.013670825162933 5.429314234038599 8.522039807015162 0 0 0
958 1 31.103918245693635 5.534907102451058 8.623956403780472 0 0 0
27 1 31.04938982875433 10.542472193936286 8.171318131235388 0 0 0
870 1 28.10785904419999 6.965505261200016 5.997222193400047 0 0 0
872 3 29.5542430183 6.3494565131 7.345076107500006 0 0 0
965 1 31.0210292029 7.3001975165 6.004448515899952 0 0 0
974 3 31.074151971200003 8.9122480861 7.303187814800086 0 0 0
3087 4 27.5543700703 8.6737310588 7.352993030299963 0 0 0
3156 4 30.133421634201408 7.7998973656582224 8.813559592893697 0 0 0
3157 4 29.756039339980976 10.154231882285716 9.802244384206574 0 0 0
967 3 31.813979170376793 7.189598464493646 9.904099019495874 0 0 0
3093 4 32.4184269194 5.8036916807 6.974511922399941 0 0 0
31 3 -6.404086702377098 11.996127484592584 9.427245753614319 0 0 0
32 3 -4.787690880700001 11.4642545535 7.356779989499959 0 0 0
35 1 -7.4681584455000065 15.341109732000026 5.854526809199928 0 0 0
36 3 -6.259117567999999 14.3866285033 7.299001323599956 0 0 0
115 1 -4.893689245013999 13.20036346362373 8.48789051266283 0 0 0
122 1 -4.5653519562 15.1030081933 6.153875905800135 0 0 0
3102 4 -8.261836510700002 15.7079357164 7.927696999800116 0 0 0
29 1 -4.834197785637143 10.875922339914933 10.358188567224161 0 0 0
116 3 -3.44965417590034 12.481110491856647 9.82739634502435 0 0 0
3114 4 -3.330422649432709 14.71316351340597 9.318043104573178 0 0 0
114 1 -3.1042359695999995 12.4411800232 5.932498836900022 0 0 0
117 3 -1.5147848565000022 11.607744914000019 7.337642839100148 0 0 0
123 3 -3.256246367200001 13.9329615627 7.360691195499978 0 0 0
198 1 -1.6047464605944146 13.348301122236998 8.639343291526071 0 0 0
205 3 -1.2052572507196606 15.28343508946518 9.894393632398991 0 0 0
206 3 -0.024283267899999572 14.363583769700014 7.321587457300062 0 0 0
279 1 1.5717831052277367 13.21400710171915 8.304528605336973 0 0 0
287 1 1.5118721612000012 15.2458953578 6.023597018899977 0 0 0
3040 4 -2.2841325134000003 15.9506652055 7.145364350000051 0 0 0
199 3 0.04151899622088262 12.426762070515597 9.7088422326919 0 0 0
290 3 1.5475808251689518 14.837145490790164 9.297044171151661 0 0 0
3113 4 -1.7197029144562892 11.264816530320454 9.60867843261406 0 0 0
280 3 3.259309174623027 12.429908498270546 9.690403867154586 0 0 0
291 3 3.0636960492999865 14.36590839930003 7.254702746399911 0 0 0
375 1 6.017181214699999 12.5304915693 5.9079575804999855 0 0 0
376 1 4.606765390548419 13.303911621331084 8.290561452841562 0 0 0
382 1 4.4874949183999995 15.2537276929 5.8217263661999805 0 0 0
383 1 2.9493706130522774 15.95505830818955 8.326797738188702 0 0 0
384 3 4.565557945017275 15.426074147317983 9.342878139144219 0 0 0
3047 4 3.778369945499998 11.12776564460001 6.693637536699988 0 0 0
3054 4 6.154480571899999 15.7409063363 7.269805363200049 0 0 0
377 3 7.879632429099997 11.1796436796 7.156530748899971 0 0 0
467 1 9.268649988999986 12.65244975410005 6.068344698299988 0 0 0
469 3 10.943626951999999 11.638897612 7.409254138100131 0 0 0
471 1 7.8975308864 15.2575400079 5.931660226500016 0 0 0
472 3 9.632250955600002 14.2303395341 7.476882960100024 0 0 0
546 1 10.8264825549 15.1403000553 5.980241108299964 0 0 0
3053 4 7.5478181621 13.3997125182 7.310453957800064 0 0 0
3131 4 10.906852677293353 12.897769140748 8.99606177856618 0 0 0
3132 4 10.46166514684553 15.625367385435457 8.886666259522695 0 0 0
3125 4 8.395319140940677 15.548963600805399 10.428629766990767 0 0 0
539 1 12.2295767074 12.5266260176 5.807994842999939 0 0 0
540 3 14.122401515599995 11.127905062800032 7.245641441199879 0 0 0
629 1 15.331303793400004 12.2959953353 5.927652993200001 0 0 0
631 3 16.590419455967847 12.36765926961535 9.345377437969319 0 0 0
3064 4 13.634590349399998 13.320525776100023 7.3758463456000065 0 0 0
3065 4 12.377197457399964 15.720627760100081 7.6636942893999525 0 0 0
3070 4 16.4303356855 13.4704646845 7.5389116821000215 0 0 0
3071 4 14.952372846099976 15.628961843400072 6.776843803100107 0 0 0
3142 4 18.229822022843614 13.989612890737707 9.22675636314564 0 0 0
632 3 17.117492230900005 11.3466754987 7.256360396199874 0 0 0
720 3 19.41064522976385 12.129578743912832 9.587198464594497 0 0 0
721 3 20.286511128099995 11.561323441500022 7.255020825199875 0 0 0
726 3 18.539710438 13.8475185638 6.852713154999982 0 0 0
793 1 21.827691135899997 12.4599047022 6.1422536800000245 0 0 0
795 1 20.017056680506023 13.50402269102862 8.086007128293328 0 0 0
801 3 20.125007638992017 15.177957518658877 9.335656700446798 0 0 0
802 3 21.756608187700003 14.312674453700067 7.211211935700089 0 0 0
3077 4 17.929190315200003 15.988888375100021 6.529761264899971 0 0 0
3147 4 21.645830429720636 12.358816274541205 8.887086836438897 0 0 0
896 1 21.43746498439389 16.02937082083163 8.159566828711462 0 0 0
878 1 24.56740075754787 10.770899172205711 8.661717013780262 0 0 0
796 3 23.309333025399994 11.6242703314 7.323230227000032 0 0 0
885 1 24.887771795700004 12.371051030100071 5.866991268400014 0 0 0
887 1 23.3924324832731 13.438461824584817 8.32518197591244 0 0 0
888 3 24.646837855157806 12.68202737170405 9.799660955077357 0 0 0
894 1 23.208958537799994 15.239119222000056 5.525534231599982 0 0 0
897 3 25.1510085225 13.971087029500067 7.1549522744001095 0 0 0
979 1 26.456790698192822 13.156039276112502 8.429964424523746 0 0 0
987 1 26.582572097899977 15.037605353000073 5.671711902799979 0 0 0
3088 4 26.4046642473 11.1250417831 7.047241745699964 0 0 0
3089 4 23.600035745500005 15.4977588337 7.726139590999967 0 0 0
3095 4 26.3062249464 15.8127126097 7.7658324800999665 0 0 0
3152 4 22.21819171655892 15.205511231822623 10.048006602858223 0 0 0
30 1 29.551298085773755 13.002098276454904 8.166912121945114 0 0 0
980 3 28.025924561747367 12.09852196276907 9.507855138592348 0 0 0
989 3 28.053108622800004 13.8677521682 7.071352704800095 0 0 0
3094 4 29.118556972700013 10.904133403600037 7.148322637200078 0 0 0
41 1 -9.221376988800005 17.72387357360002 5.500151375599987 0 0 0
45 1 -10.8750760011 20.630106472 6.070858091199963 0 0 0
3103 4 -9.659143196 19.115699236700063 7.212950880499946 0 0 0
139 1 -9.423746724024067 21.310693902951822 8.510297175960801 0 0 0
3163 4 -10.122066273995664 19.231315507742437 9.730977321242548 1 0 0
48 3 -11.056923224165422 21.05454709765609 9.946468014774254 0 0 0
130 1 -7.891549103863764 18.822945975099763 8.620405133594836 0 0 0
137 1 -7.774335533 20.6437767354 6.029421571300048 0 0 0
140 3 -7.82870645147108 20.311066148324784 9.827351729885272 0 0 0
141 3 -6.189612874799998 19.8618436273 7.196624184199887 0 0 0
3041 4 -3.7205122169000004 18.2971123485 7.201718477700023 0 0 0
3107 4 -6.328824023500008 17.5911058489 7.551712669999933 0 0 0
217 1 -6.384695905178655 21.47213291180176 8.633865154902097 0 0 0
3115 4 -5.722924085091477 19.375716000021818 9.35110483169995 0 0 0
218 3 -4.8864960754206725 21.101511902076076 10.229834015145443 0 0 0
289 1 -0.2407857485613203 16.193729561449278 8.309086401171154 0 0 0
296 1 -1.6523177438536063 18.942536004049153 8.260684225638293 0 0 0
297 3 -0.24277681783289218 18.26280046245662 9.420420898589928 0 0 0
298 3 1.5027765473000017 17.0021067134 7.318607337000106 0 0 0
304 3 0.1607969317000002 19.8511178475 7.582970680400106 0 0 0
399 1 1.5236788353000001 20.383176790300084 5.857795498000005 0 0 0
3048 4 -0.550296962900001 17.9722275987 6.569750342499997 0 0 0
3118 4 -2.120659496241659 17.17342786186729 9.488046836809609 0 0 0
393 1 1.4688039863701245 18.80250273277088 8.562903982039622 0 0 0
303 3 -1.9016310108558478 20.355111009361526 9.474520239792387 0 0 0
401 3 1.502167862632371 20.62229418219569 9.7506094922777 0 0 0
3182 4 1.3080866418474848 16.758652741053062 9.684917634754264 0 0 0
400 1 -0.07181931539763653 21.52106456067327 8.516395285004087 0 0 0
391 1 2.917423424099999 17.808307140300013 5.84736139050003 0 0 0
402 3 3.003205085700001 19.4882906607 7.104301931100089 0 0 0
481 1 2.835870112396101 21.354498032624488 8.246638700886795 0 0 0
3055 4 4.7570978335 18.0749158747 7.115042626400044 0 0 0
3059 4 5.946528637700002 20.5256851879 7.05833009280008 0 0 0
3126 4 6.339309659434631 17.05073796378964 9.51905251088533 0 0 0
3127 4 3.512922360108403 19.322215961880488 9.250297142876391 0 0 0
547 1 8.565503656034394 16.399361373843078 8.221922222732971 0 0 0
551 1 9.272913789899949 17.947453694300098 5.7788129208999806 0 0 0
553 3 9.570096812917086 17.284733010524867 9.868648020539144 0 0 0
554 3 10.598397347599999 16.9284175988 7.000660540400162 0 0 0
559 1 7.502618870199999 20.3004666318 5.448871168699938 0 0 0
560 3 9.258696527499971 19.47114269300005 7.42445610699988 0 0 0
649 1 10.861150714641836 18.308355054460193 8.39217592328201 0 0 0
3058 4 7.48137500749999 18.123518972700047 7.1285868253999 0 0 0
3066 4 9.084332121399997 21.5122820676 6.493946954199984 0 0 0
3072 4 11.742138168799999 20.9995680843 6.806073411500055 0 0 0
3133 4 8.786215681121549 19.152006253357314 9.457119639105045 0 0 0
3139 4 11.501670990245774 20.266638548175024 9.21768899981199 0 0 0
647 1 12.330209994099995 17.642977277900023 5.761156084399962 0 0 0
658 3 12.682657236099999 19.0103014325 7.275902696600056 0 0 0
731 1 13.7602050695887 19.674442645434144 9.037252247086514 0 0 0
736 1 13.838422445999969 20.398631806800076 6.25202884369989 0 0 0
740 3 15.385413503300002 20.0316698074 7.5788335454999896 0 0 0
3078 4 16.185640944899998 18.05737951310006 6.854741852399954 0 0 0
3143 4 13.585061347408361 17.611990016333426 8.673035018132445 0 0 0
650 3 12.129783375703893 18.424212199495862 10.109950775931004 0 0 0
732 3 15.272470272460605 18.47887149216453 10.079685302646467 0 0 0
739 3 14.169496436600188 21.28015881186032 10.187355835047768 0 0 0
800 1 18.716486278180668 16.260267036271394 8.608348967049643 0 0 0
809 1 17.102615511823252 19.068461785558355 8.74143332618258 0 0 0
810 3 18.842473463008247 17.97061279175551 9.723408121807388 0 0 0
811 3 20.0828174563 17.0544258167 7.229105953600005 0 0 0
817 3 18.75786997450001 19.6390994455 7.290979149799956 0 0 0
906 1 20.52921172749494 18.782837884128078 8.392986372244252 0 0 0
915 1 20.046549567400007 20.566070878 5.903889404899967 0 0 0
917 3 20.485452732255236 20.637857252191278 9.467313637772861 0 0 0
918 3 21.742718221299995 20.0334662371 6.965773273000025 0 0 0
916 1 18.88448815584251 21.345442151814904 8.192819179754828 0 0 0
816 3 17.377831089408065 20.68465759923442 9.732779757475036 0 0 0
907 3 22.059740644294962 17.349699286553978 9.523460405273532 0 0 0
3090 4 22.488759646500014 17.9729802621 7.47598772710008 0 0 0
3096 4 25.133197384600003 18.086715176000055 6.829269505999967 0 0 0
3164 4 22.89988265833813 20.294203482900002 9.28010833679624 0 0 0
3158 4 24.204977540995934 17.153619440862528 9.858997445308784 0 0 0
47 1 24.84311327280196 21.528757148014463 8.461118730460726 -1 0 0
994 1 24.904048195942096 19.404861399349695 10.440964915366127 0 0 0
62 1 -13.851405422100001 26.1516999983 6.1598129072999726 0 0 0
65 3 -14.692020559740657 25.533587481016063 9.355965962786367 0 0 0
55 1 -12.237974104300008 23.323620763500116 5.894776405199988 0 0 0
59 3 -10.7389137503 22.483829733 7.184784206600039 0 0 0
66 3 -12.4937908639 24.9461959062 7.155752457499904 0 0 0
147 1 -9.2878957386 23.391165654200012 6.01879057679999 0 0 0
152 1 -10.956024547200006 25.976575675000095 5.6476367545000095 0 0 0
3108 4 -10.6713439463 26.0501054453 7.878642456500035 0 0 0
3116 4 -11.75287137030383 23.71981339400306 8.647987298150099 0 0 0
153 1 -12.780822985516803 26.71460621456718 8.639415700410616 0 0 0
58 3 -13.1593764622891 22.9324694964217 9.971903254183438 0 0 0
148 3 -7.816236730900039 22.4012495544 7.258382359900047 0 0 0
225 1 -6.2165633214 23.1220551519 5.9656284203999945 0 0 0
226 3 -4.7543544591 22.3677962847 7.512988458899951 0 0 0
231 3 -6.221829257 24.8435288452 7.116607677800008 0 0 0
311 1 -4.848868493404741 24.11693239521669 8.307152807558456 0 0 0
317 1 -4.676419108300001 25.9806725781 6.337592095099989 0 0 0
320 3 -4.895160613694319 25.55925449189787 9.550118419678533 0 0 0
3042 4 -8.1947531484 25.86401239860009 6.757884219200001 0 0 0
3119 4 -6.932611637245852 23.637315098329122 8.726006990267301 0 0 0
319 1 -6.2879623822750705 26.771993730178544 8.581868518626607 0 0 0
3179 4 -4.69616028041577 23.254554711228714 10.364027830467798 0 0 0
302 1 -3.2791212332081088 21.73384060061111 8.924257789944939 0 0 0
310 1 -3.250284197500001 23.201753381200064 6.295348631099962 0 0 0
312 3 -1.9169704652000004 21.8413761526 7.178345644500023 0 0 0
321 3 -3.3739322259000026 25.0507593741 7.651761770399943 0 0 0
409 1 -0.3457009931999995 22.6255507313 6.080878229199964 0 0 0
411 1 -1.7212693699817887 23.97143714098596 8.390919832179378 0 0 0
412 3 -0.3397603433695586 23.131254732797398 9.685290720092972 0 0 0
413 3 1.4852157143000007 22.38408459890012 7.063503431900095 0 0 0
420 3 -1.6879998269933019 25.952097121934703 9.629726970867836 0 0 0
421 3 -0.5967821732000029 24.427827754800138 7.069314977199944 0 0 0
2996 4 -1.1974799795999989 26.4507503143 5.4715841684 0 0 0
3056 4 1.1903767926999986 25.721129984 7.511954322100014 0 0 0
3129 4 1.3726184536640815 23.385520220308543 8.772553720795067 0 0 0
3183 4 -2.2165397799952764 23.306271066925554 10.46822106515813 0 0 0
418 1 -0.05584925453880807 24.953091679779575 10.461662738778248 0 0 0
487 1 3.135552883199999 23.2530670476 5.971683328600012 0 0 0
488 3 4.506061859700001 22.2501867549 7.17516268730007 0 0 0
493 3 3.078664085841421 24.539195967444396 8.062558820807673 0 0 0
565 1 6.222691574200001 23.002299611600012 5.866701746200013 0 0 0
576 1 4.901448068299995 25.60258186460004 5.61089802799995 0 0 0
577 3 6.186405514900001 25.250748109 7.215168710699825 0 0 0
3060 4 3.7213072207 26.6794218164 7.195253444500118 0 0 0
3128 4 3.71947798540784 22.819809102830305 9.627868590833526 0 0 0
3134 4 6.115622032005389 22.618502015007255 9.084722012393286 0 0 0
3135 4 5.03205938924479 24.980276604981878 8.88498644939489 0 0 0
567 3 6.708319920173736 24.546388837117668 10.12465942163566 0 0 0
568 3 7.374462586599993 22.547901528200015 7.526580752500031 0 0 0
662 1 7.82714918091313 24.43449367106301 8.390900266991913 0 0 0
668 1 7.7706886052 26.0780465061 6.036038420899956 0 0 0
671 3 7.688412174358566 26.442601055899235 9.310737832275787 0 0 0
672 3 9.3274268893 25.2951308671 7.154904601000055 0 0 0
745 1 10.776165083688852 24.816963837337966 8.747083020590587 0 0 0
3073 4 10.7986878767 23.5384398507 7.11030773739995 0 0 0
3140 4 8.94014409378008 22.303002446427747 8.949769352742333 0 0 0
663 3 9.274784198839056 24.108995261740418 9.868105084873157 0 0 0
3148 4 11.17483854984126 26.845100833353563 9.499507299612073 0 0 0
661 1 10.541388239890908 22.71660380733253 10.493669284197601 0 0 0
738 1 12.552157930146397 22.079165894265092 8.722960491977076 0 0 0
746 3 12.44117422629061 23.708344967151593 9.723890129353663 0 0 0
747 3 13.918152908899994 22.5338742097 7.330871365900094 0 0 0
815 1 15.641682929247638 21.864973483004633 8.591974648507716 0 0 0
820 1 15.456420633199999 23.1795178676 5.9305164082999156 0 0 0
821 1 13.94185917308369 24.37429261091146 8.25133529137523 0 0 0
830 3 15.9159327235 24.7354143775 7.217512042999978 0 0 0
3079 4 12.337305348500001 25.7742400437 7.357429561699913 0 0 0
3084 4 14.5882559114 25.9050265258 5.827609858199979 0 0 0
934 1 15.407072674418012 26.806262072631988 7.942603736500228 0 0 0
822 3 15.48709832641257 23.877536879806467 9.598825880501046 0 0 0
829 1 14.926021382364375 25.767512878655456 10.203643729884256 0 0 0
3153 4 16.962377017779062 25.71149137097912 9.331770771048518 0 0 0
995 1 21.736705554527326 21.680241937595774 8.128134422148442 0 0 0
823 3 17.2790848366 22.17439298930007 7.066391548499912 0 0 0
925 1 18.566307922199982 23.337279749000075 5.741902679599992 0 0 0
926 3 20.4322444649 22.6256558477 6.910423693499965 0 0 0
3091 4 18.730694011799986 23.621138049300043 7.994969273999896 0 0 0
3092 4 17.783739129899978 26.00387445180009 7.0729738482999736 0 0 0
3097 4 20.975275325 25.118756354 7.616517515600005 0 0 0
3160 4 21.737641273945677 23.32583079966787 9.627949427315698 0 0 0
3161 4 20.172748269596408 26.09423228370853 9.617159359693517 0 0 0
3222 4 19.029941124993382 21.96647192955256 10.393601810690747 0 0 0
57 1 23.304888236755595 23.99849182646672 8.328201414002262 -1 0 0
1002 1 22.1208363314 23.3495521039 5.9549738443999605 0 0 0
1004 3 23.476051267900004 22.3563013599 7.165386346599792 0 0 0
64 1 -15.38862029644585 27.298683561229694 8.64969378778487 0 0 0
72 1 -15.466978372532228 28.7039153603 6.118131313300033 0 0 0
73 3 -13.914274261300065 27.9366817854 7.253347341000012 0 0 0
77 1 -17.1727307007 31.5221375649 5.783931424000038 0 0 0
3104 4 -16.2027038797 30.7107369444 7.667600003300084 0 0 0
3109 4 -13.806059351200018 31.272162024600107 6.499212792699961 0 0 0
3117 4 -13.503442971790797 32.15189231458364 9.639705192221506 0 0 0
3169 4 -13.198291539687602 29.67910584798329 8.647630045320483 0 0 0
245 1 -12.239179252528663 31.944880489329574 7.843323521487818 0 0 0
166 3 -11.946934238500006 30.09293144130008 6.963506229800075 0 0 0
239 1 -10.812843200632441 29.365800876741446 8.626824579602104 0 0 0
246 3 -11.267675312758701 31.32695659605694 9.530563884248004 0 0 0
247 3 -9.1228884454 30.5266508851 7.489343372000093 0 0 0
3043 4 -9.433243351200005 28.3287679345 7.042558867300013 0 0 0
160 3 -12.337262111654727 28.41492451458198 10.056658918832 0 0 0
240 3 -9.401799500526582 28.95571721384263 10.129768264221223 0 0 0
3120 4 -8.363345498522886 27.39042137528917 9.244952569484752 0 0 0
328 1 -6.214329143499999 28.702756830600094 6.070858091199963 0 0 0
329 1 -7.75683785211956 29.565891375745615 8.789589165158695 0 0 0
331 3 -4.717333242199997 27.8527596509 7.357224823599957 0 0 0
335 1 -7.642963030500006 31.266858847100167 6.244287745900035 0 0 0
337 3 -7.884249316376014 31.53345355233716 9.636216731215459 0 0 0
338 3 -6.181508516600001 30.3933703925 7.423025477199996 0 0 0
434 1 -4.71678308880001 31.343330021300094 6.3091787866000395 0 0 0
3124 4 -5.302546741436295 29.119971391374772 8.852105269880933 0 0 0
330 3 -6.60402701529798 28.343969834542563 10.260951546444517 0 0 0
591 1 -0.10413608146272324 32.1761827233367 8.760818881172096 0 0 0
419 1 -3.3272899111454706 26.90475784980426 8.684861198567422 0 0 0
426 1 -3.270744215199999 28.8077552986 6.080224334600128 0 0 0
428 3 -1.820893969799993 28.0773003099 7.365768174200092 0 0 0
492 1 -0.35833751865604313 27.108959842897473 8.382818748471543 0 0 0
500 1 -0.35407334099999943 28.7873480734 5.824877137299961 0 0 0
584 1 1.4831294239618025 29.580404464468764 8.587426576936664 0 0 0
592 3 1.481212588868658 31.200827009797376 9.699928174984883 0 0 0
3057 4 -2.4230927425000015 30.726298518400075 7.046912904200088 0 0 0
3061 4 1.5854728716999986 28.3405520115 6.874178331899934 0 0 0
3062 4 0.4694612375000027 30.8324722105 7.080596345800149 0 0 0
3130 4 -0.9077422115407678 29.44095305046303 8.880409698182518 0 0 0
501 3 0.5313627101223908 28.358917505070682 10.028948742204115 0 0 0
3145 4 24.241380231110494 0.016447972032714888 9.21125166581718 0 0 0
670 1 6.066853666301409 27.042942930401686 8.361418017817208 0 0 0
583 1 3.4564824730999995 28.6110160714 5.654066815700039 0 0 0
593 3 2.9821457456999987 30.4363990363 7.128698775900027 0 0 0
676 1 6.350864013900008 28.76992333490008 6.066245930600054 0 0 0
683 1 4.604682389499999 31.2899431737 5.932588331399986 0 0 0
685 1 3.1278701734952 32.06424310104005 8.537571201354822 0 0 0
686 3 4.203627161584098 30.924943828221366 10.044033208327807 0 0 0
687 3 6.333949707199984 30.71598818570018 7.366386245700173 0 0 0
3067 4 4.981226728500001 28.9946397039 7.885616073300039 0 0 0
3136 4 3.3225900734155935 29.008678366493687 9.722050835677358 0 0 0
678 3 5.552009223322482 28.494335438036757 9.890072401388252 0 0 0
684 1 6.097839316883832 30.474658416641468 10.498663082501587 0 0 0
751 1 9.18531309963317 26.929441944615515 8.255518857710882 0 0 0
679 3 7.7701238792 27.83172671650009 7.301882029000026 0 0 0
757 1 9.275113525899982 28.76113344210008 5.920385488599944 0 0 0
761 1 7.526988417499997 31.444456474900026 5.838562496099906 0 0 0
844 1 10.774839194999998 31.5536544878 5.887720838300002 0 0 0
3080 4 10.878061296300011 28.075168742200063 7.381193953799986 0 0 0
3081 4 9.1603126198 30.636434133 7.158354816499958 0 0 0
3144 4 7.181986432589056 29.20991249805168 8.688500147975706 0 0 0
3149 4 9.365822343337463 28.734986459717966 9.475939067890703 0 0 0
838 1 12.1922896526 28.7542932255 5.660282486300035 0 0 0
941 1 14.224279678018991 30.000317217081527 8.008885137263402 0 0 0
942 3 15.028911567390683 28.601412012376382 9.276680871913289 0 0 0
943 3 16.757013669499997 27.9958697315 7.273704779200003 0 0 0
947 1 13.765006994499998 31.4103916192 5.422015888600004 0 0 0
950 3 14.018266174281852 31.703751619221347 9.271839664375484 0 0 0
951 3 15.3055032539 30.4689221268 6.436293284499978 0 0 0
3085 4 13.726678059600037 28.111031452600123 7.174999045199826 0 0 0
3086 4 12.2414431993 30.4245437823 7.167049472199999 0 0 0
3154 4 13.115083763523867 29.995835412222206 9.985836118989145 0 0 0
948 1 15.181174463306625 30.471161836720142 10.513052804205586 0 0 0
1018 1 16.948537836069566 29.33774322904513 8.51404823546487 0 0 0
3229 4 20.292639438785773 28.75826255108223 9.176660689089115 -1 0 0
1010 1 18.668456927638786 27.426734517920202 8.452308134782733 0 0 0
1016 1 18.900368555199993 28.4974395565 6.010583715200031 0 0 0
1020 3 20.54788530419999 27.269138077700042 7.110853578599947 0 0 0
1025 3 19.071047594800003 29.7041783953 7.684770712900047 0 0 0
3098 4 17.329939220299938 31.053261766200148 7.225409558999843 0 0 0
3165 4 17.22341992654084 31.126902735545837 9.837672218967363 0 0 0
1019 3 18.302865569782714 28.91651012031954 10.043276574751772 0 0 0
10 1 -0.7484465799017561 4.444730566782919 10.76921542474107 0 0 0
3231 4 1.4665896818492068 4.027235112262162 11.719990997112909 0 0 0
962 2 -2.391071743333619 5.215471411587728 12.506102754396402 0 0 0
1026 2 -0.16709520578284198 0.3888548028024996 13.290636680089584 0 0 0
7 1 1.7138991221220987 0.9670384638094579 15.0956133479925 0 0 0
3239 4 1.8659086884114817 1.2838054587124352 12.490153715212731 0 0 0
84 1 3.9178149945616725 0.9480236233365487 11.1280609806157 0 0 0
87 2 3.4903274691673882 2.9980217044842496 12.528327965559996 0 0 0
178 1 5.178279657490191 3.833368422088697 10.913327547507187 0 0 0
78 2 3.687524305022998 0.6175960353580433 13.597726176798837 0 0 0
3241 4 2.8554688594646023 4.74274404153735 14.530976877631495 0 0 0
3240 4 3.988912398824698 2.5527504861762162 15.17239460328851 0 0 0
167 2 5.9152316761776005 0.07571731918429736 12.605659335197835 0 0 0
88 1 4.940173913875922 0.5102811655094522 15.627557372123455 0 0 0
253 1 11.161628726267951 0.5722604117167132 11.24522985133343 0 0 0
3186 4 11.378508148465945 2.9413109467528096 12.771009210256729 0 0 0
3244 4 10.081976401149753 4.5443600539476305 14.976434016820157 0 0 0
3250 4 10.540758838229067 0.5034114962543799 15.520581851897461 0 0 0
344 1 14.336621542584062 0.9497021474789658 11.287515828004597 0 0 0
348 2 13.805135659233851 2.969487235230495 12.95866529881419 0 0 0
353 1 12.404813775222202 3.612615447457857 10.826304617922112 0 0 0
354 2 12.327161818606713 5.118415175662995 13.058715484350287 0 0 0
446 1 15.585631716983833 3.5284120885389574 11.311579400808228 0 0 0
3256 4 12.619319283848876 0.8957152241866978 13.091105528916472 0 0 0
3260 4 15.86173004432169 1.8264692056918121 12.774471264912236 0 0 0
349 1 14.564961272072175 0.8958031930502666 14.390915303039733 0 0 0
451 1 15.458061028888373 3.807234622435315 14.70094175271165 0 0 0
355 1 12.189209689975804 3.1460273558107232 14.965320789081872 0 0 0
350 3 12.692309795287382 1.1101533652436746 15.295768786072244 0 0 0
606 1 21.527239089729033 3.4741362799877042 10.538282981973037 0 0 0
437 1 17.46183811721306 1.542724317018809 11.112328384765632 0 0 0
441 2 17.650112283151785 3.2742120101251753 12.957534426906498 0 0 0
512 1 20.244975649970346 0.7273001491491544 10.670621629154375 0 0 0
3208 4 19.55499462107609 2.6365419528414646 11.617293122247574 0 0 0
3265 4 20.03394790683085 4.208225519611636 13.8441891531917 0 0 0
442 1 17.246907768144816 1.2670730363097766 14.504238320799885 0 0 0
594 2 21.433710247740617 0.5343001559426673 12.808039690569231 0 0 0
608 1 21.86773675642123 3.8526401927267644 15.219601483708942 0 0 0
508 2 18.564229969496363 0.11526030139635884 12.685804100161008 0 1 0
3332 4 17.665074123052776 3.3183855694805526 15.332746231142117 0 0 0
598 1 23.428768063587157 0.8213723214281876 11.207460308039856 0 0 0
601 2 22.402568193103082 3.4442002920153834 12.808704214313899 0 0 0
695 2 24.999991866308562 2.404635341244112 12.705281840272367 0 0 0
701 1 24.561281041445827 3.9736471847091988 10.854997140267347 0 0 0
705 2 24.63972309625986 5.227966158785272 13.104095720853852 0 0 0
602 1 23.368560992058264 1.2942622390123868 14.37626129925209 0 0 0
696 1 26.343298589080856 1.2410211240530995 14.375279949734164 0 0 0
3212 4 26.593526606624916 3.9764294971709493 11.883183992990123 0 0 0
706 1 24.900742376087376 3.676727677370597 15.2182447694463 0 0 0
3279 4 27.005952876895496 3.3506824893000946 14.247836507139638 0 0 0
762 2 27.51210006933833 1.7497658370399405 12.182384880563085 0 0 0
770 2 29.201197233682095 3.546621542753878 12.853959503320837 0 0 0
860 1 31.1862016962932 3.7463361523516125 10.813433442322065 0 0 0
865 2 31.652419990840073 5.140435807577453 12.815689655370523 0 0 0
3219 4 29.295496507798646 2.7008929987760912 10.62216661368263 0 0 0
3292 4 31.297754085346853 1.2495666074137484 14.54677711102995 0 0 0
846 2 29.99293518379604 0.8552742549802337 12.401136598377335 0 1 0
771 1 28.983914163798612 1.8005005325965573 14.560336861244025 0 0 0
866 1 31.227031279351564 3.568334779379911 14.611565546998406 0 0 0
3287 4 29.051970611156378 3.872613555735246 15.43499784161476 0 0 0
3230 4 35.71304170687833 2.2637141037050297 11.317990966727962 -1 0 0
853 1 32.298635933798934 0.9312620247476691 10.6828925579102 0 0 0
957 1 33.66866994477973 3.3899038403148176 11.385105689565613 0 0 0
3227 4 34.23537680512317 0.097812570283344 11.362154401507478 0 0 0
3293 4 33.390447413874 3.7244879680393708 13.769961529703494 0 0 0
3232 4 -3.8765782318628244 8.724519100297028 10.661915579182526 0 0 0
968 2 -4.620568081824079 8.212641265450387 12.997561039683092 1 0 0
14 2 0.21654497028882203 5.669514711523525 12.888366478492067 0 0 0
18 1 -1.2901856761800734 7.047354153896113 10.816597079915624 0 0 0
20 2 -1.7521767197944391 7.685904339831128 13.31755006994316 0 0 0
110 1 0.5465256546456638 8.453208614695258 14.807795551292603 0 0 0
99 1 1.64758389862074 6.246182935107341 10.906816587618387 0 0 0
21 1 -1.1288408399835483 5.754202267925974 15.051758733610761 0 0 0
3171 4 3.6560667083176166 5.481617303034249 10.60914109345071 0 0 0
102 2 2.133501720249453 7.6014325964684994 12.938113389819186 0 0 0
191 1 3.4660202041848533 8.433029500536176 10.878699026251503 0 0 0
194 2 2.8636677253078027 10.219666817639515 12.7385261017047 0 0 0
3177 4 5.720570676114445 6.981873264773672 11.273327789215813 0 0 0
3180 4 5.1305589781727186 9.364106580793086 12.604785178050083 0 0 0
275 1 6.501701988759376 8.422032768897193 14.384522166594508 0 0 0
195 1 3.5399330893834415 8.630419748635186 14.690334656762495 0 0 0
3245 4 4.819206356448872 6.493107620416492 15.159759250706848 0 0 0
276 3 5.199921446980095 9.661736119355865 15.502015468054712 0 0 0
3251 4 6.852523938433839 10.622625449720452 14.260081243968365 0 0 0
259 2 9.679774625721581 5.518443268981244 12.769907877840666 0 0 0
263 1 7.764370505067196 5.9765326123577145 10.622486060328193 0 0 0
266 2 8.044309084128496 7.920600189059974 12.422019436276315 0 0 0
267 1 8.230660504976566 6.26460474591086 14.591473414329215 0 0 0
359 1 11.080130785311848 6.237287238862493 10.92522603762982 0 0 0
370 1 9.740097892676124 8.73181924771272 14.482002880683869 0 0 0
3194 4 10.508888997795511 9.178494976063897 11.869562407446004 0 0 0
3187 4 8.316913763842985 10.108571721864084 11.091780133215686 0 0 0
362 1 11.463864073262648 6.246946096716036 15.094520668486233 0 0 0
371 3 7.957484166512387 9.368216600096115 15.561415842838858 0 0 0
361 2 11.903629135371055 7.68962191810824 13.08288889529635 0 0 0
3262 4 11.949494251420655 8.373493692110443 15.30816173657394 0 0 0
460 1 12.343636781115649 8.452845912187017 10.564614133732317 0 0 0
532 1 15.687913131173943 8.686237505175292 10.89621837276836 0 0 0
3200 4 15.968414795978177 5.702139041607812 11.037352884692218 0 0 0
3201 4 13.830520514842123 9.007515387401163 12.070517486587747 0 0 0
3267 4 16.30191287681123 7.673263597317783 13.047478479608358 0 0 0
3263 4 12.188562840024392 10.60355607327504 14.660855224237416 0 0 0
3341 4 16.072768039326046 9.483231507863858 15.158617325630225 0 0 0
3261 4 13.978360561895762 5.69167962773892 15.125517299927807 0 0 0
529 1 16.197491707929686 6.95613730440546 15.414803232406317 0 0 0
3202 4 12.461063423389048 10.665292402853446 10.51148780205456 0 0 0
3266 4 18.040706221415878 5.6566180769024585 14.754101235010395 0 0 0
614 2 20.687056504224792 7.842828855788809 12.865139216231231 0 0 0
615 1 20.271114303464543 6.340446606742631 14.953930427323407 0 0 0
620 1 19.133504678084833 8.874660723685457 10.967847020647586 0 0 0
624 1 18.22524060127021 8.590327577233735 14.065021988815047 0 0 0
717 1 21.94168115491441 8.812472171339026 10.789681033291231 0 0 0
3274 4 20.172831279927532 8.615853232754642 15.16298453805259 0 0 0
623 2 19.310521148229128 10.68391673459496 13.011156194540941 0 0 0
3209 4 22.161907012429303 5.748966079893005 13.775739687266896 0 0 0
709 1 22.507081025295964 5.981159586133335 11.435287169596144 0 0 0
712 2 23.4076027177744 7.8450304950867995 12.995357093862044 0 0 0
787 1 24.55403141369591 9.506457627437745 11.505149909794 0 0 0
3221 4 26.382445528638556 9.930483093453242 13.382055815294656 0 0 0
3281 4 22.554803947101178 10.14366078084264 12.509300900775546 0 0 0
3288 4 25.95357337076574 7.813560183230651 14.67713076496316 0 0 0
791 1 24.56629209381943 9.427099729637968 14.832148522388003 0 0 0
713 1 23.639505399278317 6.436805006858178 15.24137333917286 0 0 0
3356 4 22.27027130121772 10.04114458496554 15.27364738781423 0 0 0
871 1 30.120637859953035 6.363552795953724 10.928796027024795 0 0 0
973 1 31.063813151461375 8.817609112801081 11.1055468094278 0 0 0
3220 4 28.131934039401198 5.457860502514595 10.736137592317338 0 0 0
3224 4 29.11623431753798 10.14495646824954 12.938218085170089 0 0 0
976 1 30.89222355123016 9.383161149316214 14.402384030176506 0 0 0
880 1 27.94933992631437 9.088343429094131 14.844542270925952 0 0 0
874 3 27.72702222873992 7.010237771304153 15.46127493819969 0 0 0
966 1 33.04234589260493 6.356303398844943 11.214419931491438 0 0 0
969 1 33.37188133484665 6.030174036903253 14.48440626689652 0 0 0
975 2 -5.865830373295326 10.9337963680108 12.519804681354522 0 0 0
982 2 -7.33585659133692 13.50768469836307 12.826510395185537 0 0 0
3234 4 -5.4052568869429365 12.973444183279359 11.000957402468224 0 0 0
3303 4 -5.5839908091381565 11.857507127203966 14.598813187459825 0 0 0
3304 4 -5.529456996837402 14.44569776671986 15.251988250452214 0 0 0
3297 4 -7.994250835056558 13.960783892854534 15.021664902283447 0 0 0
3233 4 -3.3782815607480523 11.392186942039238 11.87798236474963 0 0 0
204 1 0.3622342368914975 14.289134043328545 10.793462851177736 0 0 0
3172 4 -0.025333989578886218 12.05969306817401 11.87342251962004 0 0 0
3173 4 -1.7711110882480545 13.470929214126741 10.915460831900177 0 0 0
208 1 0.08368376786703102 14.106784871627374 15.12168692344494 0 0 0
201 1 1.5748041129520765 11.246576295064468 14.836086138501024 0 0 0
125 1 -3.1286973079742415 14.706279118919623 15.240107226108282 0 0 0
3302 4 -1.869995152629727 12.836681477157239 15.411282381652683 0 0 0
200 2 1.6540986368526713 13.256918301348374 12.90496675174714 0 0 0
3188 4 5.140086897796857 13.52788138643021 10.553669145522747 0 0 0
197 1 1.7700562075348047 11.379738347179941 10.72242036464531 0 0 0
278 1 4.731833232044889 11.077242899595872 10.769660758591542 0 0 0
282 2 4.417099755805225 14.34225348152741 12.790747026233834 0 0 0
288 1 3.070461811971292 14.336968553377897 10.717950502138436 0 0 0
3181 4 3.4972038343150267 12.371929918931672 12.034988274939533 0 0 0
283 1 4.660614384745935 11.121165962318075 14.244255276780926 0 0 0
3189 4 4.869096663253183 15.922281832956523 11.29088986928803 0 0 0
3253 4 2.5197912076072626 15.650688298356672 12.52996520588928 0 0 0
387 1 6.230890384419569 14.207804872688776 14.664778494998743 0 0 0
3252 4 4.333917754103552 13.121596378343941 14.698881167225288 0 0 0
293 1 2.6793862705594726 14.469308470755466 14.786414084970254 0 0 0
379 3 6.088045933623092 12.196381840533576 15.407049602261132 0 0 0
386 2 6.835298472190626 15.511301661141628 12.462070031288924 0 0 0
468 1 10.323450999765521 11.195740290263657 10.656491968730109 0 0 0
473 2 9.697444824166737 15.570661224010012 12.505903362813612 0 0 0
3195 4 9.62388406204332 13.362338885993386 11.220615618648601 0 0 0
3258 4 8.34795212086483 13.998234837779862 13.908388689038823 0 0 0
3264 4 10.997137824217223 12.815196955653064 14.623425219242868 0 0 0
3268 4 10.154232372768204 15.405066475579146 15.208073248693893 0 0 0
3203 4 11.887404177559638 14.522596517082944 11.897654530577917 0 0 0
3138 4 14.659781866630064 15.644502393480261 11.957300759330856 0 0 0
542 2 13.95298731404704 13.520975802488046 13.017950813762795 0 0 0
543 1 14.318442072891445 11.166765258475008 14.846853460433806 0 0 0
641 2 16.69636727804224 15.731060892043121 13.105220534646705 0 0 0
642 1 15.571867937969223 13.515121246847693 14.775634929283648 0 0 0
549 1 12.683552368643992 14.347561374356646 14.90883757446202 0 0 0
3276 4 16.699651951474365 15.20335946169812 15.521352610641962 0 0 0
634 2 17.138279236915885 12.864557549520711 12.969301091050301 0 0 0
630 1 17.72347483088789 11.44221564167614 10.831096637206954 0 0 0
3214 4 20.37656400053924 13.637353063412101 10.769230339566747 0 0 0
3275 4 19.06071281629685 12.840004945549003 14.502698050857198 0 0 0
3283 4 21.07188236602809 15.798905711085157 12.616458448968931 0 0 0
3282 4 21.384333024878856 12.14972933783154 13.816168234187941 0 0 0
635 1 17.48008408110711 11.318391143846815 15.110361258349052 0 0 0
804 1 21.027576444124875 14.114279140626778 15.196879414069159 0 0 0
723 1 20.163699012933314 10.934285301550021 15.467463857665628 0 0 0
790 2 24.527866839676634 11.494872001088446 12.966519037511212 0 0 0
794 1 22.807217809141253 12.028777402330105 10.974778929556507 0 0 0
886 1 26.264150887123556 11.923195370697046 11.233456448930568 0 0 0
890 2 26.70353549639856 13.91206957826519 12.798971254231919 0 0 0
895 1 24.994343677299412 14.841319000562999 10.698283940668581 0 0 0
891 1 26.493746003514197 11.792979928652123 14.561529481330222 0 0 0
798 1 23.290661312723625 11.987859609461848 15.01215338780355 0 0 0
3366 4 24.30428587724655 15.104265866173426 15.00189048230505 0 0 0
978 1 29.60898640152692 11.814516439019053 11.143039327870245 0 0 0
983 1 29.484606922511126 11.671468235496103 14.653066105031385 0 0 0
988 1 28.198729481697086 14.350462067044267 10.787402655335566 0 0 0
46 1 -9.416026204452214 20.503869565141354 11.398463629071877 0 0 0
3298 4 -10.828350560310104 21.409850499403362 14.006017621039987 0 0 0
51 1 -9.740702972798628 19.73898814712303 14.917117210114483 0 0 0
3294 4 -10.134731202370592 17.583851166323903 13.857971827597055 1 0 0
990 2 -8.39451100604848 16.15916867402809 12.614005035011168 0 0 0
42 2 -8.299310954081502 18.85718738125544 13.12553983194146 0 0 0
132 2 -4.358660512276541 19.730519073912607 13.025853848449437 0 0 0
138 1 -6.40269250763877 19.886930896919804 11.552348072681696 0 0 0
144 1 -6.651160934344218 20.093529766716586 14.699109566059786 0 0 0
3168 4 -8.102034679719509 18.47708763847865 10.923111194662738 0 0 0
3235 4 -5.926331752308167 18.141735169716497 13.891052167553799 0 0 0
133 1 -4.705909522606485 16.79874831497672 15.170284155864973 0 0 0
216 1 -3.4916796335621783 19.052885229125817 10.517597814896874 0 0 0
3375 4 -8.000128740241829 18.386549917251035 15.387070841924302 0 0 0
220 1 -3.450557818724203 19.614784562343363 15.39942399275903 0 0 0
3178 4 -2.8894350662259782 21.049660675976096 11.25592563007956 0 0 0
3174 4 -3.15751725519935 17.909580733202457 13.988497239059704 0 0 0
211 1 -0.5458048327153424 17.270085273905337 11.087631128901766 0 0 0
213 2 -1.491184416458859 18.840016470748914 12.737742359233941 0 0 0
301 1 -0.4587047919006615 20.121186883057792 10.864866425197746 0 0 0
306 1 -0.6704718589731229 20.10489146845984 14.757620679517679 0 0 0
3247 4 -2.448957409183018 20.793870977783584 13.758003951033647 0 0 0
3254 4 0.5205866664128322 18.266563930612474 14.409221811737943 0 0 0
214 1 -1.4543175763731924 17.074195562838497 15.23093260511044 0 0 0
3190 4 1.3149511351104888 18.76850003398182 11.037543950239062 0 0 0
403 2 1.294223309940433 20.226556063703665 12.95955428566338 0 0 0
392 1 3.27158840096771 17.248989656749206 10.669624729581159 0 0 0
395 1 4.65493742262381 16.784813685789594 13.365969689699465 0 0 0
3196 4 3.015416121124961 20.907259963381577 11.279530787302512 0 0 0
478 2 5.316043399039929 18.386353591109685 11.239469651910362 0 0 0
483 2 2.5935121918304915 18.024785542487535 13.08480551055051 0 0 0
484 1 4.1499055500326385 19.75482736407468 12.825369272130992 0 0 0
3344 4 5.947487929595534 20.488395139945755 13.88974108343033 0 0 0
3336 4 6.021448368230612 16.33203116223488 15.053734238708799 0 0 0
3404 4 4.381835751122146 18.844830808320076 14.795356287386934 0 0 0
404 1 2.2475129816395434 19.518854143930568 15.188786057822835 0 0 0
3322 4 3.278649473799124 16.64829721754435 15.138281188285042 0 0 0
570 2 5.489920108266599 21.372607795685003 11.155321708523907 0 0 0
555 2 6.65820799984731 18.373992993500053 13.725619965492413 0 0 0
3343 4 3.0169858828646525 21.68282624044823 13.939877323168602 0 0 0
3204 4 7.16936134312779 19.687173670121158 11.784038472257045 0 0 0
479 1 8.11335705191998 16.34743990354916 14.247151570648946 0 0 0
476 1 7.890914805898394 17.578756556975126 11.238954345852942 0 0 0
552 1 11.155913515275609 16.477891929403803 10.759006709016141 0 0 0
3409 4 10.04024189645951 17.94461116076953 11.961627423330125 0 0 0
1589 1 10.77525885577502 17.389344043339662 14.086096150088089 0 0 0
1683 1 9.09815180801155 19.263376279757313 13.574253450337117 0 0 0
4332 4 9.244214384257992 21.067454593986067 11.412820467315928 0 0 0
657 1 11.254949568756508 19.775378932915352 11.329470881444315 0 0 0
1684 3 7.354350223673958 19.34252961107036 15.276634578110091 0 0 0
4319 4 8.313740280707679 21.394163820329897 14.154844419000309 0 0 0
1682 2 10.375902715915231 19.314632695946198 15.554241952136987 0 0 0
3277 4 8.94141477643475 17.871942741760353 15.66468302855386 0 0 0
4365 4 11.406112387946889 19.536128946641135 13.579303076423773 0 0 0
1493 3 12.089732858745826 18.36332860573466 15.250956851156676 0 0 0
1768 2 10.667019533813628 21.645049879778107 12.97893569985986 0 0 0
548 2 12.844705740183345 16.152066912301905 13.15357682254497 0 0 0
752 1 13.524068723914258 18.46635123914524 13.369001612005807 0 0 0
3545 4 15.579558694838878 18.043378228235998 12.316236644031989 0 0 0
648 1 13.701207636414901 17.441951303136836 11.01028419946217 0 0 0
652 2 15.501695438201681 19.98305642229211 14.020866966747576 0 0 0
653 1 14.993596982937804 16.46317376808517 14.660966461374848 0 0 0
737 1 15.88918464518126 20.02041162629422 11.25501934903069 0 0 0
4320 4 13.531022444021426 19.58144613759653 11.339825429606059 0 0 0
1770 3 13.51415372049256 20.278335809198794 13.956552476162166 0 0 0
834 3 16.09412550405638 21.22411212819173 15.559687585390915 0 0 0
3278 4 16.90587436078588 17.896687466164746 14.563011488089842 0 0 0
730 1 16.853305541315173 16.99998992658528 10.735927183081046 0 0 0
3350 4 14.657759503644812 18.51470511175545 15.444877070891902 0 0 0
4378 4 14.741838596549508 21.525793878322386 12.455850503535551 0 0 0
4342 4 11.840690189586391 20.968952957919207 15.163479880561141 0 0 0
734 2 17.971049482521288 19.738535338873252 13.079553438830963 0 0 0
808 1 20.36838859299937 16.75433663208012 10.65863368470778 0 0 0
812 2 20.627465591738815 18.341350221872464 12.704273960695662 0 0 0
813 1 21.277144489283913 16.870338995261683 14.548971663659685 0 0 0
814 1 19.016141066806366 19.70208770723475 10.890836374021667 0 0 0
3215 4 18.60132553772599 17.66934603509846 11.914774147913029 0 0 0
3289 4 20.298276748553327 20.665462497840284 13.096204559418027 0 0 0
920 1 21.735264570213296 19.555103224977792 14.663794235343332 0 0 0
3159 4 21.18086842667977 18.871108315728353 10.550173297016322 0 0 0
3284 4 19.674926832687067 18.69942028831082 14.860936273033733 0 0 0
3285 4 18.21233531159917 21.13034088905388 15.059216125246639 0 0 0
993 2 -11.143846899077328 19.381733778618162 12.71354806296824 0 0 0
899 2 25.022902613513686 16.610543907185853 12.660958983024116 0 0 0
905 1 22.731855039209265 17.15597013020972 11.628790733182047 0 0 0
909 2 23.275714742723757 19.426359483079562 12.508005124467758 0 0 0
3228 4 24.870066226941994 21.180722353537764 11.840886848090928 -1 0 0
997 1 24.640934782531087 20.26957309557366 14.521840776382938 0 0 0
910 1 23.8432470618313 17.39961417578755 14.775434920280254 0 0 0
3225 4 22.607447164895802 21.447946611909398 13.669338000125073 0 0 0
992 1 27.07327184840497 17.42419395143408 11.409830358907747 0 0 0
1012 2 -15.39602169846596 26.820913699008702 12.97201726901288 1 0 0
56 1 -11.281303892875936 22.80567450028325 10.739631403987023 0 0 0
63 1 -13.027762995392132 24.935036996251515 10.876882715070018 0 0 0
3236 4 -10.80479485331234 25.406009056529015 11.500059550267775 0 0 0
3299 4 -12.203846063938869 23.580718221668064 12.686538485501217 0 0 0
3305 4 -9.895573916752726 23.69890196904301 14.170330466766806 0 0 0
68 2 -12.518768857159788 26.384950649649156 12.917020299489181 0 0 0
154 2 -9.509534430871682 26.599150508174144 13.23922249849629 0 0 0
69 1 -11.978471685981074 24.737697312551603 14.662727273868953 0 0 0
155 1 -9.236811296708407 25.37026129690205 15.567987024984529 0 0 0
50 2 -8.44455975742217 21.68955581538333 13.431625521020301 0 0 0
143 2 -5.912691581704079 22.044677103131875 13.146454963077925 0 0 0
230 1 -6.295132209256932 24.9838749754954 10.854711835880991 0 0 0
3175 4 -6.960276404562726 21.965278205695697 10.915511998739994 0 0 0
3176 4 -7.856537459261291 25.169597696065452 13.85289213419707 0 0 0
3248 4 -3.8071246518382598 24.113728466731107 14.431480664915231 0 0 0
234 1 -5.965201731499775 24.5119477153519 14.625354199076536 0 0 0
233 2 -6.184015192109831 26.5174896055673 12.882806705568129 0 0 0
3242 4 -4.458429049749277 21.626535906418408 15.182421636555883 0 0 0
3243 4 -6.997167502894496 22.39605872484948 15.370101594136493 0 0 0
305 2 -0.8546670553293971 22.02169868015526 12.58357843046624 0 0 0
318 1 -3.3646268845230605 25.231712538770477 10.875358891922936 0 0 0
415 2 1.3240524931779127 24.49837290749382 12.710010888345114 0 0 0
423 1 -0.12427919075671134 25.181839999993194 14.852717189769848 0 0 0
322 2 -3.1327344739508316 26.794077261089033 12.828933927498191 0 0 0
416 1 0.9305450147945393 22.541844862672306 14.173949734648684 0 0 0
410 1 1.2355804888663844 22.45611047134177 10.937514783862518 0 0 0
313 1 -2.208928581746548 22.667898131423428 14.981630572796991 0 0 0
3197 4 2.2928797514381536 24.673042653320472 10.533139738351704 0 0 0
490 1 3.428321587219843 23.16587290014693 11.932355695495115 0 0 0
3198 4 1.8696615317622172 26.562902369637897 14.12894257115201 0 0 0
3205 4 5.606466696831182 23.74327922926891 11.564726563857135 0 0 0
3206 4 5.912289360412313 26.499206767095007 10.634048150789813 0 0 0
673 2 4.2328196325254694 25.619673008881676 11.787851731163297 0 0 0
579 3 5.788253717449969 25.375625202157057 13.070008236009237 0 0 0
571 1 5.179293438477956 22.430688872682012 13.327692747209795 0 0 0
495 1 2.9263730618347488 24.741216521727356 14.72670461458032 0 0 0
3345 4 4.467350719779308 26.523513409511192 14.013465070529477 0 0 0
3269 4 4.672107162133523 23.494236860636654 15.077891195984456 0 0 0
1692 1 6.2660558092882415 25.061991634719234 15.087218845490366 0 0 0
491 3 2.5451991906528324 23.10554294425259 15.585055704105194 0 0 0
4381 4 7.03286677950566 23.528224603776266 13.548430457505049 0 0 0
666 3 6.897207559062959 21.810074787192153 12.428647583640569 0 0 0
674 1 7.204357419380962 25.320231320029546 11.959509756874123 0 0 0
3211 4 8.99016086163301 23.946946363138437 11.900747844480911 0 0 0
566 1 7.545603168002581 22.784571929579112 10.744134767730745 0 0 0
669 1 9.290913431736808 26.050524703991787 10.671889474111751 0 0 0
3272 4 11.077277904036611 24.863109469590107 10.873430841148185 0 0 0
748 2 10.115086579024211 26.10998718715293 12.961068836090437 0 0 0
3351 4 7.753183777367964 26.118681362320356 14.015158412026267 0 0 0
4391 4 10.213704918026396 24.020569395498697 13.797413764710274 0 0 0
755 3 11.386975956256592 26.796834102985915 11.591880583480012 0 0 0
1686 1 11.738454787186317 25.4451167284571 15.105252257756355 0 0 0
1763 1 11.907085770334465 23.65173517434296 12.378107564335743 0 0 0
4345 4 8.335318912960235 24.202708904656987 15.491249643389914 0 0 0
1767 3 12.631167167528414 21.615164219257693 13.340255185626013 0 0 0
1762 2 12.099989088394516 23.173874107218158 14.662675122290182 0 0 0
744 1 14.212559974753146 23.156091112403175 10.872083809974445 0 0 0
3223 4 16.298159552868746 22.184964431097768 10.72015759371611 0 0 0
3421 4 15.984804963149141 24.4805243593588 11.77492713228568 0 0 0
4376 4 12.439866659544677 21.88734561262577 11.243695986674787 0 0 0
1871 1 14.285260114744112 23.81559901044143 13.490264722974764 0 0 0
4348 4 13.402274004704527 25.09795171280337 11.736175617179029 0 0 0
825 3 12.923017999781903 24.809264356868955 13.823271760047525 0 0 0
3746 4 15.277404786176609 26.105821374028626 14.615835332356166 0 0 0
3807 4 14.34544478705056 22.11413881205035 14.771368187047283 0 0 0
833 1 16.664574632802406 24.791867739910654 13.982628183992134 0 0 0
831 1 16.716310399219736 21.989569724021393 13.464052171838159 0 0 0
938 3 16.972718203301113 25.877360941297226 15.789555320957735 0 0 0
1009 1 21.562958738588456 25.001061293867853 11.119478218246499 0 0 0
3226 4 20.727447899298518 24.613689166415316 13.763466222605707 0 0 0
3290 4 18.547804734830105 23.454269255592337 13.71419590523902 0 0 0
936 2 18.19499985863434 26.018855709150635 12.284438871463689 0 0 0
937 1 18.934116655632614 25.316523403009263 15.06272721246566 0 0 0
928 1 20.471201756071345 22.42997872324734 14.794195997751242 0 0 0
1003 1 22.883648982450083 21.953329770671015 11.145839059388841 0 0 0
1006 2 22.926195793159657 23.920348999714925 13.00871074073605 0 0 0
1013 1 22.31377801609925 25.208507198419298 15.254642949375704 0 0 0
1007 1 23.69778914982716 22.58843630955958 15.124886190478591 0 0 0
1021 2 -16.871949212342255 31.217878233715375 13.362738385133497 0 0 0
3238 4 -14.673187323205877 30.981948827036504 12.151908178825394 0 0 0
3300 4 -15.390510156958094 29.291713714558238 14.184003360650621 0 0 0
3379 4 -15.543660842671162 31.568935030876816 15.43235809678319 0 0 0
159 1 -11.054504417347772 27.750140026814048 11.344973783184603 0 0 0
161 2 -11.142515049592502 30.134695867584092 13.146326217894572 0 0 0
162 1 -11.057473975464813 28.031169757984557 14.538470521613469 0 0 0
165 1 -12.747523857114881 30.47688913246213 10.857598444800225 0 0 0
168 1 -13.49478744386366 30.480370390372272 14.121241377304486 0 0 0
244 1 -9.741653151232917 30.75024098840686 11.06506089675148 0 0 0
3237 4 -12.986418866509645 28.823479411299125 12.353351455124077 0 0 0
3313 4 -11.790417666911289 31.794868244050647 14.924032094984867 0 -1 0
249 1 -9.619525322360923 30.481006364229213 15.375408164315203 0 0 0
241 2 -8.659264297163562 29.229738253875873 13.26962470430281 0 0 0
248 2 -8.283924117968077 31.655456607846812 13.288958974599911 0 0 0
238 1 -8.025122267003805 27.6962782334784 11.440624187734471 0 0 0
3184 4 -6.280149484362557 28.76380433573963 12.468814249590054 0 0 0
3185 4 -7.705742893249923 30.018084526110087 11.0440188502775 0 0 0
3191 4 -4.9277033609191445 27.167323748266835 10.802246370210888 0 0 0
242 1 -7.724518869834144 27.571694337207 14.854302877229753 0 0 0
3249 4 -7.381364920096701 29.966798141470573 15.376401387223964 0 0 0
422 2 -0.23007159639217356 27.167166343073784 13.163475037878804 0 0 0
3192 4 -2.0007716519850476 31.916810645765857 10.557027736107148 0 0 0
427 1 -1.4971159539204422 27.744592910006663 10.976422350633012 0 0 0
429 2 -1.6933842304321391 29.5335357295682 12.875984538840932 0 0 0
506 1 -0.23435865364119124 30.449341429931145 10.950742037663197 0 0 0
3259 4 -2.3001541150412343 31.853288925714295 13.222477727163138 0 0 0
502 2 1.0518190560456055 29.948254494365106 13.302324583119763 0 0 0
430 1 -2.0130491307254257 27.814734908254504 14.941390492732417 0 0 0
509 1 -0.8225765653621693 30.89155228896451 14.907917095457833 0 0 0
503 1 0.8458928839304392 28.322243623207292 15.26302243512852 0 0 0
510 3 -2.5578564392144756 31.948206232852048 15.360149692830106 0 0 0
680 2 6.126760765330534 27.356643410273012 12.788045846470602 0 0 0
590 1 2.7719875882833094 30.543958095431233 11.411831080333393 0 0 0
690 1 4.691997054181588 31.01424152382676 13.43638098575222 0 0 0
3207 4 4.749280626354658 29.259612170730914 11.760975575504105 0 0 0
3270 4 3.178846729693383 29.32624849183177 14.26770953141429 0 0 0
3422 4 5.496622303723818 29.256763966276527 14.55187731687737 0 0 0
595 1 2.282778593480071 31.31287815550872 15.035851191383994 0 0 0
3435 4 6.203209946728613 31.935128729837782 14.993023842822286 0 0 0
691 3 4.102040942854195 31.95245473190981 15.501451704262227 0 0 0
1780 1 6.5562100321232215 27.600527655591847 15.556282261583544 0 0 0
3218 4 28.149119747683187 0.028120758096947068 13.480601526968158 0 1 0
4377 4 10.631964902571243 27.244211457433604 15.01030301068744 0 0 0
689 2 7.015084207704142 31.896722544292366 12.50439811926957 0 0 0
4331 4 7.344134774538176 29.51153013482161 12.40357860309129 0 0 0
665 1 8.631735743240792 28.21424787186703 13.971621695191537 0 0 0
3428 4 9.457560434365913 27.982624120035148 11.883802179787732 0 0 0
1769 1 11.11348407087852 28.538687871281944 13.327711365356826 0 0 0
677 1 7.469477722741271 28.05242478434431 10.688466767352871 0 0 0
839 1 9.221428919188256 30.290042994330726 11.31308402854264 0 0 0
664 2 11.377469027767347 28.706240069016637 10.844928675003516 0 0 0
749 3 9.407324017420635 29.904298718172992 13.25777266095221 0 0 0
3217 4 11.27174208619413 30.871572936361478 12.426204355105789 0 0 0
763 1 7.941840611629484 30.59323320716556 14.654320045196226 0 0 0
1864 1 11.413969180841974 31.645637791880965 14.578010486632536 0 0 0
3552 4 9.999606240709948 29.722129807575943 15.155175701084744 0 0 0
832 2 15.234892041359796 26.708036187660426 12.450904466400363 0 0 0
3546 4 12.623122090887742 26.847068577099762 13.420560996294828 0 0 0
3216 4 13.55065226433132 27.546499089823662 10.53405064201828 0 0 0
759 1 13.468501242958816 29.130391182072472 12.155190966978854 0 0 0
840 2 13.676448603312192 31.55393846914708 12.64031340567114 0 0 0
3291 4 16.320025869024747 32.131508797209214 14.049644784535953 0 0 0
940 1 16.696485306858087 27.907654776050613 10.790333609499704 0 0 0
944 2 15.855541800415669 29.82744976815885 12.724136826281857 0 0 0
3273 4 12.789339368049529 29.93679348632992 14.221839616224393 0 0 0
753 2 14.599816851698108 28.297456897557783 14.415598964786867 0 0 0
3368 4 16.429295967233507 29.751118858985574 14.857179907804944 0 0 0
847 1 14.644734740720796 31.01050872569851 14.945706253627463 0 0 0
945 1 16.988850524188862 27.58774368839236 14.306403319103183 0 0 0
1017 1 19.91081741621441 27.71475132243696 11.242407075083023 0 0 0
1023 1 18.257456474045018 30.434373146151582 11.974382937219236 0 0 0
1027 1 18.279411255611674 30.81384221519809 15.126231107334632 0 0 0
3296 4 0.5566199164485197 4.093001750709623 15.752500626271399 0 0 0
8 3 0.6936766688686473 2.1010945892198096 16.602656547082667 0 0 0
13 1 -1.2049954570934456 2.9696735648459014 16.700763158641834 0 0 0
15 3 -1.028482090273427 4.945005659349309 16.822689826443096 0 0 0
1034 3 0.6225004363950388 3.86047114872493 18.10500705378294 0 0 0
3505 4 -0.3712215786636335 2.157504108998851 18.575457540600777 0 0 0
1033 1 -0.6544922751837339 4.134296006614909 19.598557295182793 0 0 0
6 1 0.14202277343829772 0.21213752308759676 17.840306668426035 0 0 0
1029 3 1.415506152225639 0.8936676699181938 19.117860336175166 0 0 0
3506 4 1.3933940494312411 2.8355696116599884 20.105852835279947 0 0 0
1117 1 2.1393151686284178 4.881517851143349 19.61771992473666 0 0 0
95 1 1.9248616409364712 2.3574120408993684 18.023347478993593 0 0 0
3301 4 2.608550923995749 4.359540794114984 17.417820602144957 0 0 0
89 3 3.1902165173189316 1.3734738599769858 16.68993364815543 0 0 0
176 3 6.230853864945983 1.4520263381442093 16.6920173769528 0 0 0
182 1 4.654710306404166 2.777354391796767 17.454277233551192 0 0 0
183 3 4.334426823915025 4.572466054398849 16.26282341269459 0 0 0
1110 3 5.130062938506049 0.9375138683106263 18.494589698496704 0 0 0
1118 3 3.386867250145312 3.284650981019279 19.067797929497445 0 0 0
3449 4 4.915367997254858 4.682723267777868 18.77591211622623 0 0 0
3509 4 3.413332382774784 1.2150854718987263 19.45053039030395 0 0 0
1201 3 6.663284956173136 3.631960284607129 18.29884430885825 0 0 0
1194 1 5.280295825387992 2.447246693708265 20.074949500714784 0 0 0
265 1 6.0368973295635 5.3742178266654514 16.989364320326903 0 0 0
1286 1 9.281786788042403 2.1917677616279936 19.79074318871038 0 0 0
1287 3 10.599090661218487 0.8516327960826495 18.124262644172102 0 0 0
3314 4 7.092461747887687 1.6132447561889978 18.95950775705542 0 0 0
3391 4 8.875183831496113 4.521409582727037 19.12903530209426 0 0 0
1292 1 6.955291654972823 4.673288958760674 20.158964821579296 0 0 0
3321 4 11.955976004587548 4.863875970507176 16.822669320026694 0 0 0
3320 4 11.997931696297695 2.126051012770855 17.01810687410228 0 0 0
440 1 15.82389304838326 0.3714655973610844 17.286139393702356 0 0 0
443 3 15.858387967838679 1.9550380397813654 15.833743684663823 0 0 0
450 1 14.176596825012377 2.316081482632696 16.826880574311417 0 0 0
452 3 13.668786762221956 3.9632076517869184 16.245518731923127 0 0 0
522 3 16.442922474453198 4.950361821685992 16.141176435519004 0 0 0
1363 1 12.180509359979832 1.7347012792588703 19.18962455228425 0 0 0
1364 3 13.778827143289629 0.9321753109548213 18.106549296111897 0 0 0
1461 3 15.616144867934796 3.6427154678685403 18.521389421690895 0 0 0
3395 4 13.585818137438194 3.5320492031925714 18.556735814719843 0 0 0
1454 1 15.508683013417743 1.9306625165909521 19.62710948300541 0 0 0
1544 1 16.700463227998593 4.962680394751576 20.0098080358417 0 0 0
528 1 15.070469593555252 5.311068811279973 17.435060170165254 0 0 0
521 1 16.95851223453186 2.9896907712399763 17.310586467034206 0 0 0
3271 4 21.527733549606733 1.4843343785219092 15.65165097536008 0 0 0
1455 3 17.11289293815415 1.134740747977688 18.581649293697104 0 0 0
609 3 19.83536136609525 4.801918330540189 16.06943065628783 0 0 0
3339 4 21.004414036609024 3.3980343713511387 17.209004882531712 0 0 0
3413 4 17.94892466045353 3.262707077383027 19.270297913664816 0 0 0
1624 3 21.687205530421306 1.278304416222454 17.729574069340572 0 0 0
1639 3 19.573479905331485 5.053621196406723 18.5118696193916 0 0 0
3338 4 17.849286194243685 0.46882380410830604 16.58336074636184 0 0 0
3472 4 17.43156182854741 0.7843362129155866 20.640625382563847 0 0 0
1630 3 22.07500263942738 3.8942827811607668 18.93165406489408 0 0 0
697 3 24.654810485193863 1.655397654924065 15.816101983190222 0 0 0
704 1 23.242025227467494 2.6756669232238455 17.455308208537385 0 0 0
707 3 23.329962977447465 4.61137706655257 16.51522403863469 0 0 0
776 3 26.96600707221025 3.913187666295071 16.43757282883358 0 0 0
1721 3 24.518072696680125 3.389526240807984 19.027336584736418 0 0 0
3354 4 25.48188625456331 2.834048757136307 17.313115005768804 0 0 0
3423 4 22.76023659399294 2.0400619068004167 19.616270852768764 0 0 0
3424 4 26.033048997447946 4.796690563734987 19.739303506661393 0 0 0
3353 4 23.640048695547083 0.4788786576162511 17.239010517820493 0 1 0
1702 2 25.98310510186006 0.6195682597698202 18.531120988337115 0 1 0
3352 4 26.75127774454946 0.7446553494339867 16.394680451552734 0 1 0
781 1 25.080982307320333 5.1550593621853436 17.704574743953987 0 0 0
1720 1 23.520133605443306 4.412189286389825 20.27623676934503 0 0 0
3484 4 25.153960752618698 1.9565924140293414 20.480860867299597 0 0 0
772 3 27.524356118615444 2.6139597161311094 16.26108803557447 0 0 0
857 1 31.485111666338305 0.8568207944623176 16.7923555739363 0 0 0
858 3 30.798165111287577 2.6526113032273613 16.1708682843212 0 0 0
864 1 29.606446512506608 3.2094931263688258 17.49849995454936 0 0 0
1792 3 30.14846145682345 1.5919303361573942 18.28683605932935 0 0 0
1880 1 31.415803634703312 2.445479670646399 19.546648322362934 0 0 0
1886 3 31.2883885350013 4.287527092364261 18.78957306656571 0 0 0
3359 4 29.31874493495219 1.0231686667639055 16.503818119480428 0 0 0
3364 4 30.880858493652116 4.833870922007829 16.705780371498008 0 0 0
3430 4 27.7616052867061 2.45178819031085 18.47078017660512 0 0 0
3431 4 29.022679061064395 4.809656244696279 19.023613411903536 0 0 0
845 1 28.69458011024238 0.4270823340368672 18.58443170395659 0 1 0
3491 4 29.802715775751746 1.1768584623649105 20.38577908916524 0 0 0
3429 4 31.60868265147088 0.19770856155262978 18.88550117258595 0 1 0
3295 4 36.78476642933986 0.6714804564809211 15.744129487174675 0 0 0
961 1 32.74267087007727 3.644361343708632 17.21243011183358 0 0 0
1881 3 32.9783142094401 1.5874084809988842 18.065038022214758 0 0 0
1957 1 34.80850875254297 1.8939564229100903 19.113290846260664 0 0 0
1958 3 35.52135200631096 1.116378957107914 17.380773337094283 0 0 0
1965 3 34.797764137708015 3.732415406006213 18.26929427616686 0 0 0
3369 4 33.930784566571816 1.922416338725737 16.245966279641827 0 0 0
3370 4 34.411719758499814 4.558368175421082 16.03391446383513 0 0 0
1964 1 33.428480881637604 4.238327458492355 20.065878840239215 0 0 0
1046 1 -5.290663753609556 10.364091029436098 19.812082783809828 0 0 0
3501 4 -3.8444827520048666 8.713649468075717 20.53753465279014 0 0 0
19 1 -2.5430463740575155 5.726499817341723 17.925069254040224 0 0 0
3441 4 -2.0527486318525274 7.821151791784033 18.92563737564084 0 0 0
101 1 0.7226824136419947 5.639883698429607 17.37976461083772 0 0 0
22 3 -2.557093561829536 6.714360400942019 16.23834314562967 0 0 0
103 3 0.34464660019030813 6.854921528199215 15.925026638817553 0 0 0
109 1 -1.1410998142628017 8.052998680706319 16.976141968544894 0 0 0
1041 3 -0.7175815985893741 6.2821527189570405 18.487062773134483 0 0 0
1136 3 -0.4095983167881858 9.29568623447547 18.46730816410117 0 0 0
3306 4 0.28159367592420104 10.110345727542855 16.500796089186636 0 0 0
1125 1 0.18537940035706058 7.441790244850711 19.768524624116854 0 0 0
3386 4 0.9307755610650172 7.9149594376796575 17.64293647864111 0 0 0
1135 1 -2.0239531626896237 9.972009876377452 19.658505048789788 0 0 0
3500 4 -2.016600020250231 5.746944059662429 20.238286262490913 0 0 0
1126 3 2.1039683391993393 6.407313428440828 18.461056564263583 0 0 0
196 3 2.1507078270686346 9.105195644052387 16.101936607065422 0 0 0
274 1 5.2652198042605995 8.043974835112122 16.701368278235034 0 0 0
1206 3 4.6151037914464546 6.526993076221355 17.70450073197432 0 0 0
1303 3 6.503938441020487 8.91257481896488 18.06563325851776 0 0 0
3311 4 2.7784170894924736 6.887989708209944 16.49266872183827 0 0 0
3385 4 4.394826421072511 8.908364443848061 18.450720337925173 0 0 0
281 1 3.652866601504673 10.464295037982449 16.99091719294869 0 0 0
1299 1 5.9185289802212875 7.08424575070377 19.090366778128228 0 0 0
3450 4 3.735571207378999 6.650368293522452 19.704956851980214 0 0 0
3455 4 6.220468022282798 8.742391351877647 20.484137934322003 0 0 0
268 3 6.723205958366134 6.9678038389873596 15.8345682529762 0 0 0
378 1 6.803077812035214 10.650934912651653 16.728123694838626 0 0 0
3315 4 8.282935907747163 5.434964908857817 16.690371433373638 0 0 0
363 3 9.709760997129038 7.141187889457644 15.894691959145675 0 0 0
369 1 8.041563857424894 7.756287930686726 17.13281258553515 0 0 0
464 1 10.777590716381813 8.41388547574217 17.12186984403665 0 0 0
465 3 10.552912425123338 9.963573824929652 15.906323502373574 0 0 0
1300 3 7.4286616314363645 6.0782541539282935 18.49949979706556 0 0 0
1389 3 9.428743354591106 8.370497040059409 18.627776893796717 0 0 0
1472 1 10.564878271622302 9.982369077080406 19.359192623656803 0 0 0
3396 4 10.174991255577106 6.459040313861864 17.891140266744777 0 0 0
1388 1 7.8414298422514435 9.730620093231579 19.343116899856927 0 0 0
3328 4 8.949235778759867 9.791796970799878 17.32694239571933 0 0 0
1378 1 9.072701399644654 6.926668073411874 19.82074764501702 0 0 0
3463 4 11.161942364725016 6.047635655388682 20.30858413476762 0 0 0
458 3 12.30732035605892 7.038013201821415 16.911140760395735 0 0 0
536 3 13.722027130655944 9.489485968178371 15.951917993105262 0 0 0
3327 4 12.78166447217828 8.96932583401748 17.837037430534203 0 0 0
3333 4 14.504125366750682 7.51676272473138 16.871521108440874 0 0 0
3401 4 14.807374831108095 6.08769572125555 19.603785393535563 0 0 0
3407 4 15.41737382333159 9.245551592670893 19.4794176907924 0 0 0
633 1 15.218962185608966 9.639148925243665 17.202843418184408 0 0 0
1554 3 16.77691518638125 6.72044028722904 18.606163034396875 0 0 0
1563 1 13.257009850485098 9.794205758583379 19.927336672061696 0 0 0
1571 3 13.99596975507997 10.7248139265392 18.148351008193554 0 0 0
711 1 21.580162784052963 5.487878769527742 17.6266208490531 0 0 0
613 1 18.1053923972076 5.710668033360554 17.134607157686283 0 0 0
616 3 18.492670779395397 7.404236951996658 15.802561767010456 0 0 0
625 3 18.37939539266287 9.638272660692369 16.014123345253413 0 0 0
714 3 21.737609682467205 7.1645194467403055 16.149350099651446 0 0 0
1638 1 19.088613620093007 6.879677113214395 19.549645230868617 0 0 0
3340 4 17.09399650055694 8.199056060416533 17.12716441654173 0 0 0
3348 4 19.931218157485972 6.979748512735328 17.350419197352807 0 0 0
3414 4 18.066052171529083 8.919985497607083 19.278319681772476 0 0 0
3418 4 21.25545949174379 5.704287592767603 19.835413338030015 0 0 0
3419 4 20.045171787341303 9.75949775044949 17.446830711025747 0 0 0
1734 1 19.976422841048223 9.999520724713427 19.89546163478872 0 0 0
3482 4 21.474110715049832 8.366590683683622 20.683498412192446 0 0 0
3280 4 26.01347150964833 5.644562325084424 15.786113870244783 0 0 0
782 3 24.865159811306285 7.3976231318375225 16.443711756614313 0 0 0
879 1 26.667233291492153 7.897389974251793 16.975469101738145 0 0 0
881 3 26.33383979101808 9.860410641641362 15.930823573422689 0 0 0
1729 3 23.40653536570621 6.110637258373323 19.33983373114093 0 0 0
3355 4 23.33860144220165 6.6022039644039 17.377273718045863 0 0 0
3425 4 25.35762097294441 7.20038831446585 18.72516392407258 0 0 0
3426 4 23.907696368845556 9.180517660644329 17.01840859632546 0 0 0
3432 4 26.059227379469732 9.75486765638619 18.110289120981196 0 0 0
1806 3 27.093904165489455 6.122423810929829 18.110173084443257 0 0 0
873 1 28.271072051826845 5.522122898374382 16.77409495047398 0 0 0
977 3 29.518512202082025 10.021006912598105 15.940209494816408 0 0 0
1892 1 28.821084675321696 7.203220745625429 19.081718339710687 0 0 0
1898 3 27.832137841701588 8.912238055346817 18.572825956364216 0 0 0
3365 4 28.82614132705418 8.218068196351672 16.851569180955835 0 0 0
3436 4 31.077097941149866 6.450065996889868 19.016957204406435 0 0 0
3442 4 29.89803366560517 9.665050379205402 18.373284326553886 0 0 0
981 1 27.934650341781314 10.611653468281158 17.26252728497668 0 0 0
1981 1 28.713256002279294 10.262603645001427 20.216099286105596 0 0 0
3371 4 32.751749917306604 6.494212634869529 16.80831763364844 0 0 0
118 3 -3.9400720814967296 12.937001387776178 15.610139222253974 0 0 0
33 1 -6.238615860285519 11.152382082158876 17.1141285246125 0 0 0
34 3 -6.535129254251639 12.793072751488355 16.159187999154835 0 0 0
124 1 -4.7687159817955465 13.626549602275903 17.320494798196556 0 0 0
126 3 -4.486463735655413 15.524388931108575 16.638229717155205 0 0 0
1053 3 -4.9749908874806765 12.079002134006963 18.69714300818595 0 0 0
1063 3 -6.680862762328993 14.294911322722228 18.31876911410068 0 0 0
1062 1 -7.353394324863212 15.35391126030365 20.33393304544882 0 0 0
1052 1 -6.51754217443464 12.848530575396355 19.786418721056222 0 0 0
3507 4 -4.888392119822065 14.925568737891917 19.066978289722226 0 0 0
3246 4 0.4986110820775185 15.946000412266226 16.262420678497982 0 0 0
202 3 -0.02061163930056864 12.265394730485731 16.243572145460327 0 0 0
207 1 -1.447365526559249 13.497658862864615 17.433347459740045 0 0 0
209 3 -1.5257020398730194 15.194858146791134 16.313911495438298 0 0 0
292 1 1.4844590304291891 12.684340619466695 17.40022659189904 0 0 0
1144 3 -2.9370713059095426 14.326727568140416 18.550707450458827 0 0 0
1230 3 0.015583835993138173 13.467855313368268 18.577123203090306 0 0 0
3307 4 -3.1511107011258326 12.062664734559666 17.504487422251998 0 0 0
3380 4 -0.737076504138571 11.526224533545493 18.377468175021384 0 0 0
1139 1 -3.1551090829874937 12.667458247990327 19.685520620726045 0 0 0
3316 4 -1.0608377379050982 15.423562993900209 18.412734663080094 0 0 0
1314 1 1.0214465848945515 14.78103087192651 19.44921404381534 0 0 0
3451 4 -0.9407965704310248 13.502614305350214 20.440253383587592 0 0 0
284 3 3.0141412154635088 12.18777943264561 15.945489243294244 0 0 0
385 1 4.648582697055563 13.214974310076519 16.925806795465725 0 0 0
388 3 4.483640682402692 14.974258961390062 15.909691924872071 0 0 0
394 1 2.5964140549003396 15.633745766040162 17.115545229280134 0 0 0
1308 3 5.4022323783812025 11.53102227070245 17.843252309952895 0 0 0
1315 3 2.772086786908412 14.110701159477914 18.166516937161308 0 0 0
1410 3 5.689118799602692 14.151062543580657 18.531843684214994 0 0 0
3387 4 3.511467360372415 12.196951029228188 18.52983748285722 0 0 0
477 1 5.75363192001487 15.736316363555042 17.266655105294422 0 0 0
3456 4 5.392160873371053 10.953604942139407 19.805002198079812 0 0 0
1409 1 3.9628437446075857 14.797213698389267 19.60385785843145 0 0 0
3460 4 5.64457961082729 13.704999592941128 20.685058912310698 0 0 0
1400 1 6.888059446333742 12.410466500916401 19.168665743072896 0 0 0
3329 4 6.854008874609964 13.229903274733054 17.025397410492726 0 0 0
3257 4 8.773657801640013 11.595233123426087 15.842369643254159 0 0 0
474 3 7.6187834077410095 14.940382945030258 15.759352305556632 0 0 0
1401 3 8.357687567351018 11.712134190430955 17.893677942537774 0 0 0
1479 3 9.876391910136714 11.708661072805418 17.890473019163466 0 0 0
3334 4 11.431978537956132 13.126124975626892 17.136660792744927 0 0 0
3403 4 9.011933702556409 13.632413354361452 18.48398695933282 0 0 0
3335 4 8.014152068421259 15.804959663804484 17.609355979392266 0 0 0
1486 1 7.359054885624291 14.750920786196891 19.661831802169672 0 0 0
3402 4 8.872639810280237 11.606574456696615 19.990492471924764 0 0 0
1582 1 10.117890560340044 15.99752948276738 18.84244414020788 0 0 0
1581 2 9.958609773304444 14.255403735052113 20.564515698013334 0 0 0
3408 4 12.00852147485534 14.752740733134218 19.548733699956692 0 0 0
541 1 12.126992865201423 10.892910987165344 16.96074542630604 0 0 0
544 3 12.947683826128738 12.326957964529528 15.782798667463041 0 0 0
636 3 15.84096675490422 11.675639711900176 16.224122938488463 0 0 0
640 1 14.376486592478518 12.717608163953578 17.214558083579043 0 0 0
643 3 14.399379393864244 14.746944413483195 16.117390513845514 0 0 0
651 1 12.871890210599252 15.238266022402648 17.51629720430512 0 0 0
733 1 15.735316340589593 15.418851985352195 17.55374046045641 0 0 0
1575 3 13.098910837254222 13.504340153169592 18.378426026492036 0 0 0
1660 1 14.376594104091003 14.179645875148957 19.700587839628366 0 0 0
1661 3 15.696486268736091 13.585157669373597 18.435675251331084 0 0 0
3415 4 16.07449609581883 11.500449470843842 18.29789435578786 0 0 0
3474 4 13.81992789335991 12.065695206392007 19.68076052302588 0 0 0
3420 4 16.77320719812164 15.105006688833473 19.51925954994389 0 0 0
3478 4 16.237321205008108 12.874179116264896 20.42998628091512 0 0 0
1671 3 14.422649078204676 16.082759823129454 18.993321443884472 0 0 0
722 1 18.17620417369784 10.818166489060035 17.91040419779953 0 0 0
727 1 17.24868085027169 13.36310067698407 17.056170788987295 0 0 0
724 3 18.889087705926556 12.137739497541899 16.605244002302534 0 0 0
799 3 21.68358824364924 12.33548721932358 16.171124765559913 0 0 0
803 1 20.5701918391525 13.130135026220755 17.621786678972178 0 0 0
1740 3 20.251222530865824 11.56680962592369 18.73214192722998 0 0 0
3357 4 19.17407497381795 14.286496946984787 16.49605013150038 0 0 0
1739 1 18.575912179953125 13.081027205965363 19.950776406149686 0 0 0
3488 4 21.418443367595525 14.693024136162823 19.952418032558494 0 0 0
1822 1 21.819651008038377 12.391315761868206 20.14189744259674 0 0 0
1738 2 17.482545148466112 10.847527733683417 20.617488618967027 0 0 0
3483 4 19.22623559319558 15.428649860027086 20.672099633576227 0 0 0
797 1 22.091588306675945 10.816183682069216 17.517822608032102 0 0 0
889 1 24.948989534098143 11.326694560616898 16.97455348646557 0 0 0
1831 3 22.409433337066513 14.151471426285243 18.30576928833815 0 0 0
898 1 23.323039295573075 13.858954180637646 16.71827356411084 0 0 0
900 3 22.401214935036933 15.614149031135645 15.79484043883128 0 0 0
1902 3 26.460791242235487 11.971471537068393 18.12788382632573 0 0 0
3433 4 23.477086141764087 12.326419290204639 18.474408388047983 0 0 0
3437 4 25.41128429186092 13.814960651772934 18.876930493645364 0 0 0
1908 1 23.671630231826782 15.463706466247706 19.52654001777067 0 0 0
1998 1 26.652707478161492 15.525038595615772 19.94858022837014 0 0 0
3492 4 26.13977839201889 11.31117008300099 20.106425029513467 0 0 0
37 1 29.312114964702506 13.323709395875447 17.243961920130364 -1 0 0
1991 3 29.365563774179137 11.722800445197361 18.563231596058227 0 0 0
3372 4 28.508642410917062 14.937970906213808 18.655415942670608 0 0 0
1990 1 27.736304045906895 12.925643587191987 19.577200847212726 0 0 0
52 3 -11.039278786388126 20.853853131060152 16.17069999967367 0 0 0
1077 3 -8.95255491472383 19.431152314040528 18.647012002205443 0 0 0
3443 4 -9.550382561174604 17.412885384697457 18.320474357251623 0 0 0
3446 4 -9.493458980153667 21.27462552979237 17.75131137682054 0 0 0
49 1 -10.481525411831445 19.371812749568296 17.425666631683733 1 0 0
3502 4 -10.58730875578214 19.84322428261481 19.860445090467255 0 0 0
1070 1 -8.89842037211777 18.21189996531147 20.345269842333163 0 0 0
131 1 -6.243877879028402 16.180309076322963 17.429778492099988 0 0 0
134 3 -6.080552214788867 18.011501742018147 16.164676079134814 0 0 0
142 1 -7.554578535412629 18.82951276108769 17.46205068134839 0 0 0
145 3 -7.929362260664586 20.500868440261343 16.321463097693155 0 0 0
219 1 -4.682923709974732 18.590822500058785 17.481241466520913 0 0 0
221 3 -5.116420779633925 19.935231800884047 16.10007670484646 0 0 0
1150 3 -4.856845803848026 17.001468265660204 18.631212986691096 0 0 0
1157 3 -6.000702154196738 19.865424428348163 18.468896033756902 0 0 0
1246 1 -4.853551140904996 21.1820350318391 19.56384466891037 0 0 0
1156 1 -7.860998107267696 20.90721239197154 19.276586999120248 0 0 0
3453 4 -4.329577899087918 18.880222041491237 19.684704547457212 0 0 0
3388 4 -3.734088507106014 20.640668563851772 17.525019224246062 0 0 0
227 1 -5.952829814598482 21.46618116798345 17.079029399109558 0 0 0
212 1 -3.0566406326627638 16.2441711668066 17.69654897282821 0 0 0
3381 4 -3.177418501304377 16.47638848615282 19.880363857184623 0 0 0
215 3 -3.2974181867475005 17.68712943372388 16.168994995323576 0 0 0
307 3 -2.326682713502281 21.053432831146928 15.996537495288948 0 0 0
405 3 0.43748777040369546 19.227703305574785 16.46956058388313 0 0 0
414 1 -0.8532275625114689 21.055970865263014 17.313758355442342 0 0 0
1239 3 -2.057379645820765 17.765056895051988 18.530580620584878 0 0 0
1325 3 0.7917639545412829 16.400593790012255 18.301300508693654 0 0 0
3317 4 -1.6965977752440953 18.97035208538061 16.63637143900781 0 0 0
3392 4 -0.07000691682243065 18.333515400522455 18.497142251557367 0 0 0
3398 4 -0.17122856240230888 20.57919474848505 19.43750906675246 0 0 0
1331 1 -2.193887098264865 19.556460313861326 19.48000086617752 0 0 0
3405 4 0.853167848632836 21.235394319796487 15.960282233799791 0 0 0
1324 1 -0.9881917959874453 16.892147179060792 20.066239849658654 0 0 0
489 1 1.6268950201321069 19.919227588072943 18.036964760820045 0 0 0
569 1 4.550565765871916 21.034677526007545 15.541062007222244 0 0 0
482 1 4.248779630212864 17.901290805436474 17.02937561782103 0 0 0
485 3 3.1949234811415135 19.51469817976175 16.753148271723163 0 0 0
1415 3 3.7324433190610513 16.644491272132754 18.533683732016907 0 0 0
3323 4 1.991227316548109 17.848276167987628 17.057306394822632 0 0 0
1414 1 1.8695481947376322 17.348839120482857 19.436843365087633 0 0 0
4326 4 4.918403258435777 20.033070482379145 17.42970510221429 0 0 0
3475 4 5.621471069220361 16.242687342937373 19.39444568634006 0 0 0
3397 4 3.420232384219826 18.785771386567976 18.93699622487848 0 0 0
480 3 5.552268313058965 18.324879336286287 18.738408354800242 0 0 0
1503 3 5.321772688127277 19.649722599949595 19.47793048359783 0 0 0
1867 1 6.673458410763658 21.41403267318038 17.876545929071128 0 0 0
561 3 6.40220757900766 20.3942998447964 16.099935608438766 0 0 0
4399 4 2.3329935321636093 21.571088010771273 19.50763899346616 0 0 0
4318 4 6.387301793791307 17.940741915372282 16.741695626187102 0 0 0
1588 2 11.127617696983917 17.145341575622627 16.512019079043164 0 0 0
1760 3 10.434844911451886 18.75953721466282 17.674516739641703 0 0 0
3607 4 8.374378585020828 20.365512465363924 16.7434955568633 0 0 0
1593 2 8.577276845986471 17.921172181782822 18.11134672763017 0 0 0
4367 4 7.169046539110788 19.45899813760097 18.86842043362987 0 0 0
4408 4 10.831695406422485 20.793399700084993 17.382111243461825 0 0 0
2658 1 8.962746085816814 20.44950494482409 18.845761953227278 0 0 0
4335 4 8.293532645190234 16.480051126090167 20.169861700744153 0 0 0
1681 3 8.614290238676361 18.60694080149296 20.138431842959502 0 0 0
1680 2 10.641194289942812 18.53359101615684 19.771536551155076 0 0 0
2753 1 11.11876860668655 20.908881294181445 20.35493431295258 0 0 0
3540 4 12.091088637932971 17.44956699497368 18.522395821599297 0 0 0
3342 4 13.0800938837213 16.461668645465934 15.651787232031907 0 0 0
735 3 15.980077393440562 17.108743511796074 16.39664699021803 0 0 0
741 1 14.311933951637219 17.51164003932159 17.458930152951577 0 0 0
3349 4 16.43324813105466 18.019196492399505 18.305372496627374 0 0 0
1764 3 14.902055958170418 19.43207574276413 17.51819082942842 0 0 0
824 1 16.670536387787386 19.274635954626756 16.338574193672272 0 0 0
1757 1 15.654365939109121 19.955108211871945 19.245554330218873 0 0 0
4322 4 12.738298591383439 19.14895194952968 16.82097334773894 0 0 0
3416 4 14.222732826576767 18.20969415779822 19.50673031336951 0 0 0
1689 1 14.072969272102139 20.51044340305093 16.011274575177318 0 0 0
1749 1 16.027530184158763 17.0535972529984 20.327178877585325 0 0 0
1670 1 13.087748473719223 16.493269212036168 20.518911529571096 0 0 0
2449 1 12.722886234174132 19.776489688529317 18.82258913722019 0 0 0
3490 4 16.33420453299187 21.237494373906802 17.56327844461344 0 0 0
4401 4 14.0153037730967 21.282336885703035 18.10155281928641 0 0 0
4698 4 13.261594661751618 20.829757618491936 20.80736100292295 0 0 0
908 1 21.823853454642656 16.156523230125888 17.729785844828033 0 0 0
1853 3 17.584242000176758 20.09147741700245 18.59781269664674 0 0 0
1758 3 18.057466970539302 16.952550162969263 19.484600336939312 0 0 0
1844 1 18.861244887503574 18.824520439697903 19.449391343480773 0 0 0
919 1 20.73868217293088 18.737259447436518 17.258596613528987 0 0 0
921 3 20.189437224976405 20.45094635094226 15.88293101833209 0 0 0
1923 3 21.918375533683516 19.724521313115833 18.383373602585703 0 0 0
3358 4 17.881923935349974 16.247557286535436 17.474035786189777 0 0 0
3360 4 20.203839183207904 16.711564593366816 16.40652835271768 0 0 0
3361 4 18.64062671418982 19.053533031400576 17.201482887796125 0 0 0
3427 4 20.39901160183191 17.229818310331712 19.05102747347536 0 0 0
3549 4 19.259953916244076 21.197097873034966 19.571938884172845 0 0 0
927 1 18.80870066200115 21.273720928833352 17.189592598319724 0 0 0
1922 1 21.40269913535454 21.237155162334428 19.798739391042353 0 0 0
1005 1 21.846109871736846 21.409135804020515 17.127661387742478 0 0 0
1915 1 21.90485491129366 18.434823604966088 20.15679473184143 0 0 0
3544 4 17.246685491545 19.412432442146603 20.66795140605858 0 0 0
911 3 22.174848178097992 17.849830497705113 16.153676836758862 0 0 0
996 1 23.534788036937556 18.998574747434972 17.27271525555866 0 0 0
998 3 23.070568112892058 20.577153875675883 15.71332936350165 0 0 0
1916 3 23.131716781781016 17.50586262157731 18.822613149716986 0 0 0
2011 3 25.22398303164947 19.729547943631324 18.30821583938173 0 0 0
3373 4 25.36817332114459 18.75149410776565 15.860774737628624 0 0 0
3438 4 23.924120911982786 16.66288864925027 17.038565189089663 0 0 0
3444 4 24.352615180820564 21.261975260885876 17.128730161431506 -1 0 0
3496 4 23.598012860041308 19.866515037656857 19.56754819999139 0 0 0
2004 1 25.18982230888712 18.040186592415164 19.556240416925927 0 0 0
67 1 -13.49229246216225 23.776274976052733 17.581321409359727 1 0 0
3445 4 -13.314863229995836 23.801008967724606 19.80495584384081 0 0 0
70 3 -12.967622659008589 25.368675614340148 16.206562673878764 0 0 0
149 1 -9.202988603472267 22.167768412316036 15.79632444511854 0 0 0
3308 4 -9.060029008079578 24.13513415755897 17.4319016431142 0 0 0
3376 4 -11.472815474383221 23.038495210517038 16.184403422667163 0 0 0
3377 4 -12.739531238368818 26.001206375035167 18.14039662772551 0 0 0
3447 4 -10.589728715019087 24.894589073000606 19.6029322520836 0 0 0
3309 4 -10.945790924125575 26.656790649384366 16.37702290154314 0 0 0
3508 4 -8.565795975438256 23.01040074465839 19.626581270239928 0 0 0
1091 1 -13.414501786480741 26.191605482164714 20.16971355783722 0 0 0
228 3 -5.2203798076634005 23.25999131569831 16.131971387124374 0 0 0
232 1 -6.936474016056253 24.079225918800695 17.03714937441142 0 0 0
235 3 -7.157876379341138 25.556528324310957 15.812769496245973 0 0 0
324 3 -4.779504312936291 25.759670488615537 15.663779347726582 0 0 0
1165 3 -7.713608409158982 22.35402037631255 17.66065216955202 0 0 0
1254 3 -4.448254910973635 22.6041186231236 18.33874790231944 0 0 0
1262 1 -8.449071820877556 25.804415279428977 18.883733792139793 0 0 0
1263 3 -6.617869584595004 25.330129873123852 18.598039068207488 0 0 0
3319 4 -4.818843303146464 24.64209674817001 17.62134586446375 0 0 0
1253 1 -6.4154062585463185 23.525178347809327 19.53613035389436 0 0 0
314 3 -3.8093056131574627 23.319817377428883 16.37275927012201 0 0 0
332 1 -5.866140249876453 26.689791065827453 17.273243339604612 0 0 0
3394 4 -5.104769613892088 26.658831446870497 19.442068724006358 0 0 0
3390 4 -4.30206561550299 23.77328384226035 20.12438738086442 0 0 0
3458 4 -7.14768704326729 26.48315734635914 20.603184677672324 0 0 0
323 1 -2.999737672022217 25.190067648013812 16.313728862744572 0 0 0
417 3 -0.4118522710578638 23.07428121427764 16.00839094294644 0 0 0
1427 3 0.8581327114797279 21.904501919141836 18.06751523564675 0 0 0
3318 4 -2.0513527478576314 22.954666347861252 17.38288149298159 0 0 0
3324 4 -0.2683118517212595 24.992035979287703 17.22729308951821 0 0 0
3389 4 -2.704289115150752 21.837822844654404 19.663134266774268 0 0 0
3393 4 -1.7693317279483338 24.72165172051648 19.708948452762478 0 0 0
496 3 1.3782394048947832 25.92575637388653 16.09665840005327 0 0 0
1426 1 -0.6228263730087953 22.8186873171121 19.3343084933745 0 0 0
3469 4 1.5456458886934055 23.79836953024636 19.043440337660265 0 0 0
494 1 1.3238732952561048 23.591737687727576 16.826618854809052 0 0 0
3399 4 -0.3277770885939262 26.842596162366437 19.166930458838927 0 0 0
1510 2 0.5532900158778986 25.142128397214258 20.64055436546694 0 0 0
1596 2 6.6494402419276 22.34755926729275 15.609247143979637 0 0 0
3468 4 2.7467940090153675 21.711186275496214 16.982010734625167 0 0 0
1511 1 1.7301038629263488 25.953253737440008 18.553156941303868 0 0 0
4502 4 4.626070454476864 22.217680438478105 19.214215228725163 0 0 0
578 1 3.771782756653339 23.546063762262072 17.76109319991716 0 0 0
3411 4 3.153917603344052 25.322443481993872 16.716362360885256 0 0 0
1604 3 4.952255878619116 26.318255030549317 16.154023871849972 0 0 0
572 3 5.270076007457005 22.31641073506646 17.042747265732157 0 0 0
4415 4 4.023886805552486 25.313750636138344 19.15364915892696 0 0 0
3410 4 5.741543205767771 24.359340801936796 17.207190574027155 0 0 0
1590 1 5.977704075055023 23.919503027336948 19.509135861209376 0 0 0
1603 1 5.1696501974103555 26.542858953420826 17.945234732311533 0 0 0
1691 2 3.30577183660721 23.527472553818097 20.458623620462948 0 0 0
4480 4 6.536243144508587 26.570940721239698 19.610985382546247 0 0 0
1600 3 2.477649861891697 25.358549576597284 20.642332579431343 0 0 0
1779 2 8.938066174932251 26.16442346735717 16.169177571985678 0 0 0
1679 1 9.74579985898591 22.064532100738017 15.809200284305337 0 0 0
3612 4 7.038660800421242 26.174197927068864 17.139549867270688 0 0 0
4426 4 8.031012034742973 23.003466936665852 17.404084350998424 0 0 0
2604 2 9.898947752255488 22.609098006697693 18.450366202272733 0 0 0
2740 1 8.011134014468745 24.768973357737117 18.542222691573862 0 0 0
3874 4 10.66612318079347 25.05194410749624 20.705838284733396 0 0 0
3618 4 10.586009429936448 24.210199173634635 16.670327730139025 0 0 0
4473 4 7.535999552113317 22.261670228076316 19.70942418141767 0 0 0
1608 2 11.335729994064247 26.659000803335466 17.16996311714435 0 0 0
4406 4 9.509951200760064 26.43458249696829 18.797387979123013 0 0 0
2673 1 8.555024979851817 27.099499160514693 20.74250732113398 0 0 0
1696 2 11.414909635680345 24.855487921890376 18.736023706650577 0 0 0
3286 4 16.636089490351267 23.38326650052651 15.58237866762001 0 0 0
4440 4 12.35086113638647 22.523845158061523 19.502379937042683 0 0 0
4452 4 13.453257023223847 24.40622447299449 15.866452127060484 0 0 0
4485 4 13.559737108367019 24.2866029501881 18.269811745712744 0 0 0
1936 1 12.021093059553136 22.660400412636335 17.32038926103633 0 0 0
2522 2 14.901640094650254 25.319191823014577 20.028614102641143 0 0 0
1500 1 15.039606773298964 22.99576446637293 17.010119274528876 0 0 0
4396 4 16.22662511399866 23.862565211209876 18.81258784358931 0 0 0
2666 1 15.131863430074082 25.595022873038157 16.93226933531405 0 0 0
4434 4 16.57518748227173 26.500009685099503 18.429570360935447 0 0 0
1786 1 14.567647339351092 22.76910028617485 20.210583619987727 0 0 0
1869 3 13.072219235735059 24.453211858480103 20.701160640992224 0 0 0
4495 4 13.147647319618496 26.589032051077382 18.60124943163754 0 0 0
2460 1 17.225028754148212 21.84584202889649 19.64391969011336 0 0 0
1852 1 17.709444684879497 24.90428430644362 20.161453642808006 0 0 0
935 1 17.537671467928682 24.799130579549974 17.24663126433055 0 0 0
4323 4 18.38277781951735 23.117088253342626 18.036063701389196 0 0 0
929 3 18.78189483867414 23.278323715697674 15.991001717862613 0 0 0
1011 1 20.498872883893846 24.279469268606608 17.300791147658106 0 0 0
1014 3 20.58828398025954 26.119921245285774 16.26762950801879 0 0 0
1929 3 20.265446962966294 22.165964268461604 18.147216783438807 0 0 0
1934 3 18.829338866109275 25.255115314285813 18.5317944013927 0 0 0
3439 4 20.860650773370413 26.2538538195093 18.402390512313495 0 0 0
3497 4 21.877991445076894 23.212833487714928 18.60944982923917 0 0 0
1928 1 19.74909496950869 23.6274087627897 19.453574164557065 0 0 0
3367 4 18.528840422690628 26.749803763149018 16.928151312410996 0 0 0
2026 1 21.88832130022177 24.608665939201984 20.387786698193494 0 0 0
1859 3 18.248258175237638 23.188678235656976 20.4842186163348 0 0 0
3494 4 19.741066654807746 25.61935150742877 20.49344478171566 0 0 0
1008 3 22.092517613097595 23.32244740603552 16.199469263080783 0 0 0
2027 3 22.61915662483137 25.135891988292773 18.47364111266228 0 0 0
2019 3 23.389921492537386 21.885568966723465 18.86365937242152 0 0 0
86 1 -15.420004151427749 32.061732824815536 17.71342539799747 0 -1 0
79 3 -17.40543946654305 31.558893486997118 16.477508900905814 0 0 0
1099 3 -13.794339444855712 27.867321078764 18.66802353279306 0 0 0
3448 4 -14.288212008671643 30.049480288567768 18.287349218380673 0 0 0
3378 4 -13.95098370918978 27.382750733987237 16.322096933847423 0 0 0
169 3 -13.72572009095796 30.855614089820367 16.279137247589716 0 0 0
1098 1 -15.300538012388422 28.880986083519954 20.199682884149563 0 0 0
1105 1 -16.478963569736646 31.703743476119822 20.247396322507925 0 0 0
2042 3 -17.691432928798598 30.76794776589006 18.99991891822213 1 0 0
3374 4 -16.733610219177706 29.463191483090316 16.871199255949907 1 0 0
1184 1 -13.475389286509495 31.669640506863534 19.76009810665182 0 0 0
3384 4 -12.337236814102258 31.72751342016567 17.577179203296783 0 0 0
243 3 -9.54022527653133 28.534114728985877 16.30334919266486 0 0 0
3310 4 -11.879495666837782 29.591726239223476 16.013238334347005 0 0 0
3312 4 -8.652438384345132 31.077845534233965 17.393317835145382 0 0 0
3383 4 -9.406306171576745 27.97723770532317 18.83311305106542 0 0 0
1175 1 -12.129265370160097 28.81564568624675 19.75874228317673 0 0 0
3454 4 -11.371697985397569 31.073016838621808 20.47610527664379 0 0 0
3382 4 -8.1393893869711 26.945701805552776 16.950404577679095 0 0 0
3255 4 -4.5180262462916705 32.09820454545706 16.273514240724722 0 0 0
347 1 -6.599078167448962 32.097710062944955 16.9526704697003 0 0 0
333 3 -6.417407105788223 28.31610184537845 16.296751942774797 0 0 0
339 1 -7.757568773260445 29.056547955552066 17.50477165546727 0 0 0
1272 3 -7.223121991739161 27.549498569304337 18.78863929655284 0 0 0
1350 3 -4.490821449894673 28.168966594835922 18.158229032633876 0 0 0
1356 1 -8.09179596332543 31.59681172962524 19.576194051076556 0 0 0
1357 3 -6.738394880307975 30.675924927367497 18.486259909024266 0 0 0
3326 4 -5.355663935510634 29.86654173303918 17.28698778142783 0 0 0
1349 1 -5.874496253316476 28.885714670819965 19.50272128853161 0 0 0
1444 1 -4.919717609985225 31.65103199552792 19.25440628939788 0 0 0
3325 4 -4.340743260283617 27.811907350220576 16.05569183862792 0 0 0
3400 4 -3.8180513408833043 29.683505993733466 19.597958343042034 0 0 0
1445 3 -3.606608699011719 30.93261387927547 18.005495487345136 0 0 0
1271 1 -8.154828879161894 28.565064556271725 20.71892311783393 0 0 0
1521 1 0.1929262338159461 28.997888653504607 18.70895147215212 0 0 0
1528 1 -2.0355539810533667 31.214228328014094 19.51118249263534 0 0 0
1529 3 -0.35259101734389375 31.007145841017685 18.385430012307737 0 0 0
3330 4 1.480629505029171 27.732975095375586 17.281467582082573 0 0 0
3331 4 -1.9172068422607005 30.485380496135356 17.0245449409321 0 0 0
3337 4 0.6968987517261951 30.229571106006876 16.536362444374163 0 0 0
1527 2 -1.9185129056190995 28.611406680776422 20.349473956424042 0 0 0
3412 4 1.5777142415276764 30.757435780492912 19.088614209679683 0 0 0
3471 4 -0.3311819848377269 30.21812784175757 20.64751361124216 0 0 0
1512 3 3.3945007391638473 27.24304099889044 18.093148403898223 0 0 0
585 1 3.2920217379977057 27.350443135866165 15.896039189288086 0 0 0
3346 4 4.740658270139189 28.417673234598013 16.825441461681134 0 0 0
3347 4 2.923936432524151 31.31491158725413 17.077015570327294 0 -1 0
586 3 2.7171417616482643 29.318006074871768 16.282121626108037 0 0 0
688 1 4.812031292527266 30.47349727549953 16.304125046743607 0 0 0
1609 1 2.8897242276878146 29.084635310767105 18.22047379428641 0 0 0
1617 3 4.534761430095504 30.349871816761016 18.281408284990277 0 0 0
1703 1 3.5192856080456885 32.17273460602306 18.95691578339065 0 0 0
4339 4 4.73302748480814 28.41122520061764 19.39209493404437 0 0 0
3613 4 5.5403685724783145 31.97846948415102 19.390022472458266 0 0 0
3470 4 2.1886313588942095 27.691170234493118 19.945384456659816 0 0 0
3476 4 3.6899103048922726 30.437387417079538 20.26522229651845 0 0 0
1610 3 6.266715394353444 28.196449249330396 18.103715066353057 0 0 0
1697 1 6.732956081328592 30.363207454492976 18.675711236026103 0 0 0
1704 3 6.775025224384571 31.619106626988877 17.075844661203128 0 0 0
764 3 9.72839891321988 31.756671753259823 15.657440363709352 0 0 0
1781 3 8.555711684425148 28.250638184495845 15.865288756224981 0 0 0
1771 1 8.037874434733595 28.068519126811484 17.779144978309343 0 0 0
3417 4 6.955218501384273 29.589498243821097 16.518407299894616 0 0 0
4007 4 10.238911471547787 28.745598981837954 17.654576025300376 0 0 0
4371 4 8.710703090772192 31.043910763138307 17.356686282947518 0 0 0
2590 1 9.284325807801142 29.89742779125539 19.07353232134991 0 0 0
4456 4 8.592415322805927 31.617269582595487 19.958247696933125 0 0 0
4390 4 7.566404204655623 28.732849688876865 19.6218354260987 0 0 0
4454 4 11.089011227077116 30.81918179893065 19.595383098340132 0 0 0
758 2 10.835044276826089 30.927449778589406 17.136161359739358 0 0 0
754 1 11.119191806730651 27.470306340424976 19.526305130078313 0 0 0
4395 4 13.314941109518308 27.007598219161576 15.942655294448546 0 0 0
1865 1 12.171116370731628 28.859116629751714 16.03730370498037 0 0 0
1951 1 14.991623627100655 32.10468545254969 19.774348774365762 0 0 0
4442 4 12.873178323876598 29.038498973428446 18.52372473623284 0 0 0
848 3 12.562057020714263 31.080085749127427 16.22052629662173 0 0 0
1766 1 14.875359768960767 27.94173129437446 17.939312845983387 0 0 0
3362 4 16.07261349671319 27.66017164387627 16.271257598326166 0 0 0
1872 3 14.750887367336109 30.07256573424631 18.67311992433952 0 0 0
3363 4 14.679865418836503 31.869617794322192 17.11653347857178 0 0 0
1863 2 16.256810425063183 29.86672205633888 17.035924357225475 0 0 0
3550 4 16.68776779755728 31.766179987391386 18.463776232949172 0 0 0
1028 3 16.571471819657802 31.66459056852233 16.09754689251055 0 0 0
1950 2 16.604819010886867 29.779086230559596 19.54436451160273 0 0 0
4382 4 14.112221445582254 29.461112156447225 16.502361132551723 0 0 0
4443 4 14.940738203613652 28.209977255790275 20.07287124506762 0 0 0
1870 2 13.827933159144433 30.239410017613352 20.85020644927732 0 0 0
1857 3 17.14271405749385 28.439734148514507 18.15634977273632 0 0 0
4064 4 17.720998399246298 27.407244610933777 20.03778920026657 0 0 0
3434 4 19.40034729738805 28.702967811574382 19.073406547979616 0 0 0
1022 3 17.88408010362786 28.855732128179067 16.158450976951595 0 0 0
3440 4 18.33760056532621 30.42046485128943 17.393354504188288 0 0 0
3498 4 18.482041636458426 32.190823560763135 20.151353460113253 0 0 0
1035 1 -0.7396024462784252 4.08434259318089 23.797155425655575 0 0 0
3570 4 0.9931695888971634 2.6321781629220578 23.699765031074605 0 0 0
3511 4 1.0398642865454293 4.748523350125373 24.97752594974766 0 0 0
1031 3 1.2361821337101684 0.8448908176535085 25.240486866795393 0 0 0
2043 1 -0.3082844396773696 0.836379857653267 23.81044745183189 1 1 0
1039 3 -0.22754114600235953 3.2332724406373297 25.64293127985787 0 0 0
1112 1 1.6585125218257384 2.7657046813237547 25.77148383547148 0 0 0
1193 2 6.171547484238175 0.5361053435155466 21.741715395457835 0 0 0
3510 4 4.838207335858308 2.1948466074867454 23.178890557483776 0 0 0
3516 4 6.3754695366579694 3.7324655409751024 25.009426732186753 0 0 0
3574 4 3.0954522841936853 1.4638210249439791 24.6572725872293 0 0 0
1122 3 2.9277682400602125 3.6325241585837222 24.588773827891146 0 0 0
1114 3 5.029616497161173 0.7676905392351665 24.95728265440448 0 0 0
1197 1 4.6163756881549824 2.6517047287770414 25.7573581995279 0 0 0
1195 1 6.812691569144574 1.6425442359197908 23.93804678203994 0 0 0
1285 2 8.906375236205207 0.23510661378593556 21.47222894087115 0 0 0
1288 1 9.474770154678223 1.5073328552479914 23.645648991028082 0 0 0
1291 2 7.651507182667608 2.717905559444108 21.657146494864513 0 0 0
1293 1 8.070368608501138 4.347990634839912 23.52858385473671 0 0 0
1370 1 11.092200511559776 4.581028533922062 23.775726042208944 0 0 0
3459 4 9.921063976882177 3.2116835655804192 22.343789321713338 0 0 0
3528 4 11.495521291488744 2.4125149550742027 24.178550440142878 0 0 0
1295 3 9.608761961515647 3.7308970327004443 24.578501369918456 0 0 0
1199 3 8.215022026303954 0.32008246715797894 24.944618738003292 0 0 0
1377 2 9.324961727637525 5.243569115472044 21.55595459835054 0 0 0
3579 4 8.289568869961823 2.374910598335361 25.42360543982707 0 0 0
3592 4 10.274600686191933 0.5360518779066066 25.628228392905697 0 0 0
1456 1 15.70895958151303 2.1903826073514923 23.513085915061495 0 0 0
1460 2 13.422506972866628 2.495779335748801 22.707737778239377 0 0 0
1462 1 13.928636511372948 4.597739110084457 24.16495380185782 0 0 0
1465 2 12.649126678587 4.917824498906559 21.871273319413604 0 0 0
3462 4 14.909879132118247 3.669588908628027 20.920269560058003 0 0 0
1453 2 15.252541282326934 0.3253969765825646 21.467942019968326 0 1 0
1458 3 16.388198948417404 0.7905951718088915 24.584182965577995 0 0 0
3531 4 14.418915030129982 0.15436222040703307 23.692661710511338 0 0 0
1464 3 15.586832494879948 3.8349263936262767 25.096703663725236 0 0 0
3598 4 13.972032779814281 2.2875603022455153 25.104478258828195 0 0 0
1373 3 12.394862892530991 3.7642191819677 25.493534965196723 0 0 0
1543 2 17.14414589967744 2.9937264720761037 21.653342245775132 0 0 0
1545 1 17.016795371709115 4.770728093912637 23.62293308448244 0 0 0
1625 1 21.55599832364218 3.0545008636265303 24.002084459315185 0 0 0
1728 2 21.35887348063312 4.5543724039470606 21.979579817992924 0 0 0
3473 4 19.283791640237013 3.608947609098912 23.139526574999607 0 0 0
3477 4 20.869856551214127 1.7977865191849571 22.119479966702414 0 0 0
3533 4 17.552664079783572 2.7523152893405927 24.61352472282445 0 0 0
3538 4 18.184096997135594 0.8295354922715545 23.182225904330267 0 1 0
1539 3 19.882218264632662 1.614450911976745 24.172017051505918 0 0 0
1632 3 21.550798014263176 4.647029230775299 25.150854232389563 0 0 0
1549 3 18.384184612834893 4.708056413046849 25.02904635955184 0 0 0
1626 1 19.578669036682868 3.297975090285154 25.428105555912126 0 0 0
1618 1 18.165354945828987 0.7267355437834232 25.47464419334166 0 1 0
1712 1 24.30801313864097 2.6133914070391993 24.24516697222338 0 0 0
1719 2 23.1418595463634 2.62083750184186 21.99072024589937 0 0 0
1722 1 23.40023297891031 5.065130707026026 23.595619364553613 0 0 0
1798 1 26.325158225313423 4.904824759551213 24.06685013258776 0 0 0
3480 4 25.0496831669069 3.7709794456827255 22.528670133595718 0 0 0
1711 2 23.01170310599901 0.32256378994520035 21.32567441805169 0 1 0
1714 3 25.442263187858373 1.193541831249459 24.90317200049759 0 0 0
1723 3 24.656695904529066 4.249120719799234 25.17974723427978 0 0 0
3536 4 22.559761692346616 1.2361799509094809 23.861794083076184 0 1 0
3553 4 26.553417857416918 2.9112521233049584 25.043037360608267 0 0 0
4438 4 24.688808026883784 0.8408278434624761 22.88395973707972 0 1 0
1627 3 22.49021178643864 2.217354106313499 25.641873131634142 0 0 0
1782 1 26.60635023506476 1.893000127848561 23.177171393103606 0 1 0
1788 1 23.717773719381068 0.6309822421318898 25.65905367858423 0 1 0
1884 2 29.69984767621781 3.3010214383429792 21.510742554302478 0 0 0
1887 1 29.05199345566332 5.26719396380333 23.316561983403567 0 0 0
3485 4 27.565358805953995 3.838194766036975 22.474443785420107 0 0 0
3559 4 30.07695424129465 3.4546740950101404 23.958345933860755 0 0 0
3558 4 31.226238803027133 1.4157725845668578 22.427689898194103 0 0 0
1876 3 29.62767885991164 1.5087405740308646 24.633166165638883 0 1 0
1785 2 27.49072707330273 1.477386595838033 20.799471907758658 0 1 0
1801 3 28.149090620487776 4.164086938378493 24.72473732505386 0 0 0
1963 2 32.14876403258141 3.7197730367420037 22.706025853943338 0 0 0
1953 1 31.504270774172742 1.7495099497810018 24.66334698063634 0 1 0
3619 4 27.832512768763504 0.5316047834831626 25.09644483853601 0 1 0
3930 4 28.770560565664805 1.5632401822014668 22.762726720174427 0 1 0
3628 4 32.0848883477672 3.7860104072356133 25.416193979996606 0 0 0
1862 3 31.962068705930616 0.05261172501441437 23.909125565099956 0 1 0
1890 3 30.14067994992769 4.497914273081464 25.901627080956658 0 0 0
3569 4 35.44512952694277 2.35151480563729 24.640429396048944 0 0 0
1879 2 33.0553629980471 1.7139989148707533 21.1802541989968 0 0 0
1032 2 35.156580599432516 3.4310232860627496 21.700635695688952 -1 0 0
3499 4 35.20289881108196 0.821156585909736 21.645462149365926 0 0 0
3564 4 33.44566144996928 1.6877428917201696 23.50674487791892 0 0 0
3565 4 34.295238033018045 4.585879990432682 23.62394669667455 0 0 0
1954 3 35.08705445174814 0.07313356430119848 23.754469195472495 0 1 0
1944 1 34.110445937800286 0.5734647405623342 25.366422398867797 0 1 0
3633 4 36.31215530103625 0.16509076913184925 25.74231900868827 0 1 0
1037 1 34.32536768398009 4.430835111125678 25.90182344247158 -1 0 0
1124 2 -0.18480040197093528 5.609957216773839 21.764097532213672 0 0 0
1127 1 0.537279477733593 6.800703120004738 24.130715125279984 0 0 0
1134 2 -1.7045939776531203 8.110844474299203 21.287196525331222 0 0 0
1211 2 0.7000219493949453 8.394091238831948 22.191697874433046 0 0 0
1212 1 0.9217850354212178 10.116612659040209 24.179422054283243 0 0 0
3571 4 -1.577192896755394 6.744323509960199 23.257163672838203 0 0 0
1042 3 -1.2674032169594622 5.532343077030167 24.950772253001674 0 0 0
1304 1 4.387079504427245 10.03659210165755 24.258998598387116 0 0 0
1215 3 2.619573851177016 9.639803817037093 25.453780829873395 0 0 0
3522 4 8.277726449395841 6.558523107945952 24.360818161680257 0 0 0
1379 1 9.903095647873325 7.109036021697945 23.062345439715173 0 0 0
1387 2 8.251144861976243 8.358145692777677 21.60394888081831 0 0 0
1390 1 7.5878551226650135 9.426997959377218 23.735274249471246 0 0 0
1471 2 11.25806040492914 8.245075520921969 21.239123363426668 0 0 0
1473 1 10.736200192342839 9.579351415596868 23.56128473171202 0 0 0
1394 3 9.291217775161133 8.553972162180242 24.601562125118782 0 0 0
1382 3 10.954494696404733 6.251828975331231 24.807529494463196 0 0 0
1483 3 10.886099128127228 10.386107707228396 25.59924385492495 0 0 0
3600 4 11.151963582585498 8.17892068227395 25.529211863075787 0 0 0
1553 2 15.323235961054245 5.728915717951888 22.01400326082541 0 0 0
1466 1 12.573991662474569 7.3280734400447765 23.62702570137329 0 0 0
1555 1 15.246632017485425 7.532259592649452 23.994383875371696 0 0 0
1562 2 14.443145657828552 8.418215924944441 21.72520835313208 0 0 0
1564 1 13.918003669017942 10.292723419810217 23.51209174147077 0 0 0
1566 3 15.078146912929354 9.597608144515402 24.71641993266057 0 0 0
3406 4 16.903954114439724 7.173654767705983 20.86998010003359 0 0 0
3466 4 12.47783678820836 9.91306554969771 22.038337636031628 0 0 0
1475 3 12.49160248180798 9.289236231971417 24.35613060324586 0 0 0
1645 1 16.617968524489704 9.855859218249838 23.066197576370236 0 0 0
1558 3 16.829965805429033 6.57712723153335 24.853394149591026 0 0 0
1467 3 13.70452821672363 6.6029762726188235 25.404752846719532 0 0 0
3609 4 16.9267328744054 8.7122619197098 25.199148404376302 0 0 0
3606 4 13.337607983144354 10.619608984820083 25.763654173565804 0 0 0
1631 1 20.03638438792713 5.541692419057356 23.94609814189483 0 0 0
1637 2 18.593516655704768 5.657239060560294 21.77159126891386 0 0 0
1640 1 18.28163209565291 7.547563454191383 23.792561387432492 0 0 0
1644 2 18.812672473093695 8.561395125154768 21.553709960294665 0 0 0
3542 4 21.900688265642295 6.671662006594804 24.10827837630572 0 0 0
1821 2 21.038233559190715 10.629539578471006 22.018372755622266 0 0 0
1736 1 18.40904064634326 10.302046012453557 25.725344529372165 0 0 0
1805 2 25.591120034949654 5.892727287911619 21.868994336887837 0 0 0
3481 4 23.181487922107237 6.210743053841835 21.61924425637246 0 0 0
3486 4 25.182466969073147 8.136746504549642 21.3216288081725 0 0 0
3547 4 25.293761981798493 7.063796940802547 23.969188125334973 0 0 0
3554 4 24.01144273765367 10.431510402047353 23.91991791092714 0 0 0
3561 4 26.349109176605516 9.471994666389502 23.826737600559426 0 0 0
1816 3 24.69942068221669 8.875239793071207 25.107889415425575 0 0 0
1731 3 23.693560162132222 6.5312328053309825 25.040923635961803 0 0 0
1809 3 26.703827493019297 6.374831055953614 25.26923256442683 0 0 0
1885 1 30.65536867793766 5.401599116271586 21.01115793379598 0 0 0
3560 4 31.13815163633559 5.81543417904955 23.67058963901691 0 0 0
1891 2 28.088414131170197 5.716632909377524 21.109161943818506 0 0 0
1893 1 27.56954345214489 7.396744772735792 23.549542926717805 0 0 0
1980 2 29.315453051531055 8.108238677511109 21.55252448651029 0 0 0
1982 1 28.70759161213541 10.295136088503488 23.539965052643915 0 0 0
3566 4 29.702272437214262 8.282691609726461 23.889629410953823 0 0 0
1900 3 27.84443905590781 8.822339763230318 24.993886034783372 0 0 0
1897 3 29.50957664340934 6.588731783616293 24.93620777153916 0 0 0
1985 3 30.26068632997029 10.040661930467438 24.83417609869406 0 0 0
3629 4 28.421369674058752 10.673780116764517 25.769911306490343 0 0 0
3495 4 32.910833433377256 5.827337936791109 21.601358255752537 0 0 0
1054 1 -6.070837247890917 13.823541330492644 22.90782324174311 0 0 0
3512 4 -4.819168588506699 15.849400325261689 24.790890215181186 0 0 0
3572 4 -7.210466649543374 15.968631899250765 23.103099231402766 0 0 0
1067 3 -6.550136971985245 14.703601186846537 24.687716062545434 0 0 0
1057 3 -5.482223365211338 12.565770691349641 24.476778052194717 0 0 0
1138 2 -3.5028030972975244 10.965284848932923 21.563136256779632 0 0 0
1141 1 -4.846034499164559 13.931370647932939 25.89069191739086 0 0 0
1140 1 -3.230117161361023 12.61652799849871 24.038100495102242 0 0 0
1220 2 -0.6223016584892695 10.870870176190328 21.767824873924802 0 0 0
1221 1 -0.06390177083560822 12.915079742620165 23.431791927001342 0 0 0
1316 1 1.4160962975985676 14.83940422098776 23.812101437591465 0 0 0
1323 2 0.033440959386425106 15.350009399804499 21.770283916428912 0 0 0
3452 4 -2.2605071326198276 15.74742528621974 22.39010749465963 0 0 0
3517 4 -0.7665562824833101 15.029086505447742 24.343171220319974 0 0 0
1148 3 -2.9580778654683764 14.797215936894144 24.80096461396454 0 0 0
1225 3 1.2073249867857019 12.055649126237117 25.198951215977033 0 0 0
3576 4 -0.9543669017453622 12.023723787996637 25.28143663708186 0 0 0
3457 4 1.5707129177085708 13.63203371508965 21.724662321282228 0 0 0
1234 3 0.6189242178561773 14.078016358027769 25.610225300714703 0 0 0
1402 1 6.3069683918202655 12.18375261100537 23.72927924594252 0 0 0
1413 2 3.272284759317195 15.446483421451708 22.06729561811332 0 0 0
3523 4 2.7292173483510647 11.445364298680575 23.964430270862067 0 0 0
3529 4 5.5604569012312925 14.285146519412269 23.20387524029144 0 0 0
2585 3 5.101707306382371 15.635851660540718 24.727062406542487 0 0 0
3594 4 3.128935433056192 15.869833605595296 24.4487683351795 0 0 0
1309 3 4.604948261779223 11.777962524599356 25.154770572953538 0 0 0
3524 4 3.0706445903253394 13.333097202005781 25.428928961967188 0 0 0
1491 2 6.448221630503058 15.898113787568123 21.72085581468053 0 0 0
3601 4 6.7545071957244325 14.671921049618064 25.598359055875378 0 0 0
1399 2 7.046665165738525 10.88445889942538 21.498448544291662 0 0 0
1480 1 9.538610747991273 11.756894705053488 24.04566556608234 0 0 0
1485 2 7.828524543235733 13.359702313587311 21.621162622953683 0 0 0
1487 1 7.859478889594639 14.499461148137172 23.761485281710016 0 0 0
3467 4 10.918533224770687 11.811151428704298 21.535000580010074 0 0 0
3534 4 11.795249056908023 11.486671884249931 24.100308918759815 0 0 0
3802 4 9.757360386987244 13.572056037841826 22.785565501741438 0 0 0
1489 3 9.869889836893499 13.479939440678873 24.971200924009338 0 0 0
1404 3 7.718840578592769 11.314019235939115 25.000707827583135 0 0 0
1494 1 8.873320638946494 15.827504564037897 22.131260957325907 0 0 0
4571 4 10.335154671182668 15.389705807318494 23.918859574504957 0 0 0
1576 1 11.790157011538684 13.676165838511821 24.001728181194046 0 0 0
1584 3 12.091103370122264 15.537204936604141 25.069687550144806 0 0 0
1651 2 15.011778480960999 10.918770161794063 21.315379763981074 0 0 0
1652 1 16.201100087637545 12.650856921752666 22.646489580121298 0 0 0
1669 2 12.572277417165283 14.067966030705753 21.678057614837037 0 0 0
3539 4 14.126623378739271 12.477730681582491 23.47830576068548 0 0 0
3543 4 16.805312973171795 14.022917265145075 24.336607310748533 0 0 0
3479 4 15.005270663090949 15.217579925483085 21.43217615929282 0 0 0
1674 3 14.86083545197994 15.456852861589006 25.186258896530994 0 0 0
4325 4 13.58392606379788 14.852545388085474 23.802878477169543 0 0 0
1579 3 13.012911676380611 12.87613227302181 25.308534403154695 0 0 0
1750 1 15.737315436202167 15.824607965844878 23.43369877843343 0 0 0
1646 1 15.51170739741935 11.397030284849231 25.586708042362417 0 0 0
1868 1 11.924665629254338 16.18612579517407 22.802669130807203 0 0 0
3610 4 14.990176577951317 13.526487744918084 25.86533405215649 0 0 0
1748 2 17.385231855167653 14.748869055183427 21.89067257815734 0 0 0
1741 1 18.87006997286331 11.583267781148525 22.820291790058704 0 0 0
1823 1 21.337931547123056 12.742134346123466 23.865329989019813 0 0 0
1830 2 20.25448463393049 13.504744445373522 21.735690217323132 0 0 0
1832 1 20.027437768216 15.627394981118249 22.96844288462396 0 0 0
3548 4 19.240851962650005 13.576655490203898 23.969383984901185 0 0 0
1655 3 17.23760227347867 11.710778678436965 24.344908296462762 0 0 0
1833 3 21.120694755967506 14.454071105846449 24.906004716398854 0 0 0
1744 3 19.788609199270816 11.779520992288493 25.020732561466787 0 0 0
3622 4 19.546896495354673 15.844834633075596 25.299883752915505 0 0 0
1903 1 24.687191571867377 12.659776453404213 23.663804186285063 0 0 0
1907 2 23.28912484238026 13.926642600845394 21.41164200025268 0 0 0
1909 1 23.104666073074544 15.239699583078503 23.580361521711097 0 0 0
1997 2 25.840500109169152 13.355085250408374 21.20918495423656 0 0 0
1999 1 26.34669793387538 14.730369367580462 23.106857104973457 0 0 0
3487 4 22.86796718324033 11.982491728253414 22.44972329417393 0 0 0
1910 3 24.617723959039722 14.387663297632521 24.741304894835984 0 0 0
1905 3 26.037569378543328 11.442556908604914 24.64082991863988 0 0 0
1827 3 23.05618506514168 11.978023220675814 24.929914501372977 0 0 0
3630 4 26.5587152969808 13.542096095917529 25.062105258295148 0 0 0
1051 2 30.508708009881644 11.173974420049412 21.852070104827114 -1 0 0
1064 1 28.683441062661558 14.654653908459387 24.40660784459267 -1 0 0
3562 4 27.15431624041564 12.337628704878405 22.998791713629487 0 0 0
1061 2 28.86684851314222 13.643923061873082 21.972101072457196 0 0 0
3567 4 29.716962668865275 12.475392135323581 24.203522051409493 0 0 0
1069 2 -9.24233518273055 16.157362536898894 21.934750650447288 0 0 0
1071 1 -8.927844528112347 18.03433741787842 23.504167550225738 0 0 0
1078 1 -10.375072661019445 20.342289300941573 23.99085268939737 0 0 0
1164 2 -8.876174825931866 20.44502489396574 21.680907561298874 0 0 0
1082 3 -8.549198834402116 19.69289779570859 24.716474230995658 0 0 0
1155 2 -6.932533953363215 18.251970793244244 22.04031894213181 0 0 0
1158 1 -7.004879733997909 20.297440496341565 23.594250803620746 0 0 0
3513 4 -6.945654919221038 18.117377155850868 24.420381139899476 0 0 0
3519 4 -4.900726442501945 19.215767823700066 23.324194856854646 0 0 0
1074 3 -8.186252016096804 16.629363042177967 24.923436636511646 0 0 0
1337 2 -3.9184141000177544 20.828883273231856 21.738805586184487 0 0 0
1154 3 -4.9805051014442006 17.90526303249688 25.092341755515406 0 0 0
1161 3 -5.60903790419714 19.201664160541963 25.409439373055434 0 0 0
1326 1 -0.7285608812481854 17.158259924951135 23.31974226109608 0 0 0
1330 2 -2.6420653911534275 18.192488368854402 21.695103723824438 0 0 0
1332 1 -2.626045820767498 19.894608880107484 23.6426367432595 0 0 0
1419 2 0.18440501105445506 18.713454262110943 21.045080266537223 0 0 0
1420 1 -0.053829946650211014 19.945093179742326 23.29211725894462 0 0 0
1425 2 -1.426664879599734 20.967207946203665 21.40932468381065 0 0 0
3518 4 -2.979107350481308 17.6065275157562 24.19756357499235 0 0 0
1328 3 0.9269404394418839 16.60137957725976 24.5707880577976 0 0 0
1499 1 1.111537680674008 21.12472177887847 21.200442385494906 0 0 0
3596 4 0.06342084848439455 21.286000263803388 25.072205053040435 0 0 0
3588 4 -0.3892393809738124 18.469368373648667 25.04862126951094 0 0 0
1242 3 -1.4205301201798477 16.72041568085138 25.30071458550418 0 0 0
1421 3 1.3743859310929665 19.406782671475526 24.80004016711291 0 0 0
2519 1 6.416728739026745 20.45269565117379 21.004806743195648 0 0 0
3745 4 6.145284203696733 18.164075877219364 20.740870783172017 0 0 0
1498 2 3.8728995574838354 20.10852536422203 20.6975542358825 0 0 0
1492 1 4.197457048109099 17.556223409809835 20.796603397440958 0 0 0
1416 1 2.4427109729904686 17.787808785870215 23.678938149333703 0 0 0
3464 4 1.9309476978088718 19.513676040238003 22.466369553062606 0 0 0
4317 4 4.773376333890333 16.933930750680997 22.975725441308867 0 0 0
1501 1 2.102051591242514 20.951755319968562 24.245975775965462 0 0 0
1587 3 5.346493105024397 18.49722088189238 24.37192554562133 0 0 0
4000 4 3.5442561413188916 19.21053996650539 24.99604622270708 0 0 0
4372 4 4.652945726073481 19.907760046068496 22.871211866564195 0 0 0
1676 2 6.601262535066818 16.929966992457597 24.274689970886364 0 0 0
1504 2 4.473844504946172 17.257853189865603 25.728767872539557 0 0 0
4679 4 6.9171626973821425 19.54204636463421 23.224856748860702 0 0 0
4674 4 7.191092448280802 21.805710268629774 25.467300874076066 0 0 0
4333 4 10.492888446251545 16.55156659284356 20.871843743359495 0 0 0
4547 4 8.801019066873733 20.4039907818171 21.06366305782678 0 0 0
4358 4 8.58035877821592 16.31262113034902 25.043446411371498 0 0 0
4482 4 8.129373208496318 17.648586997893847 22.19471205847691 0 0 0
2609 1 9.97171808636635 18.730412654666935 22.180267439995532 0 0 0
2681 3 9.709086631568551 17.40867317254984 23.680766199458006 0 0 0
2598 2 8.800805465853717 19.023606382718512 24.324005699076338 0 0 0
4705 4 8.736620335752217 21.245911232603362 23.50451660838928 0 0 0
4512 4 11.499632058943003 20.505276976983602 22.43048984536616 0 0 0
4733 4 10.967190799160157 17.424275653492078 25.320583229172236 0 0 0
3688 4 15.757832536618146 21.176984859475457 21.134815349704603 0 0 0
4077 4 12.420685048964692 18.34622454773624 21.43620156117462 0 0 0
4432 4 13.947109318837422 17.061875579730888 22.716559089462045 0 0 0
4424 4 16.193843390975903 17.770638245691863 22.321097862436183 0 0 0
1756 2 14.560566304756199 19.26932835982837 21.665838040238295 0 0 0
2600 3 16.246871385105045 19.842422169017542 22.54809272777824 0 0 0
1687 1 15.641110890804983 18.868138072214112 24.02420688447222 0 0 0
1752 1 13.751027740672757 16.936727537575155 25.05135483510145 0 0 0
3751 4 16.036950905019594 17.249143157993434 25.263735610561355 0 0 0
4428 4 13.513653150062998 19.22390592774984 23.699739871273124 0 0 0
4615 4 15.903156069331702 21.000996190875952 24.437464389829238 0 0 0
2735 1 14.038180864678269 21.125640077190077 22.953211161352876 0 0 0
4439 4 18.062873137790174 18.709658267643984 23.471670304757055 0 0 0
3882 4 17.958729862084585 16.3115424419974 23.563186316913658 0 0 0
1845 1 18.601740505790588 20.797109708334272 24.007250059837062 0 0 0
1839 3 20.07923980171902 17.414024749042532 23.96076229463231 0 0 0
1843 2 18.179714210269083 17.344806829333518 21.39988725641329 0 0 0
1914 2 21.98655069556499 16.288160674499004 21.553039790580122 0 0 0
1926 3 21.917063835279293 20.448599416363905 24.29911693173274 0 0 0
3489 4 20.32982252732338 17.756950363545354 21.75040427012458 0 0 0
3555 4 20.337558410653592 19.337270550466656 23.66198801197018 0 0 0
1851 2 19.597898350222756 19.974035676581437 21.55236554194907 0 0 0
3624 4 21.817031907514668 16.619459073576735 24.907245952418577 0 0 0
1849 3 19.065013008142998 19.324593272206045 25.324763282633015 0 0 0
3625 4 20.294043081653115 20.977183617837543 25.42375578597644 0 0 0
1918 1 20.910105658052785 18.77604874900373 25.729523055778664 0 0 0
4361 4 17.133304049899877 19.516525039414933 25.8713444035819 0 0 0
3493 4 22.054876302977462 20.114217990223803 21.79829684640663 0 0 0
1917 1 22.10955300441684 18.172361398480223 23.22464181782432 0 0 0
1076 2 26.486877346890125 18.6242158626958 21.92294001984027 0 0 0
2003 2 24.92014215878796 16.237786298504876 21.677941596291753 0 0 0
2005 1 25.07455708906741 17.75057254121429 23.767973553061495 0 0 0
2010 2 23.96409171922719 18.85570571282132 21.677802706368702 0 0 0
2012 1 23.64729351804273 20.704604089034984 23.507196434340223 0 0 0
3631 4 27.059299258431977 16.423111731265323 24.371638841398244 0 0 0
3639 4 -14.822454409119779 26.71871830475207 25.653489978329418 0 0 0
1092 1 -13.471067745268092 25.915608263825927 24.044052157237175 0 0 0
1090 2 -13.318801623331126 24.374148470000097 22.010515369452605 1 0 0
1084 1 -11.79738324435604 22.980414376570973 23.81714928888833 0 0 0
1167 2 -10.620254403483202 24.4226517092336 22.029367447770838 0 0 0
1169 1 -10.413085458415365 26.15953206000459 23.88570767155184 0 0 0
3515 4 -9.896562919399084 24.059899041540504 24.46570718994309 0 0 0
1093 3 -11.955349981374011 24.64348333498202 24.928809832624708 0 0 0
3514 4 -8.6858594839501 21.758532428528625 24.34299737549724 0 0 0
1087 3 -10.434733460143438 22.18057163878302 25.50578269179364 0 0 0
1168 1 -10.079405358664914 26.657766719819126 20.882728375694853 0 0 0
3645 4 -11.777487433427272 26.5631592355468 25.59544685110862 0 0 0
1085 1 -13.532359406936884 23.78106995057393 25.79174866794048 0 0 0
1252 2 -6.602246907872214 21.87481787172205 21.423596760762898 0 0 0
1261 2 -8.182694890952343 24.571304335454233 21.298823485805606 0 0 0
1343 2 -5.5626617354608765 24.331417787859564 22.089844886847814 0 0 0
1344 1 -4.38973764282148 26.3142421961656 23.154157124228234 0 0 0
3520 4 -6.03201751292279 26.127873161797595 24.539823578877133 0 0 0
1338 1 -4.040742228198763 23.050329842042636 23.697584090851976 0 0 0
3583 4 -6.837495515165018 23.63227717317705 24.59942950794602 0 0 0
1348 3 -3.696527708200584 25.1787257106903 24.77685557188584 0 0 0
3521 4 -8.42131478996825 26.90441613866717 25.04566689649989 0 0 0
1428 1 -0.8733032259514744 22.60637039988883 23.460856592218363 0 0 0
1434 2 -2.420345951949617 23.437454171386563 21.617603532618983 0 0 0
1435 1 -2.2138929490078283 25.125014848618164 23.477325362084642 0 0 0
3532 4 -0.1366926192480573 25.008650955142198 22.962486895600108 0 0 0
3465 4 -0.028123657572054483 22.976930222915996 21.44508167279248 0 0 0
1509 3 1.0129425122390305 21.929438760809546 23.096675331296005 0 0 0
3936 4 0.8548012879435305 23.563991223357366 24.589967892947513 0 0 0
3589 4 -2.2402518586725257 23.53773170519621 25.103562548077946 0 0 0
1515 3 0.4838428136566062 26.032994167925185 25.35716513437403 0 0 0
3597 4 -1.5820395185463632 26.172076572599014 25.307745213339174 0 0 0
3535 4 1.5800090564249203 26.371753054225586 22.284022511227484 0 0 0
1591 1 1.8697424476505926 23.8230904829958 22.43027194727796 0 0 0
4505 4 3.955892138739424 26.855909471456282 21.16060426015182 0 0 0
1693 1 5.368984767820306 21.73022440726266 23.619821074759308 0 0 0
3602 4 3.088907052345121 21.572917823892457 22.02166543875863 0 0 0
1601 3 4.770125098123149 24.78061519335657 21.064042618890994 0 0 0
4313 4 5.335238137581841 22.3052676380995 21.49019384103572 0 0 0
1599 1 1.9081605714383958 25.47006882446514 24.39766232410186 0 0 0
4280 4 3.1765996221093697 22.598401361562377 23.864025687089686 0 0 0
2591 3 5.766857670620523 24.085844940877667 22.427155415471262 0 0 0
3673 4 3.663835201275443 24.801119828968886 22.740096928489336 0 0 0
4552 4 5.769382927311547 23.706105739903407 24.631080682891927 0 0 0
4655 4 4.203121380692346 26.07352464267966 24.54435989192622 0 0 0
4346 4 5.89238214611324 26.197820339038884 22.710275929693424 0 0 0
2440 2 4.359993307734312 22.13298901303708 25.733104408793068 0 0 0
2743 1 6.186784276119626 25.435214202961347 25.2403610184803 0 0 0
1856 3 10.467761486841495 26.94857542906987 21.426515070994114 0 0 0
4586 4 10.040516333759378 22.448739851863003 21.081465189303767 0 0 0
4620 4 7.311521689857871 24.925708052433112 21.115427477359386 0 0 0
1773 3 7.304592098403491 22.785165216991942 23.87065745745234 0 0 0
2453 2 7.331853739843414 24.73016990245337 23.386428873485897 0 0 0
1787 1 9.684092635769181 23.445735466164795 22.939024497781155 0 0 0
2669 2 7.4858761467245 22.587874911351527 21.94213482991254 0 0 0
1772 1 10.848289692902938 25.611950685809347 24.164934098367965 0 0 0
4691 4 9.101060256235447 25.584675976140485 22.763812199358213 0 0 0
4685 4 8.682515748759128 23.832339022123794 25.112162534767208 0 0 0
4724 4 11.586081722792631 24.533706647869877 22.746686774113797 0 0 0
4383 4 11.432583186188257 24.11974524870566 25.730326980969522 0 0 0
4591 4 9.06782642349041 26.45053097911552 25.0365051439108 0 0 0
4370 4 13.051773432695722 26.542905301461108 21.06066459548076 0 0 0
4534 4 12.850317879262358 22.45372928456868 24.467695210767864 0 0 0
4449 4 15.546143719733086 26.66590508861521 21.852408113394493 0 0 0
2596 2 12.49663083212272 22.792261286971666 21.972520537520236 0 0 0
4526 4 16.58237862279593 23.95727028908829 21.62485015027061 0 0 0
4633 4 14.15257176322829 24.36281262788217 22.632187036594495 0 0 0
4460 4 15.36655018824147 23.106524772881343 23.804259231917804 0 0 0
4676 4 13.390473035472796 25.66451826824444 25.84951832056545 0 0 0
2448 2 13.242430998190393 26.60538706689546 23.35861429662802 0 0 0
2746 2 16.47975691536374 24.20954910418677 25.622429395541985 0 0 0
4549 4 16.120374218428708 26.420051252927184 24.924052137596775 0 0 0
3873 4 18.005018015190423 21.595097430147103 21.846830918497766 0 0 0
2435 1 17.093157098412938 25.83458760582222 23.19432519496386 0 0 0
2748 3 17.291126317784737 23.951223392116805 23.871089871456107 0 0 0
3693 4 18.65171242189781 24.47003581774434 22.304617819807603 0 0 0
1761 3 18.35955234172402 22.81610808425859 23.54619347157326 0 0 0
1774 3 18.21340302171857 26.46481039990985 21.81583443944418 0 0 0
3617 4 21.326527744089923 24.519691079030654 22.680129663026264 0 0 0
1847 1 19.750504809887595 22.756009499589172 21.656639494465125 0 0 0
2028 1 20.727332586581667 26.15528641014654 24.160939659732442 0 0 0
3556 4 20.54093935208156 21.604633426391285 23.101454855019014 0 0 0
4453 4 18.858936447947414 24.997774119199175 24.63208281770273 0 0 0
1854 1 19.97375447277257 23.02407330602078 24.64227760288763 0 0 0
4403 4 18.039054859599702 22.372900904030104 25.609685117212322 0 0 0
3503 4 24.547288939492976 21.916042367921158 21.773673758144877 -1 0 0
2025 2 22.28673999947781 22.492294744158606 21.790890024358454 0 0 0
2031 3 22.26862328727635 24.842886620352235 24.64705292760995 0 0 0
3563 4 22.404109499243575 22.768410613082125 24.203164558109542 0 0 0
2022 3 23.99166455755224 21.91894955663413 25.104772778898564 0 0 0
1097 2 -15.128934511055652 26.934935010096012 22.180600994975563 1 0 0
1100 1 -15.25761015613607 28.617493704684662 24.34255884672396 0 0 0
1185 1 -13.693342314101926 31.5652724815674 23.57621926548444 0 0 0
3504 4 -14.696020126490271 32.05490803873904 21.61342765960449 0 0 0
3573 4 -15.473124565355349 30.896673428287325 24.584871067817325 0 0 0
1104 2 -16.01501362879911 30.141698803947193 22.350694130660408 0 0 0
3568 4 -16.99766522561475 32.20338959786332 23.17634355018683 1 0 0
3640 4 -16.95840751972459 29.70594523122189 25.903034144053947 0 0 0
1183 2 -13.148836070439192 30.02214003607586 21.74041018955386 0 0 0
1174 2 -12.161374537771335 27.126753551595616 22.149457174629305 0 0 0
1176 1 -12.093072118773527 28.668424690584583 24.151248393136 0 0 0
1273 1 -8.781854742807841 29.029194142440396 24.11004901101861 0 0 0
1279 2 -10.296224470551527 29.28332779046671 21.878920420830045 0 0 0
1280 1 -10.965143838912718 31.197226143806752 23.431704441483163 0 0 0
3527 4 -8.761925958788256 31.503498610308764 23.42375683882443 0 -1 0
1178 3 -10.33046571651414 28.093458450406708 25.064779734813257 0 0 0
1283 3 -9.250500365692906 30.76485728301495 25.283670801731652 0 0 0
3646 4 -12.324404187305262 30.692393409026256 25.30706194044332 0 0 0
1270 2 -8.307357639941696 26.90966548022016 22.666973824703042 0 0 0
1438 2 -4.176222671766661 28.13597153217018 21.41769403069755 0 0 0
3525 4 -5.1459998535850815 29.680832993386236 23.606011708409753 0 0 0
1448 3 -3.439279438909013 30.6032201266773 24.583098024163846 0 0 0
1353 3 -4.837467741509094 27.890678900959085 24.82575183038969 0 0 0
1531 1 -3.6858036494905946 32.28817025406196 25.855869192938712 0 0 0
1513 1 -0.10274569669250333 27.083674569818278 23.778674473537492 0 0 0
3530 4 -2.9614102946615297 30.15170084497497 22.01251133800985 0 0 0
3461 4 -1.9507542784467304 27.310356043561498 22.52244305017738 0 0 0
1439 1 -3.1993506453581713 28.657419323329425 23.743121613735937 0 0 0
1520 2 0.16101655612475696 27.763302976271962 21.268724682764145 0 0 0
1522 1 -0.903819569862307 29.418448717499768 22.817328426997307 0 0 0
1530 1 -2.1222771177813335 31.67961958173599 23.37360699893233 0 0 0
1533 3 -0.6143840444448898 31.13355193987039 24.328490483982655 0 0 0
3537 4 0.7136090596584594 30.8924139258126 22.758209125182148 0 0 0
1524 3 1.0168882380413997 28.557667219646376 22.8880088870348 0 0 0
1619 3 1.5571437655008715 31.128744318505927 24.696583343868035 0 0 0
3603 4 0.24767073158485076 29.2856657371567 24.82112559087318 0 0 0
1442 3 -1.5349203452977918 28.200939844526516 24.931106185923902 0 0 0
1523 1 -1.8286264985543337 30.046196296358577 25.7302966195913 0 0 0
3944 4 6.235556808556552 30.10837478251981 20.844047878947716 0 0 0
4312 4 1.811451160010252 27.678712110011276 24.869295023269316 0 0 0
1605 1 3.234651404581406 27.520073604830003 23.02734592763057 0 0 0
1597 1 1.871370640331424 29.524494309221055 21.2208419694422 0 0 0
1623 2 1.9843709837732035 31.98769648253315 21.023811313107288 0 0 0
1705 1 2.5429479450156336 32.026402788088646 23.316198106065286 0 0 0
3541 4 2.7845788346848828 29.652881373647276 23.254433611601158 0 0 0
1694 3 4.0023346842573915 28.75406395271376 21.4722070322016 0 0 0
1598 1 4.588669032501922 30.412920933022566 22.29843833826051 0 0 0
4357 4 5.21294322693149 28.559635633235995 23.204551706633723 0 0 0
3883 4 4.543878821008455 31.309622205440515 24.267150486357465 0 0 0
1709 3 3.8177428897136636 28.65894806760987 24.76165366074902 0 0 0
1685 1 6.041689978298418 28.044788672161435 21.092556231231857 0 0 0
1699 1 2.8684624053400327 30.195813815241912 25.408553981842275 0 0 0
2676 1 5.480300446351428 29.6653811254639 25.277705240926835 0 0 0
3991 4 6.152132275342572 27.66552210618458 25.320844663090952 0 0 0
4605 4 7.1838833715672905 30.19441917991605 23.233228161927634 0 0 0
1700 3 11.255638384639385 26.596227419003416 22.658348864386227 0 0 0
1672 1 6.875059941190688 32.09676561880248 21.13134636130012 0 0 0
4682 4 9.762641042483892 27.83268043563942 23.269869281886457 0 0 0
4693 4 8.518073791432343 32.179847558149326 22.505495211772768 0 0 0
2613 1 7.391665477338314 31.91900411638468 24.42575478632152 0 0 0
1695 3 8.264123164303339 30.282499614246746 21.33027958372656 0 0 0
1688 3 7.806163464562214 28.832299996549594 21.876058631157562 0 0 0
2677 2 11.2199174167405 32.0340914435971 23.93105807262892 0 0 0
1873 1 10.095443630688795 31.108468944648095 21.428025026211692 0 0 0
4562 4 9.69730059745051 28.8139400865333 20.960704313767142 0 0 0
1855 1 7.504334696210432 27.902522309429223 23.37318772382691 0 0 0
4491 4 9.728638414646195 30.620561788069736 23.386633163016647 0 0 0
4686 4 8.055871459324816 30.169124659656532 25.73624068966597 0 0 0
1947 1 9.704278506564279 29.14284910044889 25.402688985157383 0 0 0
4388 4 12.08729096589644 30.359002819914497 25.06548186527671 0 0 0
1583 1 11.877444736782817 28.48470872238397 24.252974582649813 0 0 0
1877 3 13.218257298547822 32.18981146570911 20.92290978678296 0 0 0
4352 4 12.789768008327567 30.815140280332635 22.85101295735543 0 0 0
4677 4 13.594135070954149 28.22764361617001 25.558963884617732 0 0 0
1861 1 14.24184231943115 28.46348969951808 22.51125609761492 0 0 0
4013 4 15.97001190086809 30.203833180032852 21.901173994636753 0 0 0
1952 1 14.754425531408 32.00505332284683 22.458622229685332 0 0 0
3815 4 14.940032318946187 30.95436372208297 24.321772859066826 0 0 0
4728 4 11.913477634867501 28.524133645035754 21.583551678307042 0 0 0
4431 4 15.568003703091655 28.63270943352826 24.181790539843504 0 0 0
4385 4 13.443279568150604 32.16069590411352 25.82609089038302 0 0 0
1942 1 16.974914833609393 30.541054757703655 24.60486093333978 0 0 0
3551 4 18.157666822840536 31.015881701679145 22.848551108430783 0 0 0
2034 1 18.80186058715481 30.020361559579158 20.877896930482766 0 0 0
2033 2 19.712425900091866 27.799154761635997 21.397243040257102 0 0 0
3557 4 18.8973143800215 27.27737773492843 23.659127739369794 0 0 0
2041 2 17.287536721613566 28.239213692008896 22.02577473277998 0 0 0
2035 1 19.380199982748014 29.34269173413764 23.917945307410122 0 0 0
2044 3 19.066351424271147 31.18199371085109 24.8689403410147 0 0 0
2038 3 20.21258721253872 27.767659683557852 25.300654619623465 0 0 0
1946 3 18.183049568603245 29.039966632143 25.476797271442507 0 0 0
1036 1 -0.09051112501352732 3.6325756266761466 28.94245633158171 0 0 0
1038 3 -1.7167757588332646 3.8058301115096556 27.4644486240977 0 0 0
1121 3 1.5305127235501779 4.2991948545986025 27.361451342207403 0 0 0
3642 4 0.8532364024958803 2.128581747520565 27.615222751805497 0 0 0
1120 1 -0.23898613038613048 5.222852636990639 26.734302127561506 0 0 0
2046 2 -0.13814063452253106 1.0356574502177587 30.43299948168746 1 0 0
3707 4 1.6573472842871515 2.713064393116271 30.104542428077764 0 0 0
3706 4 3.067063725046974 0.7573387720307161 28.550282350159137 0 0 0
1111 1 5.1468021423455275 1.4170881168605123 28.263954340307336 0 0 0
1113 3 3.156527411548876 1.8827469281181148 26.85991622880104 0 0 0
1119 1 2.903878813109798 3.156079909141921 28.338477483517636 0 0 0
1198 3 6.658978641138894 2.0914946862577364 26.900652922710115 0 0 0
1282 1 6.475582766920234 0.3522805180625927 26.202432798990074 0 0 0
1115 2 4.0562099202333695 2.176308283286751 30.36479681464492 0 0 0
1123 2 3.207917584958412 4.618839721121875 30.506578718624453 0 0 0
3648 4 3.3752858744675365 5.312886786849364 28.273440528381016 0 0 0
1196 1 7.72803134073851 0.8379237358164935 28.835558577006935 0 0 0
1289 1 11.158814262556945 0.931073072704908 27.968541742246693 0 0 0
1294 1 9.26847739659071 3.7339358877166826 28.700738495098477 0 0 0
1365 1 10.485787489624052 2.962444532356971 26.125138295510794 0 0 0
1372 3 10.507213264141743 4.71459464777216 27.288453950910792 0 0 0
3585 4 9.177683342755394 1.862279875617306 27.575019857071382 0 0 0
1290 2 11.159029167353763 2.836892169463259 29.984865325792725 0 0 0
1200 2 7.230577681514533 2.894210118031292 30.22223607270925 0 0 0
1366 3 12.038101017688104 1.6983697819264243 26.2046247862599 0 0 0
3599 4 14.214318422729553 4.329581351919026 26.64874172239857 0 0 0
3604 4 16.164559254054335 1.746064818347992 26.38639726920041 0 0 0
3657 4 12.022480193164057 3.3411356526872122 27.690063226224012 0 0 0
3662 4 16.794415114994727 3.0024778027440595 28.538415894631115 0 0 0
1548 3 16.335317260990095 4.888489472861318 27.9895793933365 0 0 0
1375 2 13.178057017386505 5.34980925366306 30.249938332513835 0 0 0
3730 4 15.92252141131156 2.0977103081071165 30.74396630457271 0 0 0
1457 1 16.908681583224173 0.9139103463817565 28.314399448817653 0 0 0
1361 2 12.812697917417799 0.032772049663922546 30.228553512515063 0 0 0
1537 1 16.964314019125812 3.7887576893182757 26.439034352130932 0 0 0
1538 3 18.22769968190846 2.4111544069852395 26.91314272550194 0 0 0
1546 1 18.729976259282147 4.048146849788348 28.333347771167567 0 0 0
1707 1 20.88256292222559 0.6958806813923998 25.93609060597884 0 0 0
3675 4 19.16320570374517 0.9057654285557771 28.027622879807666 0 0 0
3676 4 20.663480993714817 2.855492429034734 27.171522092059845 0 0 0
3677 4 20.88868093377014 5.106793368619465 28.68332672648056 0 0 0
3733 4 17.08825733152317 4.6939155410997095 30.303162456023102 0 0 0
1540 2 18.294552870984827 2.5240526653995263 30.409637213845848 0 0 0
1534 2 18.14156733697512 0.04260097905047536 30.13927790255454 0 1 0
3614 4 20.009459112422675 5.387636813989301 26.263256142017426 0 0 0
1634 2 21.610669552965923 5.061631261709673 30.936999076017244 0 0 0
1713 1 22.686529902984603 3.809495850711207 26.608195464922552 0 0 0
3620 4 24.51201664740268 2.6017658554691585 26.429747745176044 0 0 0
3621 4 26.604070500402564 4.709963093859598 26.42132244898599 0 0 0
3679 4 22.45805261919693 1.12090459791 27.43793545231531 0 0 0
3680 4 24.512053955105962 4.513452558252443 28.090375693300317 0 0 0
3685 4 25.962998662222322 2.448222140861822 28.768763763257347 0 0 0
1789 3 24.577434781149837 1.004510309676063 27.69977354582346 0 1 0
1799 1 26.78698360710313 4.4819872688465185 28.589191122971414 0 0 0
3747 4 23.70954181193318 0.981976240132336 29.608480611643415 0 1 0
1875 1 26.323830624124252 1.3970669200171415 26.605629780810517 0 1 0
1725 2 25.273695990894428 5.31345339208199 30.33624590498885 0 0 0
1716 2 26.919827445040845 3.2878394676486473 30.841862968359514 0 0 0
1698 1 26.08460620899697 0.27290558652361524 28.824152182862306 0 1 0
1793 1 28.314326284060318 2.5226874182882297 28.929759868616763 0 0 0
1794 3 27.307557795027044 2.96513657029664 27.216863886406614 0 0 0
1882 3 31.454963692298133 1.9019184124689084 26.59221916554131 0 0 0
1888 1 30.907466217177834 3.634989146341483 27.489047505205583 0 0 0
3627 4 29.09498416398063 2.733756867794063 26.19422511837763 0 0 0
3689 4 28.89022975462171 4.470978297168053 27.868258872556204 0 0 0
3758 4 31.650009321281185 4.8611820790056 29.26780229371583 0 0 0
1690 2 29.95163605171698 0.5692412832946766 26.36741035009959 0 1 0
4316 4 30.228039897363473 1.7214263430588237 28.354205785948025 0 1 0
4468 4 28.000393894707194 0.6847584327254406 27.81079196972123 0 1 0
1796 2 29.450231569499365 4.273572796158777 30.170408367682015 0 0 0
1790 2 28.100472277830214 0.8502249629878688 30.670232786309498 0 1 0
1778 3 31.744750984546865 0.2678879741066705 29.95833362436946 0 1 0
1783 2 30.6375121537465 1.8799965488528707 30.585260726128183 0 1 0
1874 1 32.048416530339615 0.4560194338405021 27.84502546568345 0 1 0
3695 4 32.437124819120434 2.2883692193318272 28.92915566632361 0 0 0
1030 1 35.99008713562357 2.088604291582775 26.8087369771537 0 0 0
1966 1 33.92301000327509 3.908214641861287 28.63306191548527 0 0 0
1968 3 32.63587996502813 4.657887623173363 27.244295956218593 0 0 0
3634 4 33.65673482862192 2.389798070959084 26.793166906636557 0 0 0
3703 4 35.390561161655285 2.2304841245355678 29.113279049071878 0 0 0
1776 2 33.769452665890185 0.4785091116805163 29.83934919586666 0 1 0
1883 2 32.77126674916745 3.3662036811072196 30.79002051154184 0 0 0
1048 3 -4.710070389230214 10.355931021783015 27.446512545944152 0 0 0
1129 3 -0.020441899247399142 7.057239964813523 28.110377003013383 0 0 0
1130 3 1.2618719851896256 6.527006540772088 25.919983183703287 0 0 0
3575 4 0.6793513050557891 10.461194315324622 26.42638827027109 0 0 0
3643 4 -0.6670384305724171 7.352554363033966 26.053033623857118 0 0 0
3647 4 0.2504275697934215 9.147993816123655 28.61905209608085 0 0 0
3708 4 -1.9896667562787749 6.865608393598058 28.995604344747107 0 0 0
1128 1 1.5521367213821113 6.20191244999724 29.02054854258636 0 0 0
1207 1 1.3574400203234207 8.325853258107994 26.827194664862887 0 0 0
3713 4 0.140373277682035 7.011965889130802 30.609075873334703 0 0 0
1202 1 2.9008208628132452 5.446194447820901 26.091367347331953 0 0 0
1208 3 2.8882853488396867 7.297989875452534 27.523863002082486 0 0 0
1213 1 3.197642681921751 9.063984297751043 28.99564728628434 0 0 0
1214 3 2.0346301303540244 10.112106654663323 27.907782043220294 0 0 0
1301 1 4.161475502964943 8.528960416671644 26.413850507393043 0 0 0
1305 1 6.273285121752577 9.087878950776947 28.888657279702116 0 0 0
1307 3 4.601640012856556 9.966332324488523 27.651746859374228 0 0 0
3580 4 4.846754711182253 6.447856525639124 26.796999140950533 0 0 0
1392 1 6.250519242594532 10.64862394481423 26.46512350674619 0 0 0
1131 2 3.384432288537197 7.221322541406223 30.666997419147563 0 0 0
3723 4 4.820257745885418 9.100623533712444 30.69431548528526 0 0 0
1296 2 9.129889245789208 5.399739115509915 30.531956557787034 0 0 0
1371 1 9.443106550538381 5.732025094703819 26.08397179666492 0 0 0
1380 1 11.130138955621135 5.960184269799416 28.937672391395445 0 0 0
1381 3 10.442555357321567 7.421557188249641 27.499473451121915 0 0 0
1391 1 9.387851743737148 8.199809013935072 29.319145088266296 0 0 0
1393 3 7.990284489289577 9.383213189553093 27.79677088909476 0 0 0
3586 4 8.622591640886174 7.867270299000652 26.49405257627552 0 0 0
3651 4 8.986031098524244 6.0689030376241915 28.293939126923547 0 0 0
3665 4 10.30583244428705 9.566843601344049 27.65182480227847 0 0 0
1474 1 8.96574940421025 10.066517876012151 26.03203536931523 0 0 0
3722 4 7.513676296740986 7.367370887828602 30.25393825802218 0 0 0
3727 4 7.8525057022115785 9.901910478946368 30.596620948893133 0 0 0
1396 2 10.203697010230588 10.29059321150325 30.79164631540492 0 0 0
1384 2 11.933146836004527 7.88460728813682 30.41828082286471 0 0 0
1463 1 12.223556313948272 5.437754220450218 26.31819927970458 0 0 0
1547 1 15.523113440709396 6.019009903997151 26.291230925376084 0 0 0
1565 1 15.697268024712676 8.636116990809796 28.356114936193286 0 0 0
1647 3 16.437103603212 10.092904394652725 26.72414603480364 0 0 0
3605 4 14.812162601775398 8.229377312535465 26.263407375300602 0 0 0
3663 4 14.985344552691775 6.442264084942105 28.399449373006135 0 0 0
3664 4 12.611204985847912 7.243534565718561 27.61453340084055 0 0 0
3670 4 14.719604076574537 10.512027908753957 27.96524376747911 0 0 0
1557 3 16.750913084082907 7.614201876585204 27.115618317072105 0 0 0
1468 2 14.541592838342083 7.641189739351317 30.313898113646523 0 0 0
1568 2 15.482387391671447 10.491532639597459 30.34937423798418 0 0 0
1556 1 17.269697469020883 6.477641063404165 28.74433436929514 0 0 0
1735 1 21.799482137724016 9.667093507461706 29.019191673512594 0 0 0
3608 4 17.714087237795244 5.827969889288964 26.650227360065706 0 0 0
3615 4 20.314519345858738 9.662302739306005 27.153915365256395 0 0 0
3678 4 17.921803463146848 9.28403580725689 27.97487120071633 0 0 0
1642 2 20.99812402356972 7.284648648145754 29.681854259005966 0 0 0
3743 4 19.69011832186694 9.279280745237543 29.792441861185722 0 0 0
1559 2 17.27820954304051 8.406842888244132 30.316767109988795 0 0 0
1550 2 19.08755503213667 5.734745461425344 30.244735753590874 0 0 0
3681 4 22.60086974939282 6.021231595650602 26.70663770649108 0 0 0
1730 1 23.17651927871984 6.014319603380895 29.062731425834258 0 0 0
1800 1 24.81206043566368 5.797409076378461 26.27323638569004 0 0 0
1807 1 23.153421628343366 8.234057848058841 26.07857019070682 0 0 0
1808 3 24.459333658322002 7.361306067769602 27.320157551410432 0 0 0
1813 1 24.83964710269037 8.8229346541383 28.766217521239945 0 0 0
1815 3 23.20472033060326 9.973068131496115 27.38232732088794 0 0 0
1895 1 26.262422605800673 7.99816403464678 26.182637527979487 0 0 0
3682 4 22.73433860270098 7.9873737966007665 28.200371781184046 0 0 0
3686 4 26.163609849072234 6.677261278266736 28.24001756275674 0 0 0
1818 2 23.81982553892307 10.667146698335104 30.455200071466734 0 0 0
3760 4 26.131135864404435 9.995684175777138 30.367242246892154 0 0 0
1732 2 23.124007404528722 8.222510878912683 30.496963862871333 0 0 0
3753 4 25.212574200120297 7.543042199529298 30.907144318473826 0 0 0
3690 4 27.19048438787247 9.284143548924952 27.612180453748145 0 0 0
1889 1 28.47568057477705 5.659752413066285 26.092733691700865 0 0 0
1894 1 29.765213395350344 6.290270290514871 28.740098507152567 0 0 0
1896 3 28.0328824801426 7.210592867115518 27.39836571942341 0 0 0
1967 1 31.39149777538767 5.962874665919532 25.912907872566805 0 0 0
1974 1 29.35083720252453 8.378401110557741 26.18057298354185 0 0 0
1975 3 30.849674931620896 7.371408414052661 27.39962214079707 0 0 0
1983 1 31.264301103313628 9.278034003037876 28.588883347372075 0 0 0
1984 3 29.593757291340413 9.982253681247323 27.43085576740166 0 0 0
3759 4 29.266315741289112 8.39271255652192 28.731041744041136 0 0 0
3635 4 31.38449450204431 9.124996661455974 26.298941847795362 0 0 0
3752 4 27.603076163932343 5.666375720463839 30.486381803729437 0 0 0
1977 2 31.400293246449447 7.374098893189382 30.534244797301113 0 0 0
1987 2 30.19134192359038 10.05793996856452 30.89953779209226 0 0 0
1973 1 32.7832797698978 6.514099600189718 28.234362366249847 0 0 0
1970 2 33.8562118601154 5.612807668363324 30.457814936619933 0 0 0
1055 1 -4.373652168944546 12.027340193910813 28.407696499685336 0 0 0
1056 3 -5.927676731203251 12.848844021610914 27.603117969898236 0 0 0
1065 1 -6.105276589631075 14.648060940516531 28.771656750631116 0 0 0
1066 3 -7.6152194564564395 15.730272467838793 28.065013411730163 0 0 0
1147 3 -4.890298011947065 15.55497594044289 27.162537453119725 0 0 0
3636 4 -7.016963168579451 14.293267191466162 26.60643221325745 1 0 0
3644 4 -4.477677012838386 11.747886789376045 26.003247344543936 0 0 0
1992 1 -6.886865182170704 12.13953653823054 29.4736597793192 1 0 0
3716 4 -4.286068049160588 15.248452559041812 29.98728845098283 0 0 0
3709 4 -2.5147706151287665 11.011979619364615 27.255503556545158 0 0 0
1142 3 -3.2227965645310706 13.056973138215724 26.997328165886493 0 0 0
1145 1 -3.3206431887657715 14.617346140204566 28.13362658088799 0 0 0
1223 1 -1.4963149556887334 13.895606190252606 26.195502650750406 0 0 0
1224 3 -0.6648883783889241 12.123172555247539 27.495999850308777 0 0 0
1231 1 -0.3882865082871332 13.897081202918192 28.754508322471196 0 0 0
1233 3 -1.598811648771406 15.480626972594889 27.5530520733588 0 0 0
1319 3 1.0459165179550673 14.892299783568417 28.04790167648236 0 0 0
3715 4 -2.2694406573723134 12.824066369777517 28.89599517493521 0 0 0
1222 1 1.1367507249156503 11.405984133451302 29.15445753224342 0 0 0
3587 4 1.2621703889856066 12.82756772219225 27.260923927697974 0 0 0
1327 1 1.128666369960456 15.880119523532708 29.83310504205619 0 0 0
1227 2 1.3133852376164823 13.380596694076397 30.848831426078284 0 0 0
1236 2 -1.0120183722068763 15.240704696385317 30.86730255614856 0 0 0
1306 1 2.9757436968309907 11.245173209237937 26.478251599287162 0 0 0
1317 1 2.896198125289491 13.778444698517763 28.468148936115142 0 0 0
3593 4 5.678040900773201 12.831857602766092 26.705155316753817 0 0 0
3652 4 3.804907106985885 11.652297530203253 28.58785977709914 0 0 0
3653 4 2.3286371528111456 15.287016771072379 26.61308837917902 0 0 0
1585 2 4.680012309755716 15.087126907827106 26.63180756630512 0 0 0
3798 4 4.603272520017271 15.046141329451832 29.052136597866678 0 0 0
1311 2 5.233641992427577 13.070397068333353 30.08972359649129 0 0 0
2524 1 6.501352438071464 14.72715962350807 28.119595816716142 0 0 0
1321 2 3.4109562712550687 15.078081949747538 30.92074138855466 0 0 0
1217 2 3.2491759737561043 10.818481227427233 30.865547641207627 0 0 0
3658 4 7.60422349062289 13.846038954876436 29.70050440336015 0 0 0
1403 1 8.692992339302016 10.88930458014624 28.698724405721393 0 0 0
1481 1 8.146917942267947 12.988740127308647 26.215772950286237 0 0 0
1482 3 9.469222330374546 11.80012725699997 27.11195577787091 0 0 0
1488 1 9.503688401161195 13.397023360097077 28.55279059684868 0 0 0
1572 1 11.293768629335721 12.343989387231025 26.34271099827015 0 0 0
1578 3 11.445354501385381 13.966814880144096 27.728720096844327 0 0 0
3666 4 11.075051583330865 11.72708677037494 28.483610383116208 0 0 0
1594 1 10.222805808938304 15.000264014992752 26.207810943029422 0 0 0
3813 4 10.176823902423784 15.482535199326596 28.84469059611743 0 0 0
2589 3 7.9009805100303545 15.954735201899727 29.792108881904923 0 0 0
3736 4 10.739538779198003 13.062273652162858 30.39075131769711 0 0 0
1678 3 11.404521811441168 15.09332432845502 30.504201670018517 0 0 0
1406 2 8.60847962306806 12.158924766216906 30.70962135330668 0 0 0
4579 4 8.288841183610595 15.664175892110551 27.380610179336237 0 0 0
1577 1 12.758774180909342 13.201387458498237 29.399388904718023 0 0 0
1654 3 15.48277117103817 12.313550887558396 27.4407344938366 0 0 0
1662 1 16.591703444980194 13.775187213002411 27.91457816360753 0 0 0
1663 1 13.196085554545707 14.628547298324373 26.478138105906126 0 0 0
1664 3 14.614755559435057 14.28222791863011 27.92898175797619 0 0 0
3671 4 13.312057413990331 12.60813236318713 27.397072240329607 0 0 0
1745 1 16.32015612879409 15.292612112796293 26.24222069251629 0 0 0
3672 4 12.89944088274441 15.197618149109186 28.839060602029676 0 0 0
1673 1 15.166028572886765 15.67098539304704 29.302951545343248 0 0 0
1657 2 16.66278640107423 13.343417372394448 30.363115781853345 0 0 0
1653 1 16.94944997061055 11.274876150767454 28.273418479443073 0 0 0
1742 1 19.998710999185715 11.30720566608629 28.60004656325885 0 0 0
1743 3 18.795037438201206 11.33424663930106 27.24002540626752 0 0 0
1814 1 21.631554744287186 11.034226210613904 26.075220834605666 0 0 0
1825 1 19.47760077359294 13.315870474559661 26.33813028508594 0 0 0
1826 3 21.267548074380212 12.608486590563059 27.330972488497665 0 0 0
3616 4 17.365178267633148 12.38457261246699 26.300147106008737 0 0 0
3683 4 18.519156555357533 12.938216391576113 28.662964480639772 0 0 0
3684 4 18.27842307306652 15.175268072572077 27.231195498018003 0 0 0
3687 4 21.070703757836636 14.768207457972132 27.071423790216684 0 0 0
3748 4 21.08991205544288 13.138897293082085 29.415714965842547 0 0 0
1649 2 18.294132863103066 11.047822611678535 30.372780878815774 0 0 0
1737 2 21.15619286226793 11.21848659281645 30.809853168855156 0 0 0
1899 1 24.663542810184982 10.791583716708379 26.05189414585321 0 0 0
3691 4 24.889536998937196 11.004722614348669 28.28568191453587 0 0 0
1824 1 22.84804775661427 11.916831706341746 28.549057550030902 0 0 0
1904 1 22.862542739637213 13.585613897469234 26.07093008273157 0 0 0
3692 4 23.23585274279661 14.101258751917362 28.448904868864595 0 0 0
1911 2 24.43508535827319 15.466347149997437 30.740405070578525 0 0 0
1828 2 23.116444249441535 13.191124145965679 30.92745024003053 0 0 0
1906 2 27.00243928522365 14.624758501386822 31.00887764863741 0 0 0
3696 4 28.584593442661763 11.018557232549517 28.938276631492386 0 0 0
1047 1 30.606584416993698 11.441345735269516 26.244747570121852 -1 0 0
3697 4 29.01927751042021 13.862641522414163 28.83518207452957 0 0 0
1073 3 -9.385866351029845 18.289481299899887 27.90746045233226 0 0 0
1079 1 -9.534615877314 20.055339664005608 28.65203572060075 0 0 0
1081 3 -11.393312549995933 20.0463433971022 27.809197935280842 0 0 0
3637 4 -8.856416238937848 16.674200706251632 26.77875188558037 1 0 0
3638 4 -9.98957346002948 19.913536470704237 26.260352235089762 1 0 0
1080 1 -12.042958354996527 21.280753041165045 26.41747164920985 0 0 0
3698 4 -9.49162504683288 16.454920395022523 29.324420746665993 1 0 0
1146 1 -6.494634954734517 16.46146073710806 26.156933371349027 0 0 0
1072 1 -7.61876262819836 17.587986370108215 28.82861982242207 0 0 0
1151 1 -4.9178564492457655 17.093139433759667 28.525755375509817 0 0 0
1152 1 -7.955422348609814 18.764016720104078 26.30461699940669 0 0 0
1153 3 -6.1878194222744325 18.37959859164112 27.364195497422216 0 0 0
1159 1 -6.7613905038483555 20.427166743908863 28.24133072205243 0 0 0
1160 3 -8.464176275980538 20.957816437518794 27.270135134207152 0 0 0
1247 1 -3.8467865823718306 19.897804076468418 29.72128534604024 0 0 0
3577 4 -6.894463251006139 20.748969057957872 25.92453401065402 0 0 0
3717 4 -5.889985815500938 18.88343766163921 29.574358432213934 0 0 0
3581 4 -4.0710433180588845 18.810798972964204 26.720664779940826 0 0 0
3720 4 -3.8511562890339253 17.648653105395685 30.422047645662886 0 0 0
1162 2 -6.368097448947324 21.263011757444133 30.55852754430643 0 0 0
1075 2 -8.031737360582285 19.24267819505017 30.685586223412898 0 0 0
1318 1 0.17681702983222536 16.14559313234504 26.517734367144428 0 0 0
1232 1 -3.249762556581648 16.641758625478968 26.30049011650796 0 0 0
1240 1 -1.872164115911053 16.925406942866758 29.348857828945988 0 0 0
1241 3 -3.2362341228891935 17.951419397867674 28.32232124010565 0 0 0
3649 4 -1.4171306613314325 17.623279611686357 27.244596083741307 0 0 0
3655 4 -0.392152727123106 19.769541117018058 29.835038067607 0 0 0
3654 4 1.461744355785239 18.017764574292965 29.331722747344145 0 0 0
3667 4 0.9328100631978575 20.006914336074615 27.000614952863415 0 0 0
2597 1 3.0688928562687234 20.65717381575846 27.08387824900136 0 0 0
3595 4 1.8912094994905164 17.682363824627398 26.100893652802654 0 0 0
1505 1 3.1456056804862147 16.75559071541973 28.19179922374572 0 0 0
2595 3 6.336064780108536 16.52415143072492 26.266548823947183 0 0 0
4514 4 1.9986396321827442 21.1180444328197 29.007484162596455 0 0 0
4020 4 5.509482399657619 17.085833130678648 27.922727010065813 0 0 0
4479 4 3.775443634738295 18.866629891773332 27.542151209514344 0 0 0
4540 4 3.7176762633235967 18.932601304278542 30.02891191586931 0 0 0
2652 1 4.92866276061009 17.009612817968893 29.951602628909313 0 0 0
2577 1 5.64171458273772 20.082720183893073 25.71248141972481 0 0 0
2441 2 5.376913721487069 19.83039517859561 28.87448142265272 0 0 0
4719 4 5.794812467815987 21.263562094908718 27.263944601353515 0 0 0
4503 4 5.371626494623943 20.472423898017723 31.162371013857637 0 0 0
4556 4 7.090260234928028 17.64031967561887 30.819425300465596 0 0 0
1422 2 1.763636683397099 19.778070351080217 31.010149873500822 0 0 0
4329 4 6.91088949028792 18.406794837669143 25.926378158340796 0 0 0
4573 4 9.034985724732586 19.710677102765445 26.445568652704857 0 0 0
4748 4 11.675072241243255 19.7062600872419 29.882988350223016 0 0 0
4727 4 8.11462111254009 18.190248848785917 28.77136292131714 0 0 0
1502 3 9.222790643071743 16.65722913731041 30.143886350904452 0 0 0
3611 4 11.845575469908283 16.34393550922547 27.008046438318928 0 0 0
4392 4 11.517480861797175 20.04281308548806 25.587227617837655 0 0 0
4559 4 9.453950696873042 18.747608551776654 31.023532100237446 0 0 0
2686 1 14.468337432895336 20.809322688650433 26.229816960764843 0 0 0
4734 4 14.110050763007514 18.701709285649535 26.07980135409673 0 0 0
4149 4 14.55208231741489 16.31128532588645 27.161430773034382 0 0 0
1753 3 16.611969140664186 16.701670879218 27.46253139845865 0 0 0
2670 1 15.828576328118384 18.413437324060542 27.345770494828457 0 0 0
3992 4 16.36494439292209 17.76566099104604 29.408653170476327 0 0 0
4603 4 13.609640421792028 18.33242208773386 29.084362036016657 0 0 0
4355 4 17.19327871290729 21.541343960782523 27.53627891717062 0 0 0
1759 1 17.255931956110658 19.872180487775815 29.726961679993593 0 0 0
4409 4 19.214474962450257 20.656155303536107 28.879323050946965 0 0 0
1848 3 17.90609648132704 18.926665218715375 27.935304211536177 0 0 0
1751 1 18.14017126072568 16.780843986251053 28.662762178927323 0 0 0
1837 1 18.114033049100996 17.610044494159926 26.067970860852633 0 0 0
1838 3 19.71445980902722 17.04011242237145 27.023666336022885 0 0 0
1846 1 20.003494922653587 18.675739751286475 28.29561180906917 0 0 0
1925 3 20.777109107511578 20.438328952389544 27.381658774734127 0 0 0
1777 1 18.81288600636551 20.631179322389492 26.8203312739776 0 0 0
3750 4 18.797553352404975 18.428421506695923 30.13551747754105 0 0 0
1836 1 19.95744532648321 16.602501280706875 30.87207325956902 0 0 0
1924 1 22.77912249378359 19.893104689521234 28.290167145560908 0 0 0
2013 1 25.214233762697646 20.70895163864147 29.571075244101593 0 0 0
3632 4 23.277661447824016 20.012474427624056 25.91545248865343 0 0 0
3699 4 26.078701164234907 18.38375837606504 29.031655208658535 0 0 0
1920 2 23.96692074740403 18.590787300822893 30.28917864252088 0 0 0
1927 2 23.094351003263426 21.396597699063246 30.856005467917356 0 0 0
3704 4 -13.022575846337283 25.18680526678568 27.367661032954302 0 0 0
1086 3 -12.221708254121483 23.142138667673173 27.24637199983973 0 0 0
1166 1 -10.823438138442958 24.191419394647184 26.547446552587083 0 0 0
1170 1 -9.259917519556751 25.64405972166342 28.791501660727597 0 0 0
1171 3 -11.028374000154898 26.08457102543232 27.701254057114028 0 0 0
3578 4 -8.633335136945014 24.717347167676003 26.715195600139275 0 0 0
3710 4 -10.38901721873805 22.025446596216547 27.70613330088586 0 0 0
3711 4 -11.079630652546324 24.21992113089405 28.82733903946155 0 0 0
2020 1 -13.11021176195247 23.13098582404335 28.969490960797692 1 0 0
3768 4 -12.13005182614365 22.730026921100155 30.96022511152558 0 0 0
3582 4 -4.80032587497973 22.4406428141559 26.125791901266247 0 0 0
1255 1 -5.322397062347627 22.6878489652385 28.434288599873206 0 0 0
1256 3 -6.713434239071599 23.399759128539188 26.833011539366993 0 0 0
1264 1 -6.839221731207114 24.991985482997606 28.069673824955984 0 0 0
1266 3 -8.003569986977446 26.613616612893644 27.41070347368261 0 0 0
1339 1 -5.2948380051770485 24.631795665039135 25.94806701309595 0 0 0
1347 3 -5.142374197733366 26.311083411208735 27.180495944046932 0 0 0
3718 4 -7.539059271475051 23.019526750803628 29.058273942605673 0 0 0
1345 1 -4.277738067706826 25.376504558584006 28.888151185053843 0 0 0
3724 4 -6.220225267187322 26.864336968578332 28.901653090295625 0 0 0
1258 2 -5.892974632627697 24.19165093965276 30.498700733188578 0 0 0
1249 2 -4.012078961408955 22.356231874288788 30.583927886669166 0 0 0
3650 4 -3.2399497173266543 21.654259014022347 28.420343451504195 0 0 0
3590 4 -3.3332994157793507 25.099038162416296 26.898401593563932 0 0 0
3656 4 -1.7529738492759641 23.656410125486765 28.256075522651557 0 0 0
3660 4 -0.17427481032532377 25.988640349616297 27.998929981408807 0 0 0
1507 1 -0.3694009025543359 24.45490694119901 26.21842927437774 0 0 0
1429 1 0.05557196591623814 22.117025219985056 28.510459238296555 0 0 0
1508 3 0.9906514495293948 24.050058357720005 28.12356238713322 0 0 0
1431 2 -0.20585593672875113 24.320798565192817 29.698822361843206 0 0 0
1334 2 -1.6411471164342775 21.76225136893281 30.289256629400754 0 0 0
1341 2 -2.597479692943722 24.552428553960084 30.622801201396 0 0 0
1514 1 1.6277610580296997 22.684119116920833 26.49359247866785 0 0 0
4375 4 0.5213512890707328 21.955142641457044 30.938611056683342 0 0 0
2605 1 3.295658140809781 24.28200101550201 25.495299568602384 0 0 0
2521 3 5.036634346706984 23.423237125314675 26.905236051948734 0 0 0
4446 4 1.7157769304253865 25.436324430578125 29.627063778402885 0 0 0
2510 1 1.937594689342541 23.228521299188838 29.81679779413848 0 0 0
4330 4 1.8526244812276111 25.381243322949942 26.719821674364383 0 0 0
4475 4 3.207303420960976 23.49163852602836 28.086088179716818 0 0 0
2579 1 3.978122157154809 21.524577084385736 28.695383708337104 0 0 0
4411 4 4.376827713719637 25.219388999118284 26.985975293599168 0 0 0
4646 4 4.685230335482508 24.866100682532615 29.565331736696187 0 0 0
4715 4 3.3453703508683894 21.410999997786913 30.924046613903293 0 0 0
4739 4 8.057791740055274 21.672332527253893 29.961569395097086 0 0 0
4506 4 6.965092743537715 23.84607107743445 27.422372079904314 0 0 0
4558 4 9.213598736952067 25.01749409848277 28.33057687231768 0 0 0
4737 4 10.203841728405687 22.55628977313386 29.525442318567812 0 0 0
4720 4 11.916403188610879 22.36218886688822 27.2814364456994 0 0 0
4622 4 11.554284987052126 24.572865569354533 28.99987695978936 0 0 0
4660 4 15.68628930643724 25.76979131865577 30.05926294314503 0 0 0
4750 4 14.892632188180158 24.70260272739315 27.363331412149662 0 0 0
4353 4 18.36449592836693 25.025188537566862 27.50368354541888 0 0 0
1937 3 19.617730538048555 26.762993169546657 28.248965050075135 0 0 0
3626 4 20.263977848947967 26.020483358355037 26.414050527569756 0 0 0
1930 1 21.09548525678702 21.906484460072257 29.13038746447951 0 0 0
1935 1 20.389509525990313 24.75053930784968 28.483943622744697 0 0 0
2021 1 21.306022824177596 24.27541563852226 26.038437410987925 0 0 0
2030 3 22.004093838970135 25.478368580935562 27.363434502538198 0 0 0
3755 4 20.164193860112672 22.691851682108105 27.189465399957953 0 0 0
1858 1 18.264869527497048 22.642031098546706 28.697630259622287 0 0 0
3701 4 21.699205326243447 26.445497235952434 29.088132291302216 0 0 0
4539 4 18.610820816154998 24.963386870574475 29.96244516093448 0 0 0
3823 4 19.85260490394719 22.939802687817632 30.79223679169371 0 0 0
2671 1 17.81504260394098 26.892240568102366 28.90070448624205 0 0 0
4587 4 17.749146792309492 21.64850491918999 30.784593719435442 0 0 0
1765 1 18.3283701046474 26.865131992262388 25.997034889836144 0 0 0
1931 2 22.03690719575416 24.072549339172095 30.354449966384493 0 0 0
2014 1 22.079857463203087 21.776020461127036 26.214094911337554 0 0 0
3700 4 22.442398594255426 23.376764885839904 27.771578415922853 0 0 0
2015 3 23.693065236855986 21.550550967705398 27.703282529648014 0 0 0
1187 1 -15.39710095218988 32.28409979071685 26.267825318828685 0 0 0
1106 1 -14.931237864503794 31.299415907850445 29.706453948610587 0 0 0
1107 3 -15.96021540490501 30.775363934289107 27.804909465579982 0 0 0
1188 3 -13.759174535425906 31.817358551614543 27.53051473909033 0 0 0
3641 4 -17.452341704235884 31.975873617361813 26.898480935396847 0 0 0
3705 4 -15.716273360727783 29.092202424445286 29.290706350427058 0 0 0
2037 3 -17.120116636343997 29.958456075724783 27.897752665444905 1 0 0
3702 4 -17.269551177736204 31.50621476989558 29.3314188984901 1 0 0
1177 1 -10.980717817668136 27.736790050855507 29.077674721657587 0 0 0
1186 1 -12.132409242135397 30.680328883668714 28.269775697082068 0 0 0
1265 1 -9.797515082493353 27.073184701343152 26.659637215909825 0 0 0
1275 1 -10.470877117545957 29.72886454955501 26.20666161989115 0 0 0
1276 3 -9.74944249033451 28.70689227832263 27.814259277423858 0 0 0
1281 1 -9.233476331444361 30.50563664055443 28.683030188459924 0 0 0
3584 4 -10.258243643560888 31.75299302872614 27.007997494256834 0 0 0
3712 4 -11.823685159593039 28.357915442245794 27.131025746788794 0 0 0
3721 4 -9.154814783019955 27.584321420190943 30.383062339310065 0 0 0
1180 2 -11.21067798826518 29.70770089518789 30.49346765395164 0 0 0
1190 2 -12.693211594402367 32.20665400144341 30.51448900388315 0 0 0
3526 4 -8.184668081589285 29.183486583279624 26.48663323337952 0 0 0
1346 1 -6.5332887512393665 27.478121405585167 26.209747728752653 0 0 0
1274 1 -7.944453841029528 28.140915490653477 28.550844514519156 0 0 0
1351 1 -4.588048906205042 28.226871768834652 28.360805163258497 0 0 0
1352 3 -6.23523223421644 28.87652517086733 27.55950175393354 0 0 0
1358 1 -6.334375357803655 30.74231427898076 28.24393184524697 0 0 0
1359 3 -8.030817857966108 31.33663851355792 27.151061603129484 0 0 0
1440 1 -5.013138320755065 29.801687396446134 25.909670041068452 0 0 0
1447 3 -4.464761576725692 31.174975673024846 27.426392450763835 0 0 0
3591 4 -6.0747807963824645 31.854642009303184 26.20911690844175 0 0 0
3725 4 -6.379012268698796 29.211917895275462 29.857725851436186 0 0 0
3729 4 -3.9025808150167016 29.874203618082156 29.95484227452171 0 0 0
1441 3 -3.5480847001315645 29.110976671591736 26.824002967157142 0 0 0
1436 1 -3.4520659362405457 27.109506484042054 25.940770312132173 0 0 0
1446 1 -2.7395618262799193 30.471727525109603 28.175853363874936 0 0 0
1532 3 -1.8845505845120876 31.881239976925404 26.732795475500097 0 0 0
3661 4 -1.8759696218832538 28.085926094985513 27.189696945677824 0 0 0
3668 4 0.09576665846740795 29.283395329830185 28.138009196271483 0 0 0
3669 4 0.11818284178913885 31.14736126983581 26.364359878825574 0 0 0
1606 1 0.17685579104065496 27.62417600555872 26.52685413215476 0 0 0
3728 4 -2.962617596381101 27.076954968107593 29.648766916936147 0 0 0
1517 2 0.65463156973167 27.73771261476722 29.882440084910783 0 0 0
1450 2 -3.021079427709193 32.054974250372084 30.371838455329453 0 0 0
3738 4 0.9493215655576392 30.489191280409994 30.503200710431123 0 0 0
1607 3 1.6510632466815398 27.16609837541229 28.27288198666372 0 0 0
4638 4 6.376383082123544 27.665601633999625 29.5525345728813 0 0 0
4711 4 4.685416562513684 27.438301515162017 27.81206255340134 0 0 0
1612 3 1.71529061900306 29.139358964731144 26.644123241602458 0 0 0
1615 1 3.200299760746894 27.206958013108142 26.15892224291244 0 0 0
4550 4 3.78184009507574 29.340617203393936 27.05120367823634 0 0 0
1611 1 2.2830420311848627 29.2638829433332 28.6621802813654 0 0 0
1706 1 4.79284620711255 31.415330905568126 27.979903350456063 0 0 0
1708 3 4.0402261740409315 31.48140663635148 26.282686445638866 0 0 0
3674 4 2.328246424012395 31.234924719740437 27.48957523223345 0 0 0
1614 2 3.116892595675889 31.527012048372807 29.840529376938036 0 0 0
4451 4 6.6473931009977605 31.702037766005276 26.548084082466126 0 0 0
1506 1 5.74122927147603 31.26147117310027 30.413935673966577 0 0 0
4138 4 4.591438565334197 29.612676641489003 29.642697480770707 0 0 0
4695 4 3.178893681402469 27.550362312375533 29.796585233794502 0 0 0
4632 4 6.022328129268107 29.629189723528487 27.679061469715244 0 0 0
4533 4 11.211702017690463 27.14865526713154 26.116531411095735 0 0 0
4508 4 8.233511906289678 27.018441330492358 27.911801087221114 0 0 0
4730 4 11.18483257140454 26.436547425094954 30.320685168462703 0 0 0
4651 4 8.38977030163759 30.308903005183986 28.396984035553835 0 0 0
1791 1 9.56322165544007 31.17313354092281 26.751960583862306 0 0 0
4700 4 11.007737867234937 31.81649789128859 29.013493685858137 0 0 0
4602 4 10.79605006161023 28.91194323830176 28.952347672070523 0 0 0
4704 4 7.446264355674813 29.652008801093455 31.459128553997125 0 0 0
4420 4 12.964543980718787 27.42272289609577 30.086751125652782 0 0 0
4696 4 16.059271409425968 26.440411110456314 27.796494684185987 0 0 0
4703 4 12.311761441295449 30.630709255761275 27.22768605675772 0 0 0
1775 1 13.01882840816167 28.551073698208356 28.145483166403466 0 0 0
2679 1 14.238828880550649 30.10340939862357 26.37556979929471 0 0 0
1866 3 16.128802809263053 31.15326478646758 26.25512242180625 0 0 0
4543 4 16.37067945285694 29.223364551703764 26.835664999876684 0 0 0
1955 1 16.45755169063592 30.44227320946113 29.50818764137498 0 0 0
4387 4 15.063040856985932 31.31686838079508 27.964579497165758 0 0 0
2532 2 15.48336216503587 28.331891633726762 28.98766690453875 0 0 0
4643 4 14.336424609805412 30.487236501976216 29.92684214087285 0 0 0
3694 4 17.416338290437533 32.077772832519635 28.330127964470492 0 0 0
1945 3 17.39978543144219 29.090970781154326 28.60883331773698 0 0 0
3623 4 18.906161242355733 28.40668201376755 27.337465934727327 0 0 0
2029 1 21.069901948698288 27.783711775134407 27.255190311345814 0 0 0
1943 1 19.35544791192105 29.019687729947975 29.407191010316808 0 0 0
2036 1 18.226881403781814 30.48254786684606 26.88641007833911 0 0 0
4369 4 19.731694159573017 27.075238305056203 30.439973750723 0 0 0
3762 4 18.25540405650674 30.75401612175919 30.700653502464043 0 0 0
4489 4 17.521727176879242 28.282059154175936 30.53722858937398 0 0 0
1040 2 0.9060768735420819 4.728807837798193 31.139812984690053 0 0 0
3766 4 0.7598374884246752 2.1391844692987436 32.36910751015344 0 0 0
3835 4 0.22924808105149008 4.811308180723678 33.411265369765964 0 0 0
1960 2 -1.0138449361368356 3.373105750916218 31.24359175716063 1 0 0
3894 4 -1.8753411049690327 3.3974614420163745 34.61376241467873 0 0 0
3900 4 -0.20663547112703243 0.43915913188417405 34.816630124165414 0 0 0
1108 2 2.2544486435087743 0.6029951020335326 31.111845811867838 0 0 0
1116 1 4.439720660070367 0.9210480614260389 32.47675499983877 0 0 0
1204 1 5.227441419175231 3.855426232583447 31.93707685193067 0 0 0
1205 3 4.229302354228707 4.206925690454021 33.75833263819166 0 0 0
1209 1 2.56217018224016 5.134983251365594 34.23755890156187 0 0 0
3770 4 3.109890230926843 3.0772143663835982 32.40662450881069 0 0 0
3843 4 2.4416729786439477 0.5404878000415566 33.54528610962179 0 0 0
1203 1 3.6915150147266482 2.5933484538067337 34.68015920181037 0 0 0
3782 4 5.698465917132044 2.5652883710055834 33.73925080073659 0 0 0
1302 1 5.946405144702146 5.019253065286626 34.38999146357321 0 0 0
2198 3 5.374117838825594 3.516592974964005 35.642143674320664 0 0 0
3905 4 3.8085834126405564 0.46257408370003916 35.88194370824448 0 0 0
3901 4 2.0864816449129293 3.842541179458971 36.037275476483266 0 0 0
1297 1 9.270307635921892 3.2742565618739072 31.877147758441495 0 0 0
1298 3 7.389706736714827 3.8636092656277787 33.26718390386553 0 0 0
1376 3 10.820867740007348 3.4383467406483597 33.53117369787838 0 0 0
1383 1 9.19364699575359 4.719681945951456 34.50236723671174 0 0 0
3859 4 11.401074196389418 5.189381243345152 34.374478416506285 0 0 0
3848 4 7.448541900149487 3.4595480089324506 35.35021581286756 0 0 0
3791 4 12.127338456908385 1.6517897372355683 32.823363963795025 0 0 0
1374 1 13.056498893881198 3.580841218147183 33.771091274433694 0 0 0
1368 1 14.24488176494048 1.0155925239698564 32.24170203094079 0 0 0
1369 3 13.912639575736998 1.8417718926798465 34.078002272477256 0 0 0
3800 4 15.657796479505702 2.871131683019494 33.31305605361858 0 0 0
1552 3 16.381940907855874 5.115374397043812 33.53066813806377 0 0 0
1367 1 12.733487242682752 0.21040021377677226 34.61004596863281 0 0 0
3872 4 15.306727956137822 0.2380542255373193 34.299007713822625 0 0 0
3853 4 12.024777570650084 2.3054655761413465 35.26311742622734 0 0 0
1459 1 16.895879664689698 1.0542618341362213 32.444677146803826 0 0 0
2343 3 12.973332025279277 4.185344012832759 35.62532748959932 0 0 0
3858 4 14.773768913950132 2.9740633331551827 35.71600532370971 0 0 0
2335 3 14.14645719864427 0.8996577286146856 35.99562733265065 0 0 0
1541 1 19.464218051138097 1.8968147671827753 32.80440270971477 0 0 0
1542 3 17.860470252100836 2.475522622827645 33.88764223911968 0 0 0
1551 1 17.57613486848243 3.9150518340037372 32.56117826275095 0 0 0
1635 1 21.468956653127776 4.4399072726477975 33.38688017598641 0 0 0
1636 3 19.274510483598636 4.771264737319379 33.537444177669784 0 0 0
3739 4 19.648423362229497 3.995099159723139 31.716533317701007 0 0 0
1629 3 20.90588362137392 2.4706722507647174 34.02258538840869 0 0 0
3741 4 20.183408685498815 0.5721310164635929 31.233148335776008 0 1 0
3809 4 21.612957333896908 2.6517708088671323 32.06295867183563 0 0 0
3871 4 18.235343173574016 0.46879279841512583 34.31692137612872 0 1 0
3865 4 17.36869295358821 4.149489748790274 34.995296981209094 0 0 0
1633 1 19.663164585598466 3.576430860624858 35.01142224614485 0 0 0
1628 1 20.27610687497099 0.9513301555247937 35.24860886685736 0 1 0
3808 4 21.990566977971106 0.6414914560330603 33.803097922882834 0 1 0
1622 3 20.010127635611674 0.02266294631968631 33.459473318657714 0 1 0
3937 4 21.27774138356109 2.699345169102833 36.10257056113503 0 0 0
3932 4 18.264442980595252 2.2881432424384873 36.11742649250804 0 0 0
2548 3 22.04581364572991 4.49406523730659 35.40568275929126 0 0 0
1718 3 25.255895050287272 2.007276407301307 34.1898278307439 0 0 0
1726 1 25.468800624673616 3.828906400353391 32.862763661982136 0 0 0
1727 3 23.660417301269142 4.525515771017412 33.65022684229223 0 0 0
1804 3 26.764343173598228 4.953742146738507 34.057604956513586 0 0 0
3742 4 23.643153700290263 4.296892384197698 31.54879826796941 0 0 0
3818 4 24.020825026724197 2.1581851444281046 32.59123807396082 0 0 0
1724 1 22.994430848485905 2.6130715414174013 34.54819729771316 0 0 0
3817 4 26.835086343228255 0.9131353027008121 34.84239652347815 0 1 0
1701 2 22.584837140961973 0.5933961571546954 31.527044889570853 0 1 0
4444 4 25.725985711592944 1.0413222638779764 31.10246473533497 0 1 0
3878 4 24.92313858449763 3.7779910812573836 35.175935425270794 0 0 0
4427 4 24.3372849523941 0.3573554186514376 35.03357209276828 0 1 0
2540 3 22.55234690514145 1.09149757753522 35.840095262830005 0 0 0
1717 1 27.131799523314907 1.690431621766431 32.800599254742586 0 0 0
1802 1 27.154596394310904 3.1912385516406214 35.160042523643334 0 0 0
1797 3 28.692544222997803 2.5803943533817306 34.060921341775575 0 0 0
1803 1 28.269883676948847 4.650386171958557 32.60366834447177 0 0 0
3824 4 29.23380775290374 4.6236865022774944 34.5468112284779 0 0 0
3830 4 30.978667862928233 1.8723075407331435 34.56820738906428 0 0 0
3831 4 31.86872646358888 3.3905741147403625 32.897629422909915 0 0 0
3757 4 29.026262745526818 2.75774184469187 31.921393787825046 0 1 0
4589 4 29.120123360358548 0.6521522048815548 33.10533019803349 0 1 0
1795 1 28.99763365480091 0.7511688044086469 35.34510904264723 0 0 0
2764 3 31.369058070579527 3.687253424301252 35.76818848835114 0 0 0
3884 4 29.474110996636412 2.9384971100684467 36.15446230946361 0 0 0
1784 1 32.44343930043851 1.3763696801462435 32.158145158830294 0 1 0
1961 1 36.046160665129506 1.711777969544271 33.09207815829913 0 0 0
1962 3 34.07602909917349 2.1615076050585267 33.554158225825745 0 0 0
1971 1 34.237260425163186 3.9691245187451583 32.588914675257215 0 0 0
1972 3 32.84014728881509 4.943682451429434 33.75776375379219 0 0 0
3763 4 34.51790347144261 1.842052106439647 31.509907179104644 0 0 0
1969 1 33.017816405493136 3.242118380900835 34.83915675932572 0 0 0
1959 1 34.89519553275518 0.8997215723070229 35.15417798498992 0 0 0
3829 4 33.620074334346185 0.17940444059856755 33.55591159150808 0 1 0
2759 3 32.91044461764731 1.3470470248437172 35.178966905555825 0 0 0
2834 3 34.27203447649647 4.194920659910885 36.139963042185116 0 0 0
1050 3 -4.873644472156558 9.760689058464026 34.77874430380679 0 0 0
1044 1 -1.309512911760252 6.005778490956285 32.12565314105008 0 0 0
1045 3 -2.938395498578986 6.988783671958541 33.657923810138755 0 0 0
1133 3 0.05244729763061873 6.989638456317168 33.51690732448725 0 0 0
1216 1 1.6284897188288783 7.938282785676121 34.83141253683193 0 0 0
3767 4 -2.802194189561892 7.62262589825498 31.57129843468828 0 0 0
3771 4 0.31937484784369286 9.061524612606487 33.50327206313488 0 0 0
3836 4 -3.3839019734609384 8.96210431555755 33.58266650400297 0 0 0
1137 1 -1.477489885616238 8.066223455160507 34.54196992014878 0 0 0
1043 1 -3.0233266933025265 5.59915055000341 34.94669519879923 0 0 0
1132 1 1.6618798153039864 6.720274951485814 32.33687407351768 0 0 0
1226 1 0.41647192467450633 10.654936679074488 35.18939808596023 0 0 0
3902 4 0.5079366724307492 6.214808987985992 35.453559512098884 0 0 0
2140 3 -0.08877407738843246 8.838809175037738 35.68672480201809 0 0 0
2061 3 -2.9490660292979674 8.881812367272858 35.82642464151124 0 0 0
2058 3 -1.469111447792749 6.395895087479076 35.9472156248917 0 0 0
3714 4 2.0787458867735102 8.950891310255438 31.78908423572382 0 0 0
1210 3 3.072420403492565 7.083731763921659 33.83888583752337 0 0 0
1218 1 3.9876470978930865 8.705050520102118 32.851535902785066 0 0 0
1219 3 2.266783943249094 9.789348952944621 33.92016734445159 0 0 0
3777 4 3.921957006570182 5.789354739059351 32.448416339998516 0 0 0
3784 4 6.598066402659008 9.144081103482522 32.69966048396597 0 0 0
3849 4 5.2742931162027675 7.169096936323453 34.146024796968575 0 0 0
1405 1 6.076036025964948 10.031937340241583 34.6293363243614 0 0 0
2282 3 5.8044406583660635 8.338059839730791 35.75958128860363 0 0 0
3844 4 3.1678600406435007 6.611222346836403 35.92508579687412 0 0 0
2206 3 5.301623296565675 6.101343514915899 36.01762981084507 0 0 0
3845 4 2.3944274526395324 9.428988681802629 36.089954788069754 0 0 0
1385 1 11.139076632540029 5.629617946344053 32.24019786324553 0 0 0
1386 3 9.542534307637114 6.75236559453535 33.5457194062759 0 0 0
1397 1 9.216195255367202 8.862650354490219 32.71328818454105 0 0 0
1398 3 8.044953924572974 9.632546743935059 34.130944613146106 0 0 0
1478 3 10.61242975753958 9.160631826586773 34.18104650402445 0 0 0
3726 4 9.943119419970184 7.336710347076186 31.408436880809738 0 0 0
3783 4 7.663664419195868 5.948973226771429 33.19099345891146 0 0 0
1395 1 7.651204341404002 7.613106110873408 34.72300637573643 0 0 0
1476 1 10.606397474541467 7.364084393289696 34.98239272625268 0 0 0
2279 3 7.707859730862054 5.636692491804902 35.49000953760403 0 0 0
1484 1 9.275106313706054 10.040208809623293 35.6383502893674 0 0 0
2350 3 10.300461885924216 5.822018184665359 36.04351476501812 0 0 0
3795 4 14.163865892412455 5.464934761824942 34.26690591093781 0 0 0
3731 4 15.34544213930684 5.676722709617023 31.711469495164337 0 0 0
1469 1 13.571743357469966 6.606657438146282 32.41219665592767 0 0 0
1470 3 12.470434353409829 6.920175719658373 34.0164059700318 0 0 0
1477 1 12.078848056058629 8.659666334349504 32.858556074398706 0 0 0
1561 3 15.487399436778853 7.064798565369162 33.61889077949994 0 0 0
1569 1 15.397940530699401 8.686730657600208 32.458867374664734 0 0 0
1570 3 13.81431088629617 9.608613107031825 33.853634693057415 0 0 0
3734 4 13.604339029665306 9.421266456066196 31.471270282955388 0 0 0
1650 3 16.515471233706613 9.71476464451298 33.590905725417485 0 0 0
1567 1 14.203408822002334 7.6690851049755 35.15555338429494 0 0 0
1656 1 15.320329211368005 10.526189026471162 35.076089479029235 0 0 0
3867 4 12.345758258213786 8.708711588124256 35.10432698528665 0 0 0
3866 4 16.016701446143912 6.2679316547788275 35.62387639508376 0 0 0
1573 1 12.107152014520054 10.761922863018324 34.39211292969141 0 0 0
1648 1 16.96525393340375 8.157085385145487 34.909169272346965 0 0 0
1560 1 17.28721520393089 6.60066196636539 32.0744450861217 0 0 0
1643 1 20.154443218347538 6.425019637960309 32.42744659761178 0 0 0
1641 1 18.253626594047645 6.0591132204894675 34.578621179423635 0 0 0
3875 4 20.43578392622977 5.794985082696705 34.96268380562235 0 0 0
3876 4 19.13993082508621 8.002585401135603 35.6530684332151 0 0 0
3810 4 22.894866234272556 8.677163215847028 32.73598687337636 0 0 0
1733 1 23.526908103994504 6.421377996199578 32.19068819395143 0 0 0
1811 1 26.413164168023453 6.436336477267715 32.4601502440801 0 0 0
1812 3 24.89471221049807 7.60273000388621 33.429488624873215 0 0 0
1819 1 24.928684628290355 9.389796416523275 32.22995887536256 0 0 0
1820 3 24.07138657381935 10.27826782797701 33.7796703043435 0 0 0
3826 4 26.893201289804402 8.587892258921876 32.75111462391376 0 0 0
1810 1 24.96358397090572 5.899883396571555 34.7698717481637 0 0 0
3879 4 22.79859629424452 6.380090258977489 34.274808576568326 0 0 0
3885 4 25.943605888574858 10.648875041138753 34.676629226097035 0 0 0
1901 1 26.242947591196167 8.441914014623771 34.84235005307868 0 0 0
1817 1 23.61941196621759 8.70107847217522 34.79008401600807 0 0 0
2701 3 26.243795152208143 6.916617327282199 35.96260023016459 0 0 0
1979 3 31.36710386478564 7.351372507991133 33.7398264163487 0 0 0
1988 1 31.753201650129377 9.263312935792232 32.868260763481516 0 0 0
1989 3 30.079040755812873 10.101185700742718 34.099627751365254 0 0 0
3825 4 27.83959387914905 6.832566473519418 34.38805672928085 0 0 0
3832 4 30.635225563715093 5.664124789898295 32.56929325018603 0 0 0
3833 4 29.691757751660717 8.353514394079061 32.70665812489346 0 0 0
1986 1 29.921184863228802 8.093682586471793 34.88212842400829 0 0 0
3834 4 28.41540186307491 10.564873330977273 32.824438535007744 0 0 0
2779 3 28.143431814633214 8.95339888911539 34.47315085397954 0 0 0
1976 1 31.22638148325245 5.578324043116658 34.9370899974115 0 0 0
2772 3 29.403505997295387 6.341372846205124 35.890555866806366 0 0 0
1049 1 32.73212324722407 7.882631133109653 35.148846376515806 -1 0 0
1978 1 32.74978256221631 6.541886924981995 32.50444264286887 0 0 0
1059 2 -5.274877813755852 12.79276603933948 31.131345857234066 0 0 0
1060 3 -6.5083123551012365 12.394452213896049 34.60354110829455 0 0 0
1994 2 -7.553949216492355 14.22439766044639 31.113246571641128 0 0 0
3837 4 -5.103902560739442 11.400254783242524 33.536977801341166 0 0 0
3838 4 -6.990775032500843 13.984888406532576 33.45956114544865 0 0 0
3774 4 -4.638237523074327 15.859275337120073 34.37790218415515 0 0 0
1149 1 -4.921027934935475 13.618872383380126 34.511123013799825 0 0 0
2073 3 -6.395297655539919 14.802229257327662 35.38200275503433 0 0 0
2065 3 -4.540102135700636 12.045907671240462 35.53032113157232 0 0 0
1058 1 -6.244800518234744 10.825655165250451 35.69496371167371 0 0 0
3772 4 -1.301613130756853 10.771217790507345 33.807003623588805 0 0 0
1143 1 -3.2350440391894932 10.788242466423933 34.75930445072965 0 0 0
1228 1 1.2551807647225113 11.114256624215319 32.5567418555533 0 0 0
1229 3 -0.03168857781100343 12.39022220317214 34.115547043506126 0 0 0
1237 1 -0.24932679275822345 14.075646077760432 32.84689965872814 0 0 0
1238 3 -2.171160632930717 14.741908768874612 33.79419256805569 0 0 0
3773 4 -2.9897571413868134 12.803324365141435 33.97631939421534 0 0 0
3850 4 -0.3772733085398343 15.801077497683956 34.34051893214229 0 0 0
3786 4 1.185265594222395 15.7600355874031 32.10001525043145 0 0 0
1235 1 -1.4791429702976755 13.46542172298299 35.300783004291915 0 0 0
1320 1 1.41228076477804 13.380820112819293 34.876617235198566 0 0 0
2145 3 -1.6709955469575917 11.435118398035238 35.80980435033586 0 0 0
2152 3 -3.333128921179571 14.441643965571641 35.755356838372954 0 0 0
2223 3 -0.0908128733114495 14.610992869144203 36.07752261244475 0 0 0
1312 1 5.8316655191075775 11.018258915479402 31.368778118585276 0 0 0
1313 3 2.539946291564747 12.110639460371837 33.709624061208295 0 0 0
1322 1 3.587639001506342 12.865179770352713 32.20473808442045 0 0 0
1408 3 6.323173197116071 11.380757326677621 33.20178574614738 0 0 0
1412 1 5.924221720395636 13.011923490325628 34.12237301863036 0 0 0
3785 4 4.309284833227998 10.93768134040981 33.1659793380517 0 0 0
1418 1 2.8485120382757927 15.214559622377244 33.4844677663555 0 0 0
1411 2 6.426840527379396 15.293730887173574 31.05014059508411 0 0 0
3861 4 3.7655994602817895 13.449046224409262 34.781074079713335 0 0 0
3990 4 4.935226792429653 14.510254830012416 32.73140836247221 0 0 0
1310 1 3.332096075807719 11.07274798680067 35.07599493374448 0 0 0
2288 3 5.167627435096467 11.798087842545465 35.2964041014394 0 0 0
1497 3 3.5298026275822973 16.14096334645851 35.158211003857204 0 0 0
1592 1 5.3506267029771895 15.406047961989925 34.847344027866065 0 0 0
3854 4 1.8399191454861423 15.420686190369077 35.96507979662098 0 0 0
1490 2 9.399858237468086 14.746319717562207 31.000545242750476 0 0 0
1407 1 8.04885766706806 11.102079198560535 32.72831222024345 0 0 0
3796 4 9.91615936031861 10.982737815096913 33.79097619525403 0 0 0
3797 4 6.940084406036782 13.077663080521233 32.057646274623266 0 0 0
1586 1 10.293758601825111 12.714033378648491 32.497360458410064 0 0 0
3860 4 7.643889871748264 11.775822199916094 34.85869027962732 0 0 0
1496 1 8.042599780871157 14.996199542668306 33.026584087176126 0 0 0
4462 4 10.301153416369756 14.512896369548198 33.61097810324088 0 0 0
3869 4 9.423588526788865 13.627356155912512 35.67045657268151 0 0 0
2443 3 11.305196795923944 15.201023419213612 35.449607289307615 0 0 0
3999 4 7.476459823349353 15.413353939721713 35.21532278623408 0 0 0
3868 4 11.358265713463869 12.25545969578413 35.7382209275824 0 0 0
2442 1 11.17695885102765 16.03576781619034 32.22563042519985 0 0 0
2683 1 9.603298377541737 15.894642298799274 35.27414465681332 0 0 0
1574 1 14.37684536663647 11.348728227022317 32.51073393441224 0 0 0
1659 3 15.966265883101972 12.270447347073302 33.955561222107896 0 0 0
1667 1 16.672606000112516 14.113354827433684 32.87365749559849 0 0 0
1668 3 14.904463369540796 15.088053139614928 33.88034387771601 0 0 0
3735 4 11.946883046218549 11.037797927330082 32.16224086680971 0 0 0
3801 4 13.132945025040208 12.632084133955239 33.71847350522323 0 0 0
1580 2 12.33570697224949 13.929583493553594 31.84480180489321 0 0 0
4314 4 12.838418261596278 15.009453994897143 33.85812325630651 0 0 0
4363 4 14.873365519545507 14.612042518012473 31.67834637738843 0 0 0
1665 1 14.696127132666025 13.339415988574927 35.093336610590164 0 0 0
1754 1 16.204757946933263 15.490479813916346 35.38904947184416 0 0 0
2497 3 13.573411525401253 11.627946410212202 35.49021082825014 0 0 0
2504 3 12.774650788642585 13.641396973558173 35.54399735808426 0 0 0
1675 1 13.372113160934676 15.8236760563461 35.87110022657153 0 0 0
1658 1 17.129238155516674 11.398522436127283 32.47451723708658 0 0 0
1747 3 17.703143171601155 14.58775260060673 34.474161651480344 0 0 0
1835 3 20.91930544007573 14.75900466944605 33.80017850696507 0 0 0
3744 4 18.745739541348954 13.043339881080032 33.630228015008385 0 0 0
3749 4 19.203686229278823 15.539421929027185 32.83328104462033 0 0 0
1834 1 20.788672232366086 12.928109187348957 34.697004067542814 0 0 0
3811 4 17.782828180811652 10.887416644416659 34.638690526969306 0 0 0
1840 1 19.490051573047708 15.421439903355417 35.08681467930401 0 0 0
1746 1 17.400595496958402 12.860949251732485 35.43922413602639 0 0 0
2644 3 19.316316372656274 13.402655702644958 35.79101741396095 0 0 0
3819 4 22.45635188372973 10.942553172569662 35.059746716615 0 0 0
3820 4 22.92762305207589 13.426400177769827 34.24369884932219 0 0 0
3754 4 22.416305606994946 15.130065505429103 32.36652706423343 0 0 0
1829 1 22.765373693445937 11.409052991111192 32.77327018961059 0 0 0
1912 1 24.744579391665873 14.109302713154266 32.86989113610582 0 0 0
1913 3 23.771079551549818 15.514481348118785 33.8975128777984 0 0 0
2002 3 26.075140950233617 14.994786258526606 34.16161206074069 0 0 0
3761 4 24.952617812955378 11.75874296735478 32.45618318359597 0 0 0
1919 1 22.299098367378377 15.4612558864186 35.107397329504 0 0 0
2712 3 24.29707399934181 11.969186573189583 35.4414101703854 0 0 0
3886 4 24.37174104090885 14.440784091263792 35.888389315546235 0 0 0
1995 1 30.163722583326127 11.920014497416458 32.719752284867475 0 0 0
1996 3 28.463550173460487 12.596892701137772 33.6970033170536 0 0 0
2001 1 28.14218607449797 14.810653326923829 33.301355428974 0 0 0
1993 1 28.24893056360156 10.931269771462638 34.9915288729495 0 0 0
1068 1 29.285151222225338 13.353449027417156 35.419175300706925 -1 0 0
2861 3 28.177164579140957 15.046578749423794 35.59986134549287 0 0 0
1083 2 -8.788759409080239 21.16068348679224 32.43191349242093 0 0 0
2000 2 -8.727665902865699 16.7781855180487 31.53786953377979 0 0 0
3840 4 -9.011603902903452 18.770123239214865 32.966940899694364 0 0 0
2016 2 -11.430709050627799 20.90883252493187 32.19739623996033 0 0 0
2007 2 -10.640247286817392 18.820825328145517 31.208348669875704 1 0 0
1088 1 -11.771232261786947 21.106908396325842 35.05781624249662 0 0 0
3896 4 -9.874661595618258 19.93162000121221 35.72664775803115 0 0 0
3839 4 -7.164481774598289 16.342199981862645 33.247152398899416 0 0 0
1163 1 -6.755375051218768 19.766877393339872 32.97675879443715 0 0 0
1251 3 -4.827757755447463 20.403381697917563 34.111080483219695 0 0 0
3775 4 -4.973126924177362 18.25245865730265 32.860313610033835 0 0 0
3904 4 -8.08105889276128 21.489426863629745 34.69254675512614 0 0 0
3903 4 -7.076161462237003 18.343988038521285 34.93602995429602 0 0 0
1248 1 -4.754366229657002 18.42313014556017 35.0700404961279 0 0 0
1244 2 -2.0666669683097183 18.804247554373642 31.169400053591616 0 0 0
1245 3 -3.1090355543095827 17.878510254470203 34.076152992100106 0 0 0
1250 1 -3.3089713750873795 19.701486437727695 32.9997557818609 0 0 0
1329 2 0.07458860769185094 17.738732906116738 31.387773142627786 0 0 0
1335 1 -0.4320301481214166 20.31212485588165 32.17023004195729 0 0 0
1336 3 -1.8460693449894023 20.594390853190696 34.06539073782519 0 0 0
1424 3 0.4973909418406155 20.327721632227707 34.193279891260524 0 0 0
3778 4 -2.149210540407183 16.633962812077044 32.553740624632006 0 0 0
3787 4 -1.0204363859013448 18.670757082652212 33.535491613200875 0 0 0
1423 1 1.328530645243779 18.179731744827645 33.577945670544345 0 0 0
1243 1 -2.611303706832194 16.21419607553152 35.203645786156855 0 0 0
1333 1 -1.8654793499151872 18.698264471193045 35.61329123733463 0 0 0
1340 1 -3.2537814956066136 20.920985096773283 35.71077200896012 0 0 0
3855 4 1.0517474040612935 18.88337118404474 35.871459887413266 0 0 0
2516 1 1.6780374677469005 21.135842965786264 35.595891328416805 0 0 0
1495 2 5.098721360974713 18.488354955460625 31.7411475532208 0 0 0
1417 2 2.7724988984563854 17.39805761182062 31.284773803078664 0 0 0
3792 4 3.481305966589405 17.35563160178443 33.482633651978034 0 0 0
2744 3 4.627747362511416 16.44703002530003 31.94211031159108 0 0 0
1595 3 3.192446539025566 19.153119191507617 32.28459386319712 0 0 0
4206 4 2.6513984218610656 19.826136141172068 34.15177684374909 0 0 0
4523 4 5.102142798494558 17.59886675103431 35.360085282947594 0 0 0
4530 4 6.347623492455174 16.623086295776137 33.11759664614951 0 0 0
2451 3 2.784229948451907 17.36986033735091 35.43270627545905 0 0 0
2818 1 1.9149730663915392 21.487916932528304 32.80691935664261 0 0 0
4477 4 5.448223441235754 19.369379100804167 33.78505706505102 0 0 0
2601 1 3.4856357148955137 19.073860810584147 36.06644026144944 0 0 0
4639 4 9.503302980500736 16.535922164743493 33.01082596303652 0 0 0
4741 4 11.070433589678462 20.50616272628723 33.705417106137226 0 0 0
4749 4 8.659398126969652 17.62332947008177 35.45288037936588 0 0 0
4509 4 11.367800500379843 17.033925365443302 34.79915441492584 0 0 0
4531 4 13.106347996789127 16.202326150379278 31.23173501860512 0 0 0
1677 1 15.073053506279123 16.884192941217165 32.55476238515194 0 0 0
2656 3 16.61715675542792 17.939361454698595 34.38023315054742 0 0 0
4144 4 14.724766384769618 17.045735975094626 34.658905029005325 0 0 0
2675 2 15.372619533803718 19.30937515177834 33.887316953665845 0 0 0
3993 4 16.810034913143895 18.33219124023614 32.09829294552671 0 0 0
2737 1 15.577422962308328 18.327949737337267 36.112082936113495 0 0 0
3812 4 16.997218481615917 16.24008216693619 33.530793958435424 0 0 0
1666 2 17.284790529843058 16.26146749122181 31.12503990812114 0 0 0
2655 1 17.82315503206678 19.69417841806907 34.27737318381237 0 0 0
2664 3 17.96846003126136 20.007672997670632 31.931162397970034 0 0 0
1755 2 19.066876318316538 18.38444220941845 32.35395001444777 0 0 0
1841 2 21.582114773684356 18.78538902762652 31.780043293620565 0 0 0
1842 1 21.01068866764829 16.950666170568873 33.30219830049737 0 0 0
3821 4 19.16538452080415 17.75100407250226 34.45970970908837 0 0 0
3828 4 19.806646485425908 20.40543452549786 33.30193293796049 0 0 0
1850 2 19.696866580380394 20.588021969689304 31.091575205185094 0 0 0
3888 4 21.866993754071668 19.457697398794604 34.07984254739803 0 0 0
2728 3 21.051433863154585 17.04014321860318 35.18091739923547 0 0 0
2733 3 19.781752665322863 19.61098827103696 35.47120920501778 0 0 0
2650 3 17.953922943839416 16.612903154843647 35.663034493995326 0 0 0
3822 4 21.177870648874613 21.386364602752327 35.576569724868776 0 0 0
3827 4 24.114113789617853 19.324656213636594 32.59653356436874 0 0 0
1921 1 23.50525766199985 17.129853539206803 32.37895688155707 0 0 0
2008 1 26.186939113301804 16.55873872695764 32.36014340029573 0 0 0
2009 3 24.96924466946846 17.642238884431638 33.671880266292575 0 0 0
2017 1 26.14001900688083 19.096005361599946 33.79730067375979 0 0 0
2018 3 23.89481303501801 19.839171677007556 34.72908528223747 0 0 0
3887 4 23.065541383989636 17.466353631554366 34.51846403345336 0 0 0
2006 1 24.945612895774232 16.400688827624208 35.09427610567377 0 0 0
2023 1 23.599139605517305 21.41126608009345 33.38264569673731 0 0 0
3889 4 25.197134641974067 18.554877219399597 35.74007669886256 0 0 0
3895 4 27.142188793083044 16.860415250453887 34.428410916338585 -1 0 0
3897 4 -14.579916419805745 26.30737454426847 34.90152028686528 0 0 0
1094 1 -13.852500344925408 24.099480952902855 35.169047850879295 1 0 0
1096 3 -13.219479074416656 25.07967336936989 33.79981491273962 0 0 0
3841 4 -10.464907913212064 22.36550062851275 33.83830759460772 0 0 0
3769 4 -12.695683824418245 26.50068303813868 32.46389458697592 0 0 0
1089 3 -12.460452148852482 23.063607339002353 34.2693376425098 0 0 0
1095 1 -11.773427901637254 24.29102069136029 32.75015033751991 0 0 0
1173 3 -11.001487166095043 25.847611706671806 33.86180235639965 0 0 0
3719 4 -8.924133386612809 24.934626745581816 31.060199864331445 0 0 0
3842 4 -9.45752251379609 24.57434756991391 33.641219789778496 0 0 0
1277 1 -9.262840211270763 26.598156589884365 34.7690609326309 0 0 0
1179 1 -12.383446901994704 26.57640838980505 34.805197977008326 0 0 0
1172 1 -10.931687788007128 24.05136417050567 35.28314866669531 0 0 0
2170 3 -9.044169318850443 24.615581594577648 35.77043599340979 0 0 0
1259 1 -5.342651920211691 22.213464782538427 32.64980269906631 0 0 0
1260 3 -5.7292338267124725 23.48220154067233 34.09567549100145 0 0 0
1268 1 -5.687536229004509 25.23477520953437 32.75800236862434 0 0 0
1269 3 -7.5835548345036 25.42076305109161 33.59266075613492 0 0 0
3776 4 -7.217812213048284 23.44949244761986 32.486790257951604 0 0 0
3851 4 -3.875072497033793 22.513463793053905 34.43647353577521 0 0 0
3788 4 -3.8791604155072985 24.013177456088087 32.501461208469344 0 0 0
3852 4 -4.84174329664836 25.16011116044079 34.905427156528916 0 0 0
1354 1 -6.424826313897478 26.766214718824134 34.69185729710153 0 0 0
1267 1 -7.648535270532994 23.72431321181216 34.68608740477801 0 0 0
1257 1 -5.910229090588834 21.695324583014806 35.28680901881449 0 0 0
2251 3 -6.645744080772612 24.91555233679473 35.85587591060838 0 0 0
1342 1 -2.4448184175753376 22.301713726947174 32.652412563577286 0 0 0
1432 1 -0.44176298077900533 23.77258687307364 31.993376669873626 0 0 0
1433 3 -1.406668405341792 23.799634596808712 33.73331942087676 0 0 0
1437 1 -2.26933113956604 25.727372700205628 32.92234086687196 0 0 0
1519 3 -0.17466026491603337 26.784785766955665 33.13656548632393 0 0 0
3732 4 -0.8983635448209082 26.158625305607256 31.075921091070384 0 0 0
1518 1 1.0965693816367779 25.872917485740842 31.86251970523395 0 0 0
3803 4 -0.16977172907117577 22.115889758679494 33.38146878768404 0 0 0
1516 1 0.039309046016796856 25.045773478837578 34.73975355911014 0 0 0
1430 1 -0.9469093193098939 21.99101409053923 35.29706583625998 0 0 0
3856 4 -2.290205516365363 25.021640617098974 35.08966432952187 0 0 0
2310 3 -2.6339165902278694 23.075028512825003 36.02929145369338 0 0 0
2387 3 0.44082962591059704 23.04449023119523 36.114442274597124 0 0 0
4484 4 1.7802778787295406 23.36205662847745 34.62048233065744 0 0 0
4717 4 4.146641715780046 21.320740926692405 33.24675411679725 0 0 0
4658 4 4.154369766310042 25.686852368653017 34.11787298825609 0 0 0
3806 4 1.7375554318167108 23.8338062469385 32.2670200636549 0 0 0
2594 3 1.8540616365663851 25.582709349212696 34.00296925675752 0 0 0
4071 4 6.386473256192497 23.362145922774285 34.66928129313733 0 0 0
4751 4 6.6185177834854 24.488422459393323 30.89038331972288 0 0 0
4321 4 1.821005445835489 26.63539910013967 36.05129409605134 0 0 0
4740 4 8.434214363920438 22.033397337394497 33.06731975069219 0 0 0
4742 4 11.975760468462502 22.069313415104137 35.229548319948705 0 0 0
4744 4 14.221607429283083 27.647055062354802 32.97976488354725 0 0 0
4561 4 17.998291970567713 26.500115958698245 34.61482146217164 0 0 0
4336 4 18.228928216237982 24.26542844246388 32.50737586886441 0 0 0
2654 2 17.814979979439094 26.372817671510564 31.868457991996053 0 0 0
4459 4 18.86084755462478 21.9222021530553 34.99673455266181 0 0 0
1860 1 18.494311626077813 22.098019928690647 32.78125796159887 0 0 0
1932 1 21.25505067852643 22.282539857905757 32.399902095293676 0 0 0
1933 3 19.954102772299507 23.308359389860357 33.514305914463385 0 0 0
1940 1 20.098122055053615 25.111914537077677 31.691810034868418 0 0 0
1941 3 19.36253634407643 26.544527991947277 33.062171190619146 0 0 0
2024 3 22.024204476099545 23.137162107177396 34.09745707886096 0 0 0
3892 4 20.724725949416253 25.203552612870947 33.90237511629604 0 0 0
1938 1 18.750140508862618 24.52256973266497 34.59497733492076 0 0 0
2811 3 19.921271818344252 25.600671587882278 35.86763743369025 0 0 0
3891 4 21.20431866658643 23.88915633744168 35.920024204476015 0 0 0
2032 1 22.531661316225104 25.256010395247632 32.735769566021105 0 0 0
3764 4 23.430758488135233 23.359283483797235 32.52801257403513 0 0 0
3890 4 23.61534011304108 21.95903480953075 35.61901452636022 0 0 0
1101 2 -14.17366796697232 29.376322953076414 31.17699642643614 0 0 0
1102 1 -14.097884726975265 28.03151046397535 33.28816721277204 0 0 0
1103 3 -15.309591670705984 28.96823248598379 34.608955336172805 0 0 0
1109 1 -15.464035911642371 30.45950886404179 33.030338178681085 0 0 0
1192 3 -14.434999255902424 31.777303079439612 34.007491833385885 0 0 0
3899 4 -16.58073861593355 30.770452602581862 34.93948667091288 0 0 0
2039 2 -16.826163453844707 30.234781634408847 31.189773859014892 1 0 0
3765 4 -16.250836203976096 28.288953980930803 32.89291131570046 1 0 0
2047 1 -18.0828025414406 31.863898659801006 32.61103531363502 1 0 0
1189 1 -14.351813445855184 30.422392823576267 35.40181441859997 0 0 0
1939 2 -15.329404223112467 27.01771762805337 31.25495149009329 1 0 0
3847 4 -12.593248493008526 32.28819381323204 34.89100011665277 0 -1 0
1181 1 -10.630269743661511 27.413325009066543 32.325064878938306 0 0 0
1182 3 -12.138292825226742 28.3570365768351 33.4327950504099 0 0 0
1191 1 -12.737143288334037 30.677387425841978 32.8771951591165 0 0 0
1278 3 -9.375967246972854 28.353370722185748 33.74906319255944 0 0 0
1284 1 -11.065398183060644 29.214789639079886 34.77462825058083 0 0 0
3781 4 -10.626701454927083 29.710099161744697 32.697233846176125 0 0 0
3898 4 -13.227333740588618 28.567951846770796 35.268173985479514 0 0 0
2184 3 -12.452501925272815 30.39299206161057 35.79178667514692 0 0 0
2177 3 -11.221810173275502 27.702983185340358 35.87675900507798 0 0 0
3913 4 -9.373242984065342 28.563676547828134 36.05379694229137 0 0 0
3789 4 -4.472967498042344 27.32537727420043 33.55260452792293 0 0 0
1355 3 -6.3893129383026235 28.71502428586396 33.50206707175196 0 0 0
1362 1 -6.427233382834832 30.887630240071704 32.25297762505046 0 0 0
1452 3 -4.857115524540141 31.421838301325156 33.29603103655626 0 0 0
3779 4 -7.2264932957015375 27.068959232900202 32.47399500660061 0 0 0
3780 4 -8.147055915202518 29.36242670362771 32.35402347715241 0 0 0
3790 4 -4.821830490271488 29.385718911727704 32.309023475369045 0 0 0
1360 1 -7.723397412200754 29.42396835868214 34.72252162194192 0 0 0
1449 1 -4.813356105819041 29.57448991472882 34.604319515282725 0 0 0
2323 3 -4.791986956938077 27.457274992163818 35.62097540138336 0 0 0
2329 3 -6.0743655245083925 30.565273133862423 35.792720797150345 0 0 0
2257 3 -7.618453753422404 27.473553023643472 35.87922225110621 0 0 0
1443 3 -3.113762637261612 29.072452241878086 33.80056208344839 0 0 0
1451 1 -3.136971320636187 30.708863546408686 32.542321141763026 0 0 0
1525 1 0.7174725431008575 28.752933588391045 32.17951282260482 0 0 0
1526 3 -0.4102765988074175 29.8375972695567 33.09499012981908 0 0 0
1535 1 -0.026584144462209025 31.476824524585695 32.330428838241886 0 0 0
1536 3 -1.6936905009322913 31.544690449050556 33.359087171533325 0 0 0
3793 4 -1.642508324483524 28.184869861060086 32.59387848139232 0 0 0
3794 4 -1.4725943889884299 30.315097029610126 31.167749866739825 0 0 0
1620 1 0.9060878692067575 30.59158088811153 34.58220890203453 0 0 0
1613 1 1.0953947543918403 27.82495370674414 34.54609213078139 0 0 0
3864 4 -1.4680789260035745 30.036471532049095 34.82234716856558 0 0 0
3863 4 -1.0187299023201248 27.366379765224075 35.05656226606498 0 0 0
2399 3 -3.317494769341172 30.79858412231469 35.55776669130425 0 0 0
2462 3 0.1748544796058802 29.21200858727934 36.115680238877744 0 0 0
4723 4 4.302666362561709 28.115024350671675 35.776417354517065 0 0 0
4736 4 6.009030347280806 27.938678407548945 32.70531482691604 0 0 0
2747 1 5.695519020093474 32.258600842887326 32.92140439869082 0 0 0
3737 4 2.34222719811782 27.274212151361528 32.855651388938774 0 0 0
4437 4 4.185988193075488 30.35057045857977 33.57621681407694 0 0 0
4201 4 2.8030675462956225 29.290407723684737 31.381288189889403 0 0 0
1616 3 2.231066960783963 29.367799066430976 33.533514482967696 0 0 0
1621 1 2.5212196513026335 31.206965312296386 32.42095614389871 0 0 0
2529 3 4.182102591792269 30.889820781465207 31.434946743133608 0 0 0
1710 1 3.839631906037127 31.468145003321748 35.530417794629955 0 0 0
4354 4 2.4063750232496197 29.56908716532182 35.70789056671396 0 0 0
4671 4 9.739720523606895 30.92996049475067 32.05720153350397 0 0 0
4585 4 11.052032522848748 28.679288622626906 32.874043921360474 0 0 0
4683 4 10.691689774366605 30.306029422395763 35.30633990301509 0 0 0
4618 4 7.255639829762078 30.92836064340182 34.38404905097803 0 0 0
4429 4 8.51362132323968 28.969984769618772 33.675974530255345 0 0 0
4402 4 15.326117971519928 27.135834098359947 35.595237874729094 0 0 0
2657 1 15.768466636641776 27.49133942167095 31.359972522516678 0 0 0
4649 4 12.981684372038835 30.372586809019058 33.714043315068196 0 0 0
1878 1 13.140808201438354 32.0820209412727 34.99842765031409 0 0 0
4721 4 15.926944556516517 29.666627245363287 31.615614055168365 0 0 0
4627 4 12.5640848872345 31.935956726163962 31.927347323034084 0 0 0
2525 1 15.303156570824726 30.31531228464871 33.53234085487631 0 0 0
1949 3 14.691564090538932 31.75439270678344 31.567128119822293 0 0 0
1956 1 16.62704738985438 31.95693181163411 31.789220676863827 0 0 0
4466 4 16.340431332933264 30.35265071393432 35.328572029751086 0 0 0
2048 3 16.93024789900792 31.750831060776406 33.864506372889984 0 0 0
2588 3 16.882400965863813 28.705246978117156 34.08663093889574 0 0 0
2667 3 17.15890639646095 28.22490876047743 35.40809757245889 0 0 0
2750 3 17.298942782369327 28.108417844187215 32.71248981014348 0 0 0
3756 4 17.78154843551343 30.157923571549258 32.994173741276946 0 0 0
4340 4 19.096590122360872 28.548107927123198 34.334755163931945 0 0 0
1948 1 19.075220353245825 28.466290422356657 32.07088773369101 0 0 0
2040 3 19.853986444367166 30.08518985543487 33.11670388014846 0 0 0
2045 1 18.336363697057898 30.481822856076928 35.10949857149832 0 0 0
3893 4 21.032613202837528 27.8227928122047 36.077043750896614 0 0 0
2050 1 0.7897555336286863 1.8942800409116374 36.17515421643527 0 0 0
2053 1 -0.698757090925612 4.44763815566091 36.475283266739204 0 0 0
2121 2 1.5146911409106925 3.505803990267022 38.368286265287054 0 0 0
2049 2 1.3170540560348973 0.9580614153486966 38.60189441678017 1 1 0
4028 4 -2.386780484146839 4.783915368095286 37.98770908634675 0 0 0
2123 1 1.4108999447715314 4.871674994393669 40.41073407619696 0 0 0
2051 1 0.0023413475109306248 2.4587619979997757 40.25655421404625 0 0 0
4093 4 -0.8596990889060288 4.5585031480081 41.243088201241115 0 0 0
2116 1 3.216356788403294 2.061068817247141 37.30652083560538 0 0 0
2190 1 6.0941413484785105 2.052219819060421 36.96973619773111 0 0 0
2196 2 4.760196506734585 3.4501754808659424 38.77723894099388 0 0 0
2197 1 4.125736153934173 4.681134216520671 36.62581305127835 0 0 0
2115 2 4.060717390278187 0.46798946353457666 39.001542282395356 0 0 0
2273 1 6.701485108180988 4.763390650733283 36.9957615800878 0 0 0
2117 1 3.0130432822204822 2.4469067652901813 40.39413484395222 0 0 0
2191 1 6.045177154657393 1.9383081249377583 40.41633542987763 0 0 0
2199 1 4.506419752308705 4.9434143731406195 40.74566417312527 0 0 0
2189 2 7.09260990396498 0.35071669671701916 38.76157885964505 0 0 0
2272 2 7.540412633227396 3.297258298133356 38.847675083936295 0 0 0
2341 2 10.700422866152092 2.6946887815992273 38.395279238049575 0 0 0
2342 1 11.253665166338479 4.2138463901408585 36.48402734037678 0 0 0
3914 4 8.45347287627535 1.8124226835069455 37.29588741847407 0 0 0
3915 4 9.00581201190167 4.3950219942416595 37.05871736295198 0 0 0
2344 1 10.571584960664264 3.8605674509416565 40.63354566143626 0 0 0
4050 4 11.453892238559872 1.7701730803348057 40.647699000596276 0 0 0
2274 1 7.354751338053271 4.646066313660884 41.00462361874224 0 0 0
2333 2 12.91439574089613 0.44796742105747167 39.15740425285287 0 0 0
2334 1 13.175418725562514 2.2778253073728734 37.203621520131776 0 0 0
2404 1 16.21825270888326 1.2438960469237903 36.63950429100613 0 0 0
2409 2 15.324924145163042 3.094487788676491 38.13501548040563 0 0 0
2410 1 14.302009117359292 5.082811284856198 36.66709475005475 0 0 0
3922 4 12.216400457471444 0.2404280893416221 36.80918227925138 0 0 0
2411 1 13.840093822060965 4.039426950834471 40.063837630738135 0 0 0
4067 4 16.38986019285266 4.177536853467389 40.05306669950403 0 0 0
2403 2 15.549722343736395 0.3283750511070214 39.04791412649915 0 1 0
2415 2 12.279343443673687 5.3639593116447335 38.52858802245622 0 0 0
2478 2 17.962448922856726 2.1845852382518354 38.46153407623825 0 0 0
2479 1 17.281417184482294 4.444024558375228 37.26711080728696 0 0 0
2480 3 18.9765469418617 4.882251017822517 36.2029945497281 0 0 0
2546 2 21.10480954376136 3.044067002117609 38.368162700295535 0 0 0
2547 1 20.848248173770028 5.136713480322088 37.161439478134504 0 0 0
2476 1 20.02861093508641 1.3413904001635244 39.596950117654394 0 0 0
3996 4 19.892966790609634 1.0225795519237402 37.43122271935477 0 1 0
2549 1 20.630590460485585 4.648002275654914 40.16407853583286 0 0 0
4065 4 18.55244643378891 0.9022133094240271 41.20181989880198 0 0 0
2626 2 22.8095205739816 5.2632792289313794 39.055640299438224 0 0 0
2699 2 25.007517809806718 4.309842675889904 38.85702316224137 0 0 0
3938 4 23.13891682317548 3.652896320105549 37.20146659175024 0 0 0
3945 4 26.29724405868724 2.9961713543349004 37.233075591095776 0 0 0
4009 4 24.152621575352708 1.9572359003028883 38.81486118165781 0 0 0
2684 1 26.387675549534332 0.6520953889208716 37.09804534154888 0 1 0
1715 1 24.44490719952238 1.9138609125267907 36.46660903253735 0 1 0
2607 1 22.145095593946802 0.9318818414110585 37.669436839686284 0 1 0
2692 2 26.495952821442277 2.171413427276986 39.32819854728336 0 0 0
4003 4 22.32752601048214 3.129583766199788 40.40175968710327 0 0 0
4002 4 22.161663691118306 0.49171575198417034 40.705652759822776 0 1 0
4010 4 25.71371834804538 3.560149339781588 40.946454370519405 0 0 0
2616 1 24.136082238958533 1.975127012100167 41.14183356728395 0 0 0
2615 3 27.801709416326624 1.7609717274781536 36.44211579493963 0 0 0
2693 1 28.67493459016582 2.3431349396939614 38.04967986531979 0 0 0
2694 3 30.337928611712716 1.0076392797783469 36.64474298088446 0 0 0
2758 1 31.843343549334914 2.001371431194913 36.71132171063374 0 0 0
3947 4 27.381118061854274 5.207115799567138 36.242721251088604 0 0 0
3943 4 30.842224192801865 2.4966494504496164 38.56958047672195 0 1 0
4568 4 28.722417235017776 1.2733986812549465 40.00882862858571 0 1 0
4021 4 31.443886882823023 4.6419370431084355 40.243837167206664 0 0 0
4525 4 31.695213379145592 0.4139383679825856 40.282460716514585 0 1 0
4510 4 28.595434646353162 0.14001282115304206 37.5771084055077 0 1 0
2755 1 30.89627751744282 0.06672989572618364 38.171551106258676 0 1 0
2760 1 31.093686764126236 2.3922652505180584 40.89821123266681 0 0 0
2695 1 27.869103184324942 2.9996803372848992 41.077483381418226 0 0 0
2757 2 33.09976450926235 1.8820783064128832 38.865977332758995 0 0 0
2827 3 36.13898608070016 1.5956785215545208 36.64157977419889 0 0 0
2833 1 32.61605191120828 4.411431001865163 37.40063629746527 0 0 0
3957 4 34.122508478584 2.3348311119491294 36.75696233752343 0 0 0
4026 4 35.472733740463525 0.44553119109578915 38.452134775409434 0 1 0
4027 4 34.873448404133 2.381186101359888 40.67525436125481 0 0 0
4430 4 34.020038713942526 0.15584897099487235 40.68885321898894 0 1 0
3951 4 33.39485285016135 0.03027497710147098 36.670809275620705 0 1 0
3963 4 -4.177693825102437 10.435861584642444 36.72588421768063 0 0 0
3958 4 -4.4341465400227165 8.227008204577412 37.369112850228454 1 0 0
4032 4 -4.14327261760481 8.503734420690996 41.05366445615952 0 0 0
2122 1 1.5709053354711413 5.723079981535033 37.38372249357169 0 0 0
2129 2 -0.5928236476407029 5.8671340740507 39.05719330997142 0 0 0
2057 1 -2.759371823935571 6.880477296830445 37.278835176273596 0 0 0
2130 1 -0.24355883589052496 7.624154151816077 37.19822275899059 0 0 0
2138 2 -2.5407244497091637 8.481676317758975 39.07636828172758 0 0 0
2139 1 -1.7897194552912827 9.87562914810027 37.04072042662364 0 0 0
3906 4 0.44223222613695956 9.956617023234957 37.45800491664001 0 0 0
2131 1 -0.13314646594719282 8.197968625200529 39.84921710349382 0 0 0
2212 1 1.2684653290301036 10.119499072771971 40.74034280167781 0 0 0
4094 4 -1.930398450800722 7.176041282216681 40.93517476469038 0 0 0
2205 2 3.6406993440993993 5.993605211199444 38.710801324462146 0 0 0
2211 2 2.1187223797246775 8.02505462442846 37.84851501763376 0 0 0
3909 4 4.679691515723067 7.785162121262876 37.58673502959342 0 0 0
3917 4 4.914527933911176 10.082608758015883 36.430008709620516 0 0 0
3982 4 6.282690048510884 8.699077469058281 39.57401447060307 0 0 0
2361 2 4.850353960847534 10.409119549834932 38.65993906231839 0 0 0
3974 4 3.0557538424863084 9.29441303909478 39.51971022758876 0 0 0
3981 4 6.096159479266854 5.490008148066561 39.05968739248384 0 0 0
2207 1 2.3922394528736675 7.3691472935758275 40.246985729457386 0 0 0
2283 1 4.795607404905332 9.525696538154005 41.06029467834022 0 0 0
2355 1 6.7740650335128985 9.033069124037231 37.31637936733436 0 0 0
3973 4 4.357008872579965 7.29151250329551 41.1982222421208 0 0 0
2348 2 9.131607165389298 5.390031796383811 39.35119936433226 0 0 0
3916 4 6.978946928512544 6.963475718950191 36.84946264057748 0 0 0
2349 1 9.061942400698232 6.610637280233373 37.21977308098552 0 0 0
2356 3 8.718029406733809 8.229036842199214 36.19298469863204 0 0 0
3925 4 10.641629567548609 8.386919382990541 36.995795718818925 0 0 0
3987 4 8.773750327012232 9.94818193214814 37.801666260992285 0 0 0
2425 3 11.407258913769724 10.239809553245452 36.23139818971449 0 0 0
2423 2 10.788491109785651 10.428526405209697 39.29349389685299 0 0 0
2363 3 7.2163654302389455 10.471284478164439 36.3066484719738 0 0 0
3986 4 11.241482873177253 6.036871094188744 40.50683853191127 0 0 0
2484 2 15.141219210839125 5.716053753339917 38.8466147291787 0 0 0
2485 1 16.462032870555035 7.40371754450147 37.710648459638506 0 0 0
2489 2 14.94821422208474 8.303869920777704 39.55435598765619 0 0 0
2490 3 15.723482518176505 8.776247877271734 36.24184931104475 0 0 0
3924 4 12.381104061752751 6.296386485064596 36.220423948862326 0 0 0
3928 4 14.250540046840118 7.43000346463563 37.45652160274996 0 0 0
3929 4 13.738236888404622 9.852598840299502 36.62383150226627 0 0 0
3933 4 16.20433989524653 9.74898256753493 38.05253875687792 0 0 0
2495 2 13.708091231386469 10.378122556092286 39.03536572033847 0 0 0
3989 4 12.512318180350192 8.399370840348857 39.50516454249721 0 0 0
3997 4 16.498582673724663 10.406186470229422 40.50696664262689 0 0 0
2416 1 13.413309963927667 6.628845961990528 40.605188483848615 0 0 0
2487 1 16.24528676795033 6.423809328557717 40.96494501500335 0 0 0
4059 4 12.097501806416169 10.232049863360158 41.256876035577555 0 0 0
2554 2 18.293047981218358 5.681426007539494 39.47505114638718 0 0 0
2486 3 17.811806869121195 6.666685446632052 36.485018502026136 0 0 0
2555 1 19.097318385215047 7.7220227435614195 38.00112002316851 0 0 0
2560 2 17.506085010727432 8.343748833529828 39.90922222107468 0 0 0
2561 1 17.965002342938643 9.827558950555213 36.60605845076628 0 0 0
2633 2 20.591155378865096 8.925688942928305 39.73905758753761 0 0 0
3939 4 20.966086619425518 6.737942265067534 38.8710897960443 0 0 0
3940 4 20.224877632113785 9.678134965444436 37.484321987615715 0 0 0
2637 2 18.494829815486707 10.326696454836402 38.92729364029676 0 0 0
2556 1 19.346366593957452 7.305497649598504 41.17383354887618 0 0 0
3946 4 23.59125654694696 6.057672862455876 36.70849061400889 0 0 0
3880 4 22.88129003358684 9.143939664768057 36.821858818121285 0 0 0
2700 1 25.001545038109352 7.783554989591862 37.26877701207669 0 0 0
2704 2 23.33779887724947 8.415020077572345 38.94945425242694 0 0 0
2706 3 25.202772398184194 9.406859656929505 36.23284764874601 0 0 0
2777 2 26.477045090126964 8.515358612396142 39.194914103725495 0 0 0
4016 4 25.391195904256467 10.698354848978907 39.30353324779063 0 0 0
2702 1 24.903877298906277 6.658109068992679 40.19538750724467 0 0 0
2627 1 22.25638395867861 7.213393995617498 40.75539641433197 0 0 0
2778 1 27.19570927275371 10.353366647461046 37.55846617233351 0 0 0
2771 1 27.951819352907712 7.665474198960721 36.67620646762082 0 0 0
2840 1 30.835907171068413 7.122787533143975 37.421188502882266 0 0 0
2845 2 29.110244419952238 8.72760847666921 38.72137454425567 0 0 0
2846 3 31.19852806282065 8.88626672494129 36.322760227665945 0 0 0
3952 4 29.16257668949411 9.496185934967652 36.35524123242647 0 0 0
3959 4 30.69383840667875 10.614807509777128 37.92750932830227 0 0 0
4023 4 27.96305900582449 10.46569788832029 39.94511061766808 0 0 0
4030 4 31.20482493768043 10.15301687159193 40.481290458520974 0 0 0
2773 1 27.803200213253128 7.08705862919009 40.93076433182728 0 0 0
4022 4 30.810944188810208 7.260717572218506 40.955977428465204 0 0 0
2847 1 29.446165973479747 9.11664171845395 41.09099714052219 0 0 0
4029 4 33.054346978878655 6.3195243686865945 38.953111398774475 -1 0 0
2841 3 32.66155561077864 6.260060442664339 36.38544511895739 0 0 0
2843 3 32.75362120103897 6.209859402761344 41.169280170542585 0 0 0
2071 2 -6.7610085233189885 13.625132907013302 38.83245859344081 0 0 0
2072 1 -7.569020716147293 15.319922925173872 37.157869786900825 0 0 0
2150 2 -4.600459516095169 12.5642261206144 38.662778592827856 0 0 0
2151 1 -4.974220343709643 14.737655232629228 36.993126474720704 0 0 0
3964 4 -6.162825422863752 12.923346267153308 36.61235796076407 0 0 0
3968 4 -3.708216375758181 15.185047352874443 38.66270923874881 0 0 0
2153 1 -4.953437431429053 14.268462813434331 40.46191596762691 0 0 0
2074 1 -7.3727870483277265 15.333369999774897 40.794477022180175 0 0 0
4031 4 -6.110625230452433 12.510827375475818 41.15068248193298 0 0 0
2222 1 -1.741075318883146 14.941531852087056 37.547060524263614 0 0 0
2293 1 1.0904792769625509 14.06095053392966 37.67483316715202 0 0 0
3907 4 -3.014564276558306 12.749778060357935 36.85315914369474 0 0 0
3911 4 0.07193432025083002 12.474313530081012 36.47644681568143 0 0 0
2297 2 0.35545738968406404 16.01356335731561 38.91365755352252 0 0 0
3976 4 0.719947015359022 13.908543516992536 39.913148639392354 0 0 0
2224 1 -2.4384773906060078 14.916191955475854 40.52080441220417 0 0 0
4033 4 -3.34518252031433 12.511787545904847 40.826481415864784 0 0 0
2228 3 -0.9508424942999865 14.032499203827447 41.175463654265 0 0 0
3967 4 -0.7230703273157477 11.690380748350345 41.16493634548178 0 0 0
2217 3 1.832279005849414 11.415824539084182 36.27592607319021 0 0 0
2294 3 2.4260016576596524 13.472700384666432 36.44756586839402 0 0 0
2362 1 6.095709494696356 12.01790816157356 37.109427953652535 0 0 0
2369 2 3.2948773995101766 13.108205361572029 39.49718627941273 0 0 0
2370 1 4.023057807835098 14.530221406528426 36.801444545478816 0 0 0
2434 2 5.5306263215486595 14.07412101208861 38.88540743339397 0 0 0
3910 4 3.8044144539139246 12.164331819780198 37.18862738549202 0 0 0
2374 2 2.8448342320638638 15.43048023650925 38.840137114418454 0 0 0
4309 4 6.041466249632201 15.736146687272496 37.35956146478506 0 0 0
2364 1 5.602794178275362 11.966681920201157 40.33475942312918 0 0 0
4380 4 5.95096878800349 15.745573242245705 40.506658588345736 0 0 0
3975 4 3.1683290521409093 11.269967341531576 40.833930410283436 0 0 0
2424 1 9.883456306182696 11.910343979866743 37.39671529423834 0 0 0
2429 2 8.023334572892498 12.321638462544094 38.919972518374855 0 0 0
2430 1 7.562137623797241 14.005460024554795 36.946241087304855 0 0 0
2502 2 10.855998064742957 13.2704867974624 39.327837424759366 0 0 0
2503 1 11.513073750059435 14.19130157539897 37.081741680600075 0 0 0
2509 2 7.751090738181595 15.570049721620006 39.13795852819732 0 0 0
4306 4 11.46894779663275 15.618809238563571 38.962475227457126 0 0 0
4337 4 9.423650548058264 15.263325718088323 37.501074647792436 0 0 0
2505 1 9.782000922438257 15.15092668691593 40.56796345417162 0 0 0
2431 1 7.129111163784545 13.869703473883085 40.86594490591142 0 0 0
2426 1 9.628189468926257 11.831925435959837 40.92546592965482 0 0 0
2526 3 7.977563341694491 15.727031880010044 41.130629555603974 0 0 0
2496 1 12.786300031342332 11.968783558839549 37.45033683512604 0 0 0
2570 3 16.08953707427078 13.711464763786001 36.62487945407729 0 0 0
3934 4 14.998933229079173 11.953296228802031 36.929654347667245 0 0 0
3935 4 13.998829639321515 14.11775630621516 37.08862760376237 0 0 0
2566 3 16.741215939016435 11.220040722509124 36.42930579680871 0 0 0
2576 2 13.274952616407624 14.170868058458254 39.222322669428145 0 0 0
4012 4 16.077480145922355 15.018701118921177 38.3365975657638 0 0 0
3998 4 14.837558363072837 12.413306169378743 39.42368727506172 0 0 0
2571 1 15.432240144571251 14.402468475792366 40.4675375128793 0 0 0
2498 1 12.802482756979693 12.194139231837541 40.53793188624974 0 0 0
4517 4 11.902368479116896 14.837871808965849 41.20341292255478 0 0 0
3942 4 17.96094232046042 14.740133636884305 36.60256347359721 0 0 0
2718 2 19.915397493265885 12.489112928366456 38.908189146618184 0 0 0
2719 1 20.049061986058916 14.317951372733637 37.367373008296696 0 0 0
2720 3 21.77666444589068 14.066690700473142 36.28389738317397 0 0 0
3881 4 20.72863380055694 12.159690361058553 36.78454284580692 0 0 0
3941 4 18.137576724846642 12.334846296466475 37.465045898770214 0 0 0
3948 4 21.336202148871138 16.061472747412473 36.99456067725285 0 0 0
4017 4 21.83930989801853 15.274927589790845 39.5841860404205 0 0 0
2721 1 19.83073734830606 14.602981952826372 40.19096302926168 0 0 0
4004 4 17.653686454373464 13.693750850622353 39.85676741039414 0 0 0
2713 1 21.876033175548752 12.321172254505361 40.4748995013066 0 0 0
2638 1 18.463667315582583 11.808296370885095 40.826088442217944 0 0 0
2705 1 24.299712252501056 10.759529984820755 37.316917023204226 0 0 0
2710 2 22.082404863605415 10.934447819609403 38.37125039230377 0 0 0
2711 1 22.916515719624453 12.629034417912935 36.61192010379132 0 0 0
2787 2 24.249289614689996 12.978177537357224 38.73963673173372 0 0 0
2788 1 23.259690915622528 15.116129188528381 37.71848596765342 0 0 0
2859 2 26.86534052550161 12.565774855250082 39.09634648568279 0 0 0
2860 1 26.511558753267657 14.632005682188561 37.044823000701555 0 0 0
3953 4 25.923575339136903 12.306265772088475 36.85802263381602 0 0 0
2868 2 25.271107271899517 15.636885582558524 39.132503213952134 0 0 0
2789 1 23.774742104964304 14.89919352212517 40.77213225731647 0 0 0
2862 1 26.75289559651619 14.511070822601868 40.988431392110165 0 0 0
4086 4 24.086271370426047 12.60087981300996 41.09059261395864 0 0 0
2077 2 28.015597765816352 15.394173025327856 38.99007970354523 -1 0 0
2853 3 29.249037612363097 11.595824282892245 36.638135323258005 0 0 0
3960 4 28.447220584666354 13.428418288472011 37.49510089666271 0 0 0
4024 4 28.736109250600155 13.450003630636402 40.27099897995909 0 0 0
2078 1 -9.357453057259246 17.751683174075943 36.67696013028062 0 0 0
2085 1 -11.099687206812284 20.223558504218143 37.62215099627249 0 0 0
2165 2 -9.082103710486708 20.864892021107174 38.96297108722244 0 0 0
2084 2 -10.319772378289048 18.30715366527238 39.02141595620159 0 0 0
2086 1 -10.954917988913575 20.232973100256796 40.600084766381975 0 0 0
2079 1 -9.044284304877767 17.41847790813191 40.89793590177784 0 0 0
2156 2 -5.851214716214719 16.300181756977143 39.0902016067336 0 0 0
2157 1 -6.31290507837928 17.623385256450153 36.97619392564994 0 0 0
2158 3 -4.482392525524796 16.67632401388118 36.252335833376186 0 0 0
2159 2 -7.746698294856972 18.458210909599067 38.73164706460158 0 0 0
2160 1 -7.806170158215879 20.43939470667385 36.911405860717025 0 0 0
2237 1 -5.105730173435729 20.59717482640123 37.638042808593816 0 0 0
3969 4 -5.296779937659343 18.713274514455232 38.87453866189693 0 0 0
2243 2 -6.640887205807601 20.55804115412414 39.59591429732022 0 0 0
2231 1 -3.7859997488104122 17.399953782924886 37.875606044240335 0 0 0
2238 3 -3.8321503600440483 19.105663308061438 36.62052104034216 0 0 0
2308 2 -4.1215930100943154 20.898930099374674 39.93117395135358 0 0 0
4100 4 -7.295804968877329 18.783182805775983 41.03777095627198 0 0 0
2232 3 -2.220998271437054 16.935888525928814 37.06154787518592 0 0 0
2381 2 -0.17347418557148764 18.518973833237705 38.916465758588274 0 0 0
2382 1 -0.3610475768224113 20.18178904156626 37.20686025434942 0 0 0
3912 4 -1.8594210308257972 16.790499425990138 39.253183409881835 0 0 0
3918 4 -0.2796012125540166 16.697525276670916 36.73049778119265 0 0 0
3919 4 -2.2399618673412682 19.068815079874923 37.92595347284669 0 0 0
3988 4 0.009061904578192781 20.825433089245983 39.55833918341798 0 0 0
3977 4 -1.5060353063294265 18.98203860383297 40.94409357364489 0 0 0
2298 1 -0.25130835257198214 17.040770389713764 40.9635000296716 0 0 0
2444 1 0.8670170468333325 19.466333598204145 41.11044868196971 0 0 0
2602 3 3.448819601967884 18.520435996709477 38.23937620690491 0 0 0
2375 1 1.7328700674716462 17.330208029262867 37.432307834346915 0 0 0
3870 4 3.751596899104655 16.735730287461553 37.17736360861893 0 0 0
4070 4 1.8921585659577858 17.931647170545812 39.60411454763904 0 0 0
2450 1 1.8161459301807081 19.856677986899612 38.202286820889285 0 0 0
2513 1 4.833205079113183 16.795124945948373 39.047685327744595 0 0 0
4210 4 2.5764094308188312 20.485029172715826 40.15211262742798 0 0 0
1602 1 3.813947233930479 18.697261332506145 40.39039425215616 0 0 0
2376 1 2.3154789012448163 16.263210098939247 40.91500828243035 0 0 0
4709 4 5.714012144688686 18.602675173055236 38.73466660755555 0 0 0
4624 4 6.1563498361476725 21.43027619165076 39.39518797024711 0 0 0
2447 3 4.266564205141247 16.923660080187595 41.26709084468564 0 0 0
4623 4 7.772523479541091 17.810542948058714 38.677674106031226 0 0 0
2511 2 11.131053267861958 16.439724886013966 36.96933076591721 0 0 0
4664 4 10.102194331773942 17.414291207263705 41.38386338272158 0 0 0
4702 4 12.45173340596581 17.9800080026959 37.189228473381185 0 0 0
2680 1 13.43450276193992 16.25979340437391 40.4575728937529 0 0 0
2578 3 15.395999603646032 16.42151418123323 36.81380791376894 0 0 0
4327 4 13.864568789271184 16.38525121480378 38.197562342185236 0 0 0
4006 4 16.46561882374416 18.025617402058526 39.01644734751396 0 0 0
2668 3 15.51917082580302 16.367555493864774 39.85390726376888 0 0 0
4011 4 19.265926175380805 16.165875719012956 38.50795237470919 0 0 0
2517 3 17.4612432642038 20.375484182328105 39.15919366922294 0 0 0
3814 4 17.720159894218938 18.60357886799795 36.3429108153374 0 0 0
2649 1 17.37656628123857 16.65722843327583 37.52295234103418 0 0 0
2732 1 18.141294952470602 20.702650543138244 36.906496571840066 0 0 0
2727 1 19.737699514115654 17.662082148063114 36.606239883727774 0 0 0
2731 2 18.624490777094035 18.772048612004077 38.725934105910696 0 0 0
2796 2 20.934415408228013 17.73226276780462 38.924207596505276 0 0 0
2797 1 20.53239708765083 20.177879048242335 37.496229926939584 0 0 0
3955 4 21.898101980815888 18.501665178447226 36.62488797358466 0 0 0
2651 1 17.62556704330698 16.338605919849478 40.1384920049627 0 0 0
2798 1 20.360752062502804 19.718613533989082 40.86111772981821 0 0 0
4069 4 18.054284004296925 18.75125676665275 40.989503143587214 0 0 0
4082 4 19.786527426529716 16.75979330981878 41.04788141661131 0 0 0
2880 2 22.394475344696104 19.60882995948634 39.06100760098674 0 0 0
2794 3 23.39794612032483 16.754121249012726 36.461010094984985 0 0 0
2869 1 25.087653017531068 17.498826087424483 37.63282236260955 0 0 0
2870 3 26.3235279787585 16.670827084161818 36.34559723971183 0 0 0
2876 1 23.610789136533093 19.938870741060818 36.87646167027572 0 0 0
3954 4 23.197885945525172 17.214850395538413 38.68235044677053 0 0 0
4025 4 24.79010812814098 19.135990224865008 39.23209993778043 0 0 0
2093 2 24.201305681474885 21.322757903569318 39.0412638452292 -1 0 0
4091 4 25.857019215912672 17.17399690721059 40.79459846057645 0 0 0
4088 4 23.075943473225898 20.65050333804976 41.17673432414683 0 0 0
2105 2 -14.04698050592093 26.41488724270771 38.96333365867964 0 0 0
2102 1 -13.725372845912588 25.41747477849998 41.22943553939248 0 0 0
2094 1 -12.34157906804907 23.086794767369902 37.32649141527698 0 0 0
2095 3 -10.71264504412557 22.126366400057133 36.42435784119936 0 0 0
2101 3 -12.381892323815691 24.957910225186723 36.3154001693697 0 0 0
2166 1 -9.234774767785074 23.109380637173956 37.43530515242637 0 0 0
3965 4 -11.94683179863836 24.882765487914085 38.710174539347015 0 0 0
4034 4 -10.961074507538667 22.165922896709795 38.76105531079092 0 0 0
3908 4 -10.49474374187528 25.896887917396484 36.49271294464612 0 0 0
4102 4 -9.231389007112377 22.947172218006724 40.23298823339045 0 0 0
2096 1 -11.832147926038969 23.15803493490679 40.61770968645332 0 0 0
4035 4 -12.177122344830726 26.879600192139034 40.94029294552408 0 0 0
3966 4 -12.935450743292703 26.899335747306942 37.0218067715519 0 0 0
2167 3 -7.4403293396808925 22.573652813539965 36.4117046742499 0 0 0
2244 1 -6.003817870457057 23.72790665778245 37.37997102281132 0 0 0
2245 3 -4.578230160076862 22.393076654594076 36.6408883858037 0 0 0
2250 1 -8.000674594606787 25.73262708690628 37.01527989439048 0 0 0
3920 4 -3.8492744595569253 24.421515838984945 37.12941796131918 0 0 0
3970 4 -7.302226339518565 22.379961733271127 38.522879966273166 0 0 0
3921 4 -5.762170602724334 26.309646319580175 37.12601517421101 0 0 0
3984 4 -4.629691361040962 23.22292118533149 39.16812142624778 0 0 0
2246 1 -6.091962391187081 22.803780047591577 40.743894080827815 0 0 0
2318 1 -4.757368077243891 25.434862167597444 41.08456464699593 0 0 0
3978 4 -6.840309349846917 26.142791689065817 41.228091011828084 0 0 0
2309 1 -2.903397052226204 22.416424131288686 37.98571500481562 0 0 0
2386 1 -1.4717639657451205 24.506072482006413 37.08867128518333 0 0 0
2391 2 -2.7088957273049914 24.888375371309202 39.16820989506744 0 0 0
2454 2 0.15657485318583042 24.72417392734837 39.37608420575705 0 0 0
4307 4 0.629137412460441 24.86408994237915 37.04124603453192 0 0 0
2599 1 0.06444076196573079 22.65606878744277 38.10211316621942 0 0 0
2606 3 1.2030723943069823 26.293865224773185 38.42613534841455 0 0 0
2311 1 -3.186230990636405 23.070282134270528 40.98928546662231 0 0 0
4048 4 -1.3614433574814093 24.39322097997978 41.02475749853788 0 0 0
2518 1 -0.06535914721542468 22.553043313605535 41.082187187139944 0 0 0
4195 4 1.6847342921169943 26.015216456406613 40.47541561296267 0 0 0
4621 4 1.6862071577879831 22.955874832991977 39.725489999861416 0 0 0
4604 4 2.1636509395041674 22.135550924604278 37.4184049410523 0 0 0
4726 4 3.27583277633801 26.560758111119814 38.10113543169912 0 0 0
4417 4 12.188090079392296 22.67512762594002 40.154261491767194 0 0 0
4731 4 7.13111766025596 24.138941995550464 38.64968772175929 0 0 0
4725 4 15.084591242961206 23.04010621393274 41.12460589896666 0 0 0
4735 4 17.091335071093894 22.715343792695762 36.222119809861816 0 0 0
4661 4 16.87224055769202 26.51848780882414 37.38803606378667 0 0 0
2803 2 19.180609553703764 21.545375150278957 39.22952056692 0 0 0
4384 4 17.15208101003452 26.126562070389962 39.660515264233545 0 0 0
4592 4 17.27753063989448 22.327042380815712 40.30363784660196 0 0 0
2804 1 19.283596532876924 23.3027880628276 36.83890878518136 0 0 0
2888 2 20.99960307666921 23.77070168776554 38.42426180567484 0 0 0
2889 1 21.46637310046963 25.87896969033745 37.177682347116544 0 0 0
3949 4 19.375290468165016 25.453211201367353 37.90062594708006 0 0 0
2738 3 19.004834657563784 23.605544673447685 38.89274889183305 0 0 0
2813 1 19.302410617789846 26.683399821180387 39.66550553737787 0 0 0
2745 3 18.35374060915092 24.61366955023848 39.7623490884053 0 0 0
2893 2 21.327522116449785 25.384670667097264 40.33858665653747 0 0 0
4018 4 20.021683021305265 23.341852770618598 40.73589252764407 0 0 0
2882 1 21.67154229487477 21.9259253844547 39.985533200186374 0 0 0
2672 3 18.149581207593208 24.428894836071024 41.13115769220031 0 0 0
3961 4 23.126233894899485 24.460849100801955 37.33055376085217 0 0 0
2100 2 23.41248049831868 23.69960908967035 39.38672304627952 0 0 0
2881 1 22.30666378425092 22.07509490504771 37.39720505083448 0 0 0
2106 1 -14.61240879274051 28.607131958544038 37.50587014161098 0 0 0
2110 1 -16.249223257477837 31.43746830568359 37.149655780460044 0 0 0
2109 2 -15.639160608287678 30.079236381410105 39.406826511279874 1 0 0
4019 4 -17.878690415523455 31.234919755037463 39.601505166871576 1 0 0
2107 1 -15.462594291196039 27.80870142026835 40.80942921540493 0 0 0
2111 1 -16.23749833129799 32.250759301306495 40.86525942653213 0 0 0
2183 1 -13.167196996867911 31.710447860628925 37.15922592059013 0 0 0
2176 1 -12.09717073018691 29.022941937481928 37.29436786461553 0 0 0
2182 2 -13.299606272065004 28.5370356374709 39.61710120229451 0 0 0
3846 4 -10.839812717564232 30.991205966213677 36.89795209933713 0 0 0
2185 1 -13.210390510351358 30.922968606769384 40.02149313226849 0 0 0
3972 4 -11.398688648287848 29.382480671718124 40.97700181568609 0 0 0
2264 1 -10.873075226192604 31.57624547422349 40.99816406601649 0 0 0
3980 4 -8.530521362160208 31.88908655578302 40.97934762762842 0 0 0
2322 1 -5.989777009745675 28.565330379511813 36.909998776189425 0 0 0
2397 2 -4.969944318742826 29.629494274933624 39.064198798737856 0 0 0
2398 1 -4.48754017444532 31.41811370690911 37.096353566176546 0 0 0
2394 2 -4.222568715239273 26.955113050737992 39.138884880763236 0 0 0
2400 1 -4.929120978367793 31.205474215751714 41.013358924061876 0 0 0
2324 1 -6.860966722773453 28.46725709302097 41.093168163018774 0 0 0
2395 1 -4.0604976364104015 28.439693042853172 41.169676548030424 0 0 0
2455 1 -0.023137285375490535 27.307516787830668 37.14533339829897 0 0 0
2475 2 -0.265681181040911 31.799604775149728 38.71075582545319 0 -1 0
2469 2 -2.3375559613895973 29.504577739007388 39.398328985436926 0 0 0
3857 4 -3.342446082214865 28.805762933311602 36.21233225850217 0 0 0
3923 4 -2.087557792196666 27.104868983497074 38.100512467507265 0 0 0
3926 4 -0.196531187938497 29.17500381884978 38.442432289514166 0 0 0
3927 4 -2.28483652535812 31.003117710003632 37.4791616008983 0 0 0
3931 4 -0.001393961944724964 31.38995696904104 36.42625405221906 0 0 0
2461 2 -0.3257656480818554 27.063051472778128 39.650079304065436 0 0 0
2528 1 1.5341586190077834 30.219409912194806 37.62217652010586 0 0 0
2535 1 1.2285546750293435 31.277973731454665 40.52821501090884 0 0 0
2470 1 -1.681280739151756 31.62282529688873 40.788056881244366 0 0 0
3995 4 0.8717281491542437 29.24983589912599 40.98177046960335 0 0 0
3740 4 5.37509436350404 30.01864565647262 36.37658340852601 0 0 0
4507 4 3.7614038993852255 28.76212086746304 38.0709404270948 0 0 0
2527 2 1.7510157678248746 28.053039321846057 39.2260428628103 0 0 0
2614 2 5.3646984673752875 32.04010731101182 39.637249865473244 0 -1 0
3877 4 5.340445723768617 32.04343038241081 37.335150887818706 0 0 0
2689 3 1.9084062582505155 28.221894756285455 37.30905005190649 0 0 0
2534 3 2.095620731911783 31.670795895075702 36.26815944285909 0 0 0
4254 4 2.524728829727035 31.711993430848185 38.79606891489264 0 0 0
2439 3 3.6352844122440544 30.69586090844 37.40406883991001 0 0 0
2608 3 4.468973442062744 30.582875697573833 38.616314534125884 0 0 0
4596 4 3.064334969025829 29.741446443417242 39.96743689035412 0 0 0
2456 3 4.572478930362742 30.812515588997382 40.98968280245546 0 0 0
4714 4 4.781557559485787 29.086946653105812 42.16170171420102 0 0 0
4669 4 8.094741397280576 29.941255276567272 41.332688026973074 0 0 0
4546 4 7.627865539500984 32.228098035427244 39.18907753498713 0 0 0
4654 4 12.10525680499389 30.454529767432838 40.104284250929446 0 0 0
4364 4 12.540101820679343 30.215348004417027 36.79784919855227 0 0 0
4347 4 14.661226845676227 27.194150314157685 40.01528055320931 0 0 0
2459 2 14.575990566042506 29.829673869622557 36.39231632695188 0 0 0
4548 4 15.423534288837178 29.53700777067047 38.444575366551966 0 0 0
2678 3 16.39412304477518 28.399469689966264 39.94418826429685 0 0 0
2754 3 16.13451767505895 30.91987972765145 37.312411650759984 0 0 0
2816 1 14.662093320127823 31.773649386714986 38.78225748418565 0 0 0
2514 1 15.310034212253825 30.11196918994342 40.35098323155978 0 0 0
2814 3 16.62057548650707 27.683459969403952 41.17142430090963 0 0 0
2822 3 16.946169373405233 31.81631859711493 36.495505309961125 0 0 0
2902 1 17.476316723240206 32.26511938224872 40.797691372392606 0 0 0
2603 3 17.09558925258187 28.267665023538385 38.64919318975083 0 0 0
2749 1 18.912980662147355 27.393718317871038 36.44708196497513 0 0 0
2674 1 17.419625349545516 30.353968499021295 39.03599303434099 0 0 0
3950 4 17.7348151240971 29.375264742845566 37.01848220540735 0 0 0
2815 3 18.38065090056839 27.56382639172905 38.322858282953106 0 0 0
4083 4 18.76481451408681 28.716380841902566 39.96101718344331 0 0 0
3956 4 18.838971118241634 31.623092124181806 37.14885967198255 0 0 0
2894 1 19.758827148354044 29.35557087566551 38.09131080926591 0 0 0
2901 3 19.751702722164946 29.479806710140533 36.22757579852598 0 0 0
3962 4 21.04606207094905 27.60823649605174 38.677281237084586 0 0 0
4156 4 17.37465316628894 29.984021636022298 41.14934606981555 0 0 0
2125 1 0.32264074321342484 4.993266663370759 43.15643423854007 0 0 0
4164 4 -0.17699299910302235 2.8588697248422226 43.79450951858948 0 0 0
2112 1 0.5343627086855915 0.7868802201225293 42.8223318874959 0 0 0
2056 3 -1.2615402149982278 4.762529569170747 44.13208738924518 0 0 0
2126 3 1.626448186999644 4.04153789221412 44.574543823627735 0 0 0
4097 4 1.3951314297210071 3.1501241415998527 42.00925722145059 0 0 0
4169 4 1.1108831435536273 0.8605711150479795 44.91116424753257 0 0 0
2054 1 0.08071190741372058 3.5157938880473494 45.92425019224416 0 0 0
2831 3 -0.8450870732859934 1.7651360672512704 41.95112850840626 1 0 0
2201 1 3.030410295527639 4.466913341753242 43.02756011074409 0 0 0
4036 4 4.999748540244918 2.9105100073504935 42.36113768863947 0 0 0
4104 4 4.77878982638332 0.31789626263579407 41.3458083336663 0 0 0
2202 3 4.5840472005394375 4.143898946462754 44.357415189890865 0 0 0
4105 4 3.142288289810456 2.546890094090825 44.14395921466085 0 0 0
2193 3 5.627180415123408 1.9229223012515808 44.2441590520408 0 0 0
2266 1 5.85662629948299 0.04280047590551033 43.24725991517716 0 1 0
2200 1 6.31513023656612 3.7136359712682925 45.3820256108661 0 0 0
2118 1 4.235163068659164 1.6826388908308099 45.823856982557324 0 0 0
2124 1 3.2840954353566936 4.1221980969043575 46.062577177561344 0 0 0
2194 3 7.0731004732990215 0.8519794189048898 42.06150636428303 0 0 0
2269 1 7.1989095809951404 2.634464783753658 42.96089189122981 0 0 0
2271 3 10.679235820475267 0.9166925278623915 42.55643717065476 0 0 0
2276 3 8.811420002163764 3.686837326671884 42.02479941070309 0 0 0
2337 1 10.179051069164723 2.641894627767101 43.32926656271883 0 0 0
3985 4 8.888420443840781 1.7196111059253638 41.54108885963851 0 0 0
2330 1 8.79649405504982 0.2575788647262472 43.24844087540069 0 1 0
4115 4 8.085658374505147 4.473130706743274 43.83300099444576 0 0 0
4043 4 10.264586608600599 4.982591905876504 42.637967571180745 0 0 0
2270 3 8.532862989728038 2.1037137884498223 44.24721831427535 0 0 0
2346 3 11.089231249574263 4.054753626765583 44.300334623799685 0 0 0
2338 3 11.795202118873748 1.0888758818364315 44.385675716699524 0 0 0
4180 4 9.25633550753122 0.5067305685948447 45.395886265342995 0 1 0
2192 1 7.079886015031615 1.0780975404765594 45.47887301821415 0 0 0
2275 1 9.071740052993059 3.6765114634934544 45.64066731084063 0 0 0
4187 4 10.695505007387522 2.3330731934841875 45.59104469434366 0 0 0
4243 4 11.03487254317543 4.807342181943403 46.26636238674343 0 0 0
4051 4 12.247110805960721 2.541015724169259 42.950316155609684 0 0 0
4057 4 15.163021557536911 0.7019193835182143 41.51571409544306 0 0 0
4058 4 14.711867416509198 3.297573737663103 42.06032121228398 0 0 0
4133 4 16.646795123552806 4.901203672508672 42.627060441655026 0 0 0
2406 3 15.87872626083499 1.8114562380585484 43.261727050526176 0 0 0
2414 3 13.772376036461733 3.4357412191339582 43.86189407736804 0 0 0
2413 1 12.655679964366147 4.72171336772853 42.753264159357 0 0 0
2336 1 14.001228203691584 1.2748449299598077 44.059082123998415 0 0 0
2412 1 15.689472325920452 3.502496638560676 44.25654413407147 0 0 0
2405 1 16.89218457413967 1.2474527688684744 45.128429424350344 0 0 0
2345 1 12.588642963419563 3.3328871606888937 45.30874833513345 0 0 0
4191 4 16.397182891232077 5.04954759722338 45.708468637545195 0 0 0
4126 4 12.623595310390824 0.05113882023377433 42.57913556248039 0 1 0
4250 4 13.060990176809781 1.258058795480063 46.187047508287286 0 0 0
2477 3 19.641961480335404 1.5997910765503138 42.973259321717784 0 0 0
2541 1 20.929344281494725 1.919956194084766 41.71995966325587 0 0 0
2543 1 20.047414141301093 3.1516303838369693 43.89279402661412 0 0 0
2552 3 21.55240577046647 3.843453354960387 42.27781710265421 0 0 0
2610 1 21.26113674258079 0.718674878559645 44.15847223384104 0 0 0
4066 4 19.447948075112137 3.8173482812224013 41.926371670569885 0 0 0
4132 4 17.819979727018985 2.6860241105228115 43.6458434389045 0 0 0
2551 3 20.58013749818973 4.896633503526905 44.23261493128126 0 0 0
2481 1 18.27391243412047 4.957482464442686 44.310266371189755 0 0 0
2544 3 21.285707088327985 2.3126888619337467 45.15594154631746 0 0 0
4197 4 19.29325620040576 1.3034463847449498 45.065707152751656 0 0 0
2537 1 18.360354960468378 0.157144555921352 43.33127848425425 0 1 0
2550 1 21.869020475553082 4.079039602327929 45.61398226941332 0 0 0
4259 4 19.702982298922485 4.061962895543154 45.89920757106005 0 0 0
2407 2 17.65293860546508 3.179797019077618 46.2615923472847 0 0 0
4196 4 21.114983180659983 0.12245508349528912 46.341732197582935 0 1 0
2545 3 22.705668444891156 1.1708744770463109 42.671058118996335 0 0 0
2618 1 22.63889990399181 2.758295383378444 43.67141666101781 0 0 0
2620 3 26.083409708491267 1.9868968831968834 42.481847325345306 0 0 0
2623 1 23.64229942503259 4.629465291305708 41.462220989444575 0 0 0
4075 4 24.558945642127025 3.3034012825065027 43.07355035246349 0 0 0
2687 1 24.569224155243084 0.7821655961068847 43.97947135661348 0 1 0
4146 4 22.802034646517995 4.97107481728863 43.70735511088033 0 0 0
4150 4 26.18521575460191 2.2965865962497345 44.56306974114871 0 1 0
2685 1 26.419993189175276 0.5215269679247737 41.29869057743816 0 1 0
2619 3 24.17146277200818 2.367162338766072 45.032450452087666 0 0 0
2542 1 22.84565134663029 1.6380368136069983 46.175545267851774 0 0 0
4211 4 24.759687976202674 0.586313390687925 46.2268103951543 0 1 0
2697 3 29.247485684212695 1.9414373090607158 42.058482944523824 0 0 0
2761 1 29.820859527376992 2.763488599772428 43.66401131319631 0 0 0
2768 3 31.28777429951702 3.4064505583050533 42.45167832789674 0 0 0
4015 4 29.557434126552977 4.198845978780265 41.75937594704348 0 0 0
4078 4 27.731686628409477 3.3565829718145714 43.16509876637921 0 0 0
2836 1 31.344641412172834 5.3570423755142915 42.48547752078013 0 0 0
2756 1 27.805231782254886 1.0795438513212574 43.52694884087194 0 1 0
2767 3 29.915489613576433 4.558627878726374 43.82098503365952 0 0 0
4084 4 31.282677571065257 1.301240764064608 42.9825654622075 0 1 0
2696 3 28.326807989667017 2.358234319637872 44.88244248875405 0 0 0
2762 3 31.31593546228672 2.440182620712009 44.76415514890597 0 0 0
4158 4 29.896754335065133 0.8683159059453485 45.203366566852424 0 0 0
2765 1 31.309985616592126 4.414772843308865 45.188208871923884 0 0 0
4151 4 28.469294990008077 4.801952187639399 45.31457806753112 0 0 0
4595 4 27.305514508105993 0.7774541222333092 46.05022641289484 0 1 0
4217 4 29.899934099249943 3.0511184457876634 46.219226130370956 0 0 0
2052 1 35.299113890271975 3.3376292434345323 42.72264695972342 0 0 0
2763 3 33.014056683000554 1.5975213959970829 41.953048084567506 0 0 0
2829 1 32.75156935571116 2.868362133707073 43.525504341400726 0 0 0
4090 4 33.216011563524916 4.01207458501543 41.796525663506365 0 0 0
2904 1 34.83494786077761 0.9245123352587494 42.87773316512341 0 1 0
2837 3 32.95040570547168 4.9539299161338395 43.90132689034607 0 0 0
2830 3 34.3365489997198 2.1387613111659394 44.4096510102249 0 0 0
2751 1 32.29965947013219 0.8196834178977056 45.28524750724223 0 1 0
2835 1 34.576055118076475 4.2689242401603655 45.209873044234456 0 0 0
2828 1 36.140900727112886 1.502905573037289 45.19539065419646 0 0 0
4216 4 32.90597937948135 3.0924745782328547 45.80724486658611 0 1 0
4288 4 34.314026987489186 1.0582778101953438 46.15120785799925 0 1 0
4166 4 -3.9407913520058515 9.872277477705484 43.24616532257921 0 0 0
2064 1 -4.399093121544473 8.522610555623904 45.89810910991312 0 0 0
2055 1 -2.869431368162319 5.7339166934997134 42.47084099441512 1 0 0
2063 3 -2.8693507362842685 8.022526892191205 42.7471816129967 0 0 0
2133 1 -1.0269740379032708 7.423718341749341 42.96724896786326 0 0 0
2141 1 -2.1098195864205307 9.632165103340885 41.37579327546275 0 0 0
2143 3 -0.14137531646737855 8.940664126771686 41.867531067908494 0 0 0
4098 4 0.5212700068799032 6.670198790304391 41.493040911807725 0 0 0
4106 4 -1.4478371208588894 9.362474713014405 43.74041058034488 0 0 0
2214 3 1.401737158785914 9.88136701928438 44.047961268155284 0 0 0
2134 3 0.5492653977807747 6.92019249520925 44.023540030718216 0 0 0
2213 1 -0.003483340027139903 10.731006104139226 42.96361515134105 0 0 0
4165 4 -2.5445267849498494 6.497527780111714 44.493449981767654 0 0 0
2142 1 0.3535267285848738 8.810267696410694 45.10656820989951 0 0 0
2059 1 -0.5691442985715671 6.33101260966543 45.617473993607625 0 0 0
2060 2 -1.9597071830324566 8.39286276437936 45.76043902188085 0 0 0
4226 4 -2.887101810156804 10.456065916495595 45.92521796776373 0 0 0
2209 1 1.6970400701302957 7.933690215168498 42.73454820369313 0 0 0
4041 4 4.995427866426603 5.5237294046633885 42.80551411348459 0 0 0
2135 3 2.635470534011115 5.9894137688027875 41.68980820661732 0 0 0
2215 3 2.976569149027661 8.969938686499157 41.674329910475585 0 0 0
2281 1 4.362163310501988 8.037403256397583 43.278093859584764 0 0 0
2285 1 2.885315743530237 10.488844214259103 43.00113970687929 0 0 0
2287 3 6.055805402184727 8.507574579483794 42.50071166930823 0 0 0
4116 4 6.7536526716860585 6.718188945870383 43.97999669714304 0 0 0
2210 3 3.3043824585725825 6.450607931670784 43.67874129584243 0 0 0
2286 3 4.393691686125016 9.63348243614516 44.386741096521774 0 0 0
2284 1 6.377023486350536 8.684915391921834 44.662391730754806 0 0 0
4176 4 2.54488558205007 8.178599302280908 44.67017923249458 0 0 0
2132 1 2.0559294013855647 6.117900536139474 45.0504588824913 0 0 0
2208 1 4.903622552670841 5.988918795218176 44.99798400193244 0 0 0
4175 4 4.649763845245974 8.075587652989496 45.820127880985815 0 0 0
4177 4 2.555101921097476 10.201078802601787 45.76105774147459 0 0 0
2289 1 4.853122244843432 10.49953257197509 46.01805741898211 0 0 0
4044 4 7.08909126627686 6.8777276673203005 41.44664491246447 0 0 0
4052 4 11.729736997572179 7.100653076929592 42.727138562497906 0 0 0
4120 4 8.095726085469018 8.753924944055223 43.07923831350584 0 0 0
2352 3 8.91851625547592 6.7076918663897915 43.683858432667925 0 0 0
2359 3 7.633984219736219 10.172621577971638 44.54044897821469 0 0 0
2351 1 10.678573811108516 6.022295062899624 44.5281665745831 0 0 0
2427 1 10.25119934068815 10.715122797831457 45.304859728674 0 0 0
2357 1 9.006156639005866 8.559363852279002 45.183455533847116 0 0 0
2280 1 8.223346000949215 6.041258413820769 45.49576106030673 0 0 0
2418 3 14.565199177645768 5.498298168208377 42.00026092325074 0 0 0
2420 3 13.010794946114252 8.313744968505162 41.657907539978275 0 0 0
2488 1 14.208343001549125 7.4488970575391855 43.11135351717812 0 0 0
2491 1 14.381993405984128 9.718012243942898 41.429804825365785 0 0 0
2492 3 15.316038703018046 9.323411164938893 43.308590006671515 0 0 0
4068 4 16.383140679500308 7.371536831391515 43.664519156041656 0 0 0
4135 4 13.255628915197644 9.605442951999416 43.372298143372134 0 0 0
2562 1 16.94217660312811 9.139243407037734 42.30890403156214 0 0 0
2417 3 12.69225249603822 6.261049981912688 44.302299669453426 0 0 0
4134 4 14.47430552021459 5.384936572906807 44.112360848841234 0 0 0
2419 1 12.257905874297325 8.188325922264616 44.82649912101294 0 0 0
4192 4 14.50599770284083 9.013491915603378 45.42584508443786 0 0 0
2347 2 13.166384320038276 5.669786612561346 46.092690457001076 0 0 0
2494 1 16.63980141703134 8.780900265143103 46.40567528335396 0 0 0
4141 4 17.197752544345605 9.915317566574034 44.36246297441549 0 0 0
2624 1 21.153749145418693 5.892469743520268 42.67385321838185 0 0 0
4073 4 18.95333645557983 9.659808315094645 41.42008585016886 0 0 0
4140 4 20.59286149977427 8.402337528232092 43.33532912745502 0 0 0
2629 3 21.869398360180114 6.995760232948027 44.310688776485 0 0 0
2636 3 20.644447957473957 10.320088822761853 44.3555282140188 0 0 0
2563 1 19.15272176651478 9.05345019650059 45.10157100713924 0 0 0
2557 1 20.246168217362275 6.357903047779129 45.389123183430144 0 0 0
2630 3 23.50613674411997 6.4252649056134405 42.311616146356656 0 0 0
2774 1 26.717348636269083 7.400932141241731 43.658489445677596 0 0 0
2780 1 26.2351797013077 9.712072675472289 41.35198692820941 0 0 0
4076 4 23.705316013093462 7.96466374698497 44.14270020658606 0 0 0
4079 4 25.95218448749243 5.656813214553368 42.287592362612266 0 0 0
4080 4 25.111447507658948 7.926242891634621 42.09671054380301 0 0 0
4152 4 26.333860464579338 9.582096743803975 43.93091801203361 0 0 0
2703 3 24.9339054449259 6.254539228897867 44.09669444398487 0 0 0
2707 1 25.298934620090378 7.665833859219891 45.80056855235352 0 0 0
2634 1 22.12382191663277 9.15115255290078 45.249321668807724 0 0 0
2628 1 23.275258568309948 6.084948820646314 45.491244253142575 0 0 0
2708 2 24.51112084880524 10.043266405145408 45.56137154008087 0 0 0
2766 1 28.315480869368965 5.458805252828378 43.205352543385864 0 0 0
2776 3 29.47305736453688 6.3420735656293274 42.18188502370236 0 0 0
2782 3 27.764337961056796 8.661876699673318 42.30580491821116 0 0 0
2842 1 29.580641863004463 8.02954801021279 43.32429520552563 0 0 0
2850 3 31.304059246609793 8.77073103413215 42.349747593122345 0 0 0
2848 1 28.10850875929571 10.631918902675467 42.959694075584935 0 0 0
2062 1 30.916596793465363 10.680819707700572 42.773321497106636 -1 0 0
2775 3 28.43678976725999 6.941048531238658 44.650518387152445 0 0 0
4218 4 30.506126863271927 6.394761965457888 44.43968297500846 0 0 0
2849 3 29.43297403949556 10.011518490652465 44.12942502324987 0 0 0
4222 4 31.18209632100105 9.009822986227775 44.53223949082587 -1 0 0
2781 1 28.061598515569603 8.979398657905278 45.338704748622554 0 0 0
4219 4 29.62947980588705 10.12708058064916 46.286776075508435 0 0 0
4161 4 32.581929680835316 7.062655132365617 43.212347211460084 0 0 0
2075 1 -9.106328250844284 15.960553881592372 43.58075881567837 1 0 0
4295 4 -8.952613693368534 15.987712772022293 45.99043223333249 0 0 0
2068 3 -4.646360301601246 11.039753257321681 41.687047954737665 0 0 0
2076 3 -6.056151047404688 14.276667228163577 42.32214832363313 0 0 0
2146 1 -4.609775075993299 12.626292146658281 42.858164132637874 0 0 0
2067 3 -6.486097956621639 12.573392836207029 43.55975578838826 0 0 0
4108 4 -4.690822128477022 14.425063176130113 44.041796736191394 0 0 0
2154 3 -3.6268536793047987 14.205075639823248 42.05411758299431 0 0 0
2226 1 -3.8012407040453775 16.061257824215858 42.83886025750845 0 0 0
4228 4 -7.67316809201589 14.279036135637682 44.16697534258438 0 0 0
4227 4 -5.33504520825655 11.44822767522367 44.73503557431502 0 0 0
2069 2 -3.9438722493099485 12.531527647436652 46.304487063659344 0 0 0
2147 3 -2.153835352358602 11.053946768209691 42.73896110236543 0 0 0
2218 1 -1.9672966825242124 13.070373173653463 42.4507668913048 0 0 0
4118 4 0.5007249779880159 15.417934822322497 44.370589908590034 0 0 0
4042 4 0.28269795034222867 13.578629205262358 42.762568823457464 0 0 0
2219 3 -0.7774116284665045 12.280356017882067 43.84427766510817 0 0 0
2227 3 -2.3985997203112133 14.605954107084335 43.89791189734156 0 0 0
2295 1 -1.0307975595400132 15.555603347704189 42.809061879272306 0 0 0
2302 3 0.9570885065436538 15.618386867368683 42.27391472380315 0 0 0
2220 3 1.3936546539790902 11.801649758414023 41.93039884721645 0 0 0
4107 4 -2.7896482631336976 12.449892344831904 44.31649863341487 0 0 0
2225 1 -0.774781181426869 13.695110476633296 45.1010563085107 0 0 0
4170 4 -0.17401717614388712 10.974295430797719 45.309378085882955 0 0 0
4171 4 -2.6831089115400015 14.396664966943115 45.97474729450262 0 0 0
2290 3 4.633444821559716 11.110936404207829 42.14500999158652 0 0 0
2358 1 6.138684310056837 10.804997831303018 43.32232533702341 0 0 0
3983 4 2.4286838339776384 13.937087991352527 41.58623580680459 0 0 0
4045 4 5.607035336534992 12.872617369298322 42.336119132200864 0 0 0
4117 4 4.160412199441039 11.706038952038945 44.14277564725173 0 0 0
4121 4 4.579247246146007 14.212952900984932 44.1643847702852 0 0 0
2436 1 4.467710017590823 14.758269542256107 41.718504850555725 0 0 0
2366 3 5.864186232022519 12.087399665850164 45.15669473063687 0 0 0
2371 1 5.239983081725147 13.703732465300687 46.256039734850454 0 0 0
4188 4 3.312322919067233 14.90910105917707 46.37160218707106 0 0 0
4128 4 7.20659203664051 14.457992602801225 45.49772479536837 0 0 0
2367 3 7.529091570610828 12.136431816278934 42.02686095074468 0 0 0
4061 4 9.05231142709841 13.69053491275004 42.050989358126486 0 0 0
4127 4 7.798724041509206 12.43390539291953 44.09454131893066 0 0 0
2433 2 9.034948386598005 14.785332497902308 44.110753870093006 0 0 0
4137 4 11.377058627053495 13.923032350135147 44.56667404394423 0 0 0
2446 3 10.58922190899259 14.845456914728427 42.88897614971623 0 0 0
4060 4 11.461661300854377 12.664702276424654 42.30293914759067 0 0 0
4386 4 7.018224130272193 14.820864717574606 42.869263567508014 0 0 0
2515 3 10.278175249842421 15.396633399398604 45.45958290542039 0 0 0
2432 1 9.60031946971407 13.162205143957674 45.938899217435356 0 0 0
2365 1 7.465089913696801 11.47167374272556 46.000622595363026 0 0 0
4136 4 12.091765415322683 11.463049532686798 44.51630542624589 0 0 0
2499 3 13.602454271939063 11.507580884711851 42.29678854214673 0 0 0
2567 1 15.484097163711713 12.088069785537298 41.5568746049298 0 0 0
2568 1 13.513628376013436 13.005184800206617 43.7548720535081 0 0 0
2575 3 15.529493347071202 13.748100539355613 42.9456570877598 0 0 0
4142 4 15.365153447401417 11.591068326786372 43.6483921335108 0 0 0
2573 1 12.89645086995191 15.37237720520191 43.44613317009527 0 0 0
2646 1 16.065133240889978 15.798257640599976 43.64131807249678 0 0 0
4063 4 13.874751661583431 13.751284512859296 41.761330404648945 0 0 0
4005 4 16.88788626217542 15.024948802264007 41.85198090462063 0 0 0
2582 3 14.5948363516615 15.752284169188064 42.09481820626246 0 0 0
2574 3 14.256576961133371 14.841026968329016 44.86141031101492 0 0 0
2572 1 15.657045765877374 13.423114958763508 45.14963608088027 0 0 0
4205 4 16.576613924548674 15.314329887295766 45.77666546985062 0 0 0
2493 2 15.874040931660854 11.051518268163134 45.9315494871075 0 0 0
4193 4 13.881043834082782 12.053695351043107 45.92398932624344 0 0 0
4143 4 12.459451422490075 16.09229476065598 45.632992370390376 0 0 0
2506 1 12.814788064355021 13.986375467435106 46.232536970168475 0 0 0
2635 1 19.016863844641094 10.936789389022982 43.359729306489996 0 0 0
2569 3 17.18277327089001 11.170315789908141 42.46990671177717 0 0 0
2640 1 17.447611375665918 13.090794967357102 42.85536039239093 0 0 0
2642 3 20.20540954492522 11.358327944784145 41.81645012234577 0 0 0
2648 3 18.777979612755097 13.825828065507311 41.61580010487527 0 0 0
2715 1 20.541775680832224 13.27659048050667 42.7055427613507 0 0 0
2723 1 18.850047355254585 15.515471835993834 42.65112931425798 0 0 0
2725 3 21.828335602006412 14.225850817903785 41.443598807326005 0 0 0
2790 1 21.60975241328632 15.979441207599354 42.451158498125146 0 0 0
2647 3 17.420107085734664 14.51626435843304 44.045685502991596 0 0 0
2724 3 20.259320384430723 14.966070434211161 43.88857807246957 0 0 0
2641 3 19.22284155063265 12.832882466949588 43.979657850561736 0 0 0
4081 4 21.922008066165485 11.413470745680064 42.91092227250379 0 0 0
4198 4 17.579367770877123 12.348623318020222 44.913392603070356 0 0 0
2645 1 18.759723500745444 14.366159487633732 45.31232934811709 0 0 0
2722 1 21.93707576309194 14.607695520075099 45.0485460704332 0 0 0
2639 1 20.462867848029365 12.101004979245523 45.37432946744173 0 0 0
2716 3 22.046991926905147 12.877959408392828 44.30349450735845 0 0 0
2784 1 23.200785417433416 13.65274956526844 42.90653238432265 0 0 0
2792 3 25.090072947864112 14.012569829893696 42.317041080997264 0 0 0
4159 4 26.9001581593269 14.224460470054488 43.21477284917392 0 0 0
2791 3 23.113736381158233 15.715769274431482 43.7162714614282 0 0 0
2864 1 25.178036686917974 15.81440149277114 43.22015892467735 0 0 0
4220 4 24.459301809828826 14.245455495508079 44.62046904036599 0 0 0
4153 4 24.263019620575303 11.879739794237318 43.915836967199944 0 0 0
2865 3 26.43207122656912 15.577760721528673 44.6941511592697 0 0 0
2714 1 23.142193744831356 12.19195549442005 45.9206025748817 0 0 0
2785 2 25.447577400658844 13.031401915482867 46.3460612118219 0 0 0
2866 3 28.563076011051155 14.746581245867084 42.07436829487101 0 0 0
2066 1 29.444667930332606 13.079887520743615 42.32824935237455 0 0 0
4085 4 27.15247967375436 12.247830115272773 41.728833983611004 0 0 0
2856 3 29.396109824772548 11.210545104871452 41.439116161810155 0 0 0
2855 3 28.14887202683089 12.59685731206381 43.706252853440276 0 0 0
2854 1 29.637605549532374 11.950206487248648 45.018033322965024 0 0 0
2863 1 27.544594516531237 13.956226637324805 45.31751218768503 0 0 0
2090 3 -9.242932178246642 19.248130152691623 41.94860490306486 0 0 0
2089 3 -11.004353587512398 19.82943477843803 44.02278519413488 0 0 0
2082 3 -9.380549458936954 17.929666431705208 44.01174934235908 0 0 0
4110 4 -9.45227054040846 21.079888178197123 43.25197899455141 0 0 0
2087 1 -9.340492840877573 19.877142277982063 45.13868894004305 0 0 0
4230 4 -11.148395042025111 21.344349514954278 45.44603733714839 0 0 0
2088 1 -11.646224457180885 21.513507556408527 43.29782813197697 1 0 0
4099 4 -6.572539905917429 16.29118547210962 42.69911950494585 0 0 0
2161 1 -8.37586619621167 20.96778848701114 41.30089073445605 0 0 0
4037 4 -3.872892331666569 18.671382582630383 42.58295091383103 0 0 0
4038 4 -5.812208710988249 20.657833930491513 41.75130028631686 0 0 0
4101 4 -7.709231908839314 19.146537413140383 43.580766769875346 0 0 0
2304 1 -3.835568804943332 20.918951441630718 42.67513572551942 0 0 0
2241 3 -5.470430675170087 19.86968875956993 43.92557050137033 0 0 0
4109 4 -5.295795141669158 17.77703055638466 44.43810130418196 0 0 0
2240 1 -6.96565363989491 21.25569631033928 43.513782680714954 0 0 0
2080 1 -7.479630375918886 17.198795759853414 44.788219174916875 0 0 0
2239 1 -3.6112693784109426 19.235499410245694 44.88860944799528 0 0 0
2247 1 -5.373096466167332 21.44806257098613 45.439481652763774 0 0 0
2162 1 -6.617549065213753 19.260311875847886 45.690783567288115 0 0 0
4173 4 -7.589525535173218 21.292207654987532 45.77949589557632 0 0 0
4172 4 -3.5461986831056915 17.517111678807762 46.38433796993968 0 0 0
2235 3 -2.2540567336854718 16.79450323705382 41.59148775591074 0 0 0
2300 1 -1.7601147982979342 18.321193350248436 43.10439580957592 0 0 0
2306 3 0.047798484502216354 18.41887482885776 42.41446484776966 0 0 0
2378 1 1.1985914208448492 17.327524522924417 43.35042035256102 0 0 0
4047 4 -0.40701550537077935 20.381275722990328 42.846424716726595 0 0 0
2305 3 -2.2134435634557263 20.319701786070304 43.917253605566266 0 0 0
2301 3 -0.5175126872428546 17.21627409275981 44.47134364060427 0 0 0
2384 3 1.0731305575792316 20.294824430644695 44.86106750909863 0 0 0
2234 3 -3.2005352716067543 17.39983470431894 44.20815192456207 0 0 0
2520 3 1.3401819981544545 21.345257722385778 41.69158916515526 0 0 0
2233 1 -2.0211572192333236 16.332031959350964 45.221541966336865 0 0 0
2303 1 -0.7771716109976055 19.528607459979558 45.33667573075822 0 0 0
4062 4 0.9439976146489464 18.299432860221014 45.3114678679215 0 0 0
2299 1 1.202527918201934 16.31255636850629 46.19614213799231 0 0 0
3659 4 6.527430585191151 18.32647280434039 41.155810657159954 0 0 0
2377 1 4.148016345806871 16.340413340073752 44.88602780083942 0 0 0
4053 4 5.3405112263601175 16.589842524570027 42.97975076359042 0 0 0
4046 4 2.9465356768859188 16.154899510051603 42.96116613234961 0 0 0
2385 3 2.3466095277893455 18.095778681569406 41.711674784157154 0 0 0
2438 1 3.854023348531035 18.345571236726972 43.00902269549111 0 0 0
4054 4 1.8912893923241878 19.469551586857964 43.16769686861081 0 0 0
2379 3 2.661623072864714 17.485010374085594 44.6326144668072 0 0 0
2383 1 2.8595527826451512 19.255564306464816 45.43176299944187 0 0 0
4678 4 3.655174974759019 21.56418452405742 43.297453650298415 0 0 0
4563 4 5.753831375137381 18.51749970574619 46.23730194914716 0 0 0
4673 4 11.551024897207531 16.469297065475683 42.815646224923555 0 0 0
2806 1 7.0936313752726665 16.426684962522504 44.36765110717561 0 0 0
4738 4 9.922133620677918 17.151291671164508 45.28351042800561 0 0 0
4752 4 9.131587437680892 18.581162446255597 42.22356768509578 0 0 0
4672 4 13.318275344149354 17.888189906165124 42.05385651374748 0 0 0
2523 1 15.59876236605853 17.360822808371726 41.450252955426066 0 0 0
4148 4 16.516675954421046 18.346431907451816 43.18128670738671 0 0 0
4194 4 14.390741170344075 17.01169282294825 44.13458657564724 0 0 0
2581 3 16.244498124103288 17.423097223594173 45.110659004394854 0 0 0
4631 4 16.073885446234158 21.247286870469708 45.560999927530816 0 0 0
2580 1 14.597844580868506 16.521600358392234 46.33033607862529 0 0 0
4493 4 15.437264842916557 19.555397085007797 44.84410112150502 0 0 0
2660 3 17.198149889007574 20.28602569290728 43.823851237040145 0 0 0
2653 3 17.585511845162372 16.974598629035327 42.14429068825628 0 0 0
4279 4 19.230222765140343 20.03572796165795 43.09962820986538 0 0 0
2734 1 17.824697401497076 20.932897054818 41.63173357230963 0 0 0
4147 4 18.231859005650907 16.52726710971532 44.4573572531758 0 0 0
4155 4 20.874455502994806 21.217543523345363 44.511620858006296 0 0 0
4154 4 21.237199901129106 16.644594158401617 44.685970595984124 0 0 0
2586 1 17.857170262209365 18.69175435202242 44.931980373001004 0 0 0
2739 1 18.638900514337664 21.195153381113737 45.095707894297405 0 0 0
4213 4 20.533035878991505 18.779028724632813 45.83246632443934 0 0 0
2081 1 26.396700328201277 18.417886352321286 42.64251063395222 0 0 0
2873 3 26.95414285008155 16.318936140954047 42.30186605758723 0 0 0
4087 4 23.713708277564756 16.92724514523294 42.03163724632403 0 0 0
4160 4 24.331767814742502 19.710541761824008 43.11828257796354 0 0 0
2872 3 24.983231137640118 17.777218405529354 43.76823422366854 0 0 0
2795 1 22.924471085272927 17.93109403081245 43.92732639244839 0 0 0
2879 3 24.12647504019064 21.035190454782864 44.78399944944561 0 0 0
2877 1 24.868019863028934 19.191064102283775 45.32922323547928 0 0 0
4221 4 24.36571475681197 16.62383936287378 45.30449505054243 0 0 0
2871 1 26.594355298824212 17.31508854195253 45.45878310592764 0 0 0
2799 1 22.41913760704216 20.09328243303825 45.754677000384 0 0 0
2726 2 22.62182760751859 17.688970914947742 46.38948217761283 0 0 0
4095 4 -14.329955171845251 26.6036181050978 43.04901448804503 0 0 0
2097 1 -12.972642015138659 23.783928537916086 43.045376911265315 1 0 0
2099 3 -10.476342848218113 21.975115914506517 41.63276030107659 0 0 0
2103 3 -11.681982703737017 24.937604288262992 42.05114663029794 0 0 0
2168 1 -9.862727785329394 23.691807589677556 42.48552480222238 0 0 0
2172 1 -12.075744848650757 26.509080811161958 43.469356404814654 0 0 0
4111 4 -10.48667264104186 24.948711397173593 44.047417451682925 0 0 0
2098 3 -11.554062173077458 23.194875359429542 44.20302321729972 0 0 0
3971 4 -9.928858507054148 26.152106331052206 41.77264592488833 0 0 0
4223 4 -12.82301008614997 24.867154142362654 44.8463561226153 0 0 0
2173 3 -11.085471286781129 26.419884626723267 45.25523509848595 0 0 0
2883 1 -12.999602780918075 22.68779017577925 45.87746778851194 1 0 0
2171 1 -9.554176492872873 25.360074989791013 46.101263521111065 0 0 0
4231 4 -11.266094298624292 24.01817406780724 46.41651379343525 0 0 0
2248 3 -5.156396590687059 22.53366289299983 42.436856088360486 0 0 0
2254 3 -6.127292503677218 24.49065032685835 42.391029246934934 0 0 0
2313 1 -4.468779502174009 24.102768326493162 43.4510448495114 0 0 0
4039 4 -7.691496965292096 22.91606761486127 42.220360282397934 0 0 0
4040 4 -8.096017241928338 25.180316992772628 43.19586321027161 0 0 0
2319 1 -6.30227846087738 26.284827825035467 43.63786805135102 0 0 0
2314 3 -4.2883146294641055 22.352904678038552 44.39459838321209 0 0 0
4114 4 -6.211117385565669 23.19295343237387 44.16378936689018 0 0 0
4124 4 -4.047432415141625 26.308291020735055 43.13781696752165 0 0 0
2253 3 -7.914425750648809 26.11943922180839 45.05459458315779 0 0 0
2320 3 -5.357932518340231 24.966814717186946 45.01608839525814 0 0 0
4174 4 -7.9495732243657615 24.0321422329608 45.495288104687035 0 0 0
4184 4 -3.4140106720018544 24.00745011462125 45.387348537628235 0 0 0
4122 4 -0.5563611883144155 21.66632275127832 44.96756833744746 0 0 0
2315 3 -1.704704807628353 21.664903671265662 41.80030690819866 0 0 0
2321 3 -2.9896867313153166 24.653781384876236 42.32179163344111 0 0 0
2392 1 -2.397584405643787 26.398808757638232 41.33411021137488 0 0 0
2457 1 0.07326161201553916 25.92178549702519 41.87127302695258 0 0 0
4123 4 -2.801678713426382 22.725348394675258 43.167968359380104 0 0 0
2452 1 1.2497110480936655 21.74114840230493 43.56544981498706 0 0 0
4129 4 -1.5494964218824698 25.685148652182193 43.48612892919021 0 0 0
4055 4 -0.5921706929333634 23.224282133150513 43.16100604438544 0 0 0
2663 1 0.6443887101650443 24.866661401866757 43.975165732859814 0 0 0
2312 1 -2.6757382918215296 21.907710857243227 45.33047750996708 0 0 0
2316 2 -1.0779767488189496 24.209367011379427 45.475035398507146 0 0 0
4379 4 1.3501415233506222 23.25133406024436 45.34141101716872 0 0 0
2389 2 1.199692673523689 25.868813623523003 46.107170115015855 0 0 0
4487 4 1.5112453104565962 23.758174308460568 42.08911998211712 0 0 0
4248 4 -2.598528230332944 26.044359403487032 46.44880531292404 0 0 0
4732 4 6.507754385365335 21.8105724046597 43.00985000843603 0 0 0
4270 4 17.08157017229553 25.904424735697795 42.290319262195474 0 0 0
4697 4 17.15603493885697 23.316349152151698 46.23070804239689 0 0 0
4668 4 17.525835963827653 22.203214401161834 43.56760334103395 0 0 0
2742 3 18.166700062487195 23.175351946890718 41.81423395155126 0 0 0
4214 4 19.11976780102279 24.564124982539745 42.9815136789144 0 0 0
2800 1 19.700505933457976 22.288997323651845 42.77671731847276 0 0 0
2808 3 21.330090998369542 21.757984899055806 41.97072249194272 0 0 0
4089 4 19.827842438843877 26.601136873124524 41.747420303332795 0 0 0
4162 4 21.366671217122146 23.57024241602997 43.45805162870974 0 0 0
2807 3 19.510436599487253 22.935070261103807 44.51079000647537 0 0 0
2812 1 19.803913854695868 24.8147541061982 45.002829437767396 0 0 0
2805 1 21.429242325847362 22.953645800365415 45.70584462141723 0 0 0
4351 4 19.123049296595426 26.650691956765158 46.05300348067163 0 0 0
4224 4 22.062569980043875 25.205373164595358 45.38253813617051 0 0 0
4092 4 22.718024478362803 23.31843186628689 41.48388805244656 0 0 0
2878 1 22.777042604848578 21.56822054921619 43.39522652016239 0 0 0
2885 3 24.275034278024133 22.101883241052168 42.14499339613023 0 0 0
2884 3 23.04295248567611 23.312123562705334 44.54999525831002 0 0 0
4103 4 -14.788813197710398 30.149948247560328 41.56344606365991 0 0 0
4096 4 -17.624336397312092 30.836787170965092 43.421051197033584 0 0 0
4168 4 -15.856003773829865 30.213072681235538 45.09536617685966 0 0 0
4113 4 -13.634943900507398 32.01742194511037 45.22271645966125 0 0 0
2903 1 -17.931392885231652 31.082775197179114 45.60190243545223 1 0 0
2252 1 -9.522380063723455 26.9536530017509 43.805726632639725 0 0 0
2178 1 -13.220898711535083 28.516319485969834 42.126076163447415 0 0 0
2180 3 -11.100118646149308 27.872957366399458 42.512252559224564 0 0 0
2187 3 -12.626107409645439 30.595605503425574 42.13905430287969 0 0 0
2259 1 -10.850323908570346 29.87617395822043 43.1976948579597 0 0 0
2268 3 -9.370067485979035 30.72241318018831 42.412592039662805 0 0 0
4112 4 -12.342382095556463 28.768872685947546 44.16015554968265 0 0 0
2260 3 -9.473170506440388 28.830870370562128 44.44885484498655 0 0 0
2267 3 -11.159265872940122 31.52252194932595 44.57678147979788 0 0 0
3979 4 -9.18740625513309 28.70010692106311 42.140472755848066 0 0 0
2265 1 -9.52380946176322 30.560666264791593 45.63723201385634 0 0 0
2186 1 -12.295826077904874 30.434771696134014 45.86929150782121 0 0 0
2179 1 -10.949563029837151 28.22448614492621 45.84399868355463 0 0 0
4167 4 -13.017738042241374 27.083490073413095 45.74273504884835 0 0 0
2261 3 -7.805723026294273 27.29695520534691 42.64819985227641 0 0 0
2325 1 -7.607962384062841 29.323625685578744 43.548674339968045 0 0 0
2327 3 -5.4179136262756895 27.44183481272787 42.14271148134366 0 0 0
2331 3 -7.1377945497841075 30.547437336149507 41.856639771926005 0 0 0
4049 4 -5.482419172553451 29.54665336873411 42.57908159154653 0 0 0
2326 3 -5.8153921776117325 28.202937047139418 44.11336647261261 0 0 0
4125 4 -3.677096254135723 28.64012597325235 44.1331318661357 0 0 0
4119 4 -7.99125675357717 31.439320879123464 43.878795190764585 0 -1 0
4186 4 -5.273514756275301 31.307835734892336 44.879474873138136 0 0 0
4185 4 -5.1468720791753135 26.939858927614047 45.54641829030287 0 0 0
2258 1 -7.568572936537645 27.923919974863654 45.86815919611396 0 0 0
2262 2 -7.107480064183102 30.387765061749082 45.94971245929193 0 0 0
2328 2 -3.840073493169063 29.59410255365643 46.226200900002 0 0 0
2401 2 -3.5684228240982776 32.25930645111045 46.23754400717633 0 0 0
2458 1 -1.1219271826879442 27.767146186095648 44.06751772210003 0 0 0
2396 3 -2.5324786760556073 28.044309333131032 42.570893743687584 0 0 0
2463 1 -1.1426598769267784 28.95238560034872 41.46525039022001 0 0 0
2466 3 0.137333297983254 28.14293921638846 42.62955490047549 0 0 0
2472 3 -0.2315297083967991 30.923854115364446 41.942715567941725 0 0 0
2531 1 0.9350487865961163 29.986996681334606 43.23633850377581 0 0 0
4056 4 -2.978260305091455 30.200445752299796 41.85506603869136 0 0 0
4131 4 -2.771848098590082 32.01570081753169 43.89603369001471 0 0 0
4130 4 -1.2010918993703434 29.954464212563515 43.5772700718445 0 0 0
4139 4 0.9749420971487002 27.07077727925154 44.107517641355216 0 0 0
2465 3 0.20416516201325408 29.21841907338961 44.929538549912316 0 0 0
2471 1 0.4485870387698405 31.35549251705937 45.711955715309365 0 0 0
4189 4 -0.5858930216733746 27.498317572229087 46.16465540434924 0 0 0
2464 1 1.3160618901750816 28.484721648171224 46.226991147225895 0 0 0
4072 4 1.6878775713668581 31.978075786159458 42.470497608865216 0 0 0
4074 4 5.7521123561689045 32.228946385817004 41.95497375761034 0 0 0
2538 3 1.7043987956279238 31.368040826390562 44.41901769511318 0 0 0
2530 1 2.1124345070362054 27.86303309916899 42.13647306781753 0 0 0
2539 3 2.557438518819019 29.875645515665735 42.19616884482142 0 0 0
4145 4 3.8928176808484807 31.47348226413671 43.40966477240038 0 0 0
2688 3 3.1980806235365478 30.909100187939956 41.56719570891798 0 0 0
4476 4 2.4065828895606884 28.951809253569223 44.28228619933146 0 0 0
2611 3 4.357781382190307 32.20044569418986 45.351834402577374 0 0 0
2536 1 3.2877459145472017 30.561875884463788 45.407946515516926 0 0 0
4713 4 6.686007589414469 30.693270243535565 44.40634248142826 0 0 0
4712 4 10.715631223158248 32.13944603813629 42.66216301624765 0 0 0
4665 4 12.85592559793671 30.837656247296135 44.84404184649209 0 0 0
4692 4 15.22164944451552 29.323343191790343 42.21198771972113 0 0 0
2823 1 14.002893464481744 31.832367325717414 42.25270845505022 0 0 0
2825 3 16.118502118403914 31.295370732556282 42.114012693381675 0 0 0
4157 4 15.490841787310455 31.73400549804967 44.147837556526085 0 0 0
2819 3 16.182540894137695 29.759287816560793 44.82223731497844 0 0 0
2824 1 16.78614667305488 31.372328490677045 45.82584820239062 0 0 0
4688 4 14.373233792558779 29.09895696348219 44.333215785799766 0 0 0
2895 1 19.96403212397445 29.93049691990196 41.33466667448371 0 0 0
2890 1 18.787111332316545 26.939456878585162 43.743284200797184 0 0 0
4405 4 16.99946255838461 28.258748256534634 43.44152398836836 0 0 0
2741 3 17.98437791422623 27.73237266542708 41.59446026394678 0 0 0
2820 3 18.71833061063177 28.70707115324081 42.238072243490215 0 0 0
2897 1 17.545252455528303 30.342326137920512 43.30350477837511 0 0 0
2906 3 18.89783691125919 31.512580837713642 41.69641753944482 0 0 0
4163 4 20.701921700762274 28.535132062333616 42.964968345646994 0 0 0
2905 3 17.812225077231023 32.174898220457145 44.14605543470027 0 0 0
2898 3 18.9445204871881 29.049282995627806 44.40868567606199 0 0 0
2896 1 20.706754196129438 28.036625052326016 45.153623310517474 0 0 0
2817 1 17.38501045500616 28.521689388802535 45.809969682894604 0 0 0
4225 4 1.187929847834413 5.246514826332528 46.7771648240177 0 0 0
4294 4 -1.5201486261791994 4.89446874296974 46.96351115232543 0 0 0
2907 2 0.2140266596949667 0.868057277310658 47.0587920237392 1 1 0
4298 4 1.2062869514490062 1.6393662837763119 48.9917360128061 0 0 0
2119 2 5.080037411313734 3.216676731569958 47.61981795403296 0 0 0
4234 4 2.0538311137805554 2.3722656941694056 46.60989582856156 0 0 0
4299 4 3.0241329567203006 4.213572135061751 48.30034292880644 0 0 0
2120 1 3.4135260801021854 1.5065941864240622 48.27208724084831 0 0 0
2188 2 5.599457693892909 0.3526815416729534 47.407386087130476 0 0 0
2204 1 7.225945899773057 4.350820795066581 48.01339056331043 0 0 0
2195 2 8.171970804440239 2.180129981828526 47.4150195709935 0 0 0
4242 4 9.986629621107632 1.0218033952903873 48.25103588764345 0 0 0
2278 1 10.526149933764039 3.174132578728994 47.78073809452294 0 0 0
2277 2 9.334660728414775 5.36921405239174 47.73381998793792 0 0 0
2339 2 15.106267968315457 2.6110786537028092 46.53779589470068 0 0 0
4251 4 13.058375181794753 3.6141658986244587 47.481608938132055 0 0 0
2340 1 14.156387652761179 1.16234037880237 48.256251548042755 0 0 0
2408 1 16.845286688762698 1.612277550636187 48.07819571672002 0 0 0
2473 2 19.226021998851543 1.1612074281254128 47.32597250791789 0 0 0
4203 4 21.169881437811686 2.61540785169002 47.22646709962768 0 0 0
4264 4 19.96105198515226 1.8021096557436778 49.4341861914319 0 0 0
2483 1 19.42240766501655 3.6422351555968744 48.118458625074894 0 0 0
2553 2 21.345898282019924 5.353979101351417 47.51855349640418 0 0 0
4265 4 22.602560130495824 3.958947288415967 48.91804210442011 0 0 0
2617 1 25.856870079998227 2.518553416024402 46.687191891610276 0 0 0
4204 4 23.820316426413044 3.7527543558791154 46.555012010364294 0 0 0
4207 4 26.044751475287242 4.8438031927308 47.25100739458003 0 0 0
4271 4 23.357688643791448 1.4654528144236387 48.3251916989054 0 0 0
2612 2 25.609619049146122 0.7487593561349775 48.38027137482702 0 1 0
2625 1 24.79293302639491 3.150732617616149 48.9406911174088 0 0 0
4472 4 24.81920624754849 1.3637295692443532 50.52148904453292 0 1 0
4681 4 26.879660697346388 2.7332095641862635 48.625732460671536 0 1 0
2622 1 27.315776366324627 1.2871916183619423 50.18352733479577 0 0 0
2621 2 28.31339438050086 4.100242283963311 47.5387577578255 0 0 0
2690 2 28.459360344363795 1.3369473878845497 47.905342703087996 0 1 0
4282 4 29.441489305193013 2.8422015235043 49.391656495815184 0 0 0
2770 1 30.832504760555942 4.043292306418535 48.10162472454737 0 0 0
2682 2 30.81606605615956 1.5823017128890005 47.80428069036586 0 1 0
2698 1 27.854187479107637 4.370292576039546 49.82496781884983 0 0 0
4008 4 29.481285229809856 0.3504122417957403 49.92368347008482 0 1 0
4659 4 32.18853794406834 1.1692207852458905 50.17018221880228 0 1 0
4289 4 33.02383494168211 2.4651627443069657 48.186708783388625 0 0 0
2832 2 35.32753080249873 2.6871630921752585 47.4023778311258 0 0 0
2839 1 33.40801467569446 4.498981409135694 47.6082662430035 0 0 0
4362 4 35.79460459143544 0.32806216336242394 48.55572828546059 0 1 0
4349 4 35.148704281659036 1.0624427498558577 51.443756625417635 0 1 0
2851 2 -5.4327549365596415 10.574250209578619 46.82251118616348 0 0 0
2852 1 -5.243059638014851 9.619047129010307 48.99635006084579 1 0 0
2838 2 -3.183068864777237 6.564684029702511 46.766809842622656 1 0 0
2136 2 1.1725451601501167 7.7994369414628055 47.02793041492932 0 0 0
4300 4 -1.0262634814653184 7.335181716191629 47.62425128327727 0 0 0
2144 1 -0.8448830904905948 9.721278015035798 47.34357041738837 0 0 0
4301 4 -3.3266101428970356 8.657613365092658 47.879686522161606 0 0 0
2137 1 1.8351565921062454 6.201745995644415 48.73235937364471 0 0 0
2128 1 4.956814993537053 5.538016053877176 48.734407223788445 0 0 0
2203 2 6.37806877638848 6.58019129495962 46.88784440138888 0 0 0
2127 2 3.513267414427768 6.459813535553398 47.042787754923836 0 0 0
4238 4 5.145622683140862 7.88877835308796 48.36110448913556 0 0 0
2216 1 3.25728614609429 8.920543895938366 47.50861827569115 0 0 0
4237 4 7.289120672774937 6.367357560213921 49.04601063119474 0 0 0
4181 4 6.936055159802599 9.419521470335614 46.61780267964453 0 0 0
2353 2 10.955195722964682 7.270224297930697 46.737147011319756 0 0 0
4244 4 8.626461017016183 7.531604550751977 47.12997952946318 0 0 0
4252 4 7.9513055921716305 9.077902880880789 49.066536419770905 0 0 0
2360 2 9.107861541632964 10.426928776872835 47.38492113987104 0 0 0
2354 1 11.897614410728295 5.515327747172775 48.26145399306261 0 0 0
2421 2 12.235739583004946 9.779960345520841 46.61867833440449 0 0 0
4256 4 14.949331572246967 5.907593213396807 47.55422787590343 0 0 0
2422 1 13.582648984677736 7.776033957002351 47.241307339035984 0 0 0
2501 1 14.453704357665892 10.239730609037524 47.60366634526049 0 0 0
2482 2 18.349226987570987 5.670520205607869 46.91851843186149 0 0 0
2558 2 20.43067421973139 8.08540117110545 46.9551590929931 0 0 0
4273 4 20.61664953231997 10.30612927698112 46.565086548081936 0 0 0
2565 1 19.232586415082388 9.636030899751466 48.36864002959562 0 0 0
4272 4 21.52451390839461 8.827845215442728 48.795384187525855 0 0 0
2559 1 19.686236515112242 6.6910401541747 48.78974857982516 0 0 0
2631 2 23.042777703891748 7.860657244297239 47.14520884685427 0 0 0
4277 4 23.116503924525723 10.284275718723693 47.347996869508464 0 0 0
2709 1 24.87360754403007 8.785616077143922 48.247384085120515 0 0 0
2632 1 23.910846484033147 5.633120149924668 47.91745684922287 0 0 0
4284 4 26.42108210681974 9.473385241276288 46.72636967742708 0 0 0
4425 4 30.798687397948722 5.252327234263611 50.90001400718007 0 1 0
4283 4 29.69606137508802 5.893574838778881 48.56346805921114 0 0 0
2769 2 31.415848573634996 6.171128916703743 46.73961821885017 0 0 0
4212 4 27.603638148663748 7.06384134364687 46.58749989462995 0 0 0
4290 4 31.09984310470832 8.348249966446806 47.3647225564313 0 0 0
2844 1 32.43799509550496 6.89050869879287 48.761837651712774 0 0 0
2857 2 -7.554860930408419 13.858475590145826 46.697584493455146 0 0 0
4302 4 -5.253248383635606 14.50191935945095 46.55339476104623 0 0 0
2070 1 -5.45117287251739 12.808409984945254 48.129123281060544 0 0 0
2148 2 -1.4019843255234576 12.186953552038403 46.953774723255336 0 0 0
2229 2 -0.8332140416483194 15.263817234202948 47.12524394509555 0 0 0
4178 4 0.8794177856480339 13.694067544872581 46.44795496421181 0 0 0
2221 1 1.2102394725798167 11.494253742198682 47.04676137107426 0 0 0
2155 1 -2.8192399352759816 13.87602620578304 48.139260509631306 0 0 0
2230 1 -0.05898362236877741 13.498333706019434 48.55149727526 0 0 0
2149 1 -3.3014417791562862 10.930625191825984 48.11281235215132 0 0 0
4183 4 1.2650660712241137 15.54533966056648 48.332702339274626 0 0 0
2291 2 4.772273089497985 13.673138761322802 48.59518623696666 0 0 0
4182 4 3.5013583889317186 12.366502582839129 46.45555055475542 0 0 0
4245 4 5.891793442102549 11.85874048395718 47.482516478695565 0 0 0
2296 1 2.4520917216795475 13.638446352505513 47.98527681767325 0 0 0
2292 1 3.8495842197479355 11.373927040962467 48.373577884439555 0 0 0
2373 1 6.50855140452034 15.294175070492095 48.85655754301602 0 0 0
2380 1 3.7137444583733554 15.87151229611427 48.347261107281525 0 0 0
2372 2 5.802749903957224 16.1138836879077 46.65006075132133 0 0 0
2368 2 7.58200911743756 13.480768332738092 47.51781132739893 0 0 0
2428 2 11.557302237230314 12.13891139382534 46.91781080694081 0 0 0
4260 4 10.853600005677036 14.618879767117306 47.254415714434174 0 0 0
4257 4 9.624845835289097 12.580481346348385 48.1216416805962 0 0 0
2437 1 8.659970330797265 15.741030492836106 46.8034280286566 0 0 0
4258 4 8.740928879255877 14.933436261647016 49.05761446975149 0 0 0
2512 1 10.815998896768207 15.942204246294612 49.188488505148925 0 0 0
2508 1 11.730819839136299 13.502974453527523 49.0072475195252 0 0 0
4422 4 9.724790715160012 13.082287762160451 50.62717967956545 0 0 0
4574 4 10.33523315276738 15.609851517202113 51.32561501660141 0 0 0
2500 2 13.950972698780955 12.576571750591407 48.136000517861234 0 0 0
4199 4 14.745068184161331 14.46464014291173 47.0885483170308 0 0 0
4266 4 16.671576381884332 12.773577732088507 47.278193138883694 0 0 0
4267 4 13.766375068175076 14.32353183751399 49.79015806604636 0 0 0
2507 2 12.945874167911612 15.655410120249346 48.084874706063765 0 0 0
2584 1 15.383898061587486 15.748949784318624 48.92269285400821 0 0 0
4419 4 15.851907200661815 14.827912969097845 51.42009259742908 0 0 0
2564 2 18.17907442884532 10.787076313045302 46.53374413785386 0 0 0
2643 2 21.52525199062982 13.608959872289342 47.368891524479494 0 0 0
4274 4 19.400310615085694 12.59097303210097 47.28944018389914 0 0 0
2730 1 20.978915361010436 16.05559311716568 47.02203685134931 0 0 0
4275 4 17.685167283332138 15.88032103826145 48.77593485051967 0 0 0
4278 4 23.659530083360803 12.818617694439551 47.997334949366866 0 0 0
2717 2 23.6410660021307 14.84803419050434 46.73075469635019 0 0 0
4285 4 22.788999379838096 15.973067576450115 48.46948314157491 0 0 0
4291 4 26.04203647662178 15.273318140858928 46.72105398444108 0 0 0
2793 1 25.064967371833966 14.46040598082043 48.623385545152665 0 0 0
2786 1 25.31802814278492 11.219716707514063 47.836584431645 0 0 0
2783 2 27.617208848962505 11.481002254196149 46.61895549687913 0 0 0
2858 1 29.668958195173715 11.581195720965772 47.97201708585951 0 0 0
2867 1 27.48143232188778 13.733394240473155 47.85597004118844 0 0 0
2874 2 -10.814356464541856 19.555451704173237 47.19222894678275 0 0 0
2092 1 -8.628279464043732 20.622344181615755 47.80428258042721 0 0 0
2083 2 -8.470417174583197 18.222623364265903 46.982872136247984 0 0 0
4229 4 -6.366072644607481 17.120722483478293 46.779188936016624 0 0 0
4235 4 -4.7855609458658295 19.772113481033568 46.77551694587677 0 0 0
2164 1 -6.422695976909295 18.83449172334381 48.318756726564935 0 0 0
4303 4 -8.030471909912025 16.862914962997333 48.77441628903417 0 0 0
2163 2 -6.224246282939737 21.298752738123625 47.790316775931394 0 0 0
2236 2 -2.5100801386395393 19.68564560587318 47.04384957151599 0 0 0
4239 4 -0.945034919481607 17.628942765141105 46.677143553639944 0 0 0
4247 4 -0.46736105735796585 20.00363111530192 47.97717987561002 0 0 0
2388 1 1.2132864690678122 21.26622072441705 46.452351680884526 0 0 0
4014 4 1.3627039880129228 19.816432195574297 50.757290935458 0 0 0
4436 4 6.7174888775280355 16.171724218647004 50.955287299892106 0 0 0
4640 4 4.768428936068309 20.5787296169225 47.606489652023676 0 0 0
2445 1 3.638437934328806 18.511720884659105 48.40932958254062 0 0 0
4246 4 2.4292723237942493 17.321885271193896 49.846520518791 0 0 0
4253 4 3.049949669633744 17.325949062599427 46.721549056877045 0 0 0
4535 4 5.550220077395236 17.307717929518592 48.810286305640844 0 0 0
4670 4 1.7694306937221604 19.325005866632495 47.555799820030835 0 0 0
2593 1 4.5154467423644995 17.14479385349664 50.93067537600378 0 0 0
4564 4 12.882775789690314 16.57968797696167 50.70285979474638 0 0 0
2659 3 16.395234317679698 19.10703814046052 46.95704344254937 0 0 0
2752 2 15.378917405647268 18.18742396891699 48.43080774681595 0 0 0
4529 4 15.469738176890159 17.287935466501178 51.22729782973234 0 0 0
2587 1 16.501975840059846 19.16176334466351 50.608216109890584 0 0 0
4690 4 16.390401068032574 20.645862076486058 48.36737226559481 0 0 0
2583 2 17.092418410700837 17.207770528667545 46.90627680690273 0 0 0
4276 4 17.65083569433736 18.365703555069885 48.879177500548856 0 0 0
2661 2 20.214456265210266 20.850106868059072 46.9400099809517 0 0 0
2729 2 19.698212614679935 17.95074499753253 47.870036326290496 0 0 0
4208 4 18.330158958282972 19.652448932273224 46.867222478047225 0 0 0
2802 1 21.810110244788646 19.173009558278007 48.13236452234738 0 0 0
2736 1 19.071029308575106 20.16243189534972 49.08532559326969 0 0 0
4393 4 18.19429806794231 20.565644707201226 51.229530938945025 0 0 0
4292 4 24.316684957210217 18.3144277000034 47.79749551988514 0 0 0
4293 4 24.286959402064163 20.65198466607111 46.929045394151245 0 0 0
2875 1 26.89619035717871 17.011664870558988 48.019212961953215 0 0 0
2892 1 -14.953956726987201 26.340363686216264 49.06579683913975 1 0 0
4296 4 -10.697652620408613 21.71639208633295 48.208887462406146 0 0 0
2886 2 -13.474972148593698 25.183722913990323 47.08790588421926 1 0 0
2091 2 -9.4423513764697 22.49103929820066 46.46030225618476 0 0 0
4232 4 -10.85741748940819 26.66456681534664 47.38951850508134 0 0 0
4297 4 -12.883655487964239 23.048709478782513 48.16267092628451 0 0 0
4304 4 -9.448853205485886 24.288272954597087 48.14492159867351 0 0 0
2175 1 -8.667133845023788 26.451704110991283 48.31826308286106 0 0 0
2104 1 -11.647018091985863 24.93148241156865 48.60886804815094 0 0 0
2242 2 -3.79079604643017 21.88351577822677 47.51538058170247 0 0 0
4179 4 -5.449948879391762 23.37525698218932 46.55054043327039 0 0 0
4240 4 -4.754775126884166 25.764182443878205 47.92543434711922 0 0 0
2256 1 -6.550539695175381 25.500249085030802 46.568941481562305 0 0 0
2249 1 -5.020587047661998 23.582839527311087 48.73591263321434 0 0 0
2169 1 -7.490871740879027 23.33566327560053 47.58200348905178 0 0 0
4441 4 -3.362943814518859 26.479677290922197 51.51586177966821 0 0 0
2307 2 -0.9609488965659949 21.99911351277754 47.13398296458316 0 0 0
4315 4 0.879496889864118 22.22812345904605 48.713971903831506 0 0 0
2390 1 0.4979647445236175 23.94685703642697 47.32979159061838 0 0 0
2317 1 -2.468244736763374 23.99661321875393 47.55279883840585 0 0 0
2393 1 -0.6218173021736 26.053477437486624 47.774955181899074 0 0 0
4261 4 -2.064232989707598 21.98138606306039 49.10815523252309 0 0 0
4516 4 0.6738376139975362 24.89519203327212 49.40675477037736 0 0 0
3816 4 1.8759553679154717 26.596070053990385 51.51888784082308 0 0 0
4635 4 7.980365798063696 23.485320888594607 48.36344698187654 0 0 0
4553 4 16.026080424979103 25.613037523022953 47.41131441955774 0 0 0
4653 4 16.025822951931964 23.713343253119127 50.94134860463296 0 0 0
2662 1 17.992809443081473 21.794554301496714 47.629887492523125 0 0 0
2665 1 18.46231479322877 24.760716712004864 47.81877091432131 0 0 0
4341 4 19.486141414486518 23.08669791936552 46.601827977039605 0 0 0
2809 2 20.775607827303514 25.056999778807167 47.25186508986216 0 0 0
2810 1 20.24035456066509 22.77476880925862 48.64050553811187 0 0 0
4268 4 20.505056483517052 24.900362300842488 49.4537045017209 0 0 0
3994 4 18.069316483162073 22.849959276565922 49.572481451532546 0 0 0
4470 4 18.537457045012744 26.318547663479954 49.63824287984087 0 0 0
4394 4 20.323144436294594 21.984145410829854 50.70629382917854 0 0 0
4662 4 18.779164438220377 24.49401607064052 51.49106234013787 0 0 0
2801 2 22.460658695018353 21.710317707148064 47.78916065334046 0 0 0
2887 1 22.461170387836255 23.89932975251684 48.7465352284591 0 0 0
2113 2 -15.799287427433155 32.10001487660129 46.51409312698347 0 -1 0
2899 2 -16.141001874821796 29.61172329677616 47.436731598460604 0 0 0
4233 4 -14.026981091406489 29.238844557364597 46.51693509537266 0 0 0
2891 2 -15.169357377136983 27.205894663872833 46.82951511778781 1 0 0
2114 1 -14.13491713304106 30.687470400441946 48.23397470380021 0 0 0
2908 1 -17.149902823402865 31.63623056362769 48.578579504731664 1 0 0
2108 1 -12.988844104017634 27.6183587447568 47.91518204203761 0 0 0
2174 2 -9.367160996529634 28.76167894574306 47.62384342896876 0 0 0
4236 4 -10.920102257882615 31.806185558675757 47.00995407794068 0 0 0
4305 4 -11.626865373539875 29.410979134812298 47.75080328258738 0 0 0
2181 1 -10.80023821841008 27.82935731312357 49.323726384312685 0 0 0
4241 4 -8.49619209802897 30.93919652714424 47.66668890376135 0 0 0
2255 2 -5.431102458719931 28.0936530347957 47.48465265408048 0 0 0
2332 1 -5.3785771036983405 31.038802158245915 47.44922581800428 0 0 0
2263 1 -7.210858173643297 29.302507642667283 48.57292702824151 0 0 0
4569 4 1.4378813017324195 27.017109784423926 48.08778022916442 0 0 0
4249 4 -2.731730054183899 28.34578694183638 47.76580071153339 0 0 0
4190 4 -1.310088601801322 32.197958559099334 46.80963600958841 0 0 0
4255 4 -0.8027021987540941 29.889238634464736 46.675304331918824 0 0 0
2402 1 -2.6056567168641944 30.724718718454 48.018959635277774 0 0 0
2474 1 0.022922605495892867 31.49941023755089 48.65523612064972 0 0 0
2468 1 0.03032086921595578 28.751324075971134 48.35996389082899 0 0 0
4414 4 -1.714106845327084 27.926919833236703 49.980600330508715 0 0 0
4262 4 1.821745455823823 28.95151435468933 49.86516355039025 0 0 0
2467 2 1.8422117206887272 30.390204705189596 47.5236080772423 0 0 0
4648 4 3.3346103531273243 28.677928192646718 46.93121640833651 0 0 0
4263 4 2.5124143036958486 32.01534546931953 48.96804186995232 0 0 0
2533 1 4.484985257042641 31.66354550379837 47.56477774726963 0 0 0
4636 4 5.913892618187528 31.190056766886187 49.670548723652125 0 0 0
4269 4 3.411950579875544 29.80193945716792 49.52116160591727 0 0 0
4708 4 8.517048313451774 31.426304686031223 48.9120454473926 0 0 0
4494 4 32.278708130101855 0.046571309398258584 47.60568729699516 0 1 0
4701 4 13.174173284182782 30.478904504406604 50.48144597024797 0 0 0
4666 4 15.237269634005955 31.227023337108914 47.29211281961518 0 0 0
4501 4 15.532458155967511 30.580909062485482 49.790652084725956 0 0 0
3799 4 17.628448918375696 28.41372714567612 48.125162746420216 0 0 0
2826 1 17.70426860214481 30.904146590969297 50.159010071877496 0 0 0
4286 4 19.29386836165511 29.122301504363392 46.472861250597035 0 0 0
2821 2 18.050328502397335 30.61496320971036 47.79168282095539 0 0 0
2900 1 19.801369037484818 27.45057270277173 48.01117348467764 0 0 0
4287 4 19.63936623149746 29.518570202988823 49.27020473002662 0 0 0
2691 1 1.1253373876538637 2.701210069610175 55.48728709684548 1 1 0
4515 4 15.742445316543431 2.822920808711394 55.6123869920705 0 1 0
4486 4 25.294188278107306 1.601953955955444 55.42000743010851 0 1 0
4001 4 26.51569549002646 2.342732840528714 52.104150557452954 0 1 0
4614 4 22.690202776348052 1.8394720364458113 53.02523961918727 0 1 0
4497 4 29.782799414710713 2.368240097360139 53.47965174179566 0 1 0
4663 4 28.32290318531888 1.3031439933596425 55.942127638815506 0 1 0
4634 4 30.923396476490673 0.5046269870753274 55.676483788913686 0 1 0
4519 4 28.108900470534135 0.36893189605602655 52.7131370692556 0 1 0
4680 4 30.743740289521522 0.06766329958120806 52.494072239926126 0 1 0
4350 4 34.643883046903746 3.7084151177999067 55.89121437675227 0 1 0
4545 4 33.70606354944418 0.5128975529331472 54.15552489157008 0 1 0
4410 4 18.185679954637127 32.21333836966476 54.159508052427896 0 0 0
4532 4 4.50192906092978 9.085373228472516 56.18182660093045 0 0 0
4450 4 8.505082680882808 7.604226787642615 54.46456708250014 0 0 0
4308 4 8.608913790919614 9.19632982286452 52.58643812289348 0 0 0
4458 4 7.178736670756931 10.76728486662239 56.15134987388106 0 0 0
4575 4 13.017631380093324 6.550427072658088 54.26737401550197 0 0 0
4421 4 1.3584441452008083 15.381577299091868 55.41133172297643 0 0 0
4667 4 7.046316384123029 15.180450765616776 54.1340989320731 0 0 0
4520 4 9.46299175713636 14.250795941508835 53.38016843553925 0 0 0
4492 4 9.176684900239671 13.844104720033059 56.504720268113246 0 0 0
4644 4 11.940990757796335 14.57432672157445 54.458827571213575 0 0 0
4599 4 14.85664857780664 14.787086148317046 54.314427024276085 0 0 0
4463 4 1.5786126717524276 17.87884124432637 54.36090914254302 0 0 0
4373 4 3.7783062780125274 16.816027974298795 53.17385398247286 0 0 0
4457 4 3.1521416066415995 19.19630010251315 52.48338534025222 0 0 0
4461 4 4.310150668934609 17.244289116886797 56.170154155327566 0 0 0
4722 4 14.052333770084267 17.075513051174447 53.704327534545875 0 0 0
4334 4 16.43811072625339 17.811144440327492 54.56623450741509 0 0 0
4684 4 19.666779919797975 18.59212306222747 52.22319010813223 0 0 0
4469 4 17.869451173084077 16.69883409576524 52.812535646403134 0 0 0
4471 4 18.739634081316222 20.617239845716195 54.498133651719996 0 0 0
4601 4 17.352813017432517 20.98441098903213 56.60540678220964 0 0 0
4565 4 -13.921392447285696 24.694518546158697 51.23534758790375 1 0 0
4496 4 0.2644014768338998 22.976496490943997 51.71742041370407 0 0 0
4600 4 -0.9790512438625356 25.826654222552342 53.348054156380016 0 0 0
4522 4 1.4616544291012854 21.600418851220862 54.12099692707805 0 0 0
4518 4 1.1924248184185497 24.35460384839647 53.72939184425411 0 0 0
4343 4 2.021580005861189 26.819744148026658 55.636043125700255 0 0 0
4577 4 2.6861358496541587 21.975344228361237 56.40471993840427 0 0 0
4398 4 19.505609704199507 24.202386754951718 53.9302326855733 0 0 0
4374 4 19.157527208684733 24.583841417546534 56.44408269490583 0 0 0
4537 4 -14.658711120686831 31.652474045128137 52.42098013746721 1 0 0
4423 4 0.8406446471499365 29.352877400129078 52.20036799394356 0 0 0
4567 4 1.1832519054556663 29.83432350496061 55.26058060181532 0 0 0
4498 4 3.3826798380949192 31.026162495960413 54.355280914984505 0 0 0
4555 4 4.957735601593047 30.71284940671988 52.44792982118365 0 0 0
4747 4 10.197150615881146 28.148094759420598 53.20826129063008 0 0 0
4215 4 14.539559790757043 31.622285301098696 51.968033070379114 0 0 0
4572 4 16.697833913100716 30.056513999546784 52.4103378101929 0 0 0
4435 4 18.83569225498003 27.21583132809648 52.72451175493611 0 0 0
4619 4 17.64263080185863 28.904662875013706 55.038497645799666 0 0 0
4324 4 20.85165264110789 27.14595263308769 54.32127220569819 0 0 0
4566 4 19.800205296741133 30.0272244775336 53.87506219126804 0 0 0
4617 4 0.3344784921714796 1.7194721605026924 60.74348044028898 1 1 0
4625 4 26.219988615005516 4.2877434562697045 56.84497360757871 0 1 0
3805 4 26.926897539094508 0.11560909670334928 57.86051145151694 0 1 0
4580 4 27.627052004231487 2.645180973961761 59.548620304754735 0 1 0
3862 4 29.185392134574126 3.342515300925919 57.61670364378489 0 1 0
4483 4 30.50758533598375 1.1051561621745334 58.46233945375849 0 1 0
4404 4 32.70205345100324 3.583440449141397 58.47701544963243 0 1 0
4407 4 34.77325143288808 2.0185721107995476 59.17160782162952 0 1 0
4474 4 33.02162416481578 0.1359411529272914 58.54290202386406 0 1 0
4513 4 -3.4487108040554046 6.447700419887067 57.0408142878118 1 1 0
4481 4 5.684592824739838 10.066812210176248 58.1607374622877 0 0 0
4746 4 19.5732587114529 9.62186220229127 61.48274749917792 0 0 0
4478 4 27.932231155073644 5.994176055279008 57.5766131747917 0 1 0
4360 4 -0.3474520944959405 14.72738038867439 57.33789173159158 0 0 0
4310 4 -1.8421735858195438 13.6303606943662 60.062540653314116 0 0 0
4610 4 2.4738893820218655 10.93568068820298 57.69444928444321 0 0 0
4652 4 2.4481005991948805 15.962188929118858 58.69188909291361 0 0 0
4500 4 8.378631851138667 12.65954956793783 58.8082199017706 0 0 0
4582 4 10.663816613900122 13.721597611699407 59.213539277653624 0 0 0
4209 4 7.982488572856408 16.020468712578047 56.74579738884347 0 0 0
4359 4 -0.13660262307653603 20.742885512206332 60.40164255861167 0 0 0
4647 4 0.8344512644983499 18.80071550861618 58.93103904103381 0 0 0
4465 4 2.414007689312685 19.711935375109523 56.65990254942034 0 0 0
4400 4 2.5349377210131756 16.984648995346006 61.53265246536046 0 0 0
4581 4 4.642921094491266 17.68651933124125 60.144160335256615 0 0 0
4608 4 2.354596912850475 20.872923747247235 59.70650216808964 0 0 0
4527 4 15.903626132989647 16.272861627787957 61.401728718593986 0 0 0
4718 4 19.335767130306614 20.884612551232724 61.20370607904296 0 0 0
4455 4 20.297227413474758 19.33176760628876 56.880928198626464 0 0 0
4536 4 0.43050332125135604 21.892166419535208 57.685583203772 0 0 0
4433 4 -0.19956085738506957 26.732988237475055 57.30454981402143 0 0 0
4597 4 -0.30698639961849317 23.70448386304139 59.495152365862396 0 0 0
4593 4 20.490376534635452 21.85329539566064 56.95964054196631 0 0 0
4311 4 20.267440528068825 23.06431955993673 60.231298472306904 0 0 0
4629 4 -16.02743618660109 29.336571232515166 60.89838924084049 1 0 0
4488 4 -13.155530367985609 28.915704057777276 61.74197354958335 1 0 0
4418 4 -3.6693987168129922 29.655314218933643 60.051389084252634 0 0 0
4499 4 -0.7023177047564602 29.195952878259654 59.327192965170724 0 0 0
4560 4 0.5410147509541456 27.183560281883448 60.64633115882927 0 0 0
4542 4 1.5656637538284812 28.424796287817756 58.29591604973032 0 0 0
4521 4 2.680845937001358 30.61892869968252 60.55110756391895 0 0 0
4675 4 4.802969824369651 32.041090542491524 58.29462175567798 0 0 0
4626 4 15.456716155471529 30.74077896685193 56.687763979628016 0 0 0
4524 4 19.058520634608385 27.55537229721801 56.82968494446928 0 0 0
4464 4 18.21899625043191 30.92362414314663 58.0008994773828 0 0 0
4656 4 24.089566897756217 0.7328509708066687 61.941696633890786 0 1 0
4613 4 26.917151564510036 1.2051210285580003 62.91418657901181 0 1 0
4611 4 27.4712973598214 0.552772097530476 65.25966501891698 0 1 0
4447 4 33.093174988785194 0.969868592779143 61.857377799522396 0 1 0
4570 4 33.50255317596771 3.336754638005413 63.87138170034268 0 1 0
4576 4 33.191195419763694 0.26129830675664606 64.87470995051518 0 1 0
4606 4 9.289444974536881 9.56200357429282 61.81786701931465 0 0 0
4657 4 23.551989852733268 7.5556607934915485 61.87157290817498 0 1 0
4338 4 3.7107112970720184 15.38067416528035 63.8264813671164 0 0 0
4528 4 6.266416507857075 15.841517598913795 66.58242302113247 0 0 0
4729 4 6.969066433242636 13.292015789927548 63.08430683464039 0 0 0
4551 4 9.410175091036919 12.698710497768717 63.58413837047917 0 0 0
4637 4 9.418570590882174 15.287940150420408 62.570822027851506 0 0 0
4368 4 10.26098583182549 12.557148678816885 66.08131674492108 0 0 0
4642 4 12.016550754045525 14.721727477229763 62.42865781538626 0 0 0
4578 4 15.6515875521361 13.1091163305388 64.56354327245654 0 0 0
4707 4 12.643103682747883 15.634922387296163 64.74813580738389 0 0 0
4694 4 15.884359045517286 15.464962132637718 63.63424193757177 0 0 0
4328 4 17.77224569641064 14.008123980447895 65.47082837010812 0 0 0
4554 4 1.482372527941509 20.473956884605116 64.70546696662184 0 0 0
4641 4 1.732745964806476 17.901294952821083 65.58334294525963 0 0 0
3804 4 3.8224495362234148 18.33756641533091 63.632867641947996 0 0 0
4366 4 21.292923543266763 21.33970158812411 66.63282007786093 0 0 0
4511 4 1.5440588626832366 26.02605596839719 64.96502784893684 0 0 0
4630 4 0.9496646287056247 24.725088140117904 62.68637901882069 0 0 0
4745 4 14.853800448973178 24.774944708813127 64.95768201611962 0 0 0
4612 4 18.942295742653776 25.355791000701327 62.87226153637556 0 0 0
4490 4 19.787629975409374 22.96363652911717 62.83757442246326 0 0 0
4616 4 0.2766739440746928 27.053628140201294 66.92262940019039 0 0 0
4397 4 3.112770614731243 29.137501443832264 63.50628421693409 0 0 0
4202 4 4.588341548708197 31.059989310055418 63.1881148001973 0 0 0
4594 4 16.1247671610454 31.047946961266113 63.708462679944745 0 0 0
4628 4 36.96460026416193 0.4236510253913381 71.69264428933806 0 1 0
4541 4 10.32685636846256 5.136709991002751 70.97880014379288 0 0 0
4590 4 4.478682854013622 10.364290548603194 67.03828304107058 0 0 0
4445 4 6.193632593940306 15.126225973553666 69.06036121245747 0 0 0
4588 4 4.694415867308358 15.274152589259993 71.69414929514845 0 0 0
4650 4 10.871219911695883 14.674979589646028 71.2125385269631 0 0 0
4607 4 9.958395218648903 15.364207464562302 67.7298506422314 0 0 0
4448 4 7.9016719882606345 15.299507437267241 71.19298153259736 0 0 0
4504 4 12.124229313895226 13.72973631558907 69.22687258870484 0 0 0
4645 4 13.022548269370345 16.034487648516492 67.27217523883012 0 0 0
4467 4 0.6922623148170501 18.36135889016236 67.86994508774679 0 0 0
4689 4 17.174647418455763 18.581405240036027 71.20084909630789 0 0 0
4609 4 21.67785251164551 22.19744817946127 68.95139437124965 0 0 0
4281 4 21.576953188690652 25.137756603538012 69.81458514377802 0 0 0
4716 4 5.128639188442083 32.063964594658074 67.15343909801501 0 0 0
4538 4 2.9556190660539983 31.276661646164015 67.96352309124512 0 0 0
4584 4 17.255607276642614 31.443039982235426 68.58166188101491 0 0 0
4413 4 25.509002229870223 0.2763815218589837 75.74377394495689 0 1 0
4687 4 3.0531249264893656 16.167774504960462 73.4186760250903 0 0 0
4412 4 7.22588843337471 16.261955555126967 73.38662243645636 0 0 0
4583 4 18.90231524979466 23.81160653343635 73.4300529245859 0 0 0
4544 4 22.362137770500926 24.594610567112 74.00992012186738 0 0 0
4598 4 17.012065477734446 32.019240867949556 74.2857966728483 0 0 0
4743 4 19.145972384625704 29.378262822025555 75.03261817391041 0 0 0
2592 1 1.752220690171466 20.079525189088884 80.81106164490248 0 0 0
4344 4 16.08556895512904 17.51603569194139 81.26530037876442 0 0 0
4706 4 1.2647027226418697 24.424107025496436 79.83319162890302 0 0 0
4416 4 1.9791038536900079 22.101237686846527 82.07282009014413 0 0 0
4699 4 20.519294486893337 27.299392337155076 78.27283170545353 0 0 0
4557 4 18.41223152748745 30.981814921466516 77.75647491728607 0 0 0
4389 4 15.821978066455952 15.338077589664548 85.90684837342569 0 0 0
4710 4 16.52977337931116 31.64337833321492 89.62693377237207 0 0 0
4200 4 17.20652201669165 27.94273354920691 97.46901726367608 0 0 0
4356 4 17.326701751797195 27.375277125929472 102.57439687892456 0 0 0

Velocities

743 0 0 0
2 0 0 0
3 0 0 0
9 0 0 0
90 0 0 0
2969 0 0 0
3032 0 0 0
81 0 0 0
82 0 0 0
2909 0 0 0
2910 0 0 0
2914 0 0 0
2975 0 0 0
83 0 0 0
170 0 0 0
250 0 0 0
251 0 0 0
255 0 0 0
256 0 0 0
257 0 0 0
351 0 0 0
356 0 0 0
2921 0 0 0
341 0 0 0
342 0 0 0
352 0 0 0
444 0 0 0
445 0 0 0
516 0 0 0
2924 0 0 0
2933 0 0 0
2992 0 0 0
2998 0 0 0
3003 0 0 0
436 0 0 0
511 0 0 0
517 0 0 0
596 0 0 0
603 0 0 0
604 0 0 0
2934 0 0 0
2939 0 0 0
3006 0 0 0
597 0 0 0
693 0 0 0
698 0 0 0
699 0 0 0
777 0 0 0
2948 0 0 0
3010 0 0 0
3018 0 0 0
3019 0 0 0
766 0 0 0
849 0 0 0
850 0 0 0
859 0 0 0
2953 0 0 0
2954 0 0 0
2955 0 0 0
2958 0 0 0
3022 0 0 0
3024 0 0 0
851 0 0 0
952 0 0 0
953 0 0 0
2963 0 0 0
954 0 0 0
24 0 0 0
3033 0 0 0
16 0 0 0
17 0 0 0
25 0 0 0
96 0 0 0
97 0 0 0
104 0 0 0
105 0 0 0
106 0 0 0
189 0 0 0
184 0 0 0
190 0 0 0
260 0 0 0
261 0 0 0
269 0 0 0
270 0 0 0
2915 0 0 0
2916 0 0 0
2983 0 0 0
2989 0 0 0
262 0 0 0
357 0 0 0
358 0 0 0
364 0 0 0
2925 0 0 0
2926 0 0 0
2993 0 0 0
2994 0 0 0
453 0 0 0
454 0 0 0
523 0 0 0
530 0 0 0
537 0 0 0
626 0 0 0
2935 0 0 0
2999 0 0 0
3000 0 0 0
3004 0 0 0
524 0 0 0
610 0 0 0
611 0 0 0
617 0 0 0
618 0 0 0
708 0 0 0
715 0 0 0
792 0 0 0
2941 0 0 0
2942 0 0 0
778 0 0 0
783 0 0 0
784 0 0 0
785 0 0 0
875 0 0 0
876 0 0 0
882 0 0 0
2949 0 0 0
867 0 0 0
868 0 0 0
869 0 0 0
877 0 0 0
963 0 0 0
970 0 0 0
971 0 0 0
972 0 0 0
2964 0 0 0
23 0 0 0
964 0 0 0
119 0 0 0
120 0 0 0
127 0 0 0
2970 0 0 0
2971 0 0 0
3034 0 0 0
111 0 0 0
112 0 0 0
113 0 0 0
121 0 0 0
203 0 0 0
285 0 0 0
2917 0 0 0
2976 0 0 0
2985 0 0 0
277 0 0 0
286 0 0 0
372 0 0 0
373 0 0 0
380 0 0 0
381 0 0 0
389 0 0 0
475 0 0 0
2984 0 0 0
374 0 0 0
466 0 0 0
470 0 0 0
545 0 0 0
550 0 0 0
2927 0 0 0
2928 0 0 0
2937 0 0 0
538 0 0 0
627 0 0 0
637 0 0 0
638 0 0 0
639 0 0 0
644 0 0 0
2936 0 0 0
3007 0 0 0
628 0 0 0
725 0 0 0
901 0 0 0
2943 0 0 0
2950 0 0 0
3011 0 0 0
3012 0 0 0
3020 0 0 0
883 0 0 0
884 0 0 0
892 0 0 0
893 0 0 0
984 0 0 0
985 0 0 0
2956 0 0 0
38 0 0 0
986 0 0 0
2965 0 0 0
3025 0 0 0
3035 0 0 0
39 0 0 0
44 0 0 0
2972 0 0 0
40 0 0 0
128 0 0 0
135 0 0 0
136 0 0 0
2911 0 0 0
2918 0 0 0
2977 0 0 0
2978 0 0 0
129 0 0 0
210 0 0 0
294 0 0 0
295 0 0 0
299 0 0 0
300 0 0 0
396 0 0 0
406 0 0 0
2986 0 0 0
2987 0 0 0
390 0 0 0
397 0 0 0
398 0 0 0
486 0 0 0
2929 0 0 0
2930 0 0 0
556 0 0 0
557 0 0 0
558 0 0 0
654 0 0 0
655 0 0 0
2938 0 0 0
645 0 0 0
646 0 0 0
656 0 0 0
728 0 0 0
818 0 0 0
2944 0 0 0
2951 0 0 0
3013 0 0 0
3014 0 0 0
729 0 0 0
805 0 0 0
806 0 0 0
807 0 0 0
902 0 0 0
912 0 0 0
913 0 0 0
914 0 0 0
922 0 0 0
2957 0 0 0
3021 0 0 0
904 0 0 0
43 0 0 0
903 0 0 0
991 0 0 0
2959 0 0 0
2966 0 0 0
3026 0 0 0
3027 0 0 0
60 0 0 0
53 0 0 0
54 0 0 0
61 0 0 0
146 0 0 0
150 0 0 0
151 0 0 0
2913 0 0 0
2973 0 0 0
2980 0 0 0
222 0 0 0
223 0 0 0
224 0 0 0
229 0 0 0
315 0 0 0
316 0 0 0
2912 0 0 0
2920 0 0 0
2979 0 0 0
2991 0 0 0
308 0 0 0
309 0 0 0
407 0 0 0
497 0 0 0
2922 0 0 0
2990 0 0 0
2995 0 0 0
408 0 0 0
562 0 0 0
563 0 0 0
573 0 0 0
574 0 0 0
575 0 0 0
2931 0 0 0
2932 0 0 0
3001 0 0 0
564 0 0 0
659 0 0 0
660 0 0 0
667 0 0 0
2945 0 0 0
3008 0 0 0
3009 0 0 0
3017 0 0 0
742 0 0 0
750 0 0 0
819 0 0 0
826 0 0 0
827 0 0 0
828 0 0 0
2952 0 0 0
3015 0 0 0
3016 0 0 0
933 0 0 0
923 0 0 0
924 0 0 0
930 0 0 0
931 0 0 0
932 0 0 0
999 0 0 0
1000 0 0 0
2960 0 0 0
2967 0 0 0
3028 0 0 0
3029 0 0 0
1001 0 0 0
71 0 0 0
75 0 0 0
76 0 0 0
80 0 0 0
163 0 0 0
2974 0 0 0
3036 0 0 0
3037 0 0 0
156 0 0 0
157 0 0 0
158 0 0 0
164 0 0 0
236 0 0 0
2919 0 0 0
2981 0 0 0
2982 0 0 0
2988 0 0 0
237 0 0 0
325 0 0 0
326 0 0 0
327 0 0 0
334 0 0 0
340 0 0 0
431 0 0 0
432 0 0 0
2997 0 0 0
424 0 0 0
425 0 0 0
433 0 0 0
498 0 0 0
504 0 0 0
505 0 0 0
587 0 0 0
2923 0 0 0
3002 0 0 0
499 0 0 0
580 0 0 0
581 0 0 0
582 0 0 0
588 0 0 0
589 0 0 0
675 0 0 0
681 0 0 0
682 0 0 0
692 0 0 0
2940 0 0 0
3005 0 0 0
756 0 0 0
760 0 0 0
765 0 0 0
841 0 0 0
842 0 0 0
2946 0 0 0
2947 0 0 0
835 0 0 0
836 0 0 0
837 0 0 0
843 0 0 0
939 0 0 0
946 0 0 0
2962 0 0 0
3023 0 0 0
3031 0 0 0
1 0 0 0
74 0 0 0
1015 0 0 0
2961 0 0 0
2968 0 0 0
3030 0 0 0
4 0 0 0
5 0 0 0
12 0 0 0
91 0 0 0
93 9.811540657192607 -6.588137343822166 3.367972822265997
3105 0 0 0
3166 -0.3581978795578981 0.24768829666723122 1.4867618157236118
92 0.5576692017951644 1.8931498405516052 -1.2459152900847863
85 0 0 0
94 0 0 0
171 0 0 0
173 -4.032547132742649 -1.7532386976597265 -3.4002862419781987
174 4.218985136281535 -3.138550905213898 4.100480897559398
177 0 0 0
180 -2.52044190242043 3.3267155629073186 1.5259233546937967
181 0 0 0
3110 0 0 0
3111 0.17900980018692897 2.5475057666333765 0.7715807868172909
179 -2.1924852942391735 3.1860421582791743 -0.6626175290804383
3122 -1.3092670261695547 -3.408681519339516 -1.6445779343115323
3170 0.6707957475139606 0.25274991354817733 0.451777768183157
175 0 0 0
252 0 0 0
254 0 0 0
258 0 0 0
3044 0 0 0
3049 0 0 0
3121 -0.3333701693244567 -1.3314314853607385 1.35306502091053
3123 1.2881357879087318 0.3531996579270216 -1.6970968240712445
172 3.347051458007003 0.30427484114597675 1.248569807604103
336 4.241367820555718 -0.3714322185053597 -1.5801793780449849
343 0 0 0
346 0 0 0
438 -0.4325722289760263 3.3991049575550245 0.8786185506419726
449 0 0 0
507 1.6791599273178275 -1.0483985388478212 0.4653746052066394
519 -2.111033792801765 -3.0263986948006174 1.9302222942098621
447 -1.4618639362238028 0.924289507824299 -3.4743395931591894
448 0.6399574028631879 -4.825340121268732 -4.062312348051468
439 -0.9442732654155959 2.57221753094206 -4.111114075824087
345 0.16104958706067185 -0.6349656182202823 4.543546232939961
435 -0.5748559381485796 5.369624309193336 0.9629906450800997
513 -0.24290211186819333 0.6384840512741544 0.9981727742627873
514 -5.522608397258365 6.915966100136028 2.367613566384684
515 0 0 0
518 0 0 0
520 0 0 0
599 1.1158876347974784 -1.77069990976989 0.42018994030996903
600 6.049321811250675 -4.390238687395186 -5.637423302771543
605 0 0 0
607 0 0 0
702 0.18376093799027676 2.481386801875469 -1.0478764332654344
3063 0 0 0
3137 -0.08868704338721704 2.291041505131173 -0.5543295221016519
3199 1.2194373719879492 0.46498668133685767 -0.6129078939603143
694 -4.527811263054431 3.1873082560076096 -3.5610221916791183
700 0 0 0
703 -3.5044020059136316 1.8613498435463087 -6.8311699845328935
768 -3.1156950073226923 -0.057937525312648216 3.06653374698578
774 -3.4424926840323824 -1.1533340568496369 -6.7095574906158895
3074 0 0 0
3075 0 0 0
3082 0 0 0
3146 -0.9485168766552465 1.7237631190551113 -0.20989084077024925
773 -2.6139813981895137 -0.8466384618236059 0.18749905552527668
767 0 0 0
769 0 0 0
775 0 0 0
852 0 0 0
854 1.7535147691686097 -1.7079822616583513 7.667384817570119
855 4.366615168028708 -3.2199587271201486 1.9725518320217634
862 -1.9151560664779597 0.7161664812805656 4.837965204363127
863 0 0 0
949 0 0 0
3150 1.9704255202541465 1.5154352173299068 -1.777434589200349
3155 -0.5868046242505258 0.031881061846317345 0.12655048189651222
856 0 0 0
955 -1.1316007915066064 -2.6597441821704644 3.521461091560666
959 -2.1478755791249675 -3.0357727987029723 -3.921376522246663
960 0 0 0
3099 0 0 0
3162 1.441873561070571 -0.23390423929959125 0.2351846635383018
956 -4.965246663845321 0.5992906373960588 -2.624259942008136
1024 -0.22698519409099896 1.3599040362042845 0.6424742145236908
26 0 0 0
28 6.7568110158867265 -0.00957341423902467 0.72983427560194
3101 0 0 0
3167 -0.2393040637892534 -1.190080736169128 -2.058879643814186
11 -5.476063359221756 4.938204730192568 -5.4325936494984655
98 0 0 0
100 0 0 0
107 0 0 0
3039 0 0 0
3100 0 0 0
3106 0 0 0
3112 0.9910751062976965 0.8117426673989518 0.8561427649816544
192 -2.676291471606215 2.296377341825516 0.8773764548622713
108 -3.5522049894441907 0.7787590345144535 -2.6040769886893753
193 -0.8751507450803423 -5.552812282516416 6.53649428695847
185 0 0 0
187 3.158601348795048 -4.000191014011104 0.3128671912529498
188 0 0 0
272 1.1769225227107094 0.46348767665927154 1.1686899104909985
273 2.101073312392202 2.4550711191105 3.2342953019298157
366 -3.208635810539917 1.7986211067124276 -1.2037899586967384
3038 0 0 0
3045 0 0 0
3046 0 0 0
186 -1.5988062048816802 1.032870960366187 -2.273250689657589
271 0.3316029280909459 3.0768585102713604 0.39336772004119985
264 -1.1501162655753217 -0.23881369290073157 6.471497418290742
360 8.811831242443247 5.960542905169605 -1.2911390972305739
367 3.9513879149018614 2.074460856566913 0.9028912048540756
368 0 0 0
455 2.3340663713451186 -0.8557299035172555 8.661144802659553
459 0 0 0
462 6.179378504539839 3.6528272236081643 5.922454212404715
3050 0 0 0
3051 0 0 0
461 2.5695824613727556 -2.6934702200587504 -3.4818792151009057
365 0.1869129100995434 0.9701511195077867 -1.2529918399384923
456 -0.4887724593814485 -0.5000197961308328 -4.623364193166477
457 0 0 0
463 0 0 0
525 1.3081280730011307 -3.2151865962493216 -3.6031628792311103
526 2.2764705266346077 -5.634897570334905 0.7503133639716227
531 0 0 0
533 -0.25576767709017756 -0.38016833249689663 4.717873020411433
534 -5.563082417207476 -4.902155303764816 6.199452335758118
535 0 0 0
3052 0 0 0
621 0.4639387231190843 2.720340965533628 0.6154272282267718
3193 -2.853281873082611 0.742744369728192 -1.159618737299337
527 0 0 0
612 2.033042983711785 1.6792708115155206 0.30639990126215083
619 0 0 0
622 -3.582243984265879 1.9229538572036107 -1.1624257860281801
716 0 0 0
719 -0.11588684161554387 -2.27081487918744 1.0516870431529055
788 -4.919688337155775 0.013345235813444278 -1.8098839896545038
3068 0 0 0
3069 0 0 0
718 2.7526731508143896 3.1155906342829813 -0.7577852757625768
3141 -1.463590050973843 -3.8054586906156347 0.8157141600235133
3213 0.9142752135757832 3.6792294553761162 0.8449716789172537
3210 -1.7798173441961995 -2.8092423926489656 -0.8230149548225947
710 0 0 0
779 0 0 0
780 0 0 0
786 0 0 0
3076 0 0 0
3083 0 0 0
3151 0.29983239219647273 0.03490539993589218 -2.2175185334427305
789 -2.97402704171981 8.237150814555196 -0.7516488619925871
861 0.6896834459126815 3.917984264175295 -0.12361480811870446
958 2.1047860790453927 2.1123935220271197 -3.2047100511095317
27 2.1360323783928807 -0.9922720093937616 -0.2708250487903473
870 0 0 0
872 0 0 0
965 0 0 0
974 0 0 0
3087 0 0 0
3156 1.5700725168649867 -0.5592498961549732 2.2659665189184017
3157 0.33863010993396864 -2.064819997094181 -3.868751620725207
967 -4.604424783776109 -2.4449823285863133 -5.261325203894412
3093 0 0 0
31 -4.9307926781891265 -2.6441533488791586 -0.14279666361257154
32 0 0 0
35 0 0 0
36 0 0 0
115 -4.0622484845619145 1.920700282862801 2.215801854757797
122 0 0 0
3102 0 0 0
29 -2.3602683493641816 -1.816241360145603 1.5184102057034228
116 -0.6967446090776778 1.0049580265308005 -4.0741613155884835
3114 0.15232053470436452 3.0736703555632703 -0.6549702339170228
114 0 0 0
117 0 0 0
123 0 0 0
198 -1.6393618186333039 -4.009153380679452 -1.8569051357159512
205 5.102594816798565 1.6604470976494132 0.37619805856838906
206 0 0 0
279 -0.7092985402605073 -1.9716085875025093 0.3416189013735158
287 0 0 0
3040 0 0 0
199 -6.405265930694246 1.39800133259366 -0.5899301345886617
290 -0.7748153748753751 -7.325309014465526 6.736262714068125
3113 -0.693130694579572 0.25478660197482184 0.6505759351797537
280 3.3086740893579103 -3.501630565856309 7.887738401559269
291 0 0 0
375 0 0 0
376 2.7750437858963988 5.714872763878872 0.0018589371660115983
382 0 0 0
383 -2.6223264996739775 3.741395708898998 4.307039895468475
384 -3.486019324826428 3.713746098191758 -6.231415100102206
3047 0 0 0
3054 0 0 0
377 0 0 0
467 0 0 0
469 0 0 0
471 0 0 0
472 0 0 0
546 0 0 0
3053 0 0 0
3131 2.049257305829927 -1.3160524363055968 0.08460422162382042
3132 -1.4983618247802077 3.0812129668146406 -1.1490823746511512
3125 -0.46221334062746594 1.1927689942143576 0.09312316398560376
539 0 0 0
540 0 0 0
629 0 0 0
631 -7.100114874397555 -0.5349761017963541 4.5977674610812285
3064 0 0 0
3065 0 0 0
3070 0 0 0
3071 0 0 0
3142 1.498201130399159 -1.4739941403721732 1.8840962661149154
632 0 0 0
720 -0.9465208336953271 -0.5950913987783993 -0.122979363153318
721 0 0 0
726 0 0 0
793 0 0 0
795 -0.520819219154638 -2.866068285765994 3.554784108147192
801 2.464491694640312 -0.33937514776665506 -0.9458280256789138
802 0 0 0
3077 0 0 0
3147 1.7853006119132786 0.9725841340528474 1.9443548611189547
896 -2.0398441664783795 1.51794156807815 -0.996948829404953
878 -1.9464275336441368 -2.5708266336774654 1.2255627369437343
796 0 0 0
885 0 0 0
887 -2.363722559825993 -1.5160331346599574 3.3683662062752804
888 -0.3434167937042544 -5.019297664860261 -0.45257637575835996
894 0 0 0
897 0 0 0
979 -3.4368221836153516 -3.7032415417563103 -2.572488069489605
987 0 0 0
3088 0 0 0
3089 0 0 0
3095 0 0 0
3152 0.980689034649953 1.1232427615263054 1.2026102426454404
30 -1.2255137145653539 0.6802804112193273 -4.139631555538193
980 -8.10946462922872 0.4000795827071239 4.172095385704512
989 0 0 0
3094 0 0 0
41 0 0 0
45 0 0 0
3103 0 0 0
139 -0.8580857273665375 2.117690260399474 -0.1483929701172672
3163 -0.9826325170395874 -0.5240381254821134 0.6805363157198722
48 -5.758059928081988 0.8048939776071831 2.4039378490074084
130 3.1039589948505073 0.16846535258980028 3.4884984788733377
137 0 0 0
140 -4.52842548873588 2.177276757153131 -0.10522728317295862
141 0 0 0
3041 0 0 0
3107 0 0 0
217 1.0147035317880817 3.5651843061697774 -2.9432463422070274
3115 -0.6340421589932294 -0.9618391690788769 -0.2042378795509247
218 3.487775700475618 1.2089320863412036 -0.7184900416797255
289 -0.4764807450492389 -2.267269356887098 0.14389060866755188
296 1.6684374694502266 0.6795126855186308 0.7969645640890919
297 -0.5628334386973675 -5.296863036933328 -5.9676765013224955
298 0 0 0
304 0 0 0
399 0 0 0
3048 0 0 0
3118 -1.3181527224375842 -0.037919865050789994 0.23218001744438344
393 0.6137045118794007 0.019014435535280885 -1.8002025671776964
303 -3.9335392885459113 -1.8056455084673082 3.171776309657624
401 0.459278498097212 -1.64859246567247 -5.968426811093793
3182 2.062764820446751 0.7028389472836857 0.5768688588858258
400 0.8849733650647923 -0.07200055394827184 0.15046204757008447
391 0 0 0
402 0 0 0
481 -2.585860765528011 -1.8286227939863338 -3.256532383425396
3055 0 0 0
3059 0 0 0
3126 1.2978200867916037 0.7207827809176035 0.8533309096888915
3127 -1.389474105284591 -1.2544907150419264 -0.07289758907559221
547 1.6805739604419874 1.8603542360413359 -1.6759941580380762
551 0 0 0
553 0.6252874271605741 1.10296232458097 -0.1005349741113242
554 0 0 0
559 0 0 0
560 0 0 0
649 6.859404729862388 -1.2958358965035086 1.1675899057168322
3058 0 0 0
3066 0 0 0
3072 0 0 0
3133 0.18886362535825169 -1.7277418249678846 -0.34689841992686316
3139 -2.6919105487612964 1.5989850849534204 3.1702557881394866
647 0 0 0
658 0 0 0
731 1.5701890789623643 1.6877402409544862 -0.31948664641532853
736 0 0 0
740 0 0 0
3078 0 0 0
3143 0.7916903908231737 -0.2669649170568413 -0.34715356710949075
650 -1.5597190568171049 -1.0635572170120353 -2.901413736576118
732 1.0870410510547974 -0.9468689443298878 -1.9428436755870313
739 -1.1450314423406724 -5.088620609333492 -5.7061906946834995
800 -2.0132259697040342 2.4124664360860093 0.6023669092400233
809 4.915779262524491 0.11017808194399975 -0.41766656986423645
810 6.034157001643963 2.701057650596249 -1.220382553032214
811 0 0 0
817 0 0 0
906 -3.229839531106478 -1.651496539903207 -1.8551153658129453
915 0 0 0
917 9.85786044173197 -3.3841068903499547 -3.461845975159856
918 0 0 0
916 -1.4224128814608896 -1.1539155880583265 -0.13721379882589496
816 -2.608847456668234 7.010808003583255 3.8793187472188984
907 -1.6660414400764743 -3.0774840915241306 -5.964021122873615
3090 0 0 0
3096 0 0 0
3164 0.14085632705964451 -5.044526288386862 0.14146315443795363
3158 -0.9275642508473426 0.03689054476196789 -0.5344318897684674
47 -1.0950703389140748 1.7584447126672151 -5.1481562347824825
994 0.14852909478136186 -3.4719947425250655 -0.29035409313640503
62 0 0 0
65 1.6561068172489863 -2.1062805962252935 4.512705377110843
55 0 0 0
59 0 0 0
66 0 0 0
147 0 0 0
152 0 0 0
3108 0 0 0
3116 -2.0918882467808464 1.153742472865178 -1.500646678750429
153 -6.437655411787943 -1.2132793397879846 2.707552404422548
58 -4.659587608594989 5.362862923086894 -0.1367915201032707
148 0 0 0
225 0 0 0
226 0 0 0
231 0 0 0
311 -4.141092908494184 -0.41088157959578575 -1.970128942540948
317 0 0 0
320 4.9025876140648394 1.9903071248792243 5.38661483236755
3042 0 0 0
3119 -1.2546174718133594 0.043605845275470345 1.1421465987749275
319 -1.1352093892873585 -2.6691885964731767 3.8330307404082506
3179 -1.2576217547224495 3.9269452489058163 -1.0047181440910535
302 0.42719445493396074 3.9645985860433206 1.7042662898249032
310 0 0 0
312 0 0 0
321 0 0 0
409 0 0 0
411 2.5549679142718698 -0.35749288791378875 -2.0118852872541497
412 9.294433874587838 -4.519951493601687 3.32262685459054
413 0 0 0
420 3.1455448030950675 2.9727313147695322 -2.098747660182484
421 0 0 0
2996 0 0 0
3056 0 0 0
3129 -2.4204857421206007 -0.7514373915199075 0.02075760819736977
3183 -0.6990656140749723 -0.4849820997246137 0.8486741486241436
418 0.8725832328710452 -3.1712285444243538 -1.4372479209959002
487 0 0 0
488 0 0 0
493 -2.519011177979662 -6.383433798417206 4.098419496903194
565 0 0 0
576 0 0 0
577 0 0 0
3060 0 0 0
3128 2.7080020218144916 0.3654805940675815 1.067016572571307
3134 -1.1625067487223495 0.8413188425655191 -0.6685988380504342
3135 -0.442779791519424 -0.4480971391820474 -2.7114018214546576
567 -4.5852483093445375 4.842183479975099 3.2840430064055166
568 0 0 0
662 -1.467518021682738 -3.195913089878647 -1.214128718154876
668 0 0 0
671 2.5654127981582833 -3.3693381430452423 -0.8202897826771957
672 0 0 0
745 1.1845013589005897 2.977436481583805 -5.879966723747505
3073 0 0 0
3140 -0.40682968697991784 -1.0163340354118164 -1.928270265488336
663 2.401236755592489 -4.622279096170373 -1.2156641444907752
3148 0.5588578200177897 -0.7120108790005674 0.7284378997067924
661 -1.182154067450803 -1.393474586686629 1.8697551451271222
738 -0.16496386038236427 3.4174295736664146 -0.8733034047410924
746 -2.0060605839728227 -4.6679842193220304 -2.3554467184890213
747 0 0 0
815 4.042504651558437 -1.3589217300824217 -2.679113301355976
820 0 0 0
821 -0.8215438175984263 -0.7646379710276453 5.3786375497812395
830 0 0 0
3079 0 0 0
3084 0 0 0
934 -7.464258746697157 -2.05709583503437 1.3139798994326946
822 5.795295491099056 -2.023104224443528 -4.827702236746711
829 -0.49588395204541513 -0.4096452152340497 -2.5615556081377626
3153 0.5712743964515813 1.2422534025841248 -1.4420146570311911
995 2.5163950461998774 2.9734918447294914 1.478811499817262
823 0 0 0
925 0 0 0
926 0 0 0
3091 0 0 0
3092 0 0 0
3097 0 0 0
3160 -2.9489088389515112 0.287293915883077 2.1121254719678833
3161 -1.2105778534930443 1.2096091186235032 0.45506801339192265
3222 1.2271821816557356 0.7835334664390123 1.7774147122752468
57 -1.1165979216779434 -0.5992416109026337 0.20274963745664695
1002 0 0 0
1004 0 0 0
64 0.30266951654877144 -1.0455194861111832 0.21133820807661136
72 0 0 0
73 0 0 0
77 0 0 0
3104 0 0 0
3109 0 0 0
3117 -0.6535467626846668 1.619057146171847 3.7370089000933633
3169 2.1639123460100227 0.9269870334866783 -0.9669219448074141
245 2.6363897859684986 0.824213994571271 1.0854269809214958
166 0 0 0
239 -0.37647804866542645 0.8305889200154594 -0.7644178202299481
246 -0.7952447317344558 1.7894248311750807 7.7268041900096645
247 0 0 0
3043 0 0 0
160 0.9054608864460167 -2.183967347365377 -0.5471854862626394
240 -0.8598652629875885 1.288640613545469 -3.845114438190726
3120 1.6405579659705445 -2.537279181713836 0.0021917824523470034
328 0 0 0
329 -0.45047243211496696 -4.080178444261027 4.038490873307104
331 0 0 0
335 0 0 0
337 -4.872614791637108 8.732105730991462 -3.890852498618636
338 0 0 0
434 0 0 0
3124 -0.23451862472560714 -0.9613780164336654 -0.9690524607751645
330 0.49376025033912335 -1.1828814714003413 0.2500538112420104
591 1.1749196794474637 -2.456632179825563 -1.0547349765014717
419 -2.7606000604219103 0.8353445001085568 -0.2843103006679054
426 0 0 0
428 0 0 0
492 -2.9551745967306644 -2.0678877423700524 -3.0546980121493243
500 0 0 0
584 2.7087825331400714 3.2574162172456447 -0.4689335382520841
592 -1.3701254774976463 5.983104394065747 1.47052697976047
3057 0 0 0
3061 0 0 0
3062 0 0 0
3130 1.954197451193406 0.406683622074437 0.5144359173297797
501 -2.78505403798733 -1.458186285346523 6.393027022088798
3145 -1.070466779882993 -0.06330298273770206 -0.7175251565371672
670 1.934501263872007 2.4818768955224035 3.165342205530085
583 0 0 0
593 0 0 0
676 0 0 0
683 0 0 0
685 -2.2968447406326513 -3.564573590274587 3.6144453690761953
686 -1.8359050298794755 -3.2979859263551736 4.107054330174152
687 0 0 0
3067 0 0 0
3136 0.8432897688955441 -1.8437332357601808 0.3283819440193226
678 8.887567880545049 6.913469707343301 -2.018343551595949
684 0.8478041986641435 -5.05342555754965 1.960908602711293
751 0.8915210885246793 5.235697395374865 -0.11277733427673657
679 0 0 0
757 0 0 0
761 0 0 0
844 0 0 0
3080 0 0 0
3081 0 0 0
3144 -1.2935112134101678 -0.11260004515761443 -0.8187008174634758
3149 4.2414350583315334 1.0380752166269378 0.16122638921035976
838 0 0 0
941 1.324699626949799 0.34106556836119784 0.9018242012706114
942 0.5563865326953974 -0.9093942697240929 1.9228566298163303
943 0 0 0
947 0 0 0
950 -4.586851653011946 -1.0547831881118122 -2.256501417068301
951 0 0 0
3085 0 0 0
3086 0 0 0
3154 0.3222136795165895 -0.6403407055151907 1.8924856649549735
948 -0.879636607080182 1.2085459854643366 1.4127928031975368
1018 2.6059691113218295 1.2230642519118171 0.2655330652524297
3229 2.818341262055936 0.2039711679499982 -0.2200732294475801
1010 1.4108710970921898 4.273895241696321 0.5478247502383374
1016 0 0 0
1020 0 0 0
1025 0 0 0
3098 0 0 0
3165 -1.5917909247023454 2.113379851150905 1.903231387203481
1019 7.44595033260222 1.0674977905082668 -0.49385862820985665
10 -1.6056887517182472 -0.23111725335706965 0.9225111807237341
3231 -1.4406427605497354 -2.0828255510724256 0.13119831319499442
962 2.419581887944113 1.4944752421507166 0.3354975305403276
1026 5.023922688067802 -2.080078186397144 -3.436890999549612
7 -3.7954872053705584 3.546356430816778 -5.921213736914261
3239 -1.1590356933141737 2.1231751280632607 0.4210171776559668
84 -0.8419614538381147 5.533260833063733 -0.8731461815923053
87 3.126668365794558 0.6846798385680222 -4.793402637328183
178 1.5429859190353077 1.9152832064137972 0.9515991587800481
78 0.5622238986741463 0.9156762951423182 -4.2616064422210025
3241 -1.3374458974724808 1.4526658107396733 1.5956036797067292
3240 -1.6078346605252773 -1.5702592177846346 -0.24826393859106155
167 -5.467541965708273 -1.2168326988088563 -3.9463004311640804
88 -0.8029536706852604 1.5735916335513092 -0.1837968491708191
253 -0.899606513038807 3.7635692331121793 -4.351407519684047
3186 -1.1170534385709496 -3.906083890598797 0.920388671261213
3244 0.2694101598312997 4.271703515671357 -2.7707752755096
3250 -0.6569480503648208 0.7403624878255971 -2.6261161796025156
344 -2.643422669812524 -1.760828091922445 -0.16942121633606236
348 -0.10903059193793335 -0.1405891834800666 5.251147787788459
353 4.3713481983657685 1.0204683926394176 0.6494107369605147
354 -2.5280792301506114 -1.7505354899428498 0.9777991647087811
446 -3.4170105058770908 2.490058793684895 0.9754101418032008
3256 0.7035586482698931 0.6370180740060487 1.0344880841613115
3260 3.4706379712794386 0.8779677088763322 2.9704882917054
349 -1.2675806982402478 -3.069867881498889 0.9445302131874446
451 -4.517778971493973 0.2403851321235761 -1.6255214101586175
355 -3.1551903890824753 -2.0952152209523147 -2.872600305002614
350 0.5023232394598265 1.8236303212514922 -1.9578027684946244
606 2.9520415268002305 1.4295653798970704 1.1318493593572372
437 -0.8425485774572379 -3.1134542461329042 -3.2483545469670543
441 -2.1705051815362886 -0.1563211743354048 0.6872189720813262
512 2.593615842583805 -3.30452120555348 -1.4613347079682237
3208 -0.03700956233332091 -0.8474416268254328 0.10191658090598883
3265 0.6154686926693544 2.1839400249704846 1.8477498070348948
442 -0.32962442054386126 1.1369125119632757 0.8320114448673792
594 -2.9452915115976626 1.682842267796862 -0.3653149311150623
608 -0.23198990493746557 -2.8884352755168536 0.4343400060520228
508 6.043968005833367 5.081317196069512 -2.7555063602024017
3332 -1.1034406143632256 -0.8589109309548385 1.2181283044243103
598 2.140631541843872 0.5620761677975437 -1.1075571060388731
601 -0.804892586366869 4.752709560389037 1.3456963096819017
695 0.26683239168002093 -1.0272818936311454 -1.4093927684822924
701 -3.073845078183602 -3.0275257986565185 -1.2068832335488127
705 1.8682542010305339 -2.4505093812118477 0.3095314658080519
602 -0.4777097374871354 -0.3447318564660738 0.07738636173254036
696 -3.6312247934865742 4.184900832132335 -1.4540874863089264
3212 -0.9322330048017612 -2.6820720921142875 0.7116777241124868
706 -2.1251505623649876 1.5595935216349528 -1.1791118374571374
3279 -1.0179138841001871 2.2564847217514044 -0.21440443788729874
762 -0.31876964800192675 2.383316879078998 2.2244304282954728
770 2.5510258537094193 -2.4287120778532527 -2.640328308996974
860 1.144879276803135 2.460508862261898 1.2850763696690692
865 2.9047921893415833 -2.0268992118724727 -2.29569771279873
3219 -0.8386525974033392 2.4212264154704117 1.055083752498516
3292 1.0081531567731858 -0.14615036776531415 -0.37559166700301705
846 1.0116201860816132 -3.7124081114224947 1.1012062443394806
771 -1.5435796917439923 -1.7381924996792775 -2.9520612587979618
866 -0.33413215351145614 -5.520641366924021 3.3981245663710684
3287 -1.0903914883328696 1.7541517147791905 -0.4261874729767108
3230 1.6595165374728624 0.05948748714015447 3.185836219314187
853 0.4027813875577453 3.888025141299182 1.3139512295132392
957 -3.9154625758115755 -5.086841746063622 2.9737607001195503
3227 -0.0987778366750561 0.3480335152747487 -1.1467086604988814
3293 -1.6798527723200267 1.5624665658638839 -1.0804999628255074
3232 2.957495316818953 -2.8178347830747796 -0.6499031547488384
968 2.3823728578493633 2.9073646334390113 2.829184953603827
14 3.045770332732586 6.429909480575698 3.988426663109736
18 0.5985627433030454 -0.9064262664072247 0.6811556247775827
20 0.3882854029109659 0.16972227417338953 1.3799852475028995
110 -2.5556154529780413 0.35932953048201544 2.996657628978813
99 1.807140390251294 -3.3989663650845987 0.6939815981070612
21 -1.4985578913949 -3.5230895163086946 0.31816940622016865
3171 -0.9580516332272448 0.15634063315980054 -0.3192429534824247
102 5.810352492798321 -1.973153228675094 -1.332575668317852
191 1.7052737543007954 2.1902098741525347 -1.3843993001379142
194 3.3261046304481443 -3.9913102451545237 4.341113947607269
3177 3.1219899860169735 -0.43124623751894897 -1.2701048468465799
3180 -1.3383046662231513 -1.1520974954250018 -1.0144728818804536
275 -0.4418776053085621 -1.5490021628613213 -1.6698403665329016
195 -1.3063697944300101 -4.021972331986565 3.7149400496383365
3245 -3.304167004408051 1.7074501461820555 1.3752572873380418
276 -5.098586751847069 3.303132969701119 7.055920548462679
3251 -0.023634811267910172 1.563972511122159 -0.48835751659252147
259 -0.3314654632226742 3.681068125709389 0.5812534463366739
263 0.8732345804684362 0.9740802244667043 0.7388384069686376
266 0.7380879809156069 3.6518633840777377 -5.262389917356921
267 0.567702349384397 -1.0323239568654186 -1.051407654590212
359 3.1623996247028443 -0.29096578652266797 1.5575027570186788
370 3.1808872883099832 -0.06750550671027719 3.037637184726177
3194 -2.2522213263117954 0.2959782906361231 0.40664130142346566
3187 2.8170009714879494 -2.7954414799134266 -0.6444740054138673
362 -1.931495828009335 -2.526465168488031 -2.046882113226413
371 5.908700598886039 -4.5333676729856 -0.9813420128960055
361 0.9269410612306547 -2.2714058437426474 -0.9275827612411842
3262 2.1511073552530875 0.40704373700143615 0.916367399760086
460 0.2993608261164442 1.4147946681596861 2.633117839433625
532 0.371374583356246 -0.337613427113604 1.738551346505644
3200 2.0162416378707353 1.2425573422984677 -0.3790410257810677
3201 -0.018585910367674895 0.5779560543930135 -1.0215076032701955
3267 -0.9048422769753941 0.7394626950214546 -1.5983042553455251
3263 -2.2340358141121444 -0.2959685869712127 -0.7415881135767499
3341 -0.08296662607977259 -1.756310016737746 1.9378006947864546
3261 -1.6991946438785983 0.9809800433500615 2.7363534195198067
529 -0.36085260764218446 0.3835754342201372 -3.301998517907864
3202 1.5144421684773839 -2.39660661206359 2.219794422777596
3266 -0.5260822435138727 1.1446660924875085 2.2926893576267435
614 -0.10367447835516175 5.159566394204776 -4.65893384041994
615 2.1225646848643933 -0.9510472834172966 -2.0391796652644048
620 -1.7075881190611537 2.348527396243482 0.5758815472384122
624 2.63329578061925 -1.1336484678948868 -2.413289140590344
717 1.634619964546637 -0.005441050645318402 -6.113025284179523
3274 0.5365646050984366 -1.2193285900735167 2.3516378873975348
623 -0.3733813531084696 -2.107072483544533 0.9539793353366837
3209 0.009477556521871038 -2.843362112754746 -0.32955423684022433
709 4.846270443027085 -1.1079616765976408 -4.475733030803127
712 2.0059348322165724 -2.404950123191793 -2.0493310505450237
787 1.13437130928786 -1.1723799591269108 4.190550638007643
3221 1.1189988530676438 -0.44161311826001487 -0.6357698630659677
3281 2.506900511810508 2.7253969662235757 -2.3784304201366244
3288 -0.2926455560479373 1.2028384825711351 -2.32278071137142
791 1.8538669766690246 0.03713761880740793 -0.9126787215342912
713 1.7355430721844924 0.2719207328778321 2.1216576333451544
3356 0.021680088379991885 1.8532507579968867 -0.17314943999928153
871 2.7151012822124274 0.7813884396466246 -1.2913355406565372
973 -1.798708493261628 -3.056613208218879 3.0027363618055256
3220 0.5622172137896438 2.520318702649019 -0.15807063369939015
3224 -1.1175420184881424 -1.1163643716864453 -1.5250360564508105
976 1.1491028252719562 -2.4037598830287927 -6.264023721371108
880 -0.11329571988287451 -0.09329154248454152 -1.3011937355854748
874 2.2355846396888355 3.434585143233252 -0.3340630027805157
966 -0.5719468636624055 0.10113941409902612 -1.1477706896624769
969 -4.521257832100359 -1.148913011231456 -4.876148562986982
975 -2.577636768712265 -0.8014314293430638 2.2173657242109552
982 4.194351091132257 -4.258555320045552 1.8393094620333033
3234 -1.3723835219085196 -0.8680299971905595 1.2228058550524705
3303 0.5228154233789037 -0.8453311319479178 -0.3222369628236272
3304 -1.262625873716406 0.725522095568089 -1.0436866707150378
3297 0.5255194142052481 2.9270006358445286 0.9757463909800936
3233 0.249050691957467 1.543961540509867 -1.56078349744867
204 -1.0355270111711958 1.2661927980088954 1.9222838684684158
3172 -0.11685770998622319 -1.6507540555156368 -1.025729235626214
3173 1.1162217450514988 1.64978613400262 -0.1174306218918848
208 2.5392379592960195 -0.19775141268437257 -3.1532560278823287
201 2.146550995850171 3.126530870132906 -1.249171265004141
125 -0.10544750219449138 -0.383802260160411 1.0584194974535235
3302 1.8445510592943035 1.276313809543539 0.7720472004047232
200 1.152422906373626 -3.80892665422746 0.29186930454304233
3188 -1.9093480814057089 -0.7021440088344049 -1.6138820146764745
197 -0.6998713283775803 4.905422683730223 -1.4710253737922645
278 2.0039918245661994 0.6138081241254514 0.2788162553033466
282 2.058113832992353 -2.437908487324373 2.7728829991093242
288 1.4005203062760108 -1.3450778425792371 4.462742069607839
3181 0.9418162363013419 2.384805679742113 -1.7927622958897365
283 0.3960219041570145 5.9043393665504835 0.6950297102097184
3189 0.2808389835930599 1.1702455204596751 1.546594013952605
3253 0.7554653895754703 0.524913692219866 2.2209307789230777
387 3.352903744909749 -1.8523194853027896 -1.90033244134724
3252 -2.1554159977722436 -1.6759772640810817 -0.38121988697109116
293 -2.580831716099568 1.8403315457898086 0.8521767541118977
379 0.44197517553966825 -5.753904151429977 -2.575234479116619
386 -2.9271919027683277 0.4281911217691878 -1.2608134643358626
468 -0.09929771450276313 -2.297568410666625 -0.477920558941134
473 4.214516102138586 -3.0059531376944006 -2.9178686120679824
3195 0.04016812610633595 0.5885581790875994 -0.4237198682797947
3258 0.3051160551662701 0.6642090598190331 -0.8571097124963402
3264 -0.49646443192836126 -0.3654524196407959 3.7921576627350424
3268 -0.44020463675223737 -2.7949690763864536 0.3307319800791209
3203 -1.4734794280494794 -0.9155539649832696 -2.43743219585156
3138 3.808642761830718 3.147690253182366 -0.3875950086065213
542 0.49049333483868673 2.0344551432626754 -2.4436421095560568
543 -5.098739482544541 -0.7619398818221472 -2.732761233039264
641 0.6081682472105264 -2.464571653522844 -1.3790453807898035
642 -3.606096644531293 -2.89782735657661 2.4326219999674725
549 -2.6822711286470144 -1.2559824809961004 1.0724313218874266
3276 -0.8975813673120763 0.8007276739587524 0.3589801307515145
634 0.7641452630935278 -4.152037303195653 -4.9804577034395585
630 -1.081797206458838 -1.8410820437207303 -2.71054261155262
3214 -0.18523525793827883 -0.6190216294776647 0.6999844894259916
3275 2.1709699815346153 0.2963558331377338 0.3607294247468037
3283 1.0758176819615717 -1.5005821451840828 0.5910371727084421
3282 1.5466924091319287 -1.158232217544761 0.6379988730891101
635 0.9043816125771027 -0.9556142383693353 -0.08520388826448085
804 0.06953912013373245 -1.7156550510497053 -3.9742406208699346
723 -0.8220091310467129 -1.3038954829221157 0.8752478843283162
790 -2.152504190366751 -4.162875802279556 0.06769601556670089
794 2.3941808943429366 0.5833862179319902 1.966289561294092
886 -0.38337873343098033 -2.687875875388682 2.3804487732661936
890 0.45393112907820266 5.307249252787981 -3.3565500744704537
895 3.850319053708915 -3.904345013002948 0.44289349868617794
891 0.8238729931724957 1.5914039544305714 -1.682104087483926
798 -1.3375582198599385 -3.8611119807869434 -2.584042126495019
3366 -0.7102696806054106 -3.105277605802424 2.268511727674119
978 -2.362144238819354 2.271319425015673 -0.38859675887685974
983 1.0100475240447664 5.147875527916067 4.148852248298463
988 -3.3755624778646554 -0.09108319607060349 -0.034643523721400935
46 1.7151805986748496 2.2363664441197786 -1.6787062341568655
3298 -0.07649603020161648 0.029511023765951355 -1.1947471072439197
51 1.5308045808655235 -3.735605537967005 -1.0645611258261733
3294 0.8576412354566867 -1.8859401244336782 0.7112605576920606
990 5.411422660336228 0.00923698361334837 0.04504573381614651
42 3.071395144755488 0.5151983649759827 -1.3104239245191163
132 -1.5481466503873402 6.17742206135927 -0.8178506326559327
138 -0.9369038336625761 1.6735459437399165 -1.5023858581830682
144 2.3816374148160384 -2.8371715589063906 -0.25902205802665684
3168 -1.9409803485734365 -0.6810086080270724 0.05665057793720168
3235 1.628429316400477 0.39417754480804856 -0.02970234675931817
133 -3.08855744668117 -0.9507984428491162 -1.9137897707423457
216 -3.8828354023727703 0.1794791406726403 -1.8754518866534695
3375 1.4257925644614595 1.872694850278332 3.457448387152663
220 -6.002397557503682 -1.8768229619749273 2.7991292501831233
3178 -0.6936462588686236 0.8358941474294869 -1.3289854629283624
3174 -0.8410676035713415 -0.1031360060152013 -0.21661309951037883
211 0.8686940018375224 0.048353799535124 0.006096652001626381
213 0.4665478732888322 0.8249436841222195 3.453333456284173
301 2.790240730020661 1.776583082682387 3.5741076847807607
306 -0.6274662387232677 -0.3229938544698968 -3.085786937145772
3247 -1.7026683896902133 4.728199972267074 0.707262587683569
3254 0.5672195939871137 1.3088803377134324 0.9716624356304829
214 -2.867832408887574 0.404416640826004 -2.05867327605811
3190 -0.5521103849256364 3.352506665068916 -1.990873445258904
403 -0.07569391759389749 -2.5366410246421034 -3.5018507489693147
392 1.5907366888348307 -2.6849307230411794 -5.490267740316076
395 -1.270736114717358 -2.1075423675707543 -2.3402691053265774
3196 1.4441515969544838 1.2167706446478423 2.1402521462952486
478 -2.7834606065801544 3.5621417083248295 3.019947009590893
483 1.748771262692674 -0.8744770430141442 2.0272913126692913
484 -6.355818073589863 5.546376457036517 6.011500519752516
3344 3.133903253154046 4.9706807689095704 -6.809338038871953
3336 -0.0730684353705942 -2.471904604681673 0.03463376750968512
3404 1.170019258216336 -1.7200955132715565 -9.985528053279351
404 3.1172519383181228 3.1419017462496646 -2.6843883375435276
3322 0.6391568383763319 0.4874546137454329 -1.4236507039521291
570 -2.9541775596333806 -0.37954968341610706 -0.16711591989911892
555 -8.8280776798007 -4.845448148947225 -2.1793211334129983
3343 1.8200291947024063 7.242460245840726 0.7373525584218033
3204 -0.31926338086778294 1.8022056353673004 -2.3774281218170406
479 -3.0829677354244187 5.065886708761401 -2.634134281158217
476 1.3334879221839746 -3.1482087228098092 -0.47071346151198257
552 1.7449121049288123 0.8741980186333227 2.011638752117558
3409 1.555967023695669 2.9440730990098642 -0.37996077560018304
1589 1.8603236193302384 5.635349587593086 -4.3325107804615755
1683 3.84370873356465 1.729999199169869 4.676282460512742
4332 0.22846411277557319 2.9248465764517975 0.805166712110437
657 -0.9964915329297658 -1.546038678592337 -0.6659592282300589
1684 8.45209181825001 -7.119835355085727 -10.291563710538151
4319 1.3381405795155088 -3.230769388298201 -0.9918290207187543
1682 12.946217550837575 2.7252659039917067 2.17269446307741
3277 -0.052219203736296745 -8.08458172658916 4.191399184636494
4365 2.538314697195706 -1.0185740280257347 6.229858690959433
1493 2.338736514896549 -0.5559398840472258 10.374286937912231
1768 -2.985229376801613 0.9058147523236612 3.849511357771398
548 3.812768044284252 2.3169628994314837 1.8487019351613445
752 -0.4623294895313623 -6.35820705603857 -1.056464252018404
3545 -0.3935357250244933 -0.7210025014132276 -0.38765256291384614
648 1.5556740628072114 -2.6567299281663255 0.8528875216794712
652 17.34929854279134 -2.931338567306695 16.59846180965538
653 4.615072002782706 2.7068099943826156 0.25661773605029337
737 0.4118965906628249 -2.028378818023223 1.1446287213296784
4320 -0.8666689614300231 1.8524761844313151 2.0280003278892837
1770 -8.501898795349415 6.423058955494565 10.142926245009244
834 5.76731740139716 0.6692630517641635 7.673222810020657
3278 0.9988782864879432 3.644360635844498 2.70232666260296
730 1.03465478194857 0.5139855451419578 1.7348473923001895
3350 -5.051453010626193 7.49639739363466 -3.8512430171963525
4378 -1.948089341216832 6.403105624259477 -2.4688597294141252
4342 -3.3749242486100406 -4.364918045751597 -1.6325740947901257
734 -2.4663241342981763 -0.34773308533967806 -0.6834674188448326
808 -0.8487764161769263 1.3512863581618542 0.5242641815335308
812 -1.6629718644543707 -3.1839806517358964 0.37969020229231415
813 -0.26789242246614425 2.4102337187744127 -0.9447657956529074
814 -0.13036178939097942 -1.1483250248281258 -3.387445052479834
3215 -0.7542557837098696 -2.9552083168744625 -0.7257049176049365
3289 1.086122111915092 0.3253875581765038 6.366385123355273
920 4.617823066789522 2.1854970381353644 1.4569443731693534
3159 0.47468789460116884 2.280277220291844 2.178650516589927
3284 -0.39902573972214633 -3.3573909987172375 1.2819966258356716
3285 1.3380906440227691 -1.1232380930445436 0.2684807134652106
993 -5.123000494918333 -2.0868735571651205 -2.5733126299890494
899 -1.9165079818807962 2.4863656211651772 -6.106977740224921
905 -6.450241009773105 -1.7346809791735336 0.38780854690812383
909 -2.2884586332672923 0.759316863087138 3.7718285679409482
3228 -2.4857289749924703 -1.4244700294378025 -0.1624814879153213
997 -1.613751350697384 0.3217945895067848 -2.289766139689984
910 -3.488227962069711 -0.8786909762502741 0.9113606816105723
3225 -1.6280169445754915 -0.8329122925197588 2.125554403951624
992 1.67804539239696 -2.606265512430581 3.3716374007872116
1012 -3.1329855691244086 -2.71539972720326 1.036982558765815
56 1.9297052119206295 2.5166804996227254 -2.3976845680504697
63 -1.5913868178163448 0.5557192532028425 -0.46902909601218307
3236 0.1735933359725832 0.07964601373926072 -4.040027485453319
3299 -0.0854832479770949 -0.6085290093042302 0.6407273889733666
3305 0.5681095599159097 -0.16607506526432927 -0.24978440556290504
68 -0.8975393255069546 2.3041882500377038 -3.584067963641023
154 1.9448564958603995 -4.731632681745565 -6.734304900970574
69 0.12105249454274106 -1.6426471255859805 -1.662756186356802
155 2.8569316519170447 -0.4432726888336269 -1.7404538232322342
50 -0.560584892230221 -4.594206957629233 -3.30139342240516
143 6.638243233405202 7.018036357727918 0.18745112991515828
230 3.963486932041664 -2.496745088417669 -1.791104622038674
3175 1.8453602337570754 0.9283417267738734 0.33919594480641985
3176 -0.5773539788949261 1.2621602251597692 2.659401237691831
3248 0.04316880082579227 -0.6802820654089122 1.6758322325992516
234 1.3701004430436543 1.522561618495966 -1.2532393950133345
233 0.12274135968003458 2.375319394338628 1.4014035261823072
3242 2.438605313269311 -0.29761508447169516 2.7417214557841323
3243 3.7173953899783427 0.15035462727279433 0.0066328861579197235
305 -1.7806114366168095 1.7797841591712775 -0.23656927058639277
318 0.5096213523938854 -0.13778621372955085 4.580993224641765
415 6.829724675036416 1.396410624378176 -2.7365811634376205
423 -0.4708184750427301 0.13445323438937976 1.3504870604082972
322 5.599194088240761 1.9740845927254929 0.7549407237011703
416 5.023197844051353 -0.6840333776108091 9.256469321574018
410 -0.014863101566390244 -3.8302907396123738 -2.148483861202057
313 -4.080361083947984 2.6211108447922524 -4.75250858942081
3197 -0.5283620129665175 -0.1801264568664087 0.6933189106710242
490 0.243966110003265 2.182425635321711 -3.214761036675472
3198 1.3127402786315328 -2.6533487060012453 0.7567726885824679
3205 2.3862247894111293 -1.4782701837579595 -3.771673163898116
3206 -1.2421677502936612 -0.6462283948650269 -2.8683075809635192
673 -6.619200192863012 -0.6539435978249228 1.8775517883325379
579 1.7759013526733458 3.33758329390989 -18.77446566938151
571 -8.407757820707369 -1.1534766330698865 5.076369590732401
495 -2.113585138621498 0.5643906214910658 9.336462262541447
3345 2.386624998243184 -4.495575893523648 1.2777736369204906
3269 5.43206509683014 6.458626693245909 -6.563517539623679
1692 6.280448304282753 4.471146542053983 2.7137455657089973
491 1.7821985165752046 -0.660818553702004 -1.462264053005113
4381 -2.6803622048298457 -6.566929640383013 7.663974265839012
666 0.9598790350850793 0.2146962712693878 2.8270143967890333
674 4.082451363051622 -0.7719447943321246 -3.715018172272507
3211 -2.187745342039684 1.6005708586536567 1.033443192081217
566 -0.1423229440107226 -4.321387569835753 -0.3715719016850611
669 0.6775501106948659 -0.9190504096977274 1.0536588535509026
3272 0.228985411098271 -0.7231289940411073 -0.599418932841005
748 -9.330604544713507 1.6478015090445401 6.607036336203121
3351 -0.5256590197369554 -1.4868602547651104 -7.953216832866101
4391 5.639968455791912 11.394770083280793 2.59412430149652
755 -2.654001514445299 0.576103451705411 -0.33495975446336035
1686 1.6175991130575007 3.451788736680291 -2.9468196973287486
1763 -3.7163618273240786 0.18760578835358063 9.962786763954249
4345 -4.8166882726243285 -3.44477759321177 -0.21725712961495114
1767 4.216079966301848 1.9882011604098904 19.08718432110633
1762 2.153151449499044 -1.5410914720265367 1.3260502167522705
744 -2.14231904260437 -0.5422251539117097 4.013771441299578
3223 0.9625684876432506 -1.0791427958560846 -0.4604586744539775
3421 1.8709095341523125 -3.278921698216555 1.7417310179428456
4376 0.06982684688354097 -1.2445656915298677 -1.389934081129867
1871 -1.5862498771213915 3.7999977348523117 4.0048777701741365
4348 1.4343160082578523 -0.6636031147962304 -2.360047094691436
825 -5.571105687758666 -1.7072280358436405 -9.482270074142743
3746 1.1840235629213234 -2.415465233464585 1.770118911908692
3807 -1.9486396322136865 4.704909516623539 0.7116584553340262
833 5.861269469450485 -3.448374042043021 -2.693415154420087
831 -2.255423780931357 -8.482970895763906 0.45902074506885304
938 24.87760373236954 -16.12638603773393 -10.77735438622218
1009 -0.4430272342963973 2.9381830083029903 0.24321134249379947
3226 -0.522642132624281 -1.0247470229722757 2.052007236896157
3290 -2.4899636379095087 0.31400543694329663 -0.20561468719915224
936 -5.495586427141258 1.1055910060898562 -2.3210826334620176
937 1.9492704848600129 -0.6783685976644815 -2.367118594481686
928 -0.7443627700193431 -0.7043702300558365 -0.6131942353115422
1003 1.9211158949936524 -0.5419918993676598 0.7317801500599387
1006 -1.7002962904562349 5.2712390103085065 2.6488277716274906
1013 0.7563065962127475 -4.338586850515355 -1.7619307691726735
1007 0.7636412524015683 2.4593188240824038 -0.17620021204685266
1021 -0.29081791469459445 2.5286508193034343 4.020562281826046
3238 -1.4901484628636856 0.20422010307785854 0.29816335021186435
3300 0.052632970918016435 -0.3205072932563475 -2.0853131694355445
3379 0.6377305685317932 -1.7317282129296832 -1.1908827039572296
159 -3.062804359880755 3.0305918804372087 -1.8692174161156416
161 -0.7817004757321637 2.865374154435145 -6.1465249860933096
162 0.999110141358527 1.207021805728977 2.6282983160496927
165 -2.8808304112075778 0.4186744973713934 0.7671622974164406
168 -2.6242148851848173 1.2166666752561075 1.4686084642994253
244 2.301574486401902 -3.01728525627793 6.395422430957633
3237 -0.27269305433611973 0.6944172687319916 0.8541264482607706
3313 0.9985053069388107 0.8317493856354421 -1.461935879144903
249 3.613171478798901 -0.12328059191068524 -2.3352978790875976
241 -0.5717470317320164 0.2954123962265735 -4.6337487700171565
248 1.4805936969291447 2.3345090465261946 4.046145810158313
238 -3.5377773054245747 -0.9708964453328683 0.41750676914345725
3184 -1.60853274157614 0.4227503309632224 0.4884443348573592
3185 1.6763766876888906 0.5912154097271076 3.4074972527074285
3191 -1.4392144246111835 2.555299260759027 -1.185133333589573
242 0.8408711325891847 -3.542290131182763 -1.0767058400713496
3249 0.8685087587296447 1.257691453988563 0.6742437365637879
422 5.085831074146043 -2.910478818448813 1.5619025838161094
3192 -2.4182731007774914 1.9173131170139421 -2.311064346553601
427 -0.8375473749215445 -2.491907755101732 -4.329261190074028
429 4.63768835532984 2.6403091425641003 0.24073489636948045
506 -1.8127977967804527 1.4263387818107185 -1.2216843660067176
3259 1.7995203016375778 -0.5646745738670542 -1.5703945963654884
502 -1.158461998914377 -0.3633749098388079 1.6689253904046448
430 1.2006630145215345 3.0961251997448715 -6.602880103948978
509 -3.0917599628568717 0.4499362888954192 3.598626784073687
503 0.005017234705414004 1.095250400969441 4.347918573820821
510 6.0815234231026585 -1.1747447539749118 -5.113093019533502
680 -1.9238820282185478 0.05285091101815069 -4.156628202239029
590 2.8702155831639313 -1.6269152628319485 0.8033972502866821
690 0.2859675015031723 1.7077836570401383 2.0057067031670344
3207 -0.29900431962404256 -2.248291629456912 0.07290439490156396
3270 2.3306111717396103 0.5889243040804903 -0.22985108793886816
3422 3.8813450576661834 -1.5419752116730878 7.418585218359412
595 -1.5274650042849243 -1.6399942720196274 -4.714315013948246
3435 -2.2843414143141705 -2.58394315944904 0.1254298600922161
691 -0.34438209885635274 1.2583744899458384 3.3179821126739313
1780 -1.590823914540074 1.5438297153893663 0.9866391962278444
3218 -1.4470058091928184 -0.43900541671549 -1.3249307444167973
4377 -0.24753468233825268 -1.9285340699787072 -4.482429547384951
689 2.5934499238712303 -3.0946501301664084 5.400831139263988
4331 -0.742203770199907 7.138805901639983 -1.964791001461064
665 4.649582378909293 -0.6670344770946031 -3.4072977114273857
3428 3.001466394137104 0.3313246604019936 -0.40119809428150693
1769 -2.721062316807581 -3.881007446985851 8.676762957881953
677 -0.40983618903907154 -0.758223249395327 -2.0883704724195282
839 3.3688390092265954 -1.384809200432252 5.571626139719202
664 -1.0949177111913384 -7.0853512647287795 -1.333975931237953
749 -5.475370437101364 -3.1518927580260083 -4.597658009702307
3217 2.3870003036306437 1.5338559071500024 -4.425487586624523
763 1.693946157754356 -1.8032161555351198 -4.3507126262756115
1864 -8.397545194154672 -4.968341989891923 4.518717379273342
3552 2.2943598454079925 -4.642695912166699 -0.9994618914331366
832 5.901868078083029 -8.028348037019256 5.060536260154174
3546 -2.4889929439939062 1.057445456628972 -2.081285171001292
3216 -0.3765020503172561 1.7754215444924477 0.03312585256026207
759 4.938689083250198 -3.2523798876688423 1.8713736460611186
840 -1.8596037486815273 -0.21043561808988623 2.3998134935824913
3291 1.2453382647210014 -2.72533037167845 -0.6158262707389522
940 3.5074658302081687 0.9972177621513085 0.3782014544552399
944 2.734063695177775 -0.40973561984093343 3.2865649763866975
3273 -7.499411501438004 0.3322734635360194 -4.274892186170061
753 8.784590327970264 -0.6551305047518968 1.1090655594633847
3368 0.5029065576657156 2.1747170477131874 -0.1717802060809028
847 -1.9556427398244323 1.165771235495104 2.085547702419747
945 -5.31829321353163 -1.7506714890771666 1.3517418266695689
1017 1.1982187498033556 -1.100335140901774 0.7045104359009734
1023 0.9255821381278202 2.349147902288714 0.9661974518717948
1027 -3.5841399329678176 -1.5972463104728787 -4.837765099372314
3296 -1.5704599045740615 -1.00807959447922 0.4269365062859086
8 -0.7840703941727202 -7.273049512046686 4.527513236583428
13 -1.7797765852021292 -2.8428990085898556 -0.33258908007599874
15 -2.601462743959932 4.143241099485951 0.6067354634491416
1034 0.9599291611477117 3.9606002771509266 -0.7183733542659069
3505 0.9578117726103814 0.33999160516485466 -0.031348827403945005
1033 -1.3046382776368037 -0.41009151340745514 0.35808402003032513
6 1.758710044063663 2.7016642611841357 2.7355668407552947
1029 -4.764639610516503 0.47260668370178155 3.417930249682592
3506 -0.29017238357908753 -0.056599752187272666 -0.28208652414954055
1117 -0.21205759453581421 -0.6454765307680629 -1.6626251124331157
95 2.73708175555131 2.075025612454781 1.3863255807299242
3301 1.7444853880801363 -0.09901732598205826 -0.4788205601100936
89 -6.020317113519261 2.3173581873130527 1.0908444476074852
176 -4.521940278548575 3.5080695209788124 -5.971560564507033
182 1.5219675199258946 -2.5915079607301252 -5.89887941743767
183 -10.467035591041302 -3.8954366669781573 -6.957579121617348
1110 1.5245849517670078 -2.022809516355875 4.5901528547312935
1118 3.738035883218632 -3.1417659617206364 4.144754764161243
3449 -0.1810679436218858 0.02560763737725196 -0.3830516105347639
3509 0.5339214260493068 0.3508802509043231 0.20514187860453098
1201 -3.1657023895641565 -0.8498139578565527 -0.38219517911354217
1194 0.10550746074535462 -0.9706800616004327 2.9615974763163004
265 3.94184401317801 -2.7439228657944374 -0.9711141039362046
1286 0.03852272695253449 -0.10782229164594945 0.1135157431572342
1287 0.14949688664517313 -0.31432145533420364 -0.05503473599589609
3314 -0.35862706001238925 -0.7833881507456176 2.449559087629365
3391 -0.20609148049894066 -0.5203718527192442 0.3375604441868915
1292 -0.0862906441032411 1.432820287997114 -0.9402619561677734
3321 -1.159489198969614 -2.98269618352804 0.21436413993481226
3320 -0.7002993432388338 0.27762181440033906 -0.5254976650091275
440 1.3668058698861345 2.217398602216336 0.5854211661550313
443 -3.2383385915359395 -6.073167967396439 3.097791654948096
450 -0.4287824514888636 -3.603752638173322 4.002291500928179
452 5.622360879399804 1.7188625365527646 0.7475772717201239
522 1.7528100106304996 -7.282308345027558 -0.6755557893830817
1363 -0.3505959594771463 0.5213730542608536 -1.3886943548147148
1364 -0.8060189310258435 -4.721073309836193 4.319309067152093
1461 -1.9172487606714408 -3.3970470672097073 0.9280223781189316
3395 0.33351824691480814 -1.1481882032791715 0.23905602802222
1454 1.3467963511573404 0.5432797426878666 -3.169857183441345
1544 0.4276632218188666 -0.03487360848373705 -0.08556453737099055
528 0.13821333027426874 1.4117803285560842 -0.045779006132387876
521 -0.6130800691921957 -2.113394133930222 0.11347398249330018
3271 -0.35935593487446815 -0.794758313780978 2.753462308290374
1455 1.4297981588860353 -7.828620088279318 -2.114683258481013
609 3.2618080401386638 -3.4839209479760513 -1.374462130269549
3339 0.36987875860261443 1.0216048332929393 0.7264607418174002
3413 1.6112060868247726 1.0016262663165796 -0.18683447742680817
1624 -6.565628097933365 2.229334186070181 -8.19205447176659
1639 1.6991156834065997 -0.08172242834836183 1.6418532856407857
3338 -0.07998737308287304 -1.2917284919459378 1.2080036362926196
3472 0.25727478164563433 0.154802370420238 0.17050097424045968
1630 1.9108921951923785 -0.7576156232508239 -0.7986655164678659
697 6.6111355981067845 0.26397940480978943 0.25642202744546194
704 -0.8679675833475688 -3.2733035634203085 2.128881293470177
707 2.12634271479705 2.098912737663286 3.9083102413573068
776 -1.8147274278853576 -0.4893195189409918 -6.455549349942747
1721 -0.9473257417384249 -0.3144971003254399 0.49899257721096285
3354 -0.5409722837935355 1.1359695221312545 0.7294694932504909
3423 -0.9519405683610304 1.1883217409662863 -0.5275645814138064
3424 0.09036048762749237 -0.00840905980495156 -0.07660311103086344
3353 0.907586932508498 0.5803822550746521 1.2945721000382466
1702 -0.2151023828200432 -2.689342213439632 1.3983531193244827
3352 4.096784760517827 -0.6804392686689171 1.6335255268716937
781 -2.5645744240399146 0.1440840599833492 -0.8769514716265965
1720 1.126073554251373 1.510470061365141 -1.273382076008095
3484 0.2578849234981341 0.3330019674003807 0.8352676600734062
772 -4.781066531722492 -4.626326436573834 -6.643489872197256
857 1.6623051998335625 -1.5352911221263306 -0.0890292671705847
858 1.835172086002771 4.836372798390239 2.2602911821503215
864 4.43613911858774 0.9493925065372979 1.1253810877756865
1792 1.214496571661478 -4.1233285241633615 -3.3375258718532717
1880 -1.6285434865828068 -0.014599549959455534 -1.3280699547673027
1886 -2.0627062884024374 0.5367462769462158 0.2972587662499097
3359 1.864471125653507 1.5401300552330985 -0.6021079084775862
3364 -1.5999998927421082 -2.3331846696557235 -0.41560218957831835
3430 -0.9927472395467448 0.21570106942367245 -0.5904913668790397
3431 0.28351128205626797 0.3281752782004687 -0.09208777647008876
845 -4.979763463264424 -1.0973088616426694 5.000907292253319
3491 0.316587706352072 2.392343869327233 -1.568614538593738
3429 -0.37706445894145196 -0.4233720077899615 -0.4311928058664093
3295 1.61131481637348 -2.095236929835155 -0.16143527224084708
961 -1.4696551254514072 -1.816207749659348 -3.325250358794984
1881 -3.578987068976494 -2.7205742427626336 2.1402978586766417
1957 -1.6106605229909319 4.0703782201573215 0.1022299043024417
1958 8.43926174132195 0.006570043378107959 -9.717981233065307
1965 1.4580828872480227 0.943229210308949 -2.133308506927716
3369 -0.671570936618287 2.1194114494864724 1.9477074192455064
3370 -0.28285157369997493 -0.6406691656609919 -1.9553985260402895
1964 2.0543732508298542 -0.9522434929484982 -0.7807304196900512
1046 -0.3336153383447894 -0.1049064956676323 0.2941044579607318
3501 -0.7805156940774193 0.20190841747937457 -0.19769149668613817
19 -1.2917777189615618 -2.00090157958012 -3.2714337143974705
3441 1.1914777191782349 -0.21678878305025795 -2.294029052911378
101 1.7500468554111719 3.079811782893529 -3.513392249919873
22 -1.1075672510464616 -2.261667625828115 -1.0175621484011232
103 -4.481571267677859 -6.5556695738345425 -0.12345832825665427
109 0.7504129255826331 0.19508442484306512 3.2259507700741743
1041 3.3924414371747105 1.4201189959836753 2.889538227202533
1136 -4.32044880055653 1.1688158288231245 -3.475708643687747
3306 2.8963999755323635 -0.5182490806872292 -2.755290288611364
1125 0.07402432963477736 0.18024235311037515 1.5219194574933945
3386 -0.3302472874481386 -1.2482479363766805 -0.2945753605828637
1135 -0.6734963266722689 0.2202696751888469 -0.07355539119300586
3500 0.009309462108090617 -0.983255902090039 -0.2629045402613072
1126 0.25560824413565086 -0.2165460249836977 2.9589209310822664
196 -6.555177553562156 -1.6211319122678065 1.9399355082761833
274 -2.621384303665249 6.059943990265088 0.16241659262255775
1206 3.4699411790063315 -4.090539221538909 -6.921590320718725
1303 0.004826349880921609 -2.3425639116906787 2.352355709840404
3311 -1.521075442029042 0.6362189949067156 -2.1374898536231277
3385 0.10780528909953921 -1.759199133378097 0.26678288884802187
281 1.975474073229538 3.930359547033122 -6.08136611298531
1299 1.6387967812578892 -0.5053224489193829 2.2049814540018513
3450 0.015628085744765596 -0.1340768858881576 -0.3146534562804903
3455 0.5930049883536924 -0.8937457812957323 -0.10891178348603454
268 1.1218238148573094 -2.1210626141537796 2.822408086302507
378 -1.790817307108006 -0.33969029956413915 -3.9822090840902176
3315 -0.22653861254997165 2.992997311066986 -0.625712082674441
363 -7.752593563665056 -8.258918027003222 5.90514426023399
369 -1.1233562485836701 0.8418326544955305 1.6206682345082721
464 -3.446133876947328 0.8857531422511149 -1.1222709070720953
465 2.472683566092403 1.69497938979432 6.134361243734456
1300 -0.9562847696878115 -4.89523123417026 2.5480099596993826
1389 5.701176357331083 0.32332789102898135 -0.1870144026018664
1472 1.219813734550955 -0.11666231171717742 0.20705221045820915
3396 -2.3557812702238428 -3.0991977731993976 0.8728664514227656
1388 0.03988823629109179 0.674068158653362 0.49667145634978493
3328 1.7425944998836231 0.27574897666487846 0.44868953790862376
1378 -2.259342634775195 2.370450147194297 1.4320937966907525
3463 0.25008077155808406 -0.3271794997068087 0.27056507535586855
458 8.873482076370248 3.9602385769664417 -1.784835618520639
536 -5.138130639367873 -12.042647593378728 1.1607628056668695
3327 -1.7305244830603508 0.7189569251761352 2.238993503721634
3333 2.140691963060325 -0.5582553999997591 0.3488303887037536
3401 0.057184910400478475 -0.15321215479788844 -0.3960882159893856
3407 0.4459647174483274 1.3650503366626243 0.7841207155761521
633 2.8832128893626785 -0.37402897478556546 -5.56152103106791
1554 4.360285427735392 4.476739653324759 -2.447980476651687
1563 -1.2757306953588143 1.1625437829942828 -1.0499603099664814
1571 0.9316417407411451 -2.551020928150737 1.6264052199595338
711 -1.3488397732540003 -1.6768405809805946 -1.9491267669246057
613 0.8733452297883567 -1.527850999277641 -2.1202966892051367
616 4.074675483446718 -4.884597661167226 10.402140978169953
625 2.18281049757841 7.016078662699074 5.07553221579299
714 0.6261205334333656 4.185431805582313 5.31023400961973
1638 -0.81577974087542 0.46449239457667985 -0.9653863283777323
3340 -0.27441917372365016 -1.6688706218852347 -0.8976243632953992
3348 0.7545737341139924 -2.9324969978766204 -0.16967044775914822
3414 0.3404644081406552 -0.17071414116097305 -0.21179734038840242
3418 -0.007509649318465218 0.25316012506110463 0.9661600345215909
3419 -0.18411562292673916 -0.5206087905962578 -0.31634047405277094
1734 -0.8652123595982999 0.1352387323544083 -1.4114073632315245
3482 5.053673466985884 1.6280926358259646 -5.127880468582881
3280 -0.7822304697003806 2.6341591842766485 0.5504579474958782
782 2.3107133123135006 -1.723012918891613 3.320814408352537
879 2.9538253712726394 2.404947215023601 0.3019535409106162
881 6.2315593168939065 -3.2813097589719433 -3.051897604268936
1729 0.14983263812874106 0.7922673464218611 -0.5357703619230896
3355 1.1963040209030098 1.097779605576832 0.20978418092486997
3425 -0.7750172475970198 -0.39239452018142007 -1.6234900648927229
3426 -0.1419551421362828 -1.2961618904182513 0.16325182882631423
3432 -0.985026854326773 -0.9953561681590634 -0.1950747667038303
1806 -0.24296829731945999 0.8144871831498844 2.8881340079864986
873 0.4889536153464237 5.907077681280953 -1.2174116804258006
977 9.068902994853937 7.293382223323683 1.45374675710574
1892 0.3583393054166065 -0.5029485724967242 -0.06236128712157669
1898 1.9191983785300575 0.7783310186567806 3.617481367271229
3365 1.1640043193925285 2.5292881392904456 -0.6079312859111845
3436 -0.09607907187535177 -0.018189625047257085 -0.6644011905687067
3442 0.20161981982987082 0.5826313417657036 0.7137778369123713
981 -1.8962216215170018 0.6359936838132569 -1.3570569941285244
1981 1.0507212621673279 0.4515742492728759 -2.1662322783298387
3371 1.4297206553618718 0.23124323579712744 -0.9321709048876649
118 -2.9769742206584477 -0.9659879257444265 -1.7656123469531813
33 3.255655759849945 -5.213951856874891 -1.249744808052525
34 2.7196588708396057 3.839061627694009 4.985577118887164
124 -1.4069113027090145 -1.5684912052860243 -2.367100808655569
126 3.73369952754537 -1.8275043427723359 1.4880545893048798
1053 0.18077200772896987 0.043621561766409675 1.6583581678260477
1063 2.02960395804316 4.503958515595663 0.8091594910367965
1062 -0.7417929733964598 -0.45527206865674674 0.12054191745740508
1052 -0.013611823921629882 -0.4374844989420841 1.492845739935974
3507 0.2788668637850164 0.39094101934253633 0.09340309854429556
3246 -0.7138629085882598 -2.4102923391394198 -2.075326116261719
202 4.596265950978083 -5.943305072248786 4.499783895008963
207 2.061168261639458 0.7963471375058476 3.5363781757592987
209 1.2532404507255142 -3.593288683842707 2.9416404888921055
292 0.8126648332339749 -1.9624577129229759 2.648231418791012
1144 5.250412357596813 -1.3156092713087442 1.658135577848137
1230 -0.1314491176091931 -0.8578397734258788 0.3138275323128341
3307 -1.4878928000458107 0.26753032487386313 1.0085901400160013
3380 0.39764028321200623 -0.8419208464415876 0.24972565621450163
1139 0.6301351126084579 -0.6618222860844561 0.5605130898354406
3316 -0.5221493243767678 -0.6916916041428106 -1.062655340394368
1314 -0.30422648614484243 -1.058908474560987 -0.7642843790851473
3451 -2.06505515196914 2.2817442287014114 -1.3083369732810153
284 -2.450741137564211 -5.352758351767195 -4.932401600271766
385 -3.987628395222025 4.110521857143625 1.2849993161545734
388 3.308908933042895 -5.569567155084719 6.78427065519662
394 1.7626129579806917 3.2130572122118632 0.7756515438525199
1308 3.6185076169263897 0.7663068872160326 -5.608044901961211
1315 1.0887036046933427 7.617871142852263 -2.269984148181988
1410 -1.1719392162458477 -0.514304913890954 -2.1542652026753792
3387 0.4414106341268314 1.4749261942893777 0.5891305678470873
477 0.8672410873392167 1.814383951527432 2.2726991895495217
3456 2.186240467396678 -3.050342165456216 -0.9171284772324495
1409 -0.19641057183254426 -2.5688780559177933 2.377580783381151
3460 -0.04320003944336313 -0.5650257028622778 -0.6159788863162894
1400 -0.5020556697842206 0.029760179260609605 -0.7795368600878875
3329 -0.7141413248395889 0.15916612628412077 0.12787030023077176
3257 -0.9947004512570654 0.6945151594998122 0.2421173322826545
474 4.407514449015827 2.2838301810658588 6.443298658551519
1401 -3.4139225259036468 -6.361365271770789 0.21682574013415135
1479 6.714005369688531 -1.6334640592823757 -0.45534183373882253
3334 0.3883767687520011 0.8735519465461139 -0.7169888641521437
3403 0.37204208376724807 0.4829500970901366 -0.830705488569532
3335 -0.6685954219580085 -1.4277358229515524 0.278932817591803
1486 1.3940376874902818 -2.314502265705158 0.6330962669796141
3402 -0.04344495868441633 1.346540194445407 -0.08138614208182429
1582 2.427349325769573 -8.483693198498287 -1.8133975602965757
1581 0.9992956154733147 1.149373869712098 -2.584873433124407
3408 -0.4867005491477435 0.40135847539052155 0.3826420701423019
541 0.23440190879527695 -1.489338881427686 -3.3409043215352754
544 6.474365647977115 -5.306920040027292 4.3659771156293585
636 5.067484730227991 2.2752960657264194 -2.5032486175833557
640 -0.044571383798499106 -3.192897313779298 2.789920698488135
643 -1.9474876841711513 0.5301654810036434 1.2051258649384158
651 -0.4235302751864795 -2.616394177192124 -4.670781891521327
733 1.8857218737823587 0.5142770275540882 -0.0716981798661524
1575 -0.8833909605575622 -0.0878220716897901 -2.764094732485821
1660 -1.3076002129921074 1.2248620890373358 -2.1527531408024827
1661 0.8176985114634199 1.5905725735398317 0.9595737961373011
3415 -0.8924100748775756 0.8938223549160874 0.015705673094583848
3474 -1.127415859410423 1.536380164379371 -0.15017143145907463
3420 0.07165954669192862 -1.149442159644902 -1.020416115280132
3478 -0.1771283927454327 0.09608843998142326 -1.0021877721803352
1671 0.05439123211472077 4.84419761622541 -2.659763506366251
722 1.1558905626513805 -4.014158169396472 -0.15376160067805567
727 0.32082866095531165 2.14334897448408 3.1718593524524725
724 2.947179445508914 1.2059332706027301 3.4230277110852727
799 0.9470057709337513 1.9152770959170615 3.4508161004987166
803 2.2121828820421463 0.9400659663027361 -0.14336671397863926
1740 0.9939049012997936 -1.2775570233095421 1.1715845752052916
3357 0.3659350382324935 0.8459660258155204 -1.4315558178361418
1739 -0.4337224976803427 0.2512378770996021 0.4275076847480432
3488 0.7531310440945295 -0.40021388253319523 0.045196921597268895
1822 0.10729821899960512 1.2326309199135772 1.021207276445086
1738 -1.396842045803929 0.09230515710761739 -0.6220939741078049
3483 -0.07889822998607096 -0.49577413464524805 -0.16712090196842935
797 0.7310688849585325 -2.591313290288903 -0.05675293095956324
889 -3.53705910749883 3.420203813939812 3.9303546194338
1831 -0.7173316894716575 -2.534063613635763 3.3897768942073556
898 0.08075443815564802 1.6348985802315628 -2.859086562660158
900 -1.9606240225220046 -1.1496643757417002 1.934265824382414
1902 -1.7461803247285121 -0.6064312421260295 -0.6795418308343475
3433 -0.6021568391399971 0.12470935599196144 -0.8999428326742792
3437 -0.2185250996678565 -0.4390430299585968 0.01739480071466838
1908 0.678767431171176 0.0053778132141865794 1.0490246508454304
1998 0.21413056021325025 0.29186335733476626 0.7083462174322314
3492 2.348686863130866 -0.8120516853352036 0.3655268800115258
37 -1.6776131619502874 -1.793429949466945 -0.031568641385440036
1991 4.39476018012914 -2.7000376579815577 4.109650639081271
3372 0.5200262784349677 -0.0715995073023341 -0.03730556220725262
1990 -0.05105049303105859 0.20004959123709826 -0.16658788026295682
52 0.8939730665810355 -0.5398148075169246 0.7334789908010473
1077 2.0215307324425527 1.5802622870870868 3.6705101354331755
3443 -2.372171639144004 0.11041568870622911 1.5843493133046063
3446 0.7064603189051292 2.8779438736387513 0.5954167928237798
49 -1.4321224086564361 -0.14352533077504748 -0.5559727320355339
3502 -0.12385378239780796 0.04863925574890235 -0.07051833353124429
1070 -0.34524871356734227 -0.43718045078647333 -0.6298019977848012
131 -0.843803890657137 0.029575835998566502 -1.033249795747046
134 9.644054263875232 -3.8647295256803242 -3.2160254849086223
142 0.8033373318231004 -2.235509646432921 -1.3431329416980349
145 -2.29142478963593 1.388209653628632 7.848820222250139
219 -1.2243577684888958 -1.3965662156022125 -2.835629049138324
221 1.7418622864875843 2.5182378460139416 5.977671320718251
1150 -1.5731125013593183 -5.5643240077500185 -0.4623133915057866
1157 -0.9344266255470498 0.51183849869956 7.690398859911078
1246 -2.7163105871737674 -1.1798845661735078 2.8024516183166424
1156 0.6242107712574877 -0.9208112494218437 0.06461389997642952
3453 -0.31618440108741674 0.34832570059209633 0.16377002360891824
3388 0.7398375946907588 2.0430403376247384 -4.1800976027108785
227 3.2168730991219494 3.047197570733259 2.2540640293938337
212 -2.7577658852313696 0.2060546415708248 3.293543357651739
3381 -0.2147317822654292 0.2870239447263643 0.13578225885051445
215 7.92010655035227 8.430534849380503 0.8883789583542314
307 -0.18395344562276328 13.113285368005657 3.0199670228003166
405 -3.766570725285241 2.3606845968172663 -4.011400217583134
414 -3.0615701233001826 -3.242388474697956 1.5904297149687014
1239 -0.7714924764339782 3.94415982775998 0.3451580535976986
1325 -1.5609338371318116 -1.115206431439197 3.791209055213392
3317 -2.2793859794929623 -0.08455587192422401 0.22058546547789226
3392 0.49306229841375726 -0.15280680712876119 0.18780626256302035
3398 0.8571251261807977 0.7851931005613633 -0.05074844565119692
1331 1.5405141872390231 -1.3817405136369114 0.8836903131482527
3405 -3.2004040020492215 -2.012210530937068 1.0658529841113338
1324 -1.7698149185608496 1.2983200056576891 -1.6789077034833124
489 1.3143724916978967 0.850925301412328 -4.527664396447149
569 3.2944630067787752 -5.771093466153593 -9.026276101873544
482 4.771857746055893 -2.8128891065852457 -2.124849497378425
485 9.923683155136375 0.8315543088535976 -8.793961555168893
1415 0.9377988352303878 1.5429048284838796 -4.189897373681821
3323 2.009566008360674 -2.7489441456247037 2.684818682834479
1414 2.130615754236288 2.4070552467420065 1.9280946943749135
4326 0.36862279108321605 5.188765209801642 -0.6375823536598021
3475 0.0006363997804037596 -1.2661062369110447 -0.5695320602467128
3397 5.330879264810823 0.3484491905816411 -3.6889711947096573
480 -6.625033113947709 15.419569628382172 19.61373327668375
1503 -2.426503135860828 -8.385131994482101 -6.02832373592221
1867 -7.740687006260164 8.989052071608917 1.1983729414933255
561 -4.438589059794501 2.601320646341267 12.200340154949155
4399 1.8080893826075652 -3.7359781365431513 3.156836571595286
4318 10.02716794185211 -10.917043810960521 -0.7984831622942713
1588 1.6649676596371878 -3.673570578000479 2.9659720281529878
1760 11.068187731704882 -13.488829522190485 -12.63922975040166
3607 -4.136274208692067 -1.3820340703461875 0.9484722273688782
1593 -4.750381198778981 10.13177874428313 -8.500545977690122
4367 3.1517274401174067 -1.5643119705816884 -0.9100868293348308
4408 -7.099088019683562 -4.961956618434778 -2.0788685334326154
2658 5.534072340514179 15.318417650543244 8.938585652039466
4335 9.780234240639336 1.2025949086788241 1.0049875876992478
1681 -7.881366272767909 6.910792463180042 -19.12211310994526
1680 4.892278555659184 -21.256698069392044 -10.96373781555899
2753 5.167361091527845 0.06652650844438823 3.4418753656470087
3540 -4.001362654908621 3.9239479871782077 -3.778006734219654
3342 2.8631268507299144 -1.7782126465331738 -0.14833045291182365
735 11.084178329853094 1.2984369472520485 -6.050042420584679
741 -1.1672850516423257 -0.4869627249470691 -1.2695688089922288
3349 -0.3082139051515104 4.147093066688914 -0.5911990408764971
1764 2.5994821725683916 -4.261077908321819 1.9045157244399593
824 3.3776096770433646 -6.393806916071171 3.0672242880462446
1757 -6.828773786204821 3.010250839203952 6.965470689359154
4322 0.7399149284716711 0.26171786789598867 0.48614984500643316
3416 2.646993920234499 -4.052864027421185 -3.5588865042416735
1689 -2.056355100632125 1.2385652948787358 1.8491652866453252
1749 -2.513137727100689 -1.5049505366130844 2.466284916627094
1670 1.53163634826206 0.8310026002575736 -2.537603247570884
2449 12.699961909793824 2.6358220538243256 -2.0273344457231572
3490 0.14714505578496764 3.5375199371944825 0.8487792616994332
4401 -1.5166566323688282 1.931379995775037 -3.08016560583988
4698 4.605900272327113 -0.41440840909723964 2.2435781324007307
908 1.8293614225113908 3.047153646590278 -3.7277442211653358
1853 3.5571006354468917 6.473332492605658 3.0207452647834425
1758 -0.7772850734331855 -1.5306564152244144 0.9638666998076068
1844 3.8057427426893384 -3.0437090087548584 -2.937325111185459
919 3.4134763033898152 -2.1205055075313477 4.009743214376044
921 -2.7452561326606784 -5.460420576806655 8.142725635250166
1923 3.9347089098283328 -0.7878090401406006 3.4343002433734595
3358 0.20708223920652424 0.8376703125161705 0.22377274408485517
3360 -0.9118202435052587 0.7393835756500841 1.8464150774412287
3361 0.5510161779472058 1.00720508135634 -0.8805985145387917
3427 0.46269081773479853 -0.6075108147587701 0.40831582420304785
3549 7.07827210635631 2.8084082259003673 -2.851101576029668
927 -2.583980765355083 -3.726002062176909 -1.5445548273170475
1922 0.7093620357337439 2.117288314512331 -0.8136515592406958
1005 -1.1664688769072526 -1.7005165866904899 -0.8883948525321967
1915 1.3492152972168245 0.6198469128791151 -1.8357169126251822
3544 0.07925183970802847 -0.49191459678576765 6.078965839009344
911 -0.09729993630901154 -6.260025982620743 0.8960119688597361
996 -1.0175890906864777 0.9236046578498943 -2.1049711055965177
998 -0.5694411338014914 1.8461040210012358 0.8319119880794797
1916 0.3727335129084025 0.7402934617248237 1.640681709862306
2011 -0.7923866829473448 2.804485849612029 1.4173965279223713
3373 -2.078894809294879 0.3816829680941314 0.7261325447888844
3438 -2.0446124960409193 -0.7958333407632752 -1.4945130720152262
3444 -1.386748360084997 -1.7136040519645686 0.41332671407592225
3496 -0.2128921146400903 -0.1502292020310995 -0.15252942251645574
2004 1.2425077490461331 0.6773284940466832 0.06137023426506162
67 -0.03035526221398538 -0.7308011074848421 0.17422875665209117
3445 -0.6262529998411526 -0.45336416478175634 0.23371383807627114
70 4.686489769885801 -0.8697293497398533 -4.121906130978184
149 -1.5312686308661687 2.9501066739327038 3.2599495010741304
3308 0.11468990207119004 -1.2807827138254633 -1.7902443834338668
3376 4.493996482453145 1.0252067512672525 -0.4048497393791798
3377 0.7566026927360656 -0.44005372408660154 0.2810070921547967
3447 -0.61758409279064 -0.17902647823817305 -0.2017146713433951
3309 1.8078739080495319 1.4457421520385418 -1.7804253615287597
3508 -0.07261549577301604 -0.44081770018383665 0.31824649831393365
1091 0.05348932573501099 0.6741013005899695 -0.528921442941445
228 3.0502436105866275 -3.4906600657791262 -2.635678510302782
232 -0.4459351919279826 -0.9276935091195279 2.126587343156721
235 -2.8325529602819945 6.521734947264564 5.29100725570824
324 6.40293556391841 -3.771579682202274 -1.6456435747034697
1165 -4.280302881865007 -0.8870778469426495 4.77333901643684
1254 0.7777717823120237 -7.939623503049742 3.5745308915605225
1262 -1.1400343088975495 -4.119501569607383 2.1241559672508186
1263 0.09018461466580956 -0.6355450939110758 -2.2432734209934293
3319 -2.366274593135576 -1.0058768271420102 -1.7759741708559955
1253 -1.6925305170108609 -1.444135804460402 -0.09216724818332468
314 0.8096359638133009 -1.0360172419995548 0.469488878789165
332 1.668818116356399 -2.429207633795139 -0.1125971325560449
3394 0.4297720627627664 -0.405857311355603 -0.708735754641477
3390 0.07875571949871846 -1.9618154536795602 1.1180068298401173
3458 -0.41087993937458983 -0.1553021449330277 0.1012808463285497
323 1.7695282826523642 0.3385708522641361 1.3681404903542282
417 5.732448387136227 -5.306265867787391 -4.71841324212093
1427 -3.963683564830635 1.774160055462897 2.202871538485912
3318 1.0185823894198707 -1.4195214938730114 -0.09649000956000678
3324 2.6071146504217824 -2.1049719293079994 2.150031041186172
3389 0.7720010278707614 -0.1513972568229671 -0.16255830801040655
3393 0.4732275085518845 0.1217654336568848 0.5891805660862759
496 -5.327671981607069 6.970962384207271 -6.131577260070003
1426 -1.165918288084859 -2.4629203963002877 0.6829037265287893
3469 -1.3717227660311992 4.397529016397442 -1.184627461578352
494 2.301149832908172 -4.741608080551551 3.9953248311390817
3399 0.5607326495995846 0.038635878656809106 0.7218265735422125
1510 7.6805444324772445 7.9371043455323464 -2.094691005708276
1596 -12.551654611262855 5.506758612679536 -3.233779774745827
3468 -1.2632004389195512 0.3681478860613468 -3.252122113499846
1511 0.8890688594434825 2.1241929659406282 2.0237008351847408
4502 4.6708355385786735 -2.4032003807531934 2.722767267621675
578 6.332249462509026 4.841952254048769 -7.500440593688808
3411 -1.5398740725159186 -1.9022375197487322 2.092381382572751
1604 18.859489747453114 -4.648354281157914 -0.4650691903945278
572 -8.81627585151498 1.3137460747118526 19.88461202033865
4415 -6.466603960889383 -6.06583917011923 -2.7193253079341395
3410 2.2905668559627657 -1.1631255893431844 5.008648493890902
1590 3.7486131295181564 -5.542819523481044 3.4387409222616823
1603 -8.586578593739198 -3.9545037543395347 -11.76167733529511
1691 5.313517813021907 -4.4004587032357545 4.463884287081661
4480 0.34703333812898174 2.42257374780354 -0.834174814195578
1600 -16.40768621942002 -10.87061019843562 -4.790863790498058
1779 -10.700597268717207 0.8944590470856439 -5.970905242549645
1679 10.461171428539894 -9.265442013954416 0.9547380341715315
3612 -3.816739885899959 -1.9239237308179231 0.40201948838659907
4426 1.3013834669358428 3.379819167858161 9.590556571326335
2604 6.00368669578527 3.292954517625759 -12.207082863824956
2740 -4.95933947787954 -7.249562175551496 8.542376317008795
3874 7.120020123608164 14.771616354586017 10.826005774302581
3618 0.12779607108955457 7.151704226430187 -5.240247785972535
4473 -4.128704183005176 3.612315613415436 -14.03425657784156
1608 3.246671641266045 -10.849028928113643 14.68471788102171
4406 -4.177750944951063 1.8802521714720781 7.570937554714345
2673 3.9264043661038293 7.029077528258795 11.073713158126345
1696 -3.4163662711065403 0.9114399498373974 -8.82425390901036
3286 -4.01431291696766 -3.0160621746663807 -0.9201648079086056
4440 11.501727715772171 0.891780352213483 8.295326450055567
4452 -0.03422815518032377 -0.8596221746099201 -2.028133995888948
4485 -5.2982804376219255 -9.377653684525562 1.4397237926239903
1936 5.834594593379374 2.0475535752069103 12.812947640579152
2522 9.760400542498417 0.5560742565140111 -1.8076731684290548
1500 1.4622244396739832 3.483137648054631 -2.381666597442574
4396 1.4192073879143308 0.995180286650394 10.23391278403934
2666 2.636666215690779 7.679265489225372 -0.5644836873434748
4434 -0.15782639910511012 2.2563567928364305 -2.5837703459547425
1786 -6.513540450836116 6.163089343146162 -2.8405525634050255
1869 -6.429960768577439 4.280366052224999 9.225694015525125
4495 6.262395361656514 0.22745143953985192 5.227418236238346
2460 1.795391403627652 10.697789821992895 -6.912608330722364
1852 -5.313179945394566 5.764856476771755 -8.36021197702469
935 0.594411555576228 -0.5109390669363164 -5.309970694968314
4323 2.960554695078037 -3.581329890030858 1.7007639418365683
929 -0.53590110778067 -2.757313678994389 -1.3309743617507146
1011 -1.2846394813948911 -0.7517883548634356 -2.1712186015257946
1014 1.6975424405238777 -3.535760512730259 1.6467395563260303
1929 1.0242572276127253 3.5852401554934112 2.3272181981451476
1934 1.4509873866135563 0.025019834225380084 -4.171236643432553
3439 0.5934089968860651 1.107486576465495 -0.23664755720673758
3497 0.14418263035398993 2.0149094076576355 -0.1921561603995148
1928 1.791373797310528 1.524970631835544 4.135101077598095
3367 2.230420241492377 0.9315425802028936 0.841787884008893
2026 0.5497232684029285 -0.24622797044775174 0.5332849766352491
1859 2.6355571535285973 3.346811628488326 2.506331261788382
3494 9.315634324584058 3.0373571633255043 0.3901115980629727
1008 -6.52274533091019 -0.7132965473623661 4.201614335758364
2027 0.51006591740191 1.0478359973556837 -1.9462419054570161
2019 4.286584079061483 1.1501423140974731 4.302734925724291
86 0.01894738722961216 0.8202828119907629 -5.309358463132631
79 -4.236437475819512 -7.219028986058934 1.55364018516608
1099 -0.861432052196346 -0.8235621159619492 0.30074676035379977
3448 -0.1533395159349546 -0.23782814554013937 0.30830395796415055
3378 0.6482250466653898 -0.07516406100893297 0.2461061571942364
169 4.465914242488154 -0.6814017211943452 4.132561518186895
1098 0.02096618822996854 -0.75071368714047 0.2527880002814513
1105 -1.436079742622482 -0.32124667015107883 -0.5776516810787506
2042 0.2405904561268083 -1.2415018220262874 0.5641923086655685
3374 1.9308022763869563 1.1312427416261668 -0.43308805115579874
1184 1.2706336620611183 1.2748369296298516 0.2572984180773688
3384 -0.917281399698102 -2.6421732477727056 0.5604230121017275
243 -4.122458282326916 4.155611505375555 -1.7702737608559735
3310 -0.6939093275536052 -0.09434580965135723 0.961922746920344
3312 -1.69788191933224 0.023475732439191876 -1.9159294016022603
3383 0.29788395709364873 -0.4432285301480013 -0.5162549366047385
1175 0.0355169940525955 -0.027309970266054594 -0.1569341875962205
3454 -0.12785199636345204 0.08028309135961667 0.31749957670873163
3382 0.31287803348605286 -1.2722445754644263 0.560225775430276
3255 0.5290244705708612 -2.421197835679816 -0.26146388541522103
347 0.5518863206781428 0.3318888750683743 5.69374125018213
333 3.3074552856590747 4.2142888690405185 -5.162261170491491
339 1.3310166104660144 1.8364139967132567 -1.1179368761236783
1272 -3.017721175145051 0.5218765257479024 -4.848540128508751
1350 1.2880576687955692 2.8049885517872455 0.550378604837821
1356 0.8652354579123559 -2.678338988817179 -5.926103727811243
1357 0.9298903246658744 -0.0002933505236011012 3.6963604995817394
3326 -0.32765663393860434 -1.7710447860620957 -0.773043033507114
1349 0.16237148092057332 -0.052754940146838354 0.36148525479259164
1444 0.7620888199449188 -2.1326257973145464 -0.8202824611915981
3325 -2.7701518928818643 -3.290024491693045 1.277219498740356
3400 0.21895237791388733 -0.4002186495027998 0.12136605632687086
1445 -11.069814208353385 -0.304642842310987 -4.616649967413716
1271 -1.04575780147795 0.7414900448384445 1.1245038635551923
1521 0.5929482916083341 -0.8864008907712072 0.46542526705294185
1528 -0.6288185469600038 -1.2768993173118328 -0.8177155410263199
1529 -1.1292519385358202 0.5174797038467406 1.2783691889318132
3330 3.8017098029942535 -1.6560912549708284 -1.2923331218393288
3331 0.7753402513794331 0.17274949396918843 1.1482381048884926
3337 -0.49768073783061145 -1.1545503168048747 -0.8804657600604596
1527 -1.949140429787937 -0.1366314580989232 -0.5342470029782864
3412 1.2811630341472855 0.41316500910983633 -1.2237273403506599
3471 -2.2338041030341182 -0.8094765789090602 -2.2635204160229216
1512 15.879957766369325 -12.823885545948844 -7.713947015807548
585 -3.076644052586187 1.8802837107355392 -0.46283708729486733
3346 1.8674863708777716 3.6881305833298916 6.047986131664565
3347 0.8549357647930614 -0.3196161119613115 1.1448563549966
586 6.387967508387965 -0.34898020696056525 1.4607885207079303
688 2.50561762206067 4.061022525546473 -3.7561737760044074
1609 -2.1256528126353564 0.31974804190607325 -0.8869053111695697
1617 -3.0287207998695926 1.7366658646714719 -2.8421367154077952
1703 2.5695376344556795 -1.593403005818554 0.606983515394847
4339 -3.1856144745806887 0.802131046142395 -4.872587219388316
3613 2.9390652560985044 3.9790540754888517 0.1594024244137055
3470 0.024458044673184697 0.8129276202407755 0.5414272636348709
3476 1.0304238308131666 -3.256812697786794 4.16952481485491
1610 -5.378765580533802 3.5517119134416073 -9.05218419762607
1697 -16.54794094225804 -1.7760636454188425 3.5258461169418513
1704 3.954899157494733 1.1664994256340842 3.657534690945074
764 21.34147847755553 -1.2890357414915632 1.9648358822233558
1781 -13.444796260532193 -19.487810138043145 10.360083091688175
1771 12.965862032923248 -7.588346554503854 3.211845809107166
3417 3.7625945053378906 0.7883713333781028 -2.2019174139511324
4007 -10.707354318589612 -1.0091800671850926 11.687017851061327
4371 4.208897496599599 -1.9023825129736622 5.733617507183521
2590 -5.020512136816798 13.664693507797823 -3.889892709630977
4456 0.22864126740717283 -1.547267920825956 -3.0665373303235732
4390 0.11248629209332396 10.229324695418264 -13.42662871947172
4454 5.37947487859645 -0.7890274276715145 -12.524070012977786
758 2.490168608755518 -5.287249069752006 14.101469966469777
754 -0.03762828073032034 -7.356319231473914 12.206919153452967
4395 5.517158652381968 -1.4031591889427797 11.723678737173008
1865 4.418976905957068 -4.521161946740669 1.5000400385101416
1951 -2.263844985079056 -2.061974217426896 0.690320888879775
4442 0.9724745407748964 -0.5785183346653425 -0.064158061852799
848 1.793588739918938 -9.451589047811469 17.92054938525883
1766 -0.6590502937373036 -4.181106512887551 -4.9474154625577835
3362 -2.3758702958612754 -3.149229220414515 -2.041137455782661
1872 1.6202322335345924 7.816022899767574 2.9481947906896897
3363 -1.065273868924886 -3.062740929923031 1.1588424565844109
1863 -1.0202280245249453 -5.1908913377049615 9.199306893096752
3550 1.0946388913701288 -0.472510913662721 -0.47812157800909394
1028 0.14743270805378347 2.8739911840082137 -5.417504627172061
1950 5.2668803600594645 3.1577609554371704 -0.914720408591632
4382 0.5646476524088722 -1.8464299707135632 2.003067736225051
4443 -7.5361402775653215 0.18052902550367542 -8.775068727719686
1870 10.878487643618483 -4.549191472228722 9.627741470823707
1857 -0.41216797145590445 -0.22943121131199143 1.7620489680590548
4064 -1.012378924322556 -1.1167035013531288 -5.303702265791758
3434 1.1358859519723157 -0.7346376014621137 -0.20573539793029533
1022 -5.907517122617373 5.8039972001887055 -1.498137555732556
3440 -0.15036334443558466 -0.38172518101617203 -2.261339365466647
3498 0.29529898994360343 0.042822280654405506 0.051503092198758774
1035 0.6331455160634833 -0.2916092119522328 -1.5858964339287451
3570 0.26153113040752834 0.2931371177173463 0.152772069885859
3511 0.02692592172182165 0.23551676629896104 0.08852426875940791
1031 6.126031901512395 -0.9136740202268295 -1.1505282174428448
2043 -0.8564599832556341 1.5296497136089817 -2.016530216428905
1039 -0.4764276402866903 -0.27969806330935515 0.41783568917350344
1112 -0.35329026025117644 -0.2777538562467647 0.09015666664147073
1193 0.22232049791255898 -0.24309060875234637 0.1482191933825573
3510 -0.11311777330715853 -2.747675758068337 -1.9258749411682006
3516 0.2660768405008366 -0.6584281978755766 -0.8844651197440956
3574 -0.1376002768433085 -0.33574460128678624 -1.1884253039325183
1122 0.2056051604172122 2.165186949407369 -1.3013991297124454
1114 -0.26369163521033107 -0.40343514561148835 -0.24994147162682454
1197 0.18179995974543625 -1.0084516863063229 1.2445276975317123
1195 0.08755313795505394 -0.14417070284715353 -0.20501869818157936
1285 0.2957757875678686 -0.4425335094269914 -0.3909658180661782
1288 -0.6840490899635676 -0.2760225757407745 -1.0517721838881025
1291 -0.12847250843138316 0.0005155397141221839 -0.2255249786257414
1293 -1.2084152988192929 -0.6432966257459345 0.6909787615193936
1370 -1.608952004316904 0.4640345804208495 1.8024219637798728
3459 -0.08029998744461443 -0.2080422422594776 -0.21956364303472348
3528 0.07940191185353332 -0.1045091754443991 0.04966816209724128
1295 -0.29930494872917307 -0.01126148381066684 0.22213998079248565
1199 -0.6792629866651048 -5.808641310363383 -3.2637685966196726
1377 -0.31830831534416765 0.19204281623631833 -0.20438093798571927
3579 0.18114498255509426 -0.1039050283762392 0.16593253617139092
3592 0.11701492597352527 -0.17277466099054417 -0.017772633279109006
1456 0.07878336077677572 0.9711984602321274 -0.48945090568481775
1460 0.3418674829945634 -1.8862062958509038 -0.17718407590306343
1462 1.6968487320574541 -0.07740360723622729 0.9214808443174011
1465 -0.5779687241468826 -2.078293669616592 0.37444263684380263
3462 0.026192895328054674 0.0626127771513034 0.40958443856372123
1453 -0.2501175206252 1.0331552763844705 -0.6024724209449729
1458 0.499996875936446 -0.1945994056184915 0.6988028900493609
3531 -0.08687084328017289 0.00618300000346596 0.03459299011493721
1464 -1.0153572809538136 0.8658123244165415 1.5860900863358418
3598 0.012531229527876823 -0.0380883792105645 0.014603852109254961
1373 -0.08568155885593072 -0.20179323589055495 -0.0870031632010557
1543 0.1422559169423091 -0.09420866274289783 -0.23280991918260086
1545 0.17528002332324005 -0.4040887964180705 1.070609096642006
1625 0.6115350974800499 0.547366322134332 0.517893244030054
1728 0.5501623826858083 -0.23610727772040518 1.0080243799662634
3473 -0.0915634084364057 0.181974704250866 0.06319201836839812
3477 -0.5020701252062721 0.4391885571930437 -0.6839136818229617
3533 0.20870226515978327 -0.1361001860310537 -0.36693036622662123
3538 0.6549466342998126 -0.4952880218884299 0.3392791611974673
1539 -1.9144956973083265 2.5598554077428557 -1.5731645797635374
1632 0.39344151074532785 0.1995162827526884 -1.640901985062291
1549 0.4026970737815459 -0.17435976152853364 -0.30817927677070983
1626 0.10940065651681867 0.6356412235320056 -0.5858631417498718
1618 0.9000950096586362 -1.7730305713841643 0.2561923763409359
1712 -0.2332652770507399 -0.20593775339840373 0.8687335975326984
1719 -1.0296956722323132 0.14050156425033616 -0.2055842796972912
1722 -0.788880432498275 0.21405225643123832 -1.693299866698722
1798 -1.5822278544733737 -0.9671378033473702 -0.39558494134297734
3480 -0.5313119297420399 -0.1072740865243298 0.42913253444710653
1711 -1.3085385560094418 0.3940449405013785 2.417932198896348
1714 0.8029245953460808 2.519115929188862 1.8675628227094159
1723 -0.19986285132119455 -1.2158860932013236 -1.202121157408633
3536 1.6539597803510753 2.0615881648254226 0.20618004148089614
3553 -0.16008653994256075 0.2443770810982591 -0.38834152402715144
4438 -2.311012699505539 -1.2035203939730845 0.5459948206994988
1627 0.659558606713919 0.4906655310235617 1.0775052924614859
1782 -0.13556101154704128 0.3493812225407363 1.9902516333147233
1788 2.1127467393903197 0.7144276274615178 3.116444367326519
1884 -0.7678671081769164 0.08197536364477473 -0.4238662437671595
1887 -0.3818758613869956 1.0356148574146171 0.7633466923839335
3485 -0.8768600011424159 1.5914947045929686 -0.4984455263950675
3559 -0.5056143823542367 2.3305488817102513 0.4504549988363336
3558 -1.5082941067436073 -0.18280879064432376 0.22612353335997787
1876 -0.5925255419134169 4.1151535459346436 -1.3118581921722876
1785 0.3210576529334626 -4.283342188641743 -1.8298911148068384
1801 -0.029736265818421478 0.09343773624199106 -0.057648577830081496
1963 0.010332275936052356 -0.343088942431719 -0.6847788345893825
1953 0.9843132212465039 -1.8350527761954707 -0.09706646954384998
3619 -0.5388122128854287 -0.2314963565733646 1.820780700747793
3930 -0.48935232130265494 0.804846685517512 1.393838042540065
3628 1.1894094845096397 1.1368619827588342 1.1131054900372834
1862 -1.379894627753816 3.3517160436452182 -0.6363341836594993
1890 0.8237072471878548 0.17826392023969617 0.009233070296681488
3569 0.40924072664902333 0.7276282475256556 0.18754388109737496
1879 -3.0231483677269932 1.8419003552149338 0.15219082148302007
1032 -0.37200765581862083 -1.924284354415929 0.27226611798632827
3499 0.5751842096751336 0.5860150074436913 -0.5782680176378172
3564 1.0785797433537863 0.8104175339463816 0.053877922463537974
3565 -0.6188848179115573 -1.5366404843324557 0.33062113854961345
1954 -2.6784096655827714 1.4407104694881032 -2.573927281975005
1944 -0.08101690970954561 0.6898325128717974 1.3826792501358112
3633 0.22554072173430653 -0.7678604284193515 2.5186255917349967
1037 0.9871779231746147 -0.039176363462816485 0.6861244992065119
1124 2.6948347242025372 -0.09738745699684015 -0.8258727562347145
1127 -0.12805442483191345 -0.6457917802523594 0.018119969162451743
1134 2.5559711500521414 0.7203246122685905 0.1126794907394594
1211 8.14352213693991 -1.3622009060716358 -1.5417096296102426
1212 -0.019012015996860945 0.6682475701393522 -0.8642734465909557
3571 -0.8188121947686292 -1.8854605032707323 -0.6849530151494231
1042 0.5563034117782044 0.48554143643742587 0.3491022498756962
1304 -0.19852362619081504 0.6792033457618027 -0.34038527292964793
1215 0.10108219741511149 -0.4047144825327429 0.287760372500686
3522 0.5696877153071044 -0.7720836500906069 -0.05045622516613245
1379 2.022962656368866 -1.230130145829528 2.092565883078289
1387 -0.16145861615862578 0.9049171600447926 2.321047880184949
1390 -1.0105515506007545 1.0938515367661226 0.45474707316093754
1471 -0.33397542792831475 1.1916810810016638 0.2693030055039047
1473 -0.7609535537371978 0.353535896865224 0.31379329107069653
1394 2.0123037573094247 0.6341656878478822 -0.49430488568835484
1382 -0.09488682591295733 -0.47025383809757265 1.4379345577634148
1483 -2.1023820460898803 0.707255952419448 -1.9226128597609282
3600 -0.02552804977684847 -0.09535763549517601 -0.11865565432008814
1553 -0.03343554180520875 0.014220547044146015 -0.01952343151103136
1466 -0.3799222004828022 0.10773840586843852 -0.15810330963344071
1555 -0.7713077188854696 -2.1702813945187907 0.08688151639066008
1562 -3.629091612416754 -1.7413716852101393 0.5203382365726984
1564 -0.8745943587668916 -1.124849756401808 1.4165175287645306
1566 0.44954803247542163 0.5452843562952665 0.37467389776648374
3406 -0.06846126549210524 -0.008511613150977806 -0.1394226187218168
3466 1.4331625898758613 -4.528554125332257 1.9727458672664773
1475 -0.7766993741079359 -0.15864680676281556 -0.1335554892245143
1645 1.6821867812748506 1.8739435040543921 -1.2218700361037313
1558 0.35147107267043526 0.3142812388222788 0.16063335678948726
1467 -0.658481158177407 -0.6491487733508079 -0.1346569328489941
3609 -0.021809547744018075 0.022940485540894916 0.283554309419282
3606 -0.3808245741155355 0.014506227512599099 -0.22877455148606873
1631 -0.10711121381134903 0.9643048311699599 -2.470790462291594
1637 -0.5660297403971376 0.6458358588178283 -0.7509050277406318
1640 2.217462082991864 -1.391858717137198 -1.8774652602629265
1644 -0.5605104752937535 1.6799713441789788 0.2409122538537632
3542 -0.34132249996595265 -0.024807914308043622 1.8171678620104708
1821 -0.5205784529918711 -0.5505668548382007 -0.06390768362125822
1736 -0.006952992817083188 -0.08322757626361478 -0.6954673066258736
1805 0.15515990869579327 0.1390625716467663 0.12189081932376825
3481 -0.13507884332768855 -0.029200638709066914 0.03166609818456284
3486 0.10150687355545918 -2.7254928509675884 -9.82356090338291
3547 0.10056185506903852 0.5036431980987274 -0.521565817595169
3554 -0.3682341820787744 -0.050400879966990934 0.0820461253166074
3561 -0.07358877686151875 -0.0742909359305813 -0.2412245356796728
1816 0.771670577766995 -0.4511498261328105 -0.6288730849862836
1731 -1.462605136279098 -0.8542817002690496 0.827081215823389
1809 0.694177743725453 -0.7759225493330443 -0.24166451591893212
1885 -0.3484557758348678 -1.0048504158127476 -0.6657438440235415
3560 0.1668136913126508 0.6871575498564005 -0.46078567519484626
1891 -0.6770704654121995 0.8592868505302108 -0.93964652058997
1893 -0.5280834093436398 -0.924086008840814 -0.2673498075375648
1980 -0.07930067686065112 0.8139850740323508 -0.33651791101922984
1982 0.772276163943039 -0.29232635335961615 -0.9396969737955608
3566 -0.3148297394102598 0.16228008435885893 0.04176110246424719
1900 -1.2762936826165974 -0.30790938653829864 -1.121603672039095
1897 -0.33862181736123276 -1.1764570082633925 -0.4259886588235362
1985 1.2819031217156147 0.1221253615802895 -0.12670929952756924
3629 0.1290932459895308 0.8507493896642874 -0.5635877957099826
3495 0.6567168758619552 -0.009298346984479424 0.14363553227993112
1054 1.3273325980845565 -0.8425137809977856 -1.0961912191436587
3512 0.07501405855841761 0.17433459394509204 -0.11448536776042405
3572 -0.2905965918273497 -0.20602167113016903 -0.2505673913775997
1067 0.16607499157881112 -0.389500667475499 0.17324480609711337
1057 0.3475734978578095 0.27871146874628827 0.22934751135068612
1138 -1.177118763404856 1.8430333999506503 -0.36287894812942834
1141 -0.1768213636873456 0.03951262976880251 -0.010262459296556574
1140 -0.6332008563091779 0.2490575300863844 -0.18270021304184988
1220 1.8527697233126554 -0.6851136607422816 -0.48254296515123785
1221 0.4986427841649101 0.6906770278302501 -0.2488382544607563
1316 -0.19344022961688026 -0.21655636086651892 -0.03753599686671597
1323 1.35732948761311 -0.5692882744265362 -2.738610916985805
3452 -0.9533511174753433 -0.5950540799085281 2.122031374127907
3517 0.25950526186678025 -0.1605711925695181 0.21155344315171745
1148 -0.5219923661890311 0.3084948285706673 -0.11620691293860845
1225 0.5114684810139122 -0.20035738716730503 0.3709441649515993
3576 0.06494636106367448 -0.1108657066724422 0.2199453586316358
3457 -0.5062210727927452 -0.17090098981038782 -0.6814191712904587
1234 0.19492819533513323 -0.2555656880189396 0.25087202568919587
1402 1.2078630330055364 -0.4445005703647307 0.33198300585568685
1413 0.3091228158912998 -0.9348808203357698 1.4266910532239632
3523 0.5571147226356695 -0.7520661176451248 -0.5189077419322103
3529 0.9785710350451866 0.12447544492118194 -0.5776976436174636
2585 -8.99343746355789 4.514745603833711 3.2372062453362775
3594 -0.030160964344210176 0.848902640216286 -0.37328033526344667
1309 -0.7217669118108343 1.0011145285004133 0.7089369452508092
3524 0.7740022327812455 0.5179460113458537 0.6305848206339079
1491 0.3233216404593576 -3.217158113090125 -0.8562545190853812
3601 -0.19369661778121505 -3.1700152140707307 -0.040479623952381714
1399 0.49266539512689755 1.033913068562079 0.3673408861145082
1480 -1.2810310227044572 0.2864435326085085 -0.5349755100588036
1485 1.7036605030855176 -1.7713777846534209 4.801998663329345
1487 -2.3475525254088567 -3.2984979623387365 0.08085300737941217
3467 4.095557236744701 -5.670247519495335 -3.058732528581754
3534 0.9431852034938512 0.30233110882343334 -0.4453297905610095
3802 3.0779431086101723 0.026499713323303534 0.06976253830631532
1489 -0.13822318442522327 -0.7465203375537002 0.21017302967366647
1404 0.38043683137265505 0.3973644171006949 -0.35031523429225725
1494 0.7676137475586579 -1.986562872570116 0.03433935923257843
4571 2.2093856141993227 -3.3047863582147037 0.7145141315057765
1576 1.3125640532151 1.610949906854097 1.6160411991777452
1584 -0.06370833602740206 -2.3293456954864844 4.6311206948793915
1651 -0.9655517173227086 -0.36527006807457274 0.5758503274522342
1652 -0.08768436159747445 -0.6193690296635705 0.9229261869415099
1669 0.9424425275065055 0.3012219005432833 0.8321403803534586
3539 1.4443062639153097 -0.30429694692079784 1.403165283076933
3543 -0.4150118279257813 0.10901485914743234 -0.36803597555234735
3479 -0.8269184522830942 -1.365861628783447 0.3790829020801533
1674 3.46000439153394 -1.416309059187895 -5.022321436422669
4325 1.770416070898512 1.8617124765510866 0.43226607113494714
1579 -0.42228455873334897 0.36531490099898944 -0.06431609393357804
1750 -2.296607602278288 -2.3353845389545502 1.7071486851025357
1646 -0.21715494023336177 0.12254002959340207 0.6536227121078395
1868 -3.895159396272687 6.838863911329113 0.9181889859439035
3610 -0.3613948779249198 1.5606251355418184 -0.0951603098827773
1748 0.1511215065017497 1.5828658615915117 0.7697704970374435
1741 -2.994610231001015 -0.7184608858136182 0.7200586137830911
1823 0.20133836405727845 1.5508780465371013 -0.4589182538967409
1830 0.3515064699646901 -0.08601315118025415 0.01686783680623292
1832 -0.377327888785444 -1.3536708456082527 1.4623826719187953
3548 -0.4994454843904164 0.026205443673476287 -0.12697517290251506
1655 -0.35628820517445087 0.0006327351923140604 -0.3514517882629104
1833 -0.8082357902494584 0.5621394980771208 -0.4833293744401283
1744 -0.10520379225132626 0.8138367822417496 0.04663378044488334
3622 -2.080544672585658 0.05548803120681293 0.1683121761217549
1903 0.09130535043460365 1.0084407787504188 -0.3334155309190156
1907 2.981572874743224 -0.8120341810333753 -1.2913609983559402
1909 -0.23604796363783415 0.030802149727775487 0.6524158880836104
1997 2.250873117262629 -0.35417720100250005 -0.14180040922503825
1999 -0.10552903826087386 0.7982194996888418 -1.492012282949661
3487 -0.1738488675720449 0.3658351747168409 0.43725494683325916
1910 -2.264969967769328 0.7082238846746455 0.3778683783234796
1905 0.03768591680086552 -0.8385540596668574 0.10856937694759239
1827 -3.437235568059925 -7.402650242825119 3.5427222094531405
3630 0.6040821760175964 -0.5433662309949152 -0.8164128687980868
1051 -1.3644494597514212 1.4962153717593267 0.7221213654820581
1064 -1.2376567753724952 -0.37654543293820575 0.004764645364431782
3562 -0.1355570995303752 -1.6240079263476705 -1.0185522533423095
1061 -0.08037090270942122 0.4629634527420819 0.20079770769749333
3567 -0.056332522972414416 0.16494129549977432 -0.37255338816259476
1069 -0.03699382589865763 0.10674739028618328 -0.1983402195749983
1071 0.1895266047409631 0.05847650133762897 -0.3929723952044156
1078 0.29081165180636764 0.14501796904091785 0.06886984779377517
1164 0.33742841518352346 0.28948781171390503 -1.4913045879487146
1082 0.5563624443351533 -0.7900200454372561 1.3923036688610748
1155 -0.20235953169945128 0.04475870999424576 -0.17185467516827743
1158 -0.007018125497128777 -0.6491542186017321 0.6819956947298369
3513 0.1311675999847007 -0.08124722186426972 -0.15441928543346686
3519 -0.1946474344911864 -0.28995532187480993 -0.5560781746384884
1074 -1.5586170576726437 -1.6350858773851702 0.5496565365015733
1337 0.22501875725422946 0.9282814010894752 1.1774442204940296
1154 1.4187784501043297 -3.5568744740239513 -0.5852900996913417
1161 -2.100581985168757 2.7873211621234977 0.6505727990670833
1326 2.8131972006390344 -1.4864981558804546 1.3989141268880396
1330 0.06456384296967757 -0.15050629101970064 0.2587202689835652
1332 0.5517463881129073 1.6165307862197795 -0.49616184369232286
1419 0.3791843120614673 -1.3942522952124574 -1.1409306300172557
1420 -4.952837833741486 -2.1698816141108854 -2.7894167554940905
1425 -0.6722473381743681 1.3250328522707562 -1.6786048891723826
3518 -0.05753112301369273 0.7652047375159334 0.6763692623950132
1328 -0.019796063832290836 -0.16455887356684046 0.23727927499759316
1499 3.152138919422979 0.046468383755986435 0.2701889880432545
3596 0.19755054722986404 0.9911956240196274 0.5998300257990138
3588 0.45977532882386996 0.21481468651566044 0.3348352375811176
1242 0.37767900331549153 -0.24452913511408217 -0.24902445112830618
1421 0.6706063065970733 6.457313743671876 0.1971649944870423
2519 2.82042726315865 -3.1871967624935187 5.945853728916454
3745 -3.7439722841113245 -2.7037365851692092 -0.45529821164014006
1498 10.738267816307044 -6.931941171014891 -1.1822551743157428
1492 -3.224573292832805 1.3760573005075616 -3.579567813295733
1416 -1.9512421591135394 -2.718711994441706 -4.01078283655969
3464 1.042942268798468 -2.523024568494171 0.41059470218164573
4317 -0.45598679542717385 3.760192604680769 1.9019714990169319
1501 0.6294731368633147 -1.5482247921755032 -5.687343756448362
1587 -3.725979358830401 1.7650891176960575 2.433763378365643
4000 0.07826442148177563 -5.7045405029522 0.8377781367050562
4372 4.943352768626444 -5.4713239774183515 -6.838239613845519
1676 3.921581708042396 -6.121421201954626 -0.1787940086787445
1504 -1.8798006527816125 -1.3639894025193158 -6.119395596458234
4679 10.843921635844524 -3.1690870034628813 8.693853545353518
4674 11.494738639790663 3.835933678736892 -4.3221601411176245
4333 1.1321523332490766 5.394609300877981 5.8471112264404885
4547 -1.4851124183935374 5.408485302294763 -7.784021037396161
4358 -1.3503916564392855 -4.013738033822809 4.92934651253215
4482 0.6973025111549093 -3.5266177082622323 -6.000202232511676
2609 -3.172537042351317 1.7534744178492085 4.937008662322032
2681 -4.284758847030791 10.641509786491161 -11.525548448528445
2598 4.200428869446057 -6.3992837238700595 -16.44716406239265
4705 0.4527144111548297 1.786141432991626 -1.8285945770587053
4512 7.903129747281142 -1.522246454196715 3.520963906569398
4733 -10.135340102239875 -2.7481753750838953 -3.062972709363655
3688 1.3879857207212942 6.726699848765437 0.6055016525695831
4077 -5.323266434056843 4.7864871504917605 2.549276615594876
4432 -1.9432965436983514 -2.694749611830444 1.0793025997297478
4424 3.9608333884131923 -0.9219013703650355 3.684771562796358
1756 0.6494933789965414 9.833183398200191 3.3706171389247066
2600 -14.613218871268286 -15.107305926185884 21.229321103712063
1687 -1.7597159250444574 -14.889001876661759 -6.201118157166589
1752 -2.376852276428173 2.163147343527411 4.123808552314309
3751 2.672041102636089 -2.0058797130567187 2.5304212044125416
4428 -9.212579039909023 17.984664437275853 -9.430785083271347
4615 -0.05603271134109815 -4.076687478137053 -13.811145705355166
2735 -13.971747388865525 15.294831082695449 3.634149682709856
4439 0.9617610677591213 0.8936852749119828 0.27175224233456424
3882 -1.0484969509852349 -2.752371633505803 -0.3958126187451693
1845 -3.628363673954217 -0.4868441319502306 -1.6256725265982956
1839 -0.44321228317932876 -1.2993208484715357 0.35678092959212737
1843 1.1728302243286868 1.299632711493816 -1.8292610758087702
1914 0.30594189572159086 -1.038808783297156 -0.1875716669967171
1926 2.294823689958725 0.15522226790049024 0.07693591180434718
3489 0.7687528869880185 0.012548841646295763 0.32713479173746285
3555 -0.6934035910756278 -1.831442115522722 0.47218329223615507
1851 0.691751022821275 0.7825984210321197 -0.659044897020453
3624 0.2894096633282516 -0.23997393267629866 -0.6699539968005938
1849 1.3189430585827266 -0.5429975869800028 -5.425904965960818
3625 1.1512026456052662 -3.826267664804081 -0.20958334327061942
1918 -0.47826355055262554 -0.7224147007143422 0.6207811905381203
4361 4.254589639243382 -0.34185548252642234 -1.3384531493130307
3493 0.3550814886070285 0.25191415444190807 -0.5235145477747459
1917 -0.2550972118262207 -0.9037614591614774 0.5706111400301359
1076 -0.711954670371638 1.2141625415679433 0.2682375464006536
2003 0.6298301571055451 0.7440350945318388 -0.1074857580523672
2005 -0.02385466150208232 -0.3155367334000331 0.07886593121282331
2010 0.5613266418031577 -0.32284616127798216 -0.18817725777102218
2012 -0.49038372332254004 -0.2979340974714474 -1.7000493618009058
3631 0.200376390328231 -0.08172480225297216 -0.5720167746361486
3639 -0.006442464792919144 0.1766813018965933 0.6782995156127262
1092 0.32303103050900345 0.178781598960303 -0.6683466217214149
1090 0.5256176707054265 0.034418493760802395 0.9730017104527912
1084 -1.4104350580615435 -1.8529705157855578 -0.8609299415413212
1167 1.1562327401808639 -0.660592519270244 2.6565207865933345
1169 0.43852909241119076 -0.486494374299731 -0.7897439690513706
3515 0.037261324391587185 0.0020238572309998547 -0.03397928477817505
1093 -0.6135894742386244 -0.5826386398876872 0.5912843438826942
3514 0.26285295726699187 0.13873536025773853 0.8170478152406636
1087 0.18212557583571382 -0.23957800174112312 -0.5120767047340075
1168 1.2317863804243991 2.2382595672471197 0.8451947236220787
3645 -0.01754585172241611 0.07244955951428086 -0.009218397120923457
1085 1.127214598829971 -0.18768675862512824 -0.9819158766367561
1252 -1.8347886554940267 1.1996851602572516 0.6248999607005636
1261 4.324961925923085 -1.4561641829690284 0.15353255532820673
1343 1.1720727361276824 -0.1538613998822427 -0.03807681649841803
1344 -0.10579210967943331 -0.7919891486420528 0.3771879785524239
3520 0.2409020350094317 -0.21127942727560006 0.4008525441678321
1338 0.007607428387950319 0.1777362302387706 -0.5736443715631413
3583 2.8501576671237143 -1.3209561943970343 -1.6122759605654193
1348 0.018791114493347832 -0.34841663015406793 0.45698775939249053
3521 0.014824283958370352 0.06209384192781953 -0.014217724833131058
1428 1.7106828647726933 0.8447613290385446 0.20086283585830164
1434 -0.2842926037266267 0.11735107940357745 0.6419005253684054
1435 -0.48184279511450245 0.1645025689123614 0.7025442585310882
3532 -3.625558330397686 -2.137553781684216 1.1878116776957466
3465 -0.12016756171610024 -0.7693280451758909 -0.7555409319652358
1509 -0.33326077959780975 0.9371420661158216 0.10775336935754559
3936 -2.4521170998093034 -2.2696067136818177 -2.598935742088286
3589 -0.12144763913425079 -0.13809990834654226 0.15733544096409838
1515 3.2286144766409577 0.8578213516790585 0.24826058602872428
3597 -1.3182299141692135 -0.25998795540578057 0.1802626753268209
3535 1.2193716102594443 -6.023429043242952 -7.314644435495594
1591 -2.129743286045799 -5.025172629640372 1.9724265663422094
4505 -0.047254900425407045 -5.066148430194475 -10.035098228928728
1693 -17.601760596297122 -6.6578253688988545 -7.234764267689083
3602 2.6573278167435377 -9.018607646018195 -3.0792132410644295
1601 8.541083244714404 -5.3262255035813295 3.2680311604834476
4313 -4.664241608946497 4.575458186141069 0.3188350987591822
1599 -3.5910814441096757 1.4439620218171734 2.6218274517313738
4280 5.867454682175982 -3.796852861656712 3.838998295709184
2591 -11.146997794654624 -0.24847076473509588 20.087843696988095
3673 3.886134375154704 0.9916117030817616 2.663682305904678
4552 4.410867641168207 0.4865683775986048 -5.400425603055434
4655 7.327579886189525 3.197865824347916 -1.0453810242541042
4346 -4.249215863014749 -1.4689730176154387 0.8048493776389919
2440 1.1525605864952082 8.592951737267418 -12.057819104444874
2743 -1.9530713140117835 -3.2936746714418086 3.1946338855303646
1856 2.306411110709813 22.7195111998019 -15.13754744669558
4586 -8.014075634490794 3.0860425045392805 0.9736779281589977
4620 -7.89580696690222 6.65398591863873 8.286434629932943
1773 15.803753222196475 -3.12202036619618 -10.470575386347507
2453 5.998522429029809 -3.4837468700459606 4.446795523515659
1787 -10.136645253023515 -16.763161706080094 -8.32959475167759
2669 17.72180627234897 12.79071379591837 -4.460266722129987
1772 18.871128320081773 0.9908880751709955 -2.3932836037832246
4691 -0.9717373689114259 -2.581034723272044 -4.4983844989859705
4685 -7.2064725918751185 1.1749170910265325 -8.828346028152662
4724 4.258854560808815 -10.911577681445516 -5.320558223785283
4383 -2.210883467160575 -2.522828012295486 8.26850018242123
4591 10.3766456688214 8.118171711043226 -0.7691651123166879
4370 4.551622340593294 -5.348327174338722 -1.9847203945974554
4534 -12.371585885550706 5.458079654129423 -7.8346015077585065
4449 3.478158661942108 -0.5632994346918694 -4.680805838837955
2596 -9.783681581229324 11.716944539621458 -14.391884947195326
4526 4.0814336504072175 4.743606519101927 6.124189260367682
4633 1.6868162238779196 7.688011307002657 -1.8436022264775354
4460 3.4311955370477043 1.8582665575896344 -7.2077972180131695
4676 -25.311426647066657 -13.298180114646552 2.134270787710938
2448 3.3931174024857538 -7.55706365984123 -4.416439608962319
2746 15.028009375846857 9.289368796894458 6.673627164801582
4549 -9.973828457161975 0.5060688896927081 -5.969940087468066
3873 2.0296311797156865 -4.111912581339427 -1.9818303364199839
2435 -1.7453325780181626 -29.031915511739577 1.1389034345999345
2748 -14.506648349451792 7.038841619782309 1.5333728755825324
3693 -9.893865226972004 9.612773110076105 -0.8589886616631646
1761 -12.89674223263443 15.396604489780872 -0.726055736538464
1774 0.8104488670555597 -3.6287209263055393 0.550019729972004
3617 1.14172390612709 0.8306811166140002 -0.2218079724991318
1847 -3.571421924015858 -0.009839100228074098 -1.4340353635796643
2028 0.7670152880113068 1.6034340331892298 -2.84532728082975
3556 0.16695536713791373 -0.4937734376637348 1.1440007243655161
4453 3.585533031215726 -1.979238165692009 -3.8567181056534094
1854 3.2205408570719776 2.6015382042903124 -0.8289780310853695
4403 4.212562462805856 -2.0661860744408242 -7.919953023783648
3503 0.20615659443153858 -0.9228362184548548 -0.9760187642526462
2025 -0.6491556058767641 -0.000270697299314878 -0.37025434153933556
2031 4.539225854184073 3.0814415499911836 0.7290440542657312
3563 2.0768693256889224 0.00644923740781609 1.5820507194037217
2022 1.5279066821628564 -0.9238981911742632 -1.2677821611759692
1097 -1.5682506269645635 -5.860789499014179 -3.1534537475481397
1100 -0.20179894315553848 -1.745597418904663 0.469821813171184
1185 -0.5744559240648509 0.1466079457158425 -0.5210514356124365
3504 -0.38950704605134645 0.04512284461299586 0.4191624805570766
3573 0.8199259370856175 0.3150233806728982 -0.3568875896683912
1104 -0.9538099940120909 1.829947749959957 0.19888468344398355
3568 2.078025448375777 -1.511179718326841 1.8452598489156415
3640 -1.0390972668362068 -0.0196396939101569 -0.6612838358228873
1183 -0.9012649311267115 -0.18332587483901389 -0.19636688129772373
1174 -0.26327271367474714 0.050142870186174145 -0.4565508773747726
1176 -0.22786349058504995 -0.7343671628482928 -0.7393171166368202
1273 0.5614086028679018 -0.338059594458028 -0.6859314202370054
1279 -0.3614003844844525 0.4680347781710174 0.020018838090519884
1280 -0.6956101914642895 0.7865008390245353 1.7724489301986956
3527 0.034439755722849096 -0.1965669294556573 -0.15209434138195174
1178 -0.8711659162735085 -0.7076008977552156 0.21200434945409471
1283 -0.6359171564176336 0.37574037408509786 -0.2968635652987486
3646 0.5572431744430884 0.3601416475832298 -0.6681438919985989
1270 0.026198020008069974 -0.34022552423219254 -0.18367982267431507
1438 0.4871157413277105 -0.6422908302847833 -0.1635518120684707
3525 0.055119424130137165 0.8263587469295047 0.13550256990324994
1448 2.099746745928997 -1.3520880873019163 -1.5936398125944438
1353 0.33603644245207376 -0.3132787379888787 1.053467277280053
1531 -1.4135547480250816 0.9643869669424511 0.2973653136387435
1513 1.2520911968761907 -0.9375670235542356 -0.8012380801870002
3530 0.06234294236468799 0.2256898788897935 -0.36642956327657933
3461 -0.40018373613889796 0.019353852061244296 0.010021823713627677
1439 0.15535865833965237 -0.6959354361011876 -1.4665626677643542
1520 0.2829517761754094 -0.9154061880236297 0.4846924542655112
1522 -0.330669011858293 -1.045715398967379 0.7070809507910366
1530 1.0310568041453974 0.43993681492675824 -3.6242663409602947
1533 1.3060840281310242 1.3245256094084044 -0.24089453391427185
3537 0.20447876623212793 2.776948450805185 2.4062573052386256
1524 2.3032739097979205 -1.1019749596175048 -0.671196301340255
1619 -2.865680307543478 1.7089625108316915 2.312838892517811
3603 1.5527955741068886 1.1922012782325075 1.2182657593073747
1442 1.9047923341881594 0.791866158600338 0.3945131463174619
1523 2.309012708719802 0.7895845964378426 2.0638331217094
3944 -9.16651255180468 -1.0122395044244534 -0.20581118222940178
4312 -4.893762519648026 4.126928345590861 1.6316655027238491
1605 -7.705120676473948 12.14331325251156 0.5285195007924025
1597 -3.3544215987796635 -1.230373190879698 2.1047837426989076
1623 -1.1849116431153845 0.8312611513204574 0.2328515295670691
1705 -1.3058514985913585 2.520816474083867 -1.6779655601607948
3541 2.025768779083787 0.13611039926969157 -0.14302177051005227
1694 -7.923140757353663 -2.8800146202691357 -16.93345563087478
1598 -6.585523204440802 -8.831129125316396 -0.464725206275025
4357 0.9989266156406846 -5.494739485264336 -5.780599803456801
3883 -5.712968732122372 4.787669486330159 -2.6201307461475616
1709 11.639639099879528 -3.1209366626851933 7.473500497716936
1685 4.691764013586439 2.2358995437314655 0.8956610569647115
1699 -3.72497353434558 5.961003256789889 -0.2370345390569791
2676 3.687225516505481 3.568170934306189 -0.35432275041935873
3991 6.2010742602201985 0.23725442966736623 3.6793888513717374
4605 5.863480294150459 6.130874812125544 -2.064321913935052
1700 -34.77227713758106 -2.3987893990841274 -10.04043737976701
1672 -0.021093874326838832 3.463318733037314 -4.712420857205291
4682 -6.129516523208708 -3.216751882355742 6.965851331969416
4693 4.631354917849597 6.562040125199594 1.6089106622067901
2613 -0.021792509789232847 -1.7442539931711876 -4.859109311010931
1695 0.9781901950697669 -2.780286897581619 1.761321401896652
1688 -16.48067082195252 4.254432240707946 13.605791265462136
2677 -13.879789462337268 3.4604142301619754 -14.84764801165176
1873 5.156505482828256 -9.436819292151197 1.6110134502109543
4562 -4.070116995114127 2.7713681599136506 0.43648586173594484
1855 -8.831000932624626 9.078621809013386 11.349087735410302
4491 -6.509223202359125 13.39843037830111 -9.40193787464026
4686 4.880059027372669 6.086665422448845 3.8366327919334084
1947 8.927901655260822 -16.70796197555955 -20.9187389535228
4388 6.574217116771126 1.2880041442174524 -0.5632931774754486
1583 -1.8916969971424475 9.154451860597257 -12.1236212560502
1877 4.293807890439717 4.0785589810797305 -0.6225125498934665
4352 0.8331887033029345 -1.651364547983398 9.676598114152467
4677 1.515492039278144 7.6779528061770606 -1.159373213989564
1861 3.2956642164465526 2.6400797040195307 -2.231579917777109
4013 7.775586919707468 4.935721264660553 -4.114959939937091
1952 3.6778373379163973 0.870524297167256 4.149581851448623
3815 -6.68685369337737 3.8671073798630577 2.4237082868570377
4728 -2.1383780832140826 0.910799504615191 2.899433652031466
4431 3.993615723654439 8.317099793246031 8.585571851969483
4385 2.2459731110138237 -3.490298191572458 0.9223563544120356
1942 0.2523457055872621 4.660921582444436 -1.959325525157821
3551 -1.806099778912867 -0.09020880577417228 -1.4456641938128487
2034 -2.652076537255189 -3.2521724378062813 0.13679638778629036
2033 0.1545395206432354 -3.5528644360645276 1.6209585313938064
3557 -3.542295888094311 1.1844831990868139 1.8498453700527147
2041 -2.2043585160682913 -2.1668080740256452 6.37636715013167
2035 1.3180372637587108 0.6380770737187106 0.026594356494616927
2044 7.780145629969227 -2.2467490518603133 2.2364739932480893
2038 -0.10873964033531713 3.357247289810118 -1.118320010985004
1946 7.098713342714027 4.423698111106049 -4.1476182333161296
1036 -0.5436240571403539 -1.0090612170947766 -2.8678867709162232
1038 -0.20177671894235877 1.0526340670748549 0.15644816057315172
1121 -0.23875476827334174 0.3901667678341032 0.1662207750766853
3642 -0.2565778005453911 0.4971522908453996 0.3639909115969479
1120 -0.11467504958392843 0.2377473460592906 -0.5022763431352887
2046 -1.654752035002342 0.4817471806214516 -0.6417015392016768
3707 0.06326680391060618 0.18434642191172085 -0.2968621407834424
3706 0.955660520573428 0.3541045853836337 -0.08064934463575148
1111 -0.23286570561655334 -0.26075460158918357 -0.36389525142423135
1113 -0.3233600570913718 -0.1883475908917539 -0.20437962485444008
1119 -0.0963291136742973 0.25596912423769314 0.3287451555064353
1198 -1.087661609365704 -0.872212534709167 0.26590201913488
1282 0.5634937021926488 0.20518628262726363 0.3435451549344124
1115 -0.14826773103181193 0.15954509767376032 0.06393812745390796
1123 0.31997818687182 -0.7386675409709996 -0.07296004987832551
3648 -0.3145949639859283 -0.21578099021507094 0.07120844943945069
1196 0.24597741953460392 -0.2937505994285313 -0.32696176108658165
1289 -0.6038807959704799 0.02734305820818692 0.016883598418859568
1294 0.22331655014732268 0.09903530851855628 0.2316485062403507
1365 -0.12361663790145072 -0.7865190337803818 -0.031173000323213833
1372 1.0848347723485434 0.7679432456887982 -0.5104068690760978
3585 0.20917354700770063 -0.03707699869303535 0.1143987499222574
1290 -1.2958433057819456 -2.122751795148457 0.15957971839303592
1200 -0.5197022310830886 0.4378242178784332 -0.17904698057610488
1366 -0.10504416190498825 0.20442450511909166 0.1139054222148646
3599 -0.09972796705880478 0.0777325306113917 -0.17231847113409554
3604 0.11751470475351804 -0.026743344365255068 -0.044745514925699455
3657 0.16888187158858228 -0.019282665522175717 -0.1482277944040082
3662 0.416676060561329 0.08741939120831838 -0.07575537018621399
1548 0.39101025364444436 0.3212363629581009 1.0258663017772804
1375 -1.8143112830062476 -2.866681942669658 2.6920265087859816
3730 0.37501115035059246 -0.18987618463902 -0.37608571325592693
1457 0.15174064957247407 -0.24644361041508048 -0.2384553160743557
1361 0.26813531939984075 -0.7792569648403485 0.1075679124150291
1537 0.30561199002044787 0.18757710224221394 0.026154046532134684
1538 1.203607517681582 0.7052975145118286 -0.07685855682924486
1546 0.2761726551134849 0.41338331030406367 0.5952191552147409
1707 1.056542612876217 1.4140943100158476 -0.11755464907989656
3675 -0.9285589754671795 0.3542230104615052 0.005545843017184761
3676 -0.061737729818574595 -0.5793704675426186 -0.7126671627792971
3677 1.215498460867593 -0.8306118196549732 0.116334446545371
3733 0.09255151070043513 0.19044577538118154 -0.09528210838266314
1540 0.37873563556409223 0.21634468455695843 0.10804698861281459
1534 -0.44828288907958586 1.1714008599972507 -0.2825851967686265
3614 -0.17030189105953042 -1.6848541019144638 1.306330137381597
1634 0.05554354606972839 0.07686348306857693 -0.0575240310014936
1713 0.21521506552145714 -0.7799908820535884 0.07826125420646296
3620 0.8463624677896263 -0.5559562132967167 -0.48108356611619335
3621 0.1289753282926078 -0.3514594478404676 0.47474733269088937
3679 1.6606216868824215 -0.7452385209406722 0.8063334884075367
3680 -0.23523464083784512 0.5989295985124546 0.010440680188010493
3685 -0.7099124304558142 -0.5726645790406601 -0.3176617361421649
1789 0.263141159692569 0.29377988720167464 1.4928258457121375
1799 -3.9223808882279463 -2.6926863914589423 -2.0793745956910774
3747 3.7010498095447906 -9.859417580342662 2.4392709939409967
1875 -1.4249538484009188 1.772588894490675 0.8804824468938535
1725 -0.5747790767630071 -0.07225863995324738 -0.49230899942857126
1716 -0.13751756319854913 -0.20105965984272245 0.27508837102206135
1698 -4.395671418948544 6.500350478839783 4.107251970748125
1793 -0.29109641585516105 -1.2226848135430062 -2.4626994855051128
1794 -1.9267170192824066 -0.27928738086620564 -2.276794348849048
1882 -1.5902548426891039 0.13460272549659022 -1.6183339301079414
1888 2.1276954440487774 -1.0520203427760424 1.9104001703781441
3627 0.4898942166844944 2.7979782844526615 0.7105136175717306
3689 0.7443503925490329 0.250035591849823 -0.9095359074594114
3758 0.09961161841331077 0.025458760618257845 -0.10467441832910217
1690 -3.910197944963788 1.934327729106869 -2.7545472075791877
4316 -2.6514183524931996 2.350418931379404 2.999575254788013
4468 -2.2178451858995207 -2.019806118023002 -2.8147630731246482
1796 -0.29654079841492476 -0.1879224791692438 -0.6852903348483106
1790 0.8903917510396597 -0.5728454748650783 -3.0890039078213536
1778 6.147965550701372 -2.3582008836376604 0.34942615508056063
1783 -1.742360367147694 1.1992260261907446 -0.09773515769767922
1874 2.0922634564833364 1.7353151830203333 0.13524174621427837
3695 1.4517941016450506 -0.7916513121636448 -1.8309290872529638
1030 -1.6153158766254339 0.9884698114446803 -1.3526866578915044
1966 -0.6350072126669689 1.50150247102688 -1.2583143199581017
1968 0.7262350457185165 0.3207024951336785 -0.24102449045724753
3634 -1.2026387124559674 0.17012897246348102 1.6720249201928854
3703 -0.08690950878513415 0.5857341618598263 0.34181119331348797
1776 1.0396660024888345 0.6088351514615131 -0.09731176277896232
1883 0.5565850471373599 0.6992976908489336 -1.6235986782905178
1048 0.8361199387636449 -0.5747088105292758 0.6500117129138663
1129 -0.10469118786599708 0.1716428977828952 0.28620631404009655
1130 0.21350236017585472 -0.16539564016401564 -0.22118670992111525
3575 -0.5061508057622881 0.03544596716505537 0.31876767598134403
3643 -0.068199606577536 -0.239046351253501 0.2095984466403684
3647 3.909693584721181 -1.986765148369504 3.0381490279795886
3708 1.2341332035552417 -6.836682626661991 -2.127868404225365
1128 -0.6667701438262607 0.38495003087667223 -0.9442008156289751
1207 0.11978945319642119 -0.3616916601334973 0.24442985130423445
3713 0.028535516690356328 0.452473209341901 0.03210625844659995
1202 -0.2463224776537351 -1.2016922184715275 0.058131728965283826
1208 -0.5091013798555581 -0.8541195564668114 0.2720175674419908
1213 -0.07716512938877079 -0.2640020756391035 0.3778398589961617
1214 0.44002401517088807 0.5618617155822417 -0.2716722610660584
1301 -1.1125619582595292 -0.1975151347076048 -0.30342971236920224
1305 2.39474180032256 0.32522898381177096 -0.7285506736647496
1307 -0.06268001961620707 -0.7575931565245365 0.0814370549874455
3580 0.255821128313364 0.613636404719339 1.7750688876842966
1392 0.5683906771685917 -0.4650237572205464 0.7672598257982506
1131 1.1399455940679728 0.496562138338304 0.6744976620154741
3723 -0.10438614399471077 0.17582539284736678 -0.16975606908175372
1296 0.3105185225734861 -0.555652692995973 -0.1953901087875669
1371 1.0686737261264068 0.37414418302089447 0.1612584918339043
1380 0.7877626141152579 0.014520421662544221 -0.4570787605344165
1381 -0.49392708399784535 -0.003529893307262563 0.5706229880683005
1391 -1.605856786666804 -0.1273245501019643 0.4567596347153781
1393 -1.2449957371176301 -4.583210275344412 -0.5825836398152403
3586 -0.13128223677393056 -0.31020560328434094 -0.17425716047069578
3651 -0.06527106384055636 -0.09514871619938099 -0.08366182784727608
3665 -0.037446291178562935 0.05863385616257034 0.31373297057406047
1474 0.3458178603128815 0.5502164573887945 0.09900493250178795
3722 0.5059845117329971 -0.2694283874021193 1.5798726212905227
3727 0.2808307517398879 -0.2732547148342499 0.2693530869541874
1396 0.19249925354692443 -1.3551956868844441 -0.663340885037464
1384 0.9108444416012911 -0.910946917448827 0.3662024767071858
1463 1.4835230196068578 -1.0636748534975125 -0.27887942977485014
1547 -0.23511930266005585 0.12666569057649474 0.6499219952911304
1565 0.3821035911030335 0.3836206706650089 1.9351567633906765
1647 0.1610245083967894 0.08950930355283156 0.11840928533441292
3605 -0.0875498613293853 -0.08804949721871426 -0.07272454926225257
3663 -0.017182992092301296 -0.4313409702954099 -0.27478826369075743
3664 -0.0442574763522211 -0.25622245271906713 -0.3858176885444552
3670 -0.019226636922545 0.38924265892112686 0.0910473491118896
1557 1.0905056157416908 0.026195549330788537 0.5361629720818581
1468 2.281397559580606 -1.538189826336331 1.1274311586110548
1568 0.7810665955620973 -1.0421677014201969 0.9826317888091546
1556 0.4658450970909666 -1.165848050154562 -0.2183638301772407
1735 -0.27902250281938695 -0.2865084829785564 -0.39767714507466023
3608 -0.14852885900593257 0.13348061017595658 -0.17242549138202637
3615 0.12869006808403893 -0.37426872085694285 0.1978184096363521
3678 0.07245578317253204 -0.21014028104852367 -0.12813499788080449
1642 0.06989858572643735 -0.22451993141082524 -0.5463497167251875
3743 -0.11922054095944332 -0.06853309992310948 -0.21406153019667162
1559 2.3122664740233114 -0.32492982798539743 -0.21985063409100203
1550 0.4689447929588499 0.07828963124113429 0.08901113054069658
3681 -0.21257398256949325 -0.01727945472383115 -0.09506902347375873
1730 0.5073270559033622 0.7655088369659698 -0.5849904577167108
1800 0.525041042868417 0.8438232388210921 -0.977573766926978
1807 -0.23053930790808352 -0.5835882652336297 0.7955190856844635
1808 -1.0526050198068617 0.8587870439065719 -0.2622605528220325
1813 -0.1742069292533606 0.027019338120281698 0.09319597687032778
1815 -0.059653124642729496 0.7125256601955215 -1.0354178255805322
1895 -0.06593294766318357 -0.5328886914883036 0.09464685313142322
3682 -0.1046047828784647 -0.026199650911738002 -0.12350924279123456
3686 -0.20640524332608332 0.623959505496017 0.24082359068515294
1818 -0.030368190001612762 -0.5893389195397069 0.5256200109648984
3760 0.09426091412772017 -0.507081083981945 -0.6118274276479798
1732 -0.3175323225224532 -0.1770106634498138 0.048131227106672635
3753 0.07296305269754724 -0.02762864958962561 -0.015432952373559542
3690 2.943151832297764 0.4825329969747201 -2.523120335266461
1889 0.36244413997949426 -0.36690697049829546 0.0639635407066019
1894 0.28436250401640184 -0.003438528134572137 0.15607908719756336
1896 -0.7342624364611436 -0.1814312256985331 -0.6358063273737371
1967 -0.09752026033145982 -1.0936726027572907 -0.33677407958881583
1974 -0.0030453220253734226 -0.06563012466647376 0.08576275997846748
1975 -0.03714144262200719 0.41251546868313166 0.5747062001124678
1983 -0.1073022033382181 -0.40918727648266534 -0.24064182166905385
1984 -0.003497451164697347 0.42395045261624753 0.17921530622328524
3759 0.07494754138504325 0.29614760118548344 0.21769258732454308
3635 -0.21057618250839066 0.15857452867937194 0.05444257708083454
3752 0.08087404367625411 0.031681370334670264 0.23023118318290095
1977 -0.9187644541533858 0.5156358885296133 0.3229068891202024
1987 3.626210402040395 3.0813801111055805 0.2654086512579807
1973 0.3163940842262537 -0.10726250622270221 0.23028850850974375
1970 -0.5285812395476074 -0.10541976643827436 0.45440139429053167
1055 -0.5048779512371133 -0.30556847530081227 0.23681550509236984
1056 -0.33023701200404 -0.5124943712766767 -0.5149133523203048
1065 0.27504939123843813 -0.40488754141341826 -0.22109079175870872
1066 -0.2146312434288809 -0.2202927521432918 -0.19192151523530915
1147 -0.9858530529901294 -0.4086471763061173 0.49851044939855166
3636 -0.08366297940115508 0.02256875771787912 0.009892437458115686
3644 -0.13987859459138943 0.07641295127303697 0.06812864716499256
1992 -0.7465731430130147 0.5996945112910029 -0.7802480525924803
3716 0.046476062355305964 -0.21999988790456287 0.03909759619751616
3709 -0.18284425977093455 0.18500932712445517 0.05166753769468062
1142 -0.02231863389533203 0.13869734044900273 -0.06853443617104696
1145 -0.23794529273040768 0.5411323342506132 -0.5336503648690929
1223 -0.17548765377911654 0.028765242774434936 -0.4709361478725025
1224 -0.2820058541335793 -0.2544386956312233 0.5318844553138338
1231 0.2656081422920713 0.20259109219543203 0.36872381088586514
1233 -0.24985339779539112 0.4149259176279318 0.23404002921092895
1319 0.842138955855555 0.996810380061975 0.46235794015134013
3715 0.029683672895703516 0.23498934622640094 0.18927240229981376
1222 -0.1345451400405577 0.4241176364299188 0.23710455905249958
3587 0.9453941355355516 0.7113196390696237 0.5558943901298247
1327 0.09218305540233866 -0.4976956769091158 -1.38215500531828
1227 0.5336271103202067 0.31093263502910906 -0.12430384996536088
1236 0.5539435347967415 1.129540343058778 0.25386115981450935
1306 0.1165266689647795 -0.6401378780182918 -0.17205995163115045
1317 0.5857385496732451 -0.7125110704537073 0.60083115973798
3593 -0.9865785473881715 -1.3053278141645266 1.3602277646480703
3652 -4.919330054860198 -2.3404302368058634 1.706337625531758
3653 -0.4886835390347286 -0.01574806046490345 -0.3655006811739089
1585 3.487049326076166 -5.006972832528215 -2.401704191363932
3798 -2.924628692437251 2.050629644398767 0.7713610805244239
1311 -1.7480558665767723 0.1827224177670191 -0.6553059236716359
2524 0.3617924762339239 -2.26905195439004 1.3093654206350949
1321 -0.9726617812688861 -4.0100578020867275 -0.07361637282333916
1217 -0.017910913749370663 -0.2576420081606717 -0.1701740457245212
3658 0.6575264197668321 0.7637777508714911 0.06640364503261066
1403 0.3110850084380506 2.410275009594776 -0.5788151114388306
1481 -2.233928966278559 2.0300593572610324 -0.41498651088717925
1482 0.6522204832658163 0.5612270011982496 0.004327103020630793
1488 -0.8536650584594508 1.0203316929769353 -0.9448558087314731
1572 -2.646202645424889 2.867998480490515 -2.1834178349447924
1578 -2.9103667951330254 1.057264420777189 -0.5322467067370265
3666 -0.41148785558108125 0.10343956619483029 0.3729308873002831
1594 2.952800311493562 -2.7631850780616833 1.0010505842177448
3813 2.5188031607504833 -1.277871039173881 1.770599493148546
2589 5.769777562981037 -1.5857620117945774 6.15030807878479
3736 0.21230858162475708 0.020019422166271054 -0.19007041805441696
1678 -0.44525469779303517 2.310659929408421 -2.046036521668854
1406 -1.42131812752792 0.30601835909649233 0.45161842534407426
4579 1.526476847429978 -2.1728780554150324 -4.7023564463125656
1577 -0.5291690641997856 -0.7545748295146125 1.1098409071398976
1654 -1.2490577642007983 -0.10993205662147239 0.31618147237474903
1662 -2.6965574343692666 -2.4327745367185005 -2.2665330347214145
1663 1.4140952231164243 0.7236029854846008 0.5491723460109359
1664 -0.7164060359794513 -0.4836023700008937 0.3859846576716364
3671 0.06612328522680384 -0.046183047266172124 -0.06451807783803279
1745 -0.43630043899548954 -0.790383638040678 0.3872046802908033
3672 0.8150781750368069 -3.508875464624147 0.9573312223649378
1673 2.1485500205070784 1.4323768008601734 1.7082135141110653
1657 -1.3455236529929515 -0.40489202172933386 -1.5865568807603598
1653 -1.1957754361984012 -0.2690433335995992 3.397176812705897
1742 0.05488488141752885 -0.08279610125231376 -0.02362760118262621
1743 -0.10709214599309645 0.5628604279962278 -0.23698340061070522
1814 0.41010366482877936 0.4422605104062534 -0.253011828288596
1825 -0.1343086149358423 -0.12200618728856442 2.230841152266546
1826 -2.049462080904854 -1.2339722201766659 -1.1212516477242405
3616 -0.28835119823685973 0.15188225660539686 -0.717258966038324
3683 0.17872332298157187 -0.1093522570232463 0.12990736329947497
3684 0.6599372397938041 -0.5387901690450436 -0.826573599332153
3687 0.019037462616506125 0.16757373462871378 -0.18073523194679655
3748 -0.20904455137990863 0.11643878638666519 -0.05981628751902291
1649 1.114359239079601 1.1639485263840124 0.655787826830559
1737 -0.08884530445125029 -0.017180584631497665 0.15383788641162707
1899 1.6293947490803034 -0.33906530232528564 0.3904051140507201
3691 -0.02350373226366727 -0.06741535299986483 -0.020129330112735787
1824 0.32353559796246445 -0.00437628206518723 0.10525845313673075
1904 -0.38423294165601807 1.4232758701294927 -0.38026481606223256
3692 -0.3974980903295793 0.11073876815988354 0.004504856085815614
1911 -1.6447221978520707 0.2502674687148894 -0.03679977628046878
1828 -0.09612642353425349 -0.5207470510245406 0.43584924250573737
1906 -1.974677348015893 1.5381916642931754 -1.6279230511024294
3696 -0.6256208667977456 1.1341543502379505 -1.0578510145045672
1047 0.09174100363407481 -0.06748516953741768 -0.5311031250022191
3697 -0.02790799856465278 0.21365175575126494 0.3911736781512353
1073 -0.8083433194234615 -0.9253100538602325 0.6731086786763906
1079 -0.8278891897789621 -1.1043553927140208 -0.07918402175800629
1081 -1.4506629029473115 0.7561551397726715 0.9196738707342823
3637 0.032049321912936427 0.04772342931932784 -0.05579980108093199
3638 0.11582546766232969 0.06957411275804706 0.012851021205749033
1080 -0.34366704568642076 -0.8568199474424045 -0.46940021918872
3698 0.1658122538763727 -0.23185418772162672 -0.13209948861545304
1146 -0.1559744236052453 -0.21506893543337394 -0.2215377697182314
1072 -0.021621679083059776 0.06294362592776756 0.18228329763475834
1151 -0.6501729233016427 0.046437186247451065 -0.41999146309493635
1152 -0.03876204618211851 0.06080746907931781 -0.09987516041127487
1153 -0.32147342824263514 -0.42322568407701794 -0.1071307113290113
1159 0.3532097456975099 0.6759543840323456 -0.9768087353121919
1160 0.061849931636421586 -0.001840719783833658 -0.08893366261134679
1247 -1.9380717074291856 -0.9601799254290333 -0.4925582740725088
3577 0.1675089374608775 -0.1305280256962903 0.23973751338364946
3717 0.37172443635952285 0.04089961644222251 -0.5483966599877604
3581 -6.175095932153786 -1.0213049111578534 4.75154320034341
3720 0.13235882102100083 -0.13926086164653834 -0.03175267461250568
1162 0.13452079153926627 -0.5568103289941844 0.9618245966823193
1075 0.2919363352030765 -0.7074925496833795 -0.3565996827506159
1318 0.1413214781461831 0.4144038927737036 0.34010166547579296
1232 -0.39520515349999785 1.1867789158344795 -0.12344321130386234
1240 -0.10840402908755056 0.13175050104082228 -0.36892574124058575
1241 0.01897867116817985 -0.15030504722507304 -0.8379022858535919
3649 -0.08448692684332146 0.07479024428274994 -0.05508894152437164
3655 -1.0277552578563658 -0.5183835835469114 -0.1318692928707687
3654 -0.9261174889314223 -1.089023794130281 -0.5934379461900268
3667 -4.546563471423064 -0.8080734817151956 3.8218587539346847
2597 -1.6938434629344876 -4.811633740211328 16.278490782958027
3595 2.654877812035757 1.9254815140233978 -0.35038851767947266
1505 -0.543132543869525 -0.15809580706955942 1.1868356841555796
2595 3.5593849420833723 -1.7041687790903775 -5.595335080948656
4514 -8.627022141017365 -3.386756179800525 0.41137348927962103
4020 -4.178146314777449 -5.530039618385018 -4.778331811216699
4479 2.9465514125476413 -10.349338306511932 4.410069731803506
4540 -1.1623381288207293 -2.7355349259538078 1.9818444749415718
2652 -4.2488417949061414 -4.488952486882966 -4.93136364279535
2577 2.6261959420245535 8.92894772130451 -1.2164131103588993
2441 -2.541643715075068 14.643863283274845 -5.632050431224141
4719 9.922110714025068 -9.119312691576223 -3.270589885328535
4503 8.547509597786364 9.391036225975576 3.8408389657541786
4556 10.291845987738359 -1.7374282025242032 -1.0448941690128317
1422 2.2702954674766853 0.5386493880654665 0.9328208182626547
4329 0.8820941097342937 -0.9403633173485396 -7.867698717112152
4573 -9.133794299477527 -7.6487839564411395 8.625069015218937
4748 8.525242525278735 3.1804351830453337 15.512414036473226
4727 -10.657006788419432 -4.128398001594771 -9.54593763264661
1502 -3.4557436812953823 1.7518307283512111 4.635318032343947
3611 -0.7810041169479557 0.688865606234382 -4.406227486708877
4392 5.069666698431826 5.338688265800581 -17.495886564725392
4559 -9.135429531853367 9.02667464329109 6.618015802826787
2686 14.388558053635897 -24.569220233680777 0.23177842701835621
4734 4.728964099821251 1.2672962706816089 8.53849536225145
4149 0.2509970233922726 0.086216607638609 1.8158098479952387
1753 1.010733058085266 -0.2740741713468341 -2.8089554363833398
2670 3.526907706707575 -3.010056769520733 -0.24309192267004476
3992 -1.1360882806082844 -0.8767346992861749 1.700609560251063
4603 -12.994609072160412 -4.427503032665878 4.76237375662189
4355 -3.513219216466471 11.38643198298822 -7.788807203653252
1759 -4.95259723510692 1.0241898261743472 3.2449776506493153
4409 -0.7558927534856609 0.16507084394327154 -0.8433904405679666
1848 6.20198943885386 -2.513798844134689 1.3667284226139869
1751 1.317019816489035 -1.0053402885605476 -0.2040888735333933
1837 -2.6087591684453746 -3.982546456623124 -1.0409957878376506
1838 -0.7296974757608008 0.2338666761440257 -0.368179147483073
1846 1.349978830180552 -1.2372628855838885 -1.3586938580223464
1925 1.591241656103165 0.5530143528811002 -0.3854517526308926
1777 -9.533355495730122 -1.3100361034739154 2.633557332224589
3750 -1.271159829510139 1.8908797656765808 -3.6352595607405633
1836 -0.17615591276886566 -0.4497840197210895 1.2007647990901933
1924 1.4701353822071739 -0.08499990036570133 1.5385009914379657
2013 -0.8494940497528405 0.17022079689767347 -0.40926873771376193
3632 0.5278637500822542 -0.5936304093569312 0.19239433373932008
3699 0.19109163621720282 -0.04748283206817992 0.009789543548494876
1920 0.7066522175432404 -0.5116557567781088 -0.7111338365001254
1927 -9.040867601845326 -1.8507344704746675 -2.3701305168553564
3704 0.2653844433933508 0.35863670368842093 -0.06989733100300102
1086 3.8459001164851494 -2.8378268973487395 0.9268378427374645
1166 -0.2338630232148895 -0.17692052329993294 -0.1045818819168468
1170 1.4521460818009821 0.6142874691164267 -1.9863635361833047
1171 0.34998976414092303 0.6065435007560411 -0.14665325172318824
3578 0.17565038358978574 -0.23704225260728776 -0.0850056623638467
3710 0.1542317769125383 0.16188259853183135 0.06696370698093608
3711 -0.032745496555781524 0.05713398147500774 0.07834764211223662
2020 0.9315101633336467 0.5815770358873394 0.03368691530914768
3768 0.18147441243142187 0.12037013162565417 0.6644687582784192
3582 -0.0906345860703388 -0.330096087275622 -0.01960006042725377
1255 -0.2674817532061519 0.007049821266519103 0.2209928939388934
1256 -0.1599817265948589 -0.07918645287053687 -0.005793665014856099
1264 0.3433138141437079 0.780729983534093 -0.34222690877682094
1266 0.15186495748557802 -0.053394966574082874 -0.41803395285393286
1339 -1.7106887015081296 0.5671751732470817 2.4214342418584054
1347 -0.4727694744764877 0.7287301042311873 0.4637895108412202
3718 -0.2389605793932527 -3.861446697194639 -5.457079908626713
1345 0.5850937156155687 0.3047525065917414 0.5483970497495202
3724 0.08149896160633986 -0.009365695426035851 -0.34307177066997535
1258 -4.556146913848411 -0.05294267869326392 -0.9546245609340884
1249 0.4117972650899661 2.504176248938354 -0.7200169573732067
3650 -0.38788842427163217 -0.7038240995472161 -0.3917448465881261
3590 0.07328978946463367 0.36963170339631785 -0.44330919728647566
3656 0.7249525930287953 -0.9999943940994243 -0.6911299900786173
3660 -2.5194332854345713 0.2383679997375166 1.2159396946890368
1507 -0.284483772955596 2.4053183036516357 1.9784017907258775
1429 -4.365268815060843 2.3837577232585714 1.7542888949173845
1508 2.456610690933548 -3.203575099333468 2.3950720005644146
1431 3.001253287521718 0.8419459077501901 0.6515076269319076
1334 -0.6394765874358622 -0.2886180666636079 0.9428164484794412
1341 0.7359197398144119 -0.8026449255888889 -0.19766990492633632
1514 0.9154189087644623 3.5509799258513333 -0.5101167672198929
4375 -0.5690066782036484 1.0076622346046182 1.0925334324145042
2605 7.252215489640812 9.571780535751982 -9.740379430809869
2521 33.90727292110243 -9.041260468108122 -51.84778064765307
4446 -1.1900065309912158 2.5822353221401713 -2.1618055998035843
2510 1.9914379378652334 -3.349457990905344 3.507695194030412
4330 4.053526549130364 -1.1967941327605804 2.044299393121175
4475 -7.744642014958194 6.296218095838251 -2.2279281375271864
2579 5.852232469780849 -22.982901242146962 2.216960317886417
4411 -0.5425588920812212 0.45133435773183367 -0.8204134667018398
4646 -2.1279925606974173 -0.8551439911191068 -0.5496602386627011
4715 5.882564491872937 -2.7737653736749732 0.6914487603550841
4739 -8.670536585643964 -30.681794591994127 -1.9708177558017939
4506 -14.774551084363258 9.70026761349921 -3.7615049375175618
4558 -5.42477780378276 -8.553147644776034 2.997807948164874
4737 6.981235240384368 1.5805523596321538 -2.3538709199494803
4720 -4.9760422067058165 -15.896356005314962 -0.7080211511342754
4622 -1.2317639862211507 2.049002174078195 10.684444771130977
4660 -9.592533186179795 3.085488667450376 7.934080826839591
4750 4.9597780110160254 8.343074297766844 14.189489758257622
4353 -0.2340572176662164 2.6766847126076216 1.825404434251232
1937 -2.4315998557946625 -1.0718167560264458 -0.6385277056313001
3626 -0.536889123218738 -0.182931950609801 2.234375429401734
1930 -0.004081473670471949 -1.0842410353656118 0.5645779331504096
1935 -1.2764962848969619 -1.05784420027469 1.22979168142632
2021 1.2249822812980544 0.9756451710907657 -1.0322574050602247
2030 0.8134398400476969 -1.4300147853504395 0.9230883258307487
3755 -1.9168138327582578 -1.0461104790797522 -2.2384594664896875
1858 -2.7602507513947856 -19.20873754977635 20.811901670517084
3701 -0.7670346183743019 0.09231570603293632 -0.7393589084978153
4539 0.0659095646165679 1.9092420133394632 -0.6150762994743681
3823 0.8102836261745381 -0.6309347778150287 1.1644033690437126
2671 0.02457150036588586 -6.057898919336115 2.0732971686537227
4587 -2.8546148669080464 5.120315558980616 -0.23887848622967903
1765 0.5724200157136997 -0.1854292783803756 -4.5520217646959535
1931 0.5764381678414777 -1.0311307860523988 0.3389262916035152
2014 0.22601440214759064 1.6563299117246724 -0.06319348678733358
3700 2.1621107410590343 1.2291429605036344 0.1373846524999418
2015 -0.768052011626285 1.3586530573730262 -0.11315272576985054
1187 -0.7572423013771937 0.11421900829561459 -0.4906572738796122
1106 -1.2912596683166724 -0.8523539561059498 0.2539284053252945
1107 -1.1203358433725898 -0.5895257484305075 0.09816373000804708
1188 3.186014562121445 -0.5838210267267522 2.4836648264039938
3641 -2.202184238933801 -1.2493212553275725 0.6000853251396493
3705 -0.17200801052542847 0.2589803847107971 -0.3885492279160543
2037 -0.8136294261997536 -0.7329987810071865 0.05662440855166588
3702 -0.07107199828984949 -0.09496043826515806 -0.3569629444829465
1177 -0.7023033442921026 -0.09007773127957956 0.2963976081824212
1186 -0.3369288021131193 0.5253744390681044 -0.2796087471775914
1265 -0.17094751515729148 -0.19524106859819154 -0.3917653859264414
1275 1.0598244984202005 -0.3411736257269378 0.9933558080971158
1276 0.06319716039270629 0.09857053709348829 0.07222652441553619
1281 0.5941299407142524 0.5506194924328652 -0.3824003115143944
3584 0.029277456425651275 0.0009012389852564502 0.022200441294223945
3712 -0.040297721034567406 -0.10551581354581308 -0.06784343490770066
3721 0.004881643793694107 -0.2076751889096874 0.043388804746568484
1180 -1.2271879508580543 -0.5228357584696867 0.34390953128129514
1190 -0.15604938563488818 -0.4354827729676537 -0.45066119186895115
3526 -0.09473421534661224 0.037869579983080576 0.020592573148882607
1346 0.30233858846053546 -0.7971719267901674 0.8695657644593723
1274 0.35985674299139137 0.8872501971961457 -0.588334343388385
1351 -0.9427655761256569 0.3688555473931692 -0.5238485781191489
1352 -1.5006166844275477 1.0611691948568178 -1.50821865194682
1358 -0.25332787275604096 0.23442871560090026 -0.4752302874069564
1359 -0.10190895216959105 0.41206454812237114 -0.5146446974080428
1440 1.9833104492134674 -0.12338320050142622 0.6207109324033884
1447 -0.22033865307364187 0.0005539196441941463 0.5478804122591889
3591 0.04231224603357344 0.012088630086353457 0.12246225522673819
3725 -1.3458805187115959 -0.04314611052648483 0.38269624422612153
3729 -3.1132790349408617 2.122980416118395 -1.5845874548203072
1441 1.3127890080754783 0.6529850556971586 -2.907535159598559
1436 -1.020272008036385 1.9171021435208317 -0.41719821449294486
1446 -0.7149721318067185 -1.2726226966498175 -0.6029189149347056
1532 -0.7362284169353439 0.4927738705151847 0.2924923770759818
3661 -1.9853166686836725 -0.6366203227777373 0.8599096078326991
3668 0.8402850132380072 -0.13554480500616614 -0.3236053269008749
3669 -1.9127484134538073 -0.5961005320429009 -4.033644846589999
1606 0.7254128022746072 -0.14121621525980146 0.3946449416393733
3728 -4.713551302904077 0.8611651995987261 7.56813515234656
1517 -3.4061057306509226 5.734600816899511 -1.4803856647115587
1450 -0.4021561617958292 0.345638219235326 0.26056145504311345
3738 -4.493867622423482 2.3797337284526225 -2.4254455960892454
1607 1.8353318121224027 -3.084926587590596 -0.03979501782962749
4638 0.360164411308964 2.077513881075475 -5.759212572591499
4711 -3.9136707085354456 -17.70935751073748 -10.40663944421122
1612 6.058480240679931 0.15295624237862146 -0.5435723515459494
1615 -14.135305723288523 1.9726382273196257 -0.8015139639836815
4550 -0.2543222022198144 -1.2962371311708638 1.1024033851039858
1611 -1.6908836801278704 -2.063955367211389 3.0004858682705535
1706 1.0572788158015984 2.726284277679691 0.3362056436067651
1708 1.9806925529845791 -2.281033663567091 4.002151267781088
3674 3.062804720025502 -1.7551719242813415 0.400555502551839
1614 0.25402004443458304 -4.3010613510105795 0.5526650256703619
4451 5.369475593505141 -5.657910051479267 -3.1612829484441787
1506 -15.361371823367383 -3.926222053378685 14.268262265707584
4138 4.863277647037242 1.5261821473804544 -8.271672044601805
4695 5.187514590852527 -5.486325396664798 5.591128928319482
4632 -8.208908649136923 -0.03749740321075362 15.762509006430161
4533 -3.2796032270993063 5.105838429061993 -4.489840572883239
4508 12.540349981194277 -0.6852541979514922 -4.322512870829296
4730 38.00878106238421 -39.38353685897876 0.3272911601260345
4651 -3.6257304765508214 2.9330897563941027 2.0288616678017464
1791 -7.271823027030472 10.233708032121532 0.7343262356163969
4700 -8.308318098354453 13.252691663173383 -2.5681076641941765
4602 -13.034303751886887 1.5388253897660105 -5.889946775185963
4704 8.073996361682584 10.96668746905759 10.391161273799572
4420 -12.965698787711641 11.807045138845542 -7.923118809055157
4696 -6.254403552519465 -5.854393511012995 -2.4274375083794766
4703 -3.9382525982830368 -4.652366961622353 -2.452198393480518
1775 -11.595376965009404 8.351028624311207 -8.710383383181846
2679 3.783743208539601 1.016143348676211 7.555404479002079
1866 1.3161542201816538 1.2365110821045293 -2.0470850539798984
4543 0.09035730695576427 1.9733928481560032 6.235237046060953
1955 -7.979892570458127 -1.4509740783809755 0.22475524480431197
4387 6.08479290101375 7.298459778570665 -2.884454472046861
2532 7.89402483459808 0.30036979161464283 -7.172412461603356
4643 0.27565075935806216 0.3511733577147612 5.333787187424721
3694 -2.486691640357399 -0.6369307454405002 -0.1233561560240247
1945 -4.014655322856829 1.9205545952769754 3.0977149164259923
3623 -2.199813842367636 -0.4267897843658891 0.062708619011867
2029 2.157955443898367 -1.4784658027152533 -2.4165453808580533
1943 -0.7682421934934229 1.356480090154559 -0.03554530893849706
2036 -0.6668971563212869 -0.4364650255305273 -1.8273532244670636
4369 1.5649341353861892 -0.760837092372752 -0.03802386826138014
3762 -3.609577120139793 -1.4328080049708858 -0.3215468167725118
4489 1.2012981697739868 3.0021766645978425 -0.49757925337200065
1040 -0.497567954852911 -0.18301900750406114 -0.3186135596122839
3766 -0.07826050693078479 -0.19540287069663836 0.04377136931104315
3835 0.18210344647426324 -0.23573469957539178 -0.18730618712988356
1960 -1.4861379503644863 -1.1990919234656126 1.225689224960483
3894 0.16544666530761767 -0.9718074137557592 0.2524158418793525
3900 0.20906053801284263 -0.41227251196968606 -0.039511542716267924
1108 0.11043106504750286 -0.6763300375502544 0.35252416451152646
1116 -0.060030971090161006 -0.08542578682113058 -0.17115466186464393
1204 1.8201831363009495 -0.12052547856855673 -0.21485096880466595
1205 0.40511788037512975 -0.050492340232853254 -0.13397488488207954
1209 1.5148581124270912 -1.5806698597227744 -0.6963107177510762
3770 0.3913716362570852 -0.20884823357659893 0.04874435078543404
3843 0.1308276073410946 -0.7883423539295841 -0.10285129740493724
1203 -0.16390704352933413 0.24283883376305992 0.5347615327159218
3782 0.011636344969736647 -0.04436505320285033 -0.10875731513705408
1302 0.39954856222690593 -0.38120291748773616 0.7450180412393171
2198 0.16190726628993835 1.2054984692539803 0.2386663285791329
3905 0.24769030390108604 -0.03083206073671431 -0.16791182660107534
3901 -0.08101224974998784 0.08971854365437454 -0.09388427780564595
1297 0.12307004000650656 -0.35472180640354944 0.3254594092654518
1298 0.17319579284591594 0.31525407343449274 -0.12687722478966199
1376 -0.443135796275072 -0.09707794529131106 -1.1223578274827426
1383 -0.04876799435652877 -0.45621744662769753 0.5590504134156676
3859 0.09304480488302223 0.14195524477177576 0.0022436638161435494
3848 -0.08134064729975841 -0.030825853070791238 -0.1495684686341773
3791 -0.0034000897432255174 -0.2177025679679974 0.07518700207901266
1374 0.6845822562892162 0.14380538750898525 -0.6231012142254359
1368 -0.16202541534066134 0.059022791230668656 -0.16124334816025188
1369 0.3348833526851682 -0.2154726430966749 -0.7718039022906934
3800 -0.2607292829720563 0.2715507953510286 -0.3333713233580755
1552 0.05012119891584531 0.1423968027209268 0.5286722653882129
1367 -0.34724487510503055 -0.7046906360505456 -0.040425352469076574
3872 0.017522355224796272 0.16623150779621113 0.01621754903962872
3853 0.020168359824449016 -0.04111014599511379 0.05555267967730796
1459 0.23999841608045652 -0.21020246956033772 -0.28089522397821093
2343 -0.002897121412192219 -0.0693735722784893 0.01045366445992532
3858 0.04222970713646975 -0.008405586800374384 -0.008742064404564853
2335 0.7229375448638253 -0.9016263943787621 -1.1528546829741986
1541 -0.22133758933660566 1.4915188068884653 -1.4719292582791588
1542 -0.21671512003547058 -0.3103354774166366 -0.6304338315154112
1551 -0.4699054230861857 0.05035863087038902 0.5902996481223229
1635 0.39393717509738596 0.8838320452257032 -0.8455087093479582
1636 0.38205350205585176 0.062756346406196 -0.10761203441509545
3739 0.22281026511689864 -0.09914269273601016 -0.19414704894969126
1629 -0.010033647324154578 -0.9912857518646341 -0.3749400199454811
3741 0.35333943976042265 -1.2436806786406374 -0.20680313193943697
3809 0.41589323879163786 0.49388287627541977 0.3042514604848575
3871 -0.02218645663283585 -0.20429295404312947 0.19077344725443332
3865 0.2533399845210522 -0.06701790914825355 0.13747405792339118
1633 0.08457922172258685 0.205153975319256 -0.9190092435387741
1628 -1.085226054193891 0.17221986479880866 -0.35182166445085983
3808 2.061187371494781 -4.643310551372568 -0.977540990314679
1622 -0.6307586678641768 3.8813729208104406 2.413532947145681
3937 0.4211402063726428 0.6944297680774024 -0.5455360181713738
3932 0.0038503694696221443 -0.02358004412996019 0.08126379400408854
2548 -0.34198803423768953 1.3912152417749928 1.471930740210214
1718 0.8581604902410854 0.5726689759541395 -2.4428846430114293
1726 -1.2447141149379404 0.09107611968437045 0.9610663241611527
1727 -0.47940740473447085 0.18839515836782306 0.4690219895904328
1804 2.7898121396565267 -1.1341727679884974 -3.47453168919662
3742 0.3539433114596078 -1.0744848559119748 0.8066162072681986
3818 -0.6991374876353956 2.1780692427957558 1.1238182510646337
1724 0.5270517556574144 1.1081618900006092 1.3625528552819004
3817 -1.200903133488287 1.2467389902130819 -3.186695118327719
1701 4.023115576041754 1.4814586578234927 -1.7695500275479756
4444 -0.7595008958749951 4.904306328895193 -0.1555910604199389
3878 -0.1993326054642341 0.8034477454518415 -0.8787609740319723
4427 -1.580206794884782 1.3716084523090488 -0.37689707734054717
2540 1.247507682678639 1.4368675319516206 -1.5331400947709113
1717 -1.6283149010196418 2.4686009996669527 0.3131784744377379
1802 -1.8780305760522582 -0.13804525371186332 0.20884137570524067
1797 1.0462034970956975 -0.07915523174409717 0.351079243719096
1803 0.6442925465828773 -0.5511668718775464 -0.06404495098650802
3824 0.057984574248318724 0.5705885886809614 -1.0064885165446935
3830 -0.7365491510876877 -0.5056807966835607 0.5319420459597054
3831 -0.2605743739352027 1.075608414555062 -0.07319048764490456
3757 -2.07589408171705 -0.03498711206375046 -1.903477838333372
4589 1.7552604480553824 -0.1355004823340299 -0.5351036121401641
1795 -0.7381297483773563 2.7780158737946494 -1.0526821562730873
2764 -0.5969527002579683 0.8714748009053128 -0.3718886508422935
3884 -0.9097188686500915 -0.14515729103887123 -0.7853384768352067
1784 -0.6032538781078618 0.20205678739829455 -0.9937964326079225
1961 1.5033952695922468 -2.8444959380737704 3.3168609450840174
1962 2.0546253002631314 0.40432271981436707 -0.6423234941596453
1971 -2.186019860988488 -1.6281190887723884 -0.7929932827314902
1972 1.626204091005514 1.463564110885655 0.5112702097761848
3763 -0.8756717155375738 -0.7609586403618195 -0.15225145143827978
1969 2.2076136943864255 1.0332734491145583 0.7780309683504987
1959 -1.2351516284203141 -2.119658177863374 1.4506021027804636
3829 2.187120819395537 0.8238481070606547 3.3963877099928093
2759 -1.1125395386283785 -0.13981660855196124 0.4007824868166768
2834 -0.27920242271839507 0.04385162724869948 0.8149076710264581
1050 0.36302250051626594 0.19458260133465946 -0.01265937184055153
1044 1.8442324910041437 0.785450753304862 -0.7552901336451487
1045 0.19555725472509483 0.6155456856070727 0.6655013153502142
1133 0.6868925592537237 0.20535936455185955 -0.7385301296782554
1216 -0.3218688836995869 -0.37135103168094485 0.6722706385097095
3767 0.907768317869504 -0.13243190878478703 -0.18239445570051108
3771 0.1817035255819432 -0.131700642037966 -0.24614164171920622
3836 -0.13829502163267407 -0.13567729079013433 -0.2868927147645541
1137 0.48996296470103107 0.31279242774270777 0.22753367030434593
1043 -1.4880480330765542 0.5476852101108619 -0.054551321924976935
1132 2.319529232981102 1.79901510169516 0.16051153567613438
1226 0.03638374285844073 0.31705316109988596 0.3391085909170602
3902 0.16518185470861424 -0.3657186588832541 -0.2466675474783978
2140 -0.02495954176295073 -0.17310577047864437 0.49022566567248094
2061 -0.2840290801023579 -0.026606064726008464 0.5558282066744231
2058 1.293800548651775 -0.2184138343305599 -0.019748329263767735
3714 0.11053574233126574 -0.023736959522147327 -0.5530776406122067
1210 -0.0809598686476364 -0.39941906759339585 0.19135842959197938
1218 -0.6089797117180197 0.1388035059119272 0.4500395369346311
1219 -0.1725261198355793 0.5044004849813533 -0.028872547550310428
3777 -0.019656355295042605 0.03111703782038924 0.028681000872354676
3784 0.029688628599002148 0.04303141675277463 0.027905888485920276
3849 0.14587485238482256 0.0016100014473257897 -0.06749106400972357
1405 -1.5565782319994117 -0.47348726689758885 -0.72122034553812
2282 0.016980488922948313 -0.0761668090576394 0.1421121853121673
3844 0.08108689146357533 -0.012715981205281746 -0.009182436869177345
2206 0.04350454733977437 -0.01866686590815393 -0.3462317060051528
3845 -0.06325075899469655 -0.17055492396651672 -0.12939663451552635
1385 -0.028757443758770287 0.39402415029598853 -0.049785921797808975
1386 -0.09604685336463659 -0.24977255768533496 0.6532935308835014
1397 -0.39444317014221963 -0.4580879146369217 -0.12049444471901676
1398 -0.2150325168507568 0.43081351394734857 0.027810943655378586
1478 0.39970063306178294 0.0172718590736541 0.7552700904103636
3726 0.637032382946469 0.15883558022704605 0.6001354233501679
3783 0.052184507086570624 -0.019402614525416976 -0.1852377285782122
1395 -0.3248319824842658 0.16875329464981628 -0.21796650012122148
1476 -0.3816824996097554 0.1589777163792464 -0.1773390483737435
2279 0.16925824586986107 -0.25780183369464804 0.3282720045506836
1484 -0.9124295668844157 0.22370715843550712 0.008659270547446724
2350 -0.008829611657469864 0.07687104025633572 0.3393339193174524
3795 -0.1114866175858889 -0.08489854969330436 0.1977996229998867
3731 -0.04639313885999034 -1.677594208936868 0.5961888026003388
1469 -0.3313924898341027 1.2571267595838616 -1.172519954572824
1470 0.749268968323334 0.6981861623533289 0.7434082145601139
1477 2.3177863547790247 1.706540742892022 1.759510664847206
1561 2.0709949147444573 1.1969257850879824 -2.3977239154201637
1569 -0.4583697450918769 -1.28473387995231 0.036612309112148154
1570 -0.33608460570473603 0.44200198265904694 0.759552929172848
3734 -0.2872804137045167 -0.444108681977559 -0.13172557103099303
1650 1.1701813250766793 -0.7363127295887262 -0.4890839206415069
1567 0.5094096264668475 0.4111396500174781 -0.8632940213538484
1656 -1.9322707606444922 -0.18481449140311823 1.2087297143090032
3867 0.3989979699939749 0.19091902811707864 -0.5358197936915335
3866 0.004697440879711604 0.01784604119392314 0.03006007545607396
1573 0.3415849531121705 0.10768217773913516 0.007617875796760178
1648 0.5761374161528146 -0.0073227813797990225 -0.23390188679510776
1560 -1.09605096100516 -0.28040215905168375 0.14198574204987302
1643 -0.1547175210034804 -0.08497096325302882 0.664574298176329
1641 0.20264097084758337 -0.04565163039435954 -0.4740641035507347
3875 0.16927770764668226 0.0032387233293102126 -0.11843869989251672
3876 -0.0008153364353275924 0.007890582532200483 0.08327904515017812
3810 -0.20788571939888703 1.2633302932890582 -0.3809960508347646
1733 1.3449264277641504 0.2833921476004502 -0.2251780009194863
1811 -0.7867991029860107 -0.11531657331413095 0.8499339213336874
1812 -1.143522549185001 -2.4798037136799893 0.3678913620897835
1819 0.4867806892660444 -0.2343179280688308 0.40834693931838045
1820 1.0992438150304755 1.2166406402833816 0.03232144416818571
3826 0.1621838669749971 0.14036407821303384 -0.17813932475884503
1810 0.5441351425268609 0.21841390925296883 -1.4392458111418176
3879 -0.19230266753882277 0.4021177139203788 -0.5888079742202031
3885 0.2332165294676087 0.06250534356771474 1.1667165460994415
1901 0.2715020270192958 0.26741043184804114 0.04046624952000597
1817 0.42681187149695554 -0.7510306288751555 -0.03310537838333573
2701 -0.015953791873329 0.8051166357282882 -0.10561344266289881
1979 0.17015897446386885 -0.6776736048895309 0.12540884780734496
1988 -0.7651146308783962 0.36690493642540634 0.45372980794033746
1989 0.9171056766952109 0.23417176092601974 -0.42242368948396414
3825 0.11658992681670823 -0.1235692593288189 -0.027485066686411846
3832 0.15908805158529543 0.20893852439694688 -0.30544022162082296
3833 0.035409559218551816 -0.11083823150789372 -0.030934020546949867
1986 1.9306546377943241 1.2783447205904825 0.6084630333603267
3834 0.08374616610549841 -0.03961850292041158 -0.0662536334203828
2779 0.5722770869446066 -0.46736824194705084 -0.860320940630282
1976 0.5228040973527298 0.2060347969383011 0.97116396876532
2772 -0.3588372424598786 0.8907843502767359 0.15377583099675363
1049 0.6263234567259972 0.44377657418441463 0.36719689725975047
1978 2.2628689865144036 -0.7700115603521455 2.979504133391198
1059 -4.786458074849996 11.915229983826675 -3.2951120446471087
1060 -2.355358190203295 -1.2653839087717207 -0.4062566086030743
1994 -5.536633731696673 2.0851414032786164 0.6459536780855615
3837 0.050908970355017284 -0.04654722659835485 -0.01013702392235287
3838 -0.4976427133558313 -0.027597365216424814 0.5648336743460266
3774 0.32333019351965525 -0.07068572068893664 0.09170080233809036
1149 0.18028339721176762 0.6850251692282532 -2.298283199350491
2073 0.432010648945825 -0.24382859584725042 -0.4440384148712106
2065 0.1419655293696689 0.2788247763447098 -0.1696854548889164
1058 0.3241445698588727 0.032788670315605936 0.2191395059176215
3772 0.13803920582750093 -0.6418655463276877 0.2856245773077239
1143 -0.10942626754645104 0.12243823502569323 0.04635311880594673
1228 0.12528419814090563 -0.30156166432178155 -0.012520486515764522
1229 -0.9133811829550933 0.28811845678033005 -2.1531893102828557
1237 0.3542655254518998 1.1936007071472527 -0.0432689035898882
1238 0.033924151454755455 0.006288794904113236 -0.0875106839927431
3773 -0.08500880188086889 -0.06813541875054342 0.02297343397998083
3850 0.3990016281528921 -0.16886059208350956 0.2340296956008606
3786 -0.22077154728354653 0.13249011704081434 0.05994874973462098
1235 -0.1057124411943171 0.23867125493801458 0.12795881957934796
1320 -0.2017949601227022 -0.05477826537904075 -0.2185312084587523
2145 0.4447952789949548 0.10017416398858743 -1.0200755669597927
2152 0.3136885727420597 -0.4629573748091518 -0.9142922779493627
2223 0.521380069101617 0.706378668686375 1.4220565549296476
1312 0.36642252484496235 -0.6496129472956461 -0.2453745440062393
1313 -1.3493240420719304 0.32638563177412916 1.6728233841014177
1322 -0.2536839373701887 -0.12782379488427248 -0.49656649422728727
1408 -0.044913703591281835 -0.12057437605165351 0.01327759508856969
1412 -0.24101273404811238 -0.48238718055077223 -0.6001116093001488
3785 -0.09247657615026224 -0.14605840607881343 -0.1755220197435344
1418 -1.434993569658508 -0.8586809387010051 1.1767377403269867
1411 10.395709885735954 4.507992690466193 1.2790463484783907
3861 -0.7387150907111921 0.07480170693576292 0.37310936096730335
3990 -0.9949377581583732 -0.6564219428495751 0.5330739218671334
1310 -0.14075105508838046 0.1076537515173169 -0.1563550130159881
2288 -0.17668887886534226 -0.2357565321384366 0.7562617990901673
1497 -2.0042653480845978 2.562448532607065 -1.8439306853549495
1592 2.0668485824726437 1.1902728971424952 0.01422189904864976
3854 -0.060635847919933324 1.1865584349282172 0.28066102543819127
1490 -1.1441299476261553 9.511924092512 1.0068751262294326
1407 0.022093037006859398 0.11353188699093036 0.1899332935028544
3796 -0.04427257401226956 0.27832886768181475 0.7123812566288462
3797 -1.2106580844791635 -0.4565321802175698 -0.7873851358197277
1586 -0.6169454347310955 -0.870426828934236 -2.5699423955835696
3860 -0.37585750613677993 0.05905158836260471 0.13975318149652494
1496 6.507392470749104 -1.2193453215787406 1.9376361376024736
4462 -1.400544375918486 -6.051073070234804 5.777062590225885
3869 -0.40860776548309624 0.15520665192403768 -1.9032853195782304
2443 -2.280462325599397 -3.7646815235702373 4.936912205807234
3999 2.0892332337353063 0.9286370339302635 0.5519957259555897
3868 1.260543243592951 -0.6314976079895687 -1.1194115726073812
2442 -1.1251742343997335 -3.4892503821237306 -3.812472244822718
2683 -5.643479437368604 2.9374951448397955 -5.255333783241602
1574 0.7201722413682973 1.0011693357252023 0.30046928231836073
1659 0.304155122938255 1.5632026798902858 0.200570197781786
1667 -0.7964964543660363 5.094178068124847 2.3976914979445088
1668 0.15916741347796254 -0.3656960797722655 -0.8584156366171539
3735 -0.8890676940653423 -1.5412884894146177 -0.05852914912722901
3801 -0.1247949004732875 2.208047807029875 0.8480478938587459
1580 -1.3548445286376058 0.23625928776020835 -4.046770232501749
4314 1.8105430062752113 -0.14389303097788358 2.5846063632122505
4363 -0.4353835030212295 -0.43074699047214576 0.30537478692002834
1665 -0.6771159141058267 0.8414124175450287 1.1076478233625862
1754 -1.159761983903913 1.5452493764001494 -1.271808434911378
2497 0.7620475534221023 -0.6063869764720253 -0.30645776287277315
2504 0.22652953253084035 -1.9639697895091281 -0.13979264427337157
1675 -0.5127177458672701 -0.1494239527605849 -1.2181650092767746
1658 -0.7017561997265424 -1.7328525279913707 1.8248839778289805
1747 -0.12488075756791084 -0.022471863884027814 0.1998973594087312
1835 -1.8422110218537155 -0.15463961267636372 -0.1586102405753953
3744 -0.07045276833549168 0.17531151721447355 -0.04633001783352155
3749 -2.059681255068744 0.6674269319194607 0.6311587956689988
1834 0.14997684763572833 -0.46239757477485327 0.46243775063035936
3811 -0.026353888661846042 0.403635147404793 0.5070784831091152
1840 -0.04087018819719626 2.029625813660234 -0.19837025709843628
1746 -0.07594950061524158 0.138837750347213 0.0033412594200378275
2644 1.7898215970325029 0.25592928818110483 -0.6342014468532402
3819 1.6748308077668428 -1.243036964325246 1.5706435163330565
3820 -0.006457943660523106 -0.33114192675214915 -0.1967217950717104
3754 -0.053888763336515204 -0.018961675823901788 0.0269483444823697
1829 1.5043135952484288 0.032254039611387696 0.147324804922036
1912 -0.16455423188742146 2.6723272324632026 0.8263143994410181
1913 -0.4136422754891202 0.033527464814753945 -0.8333940269817941
2002 1.052495501785611 -4.061686821984483 -2.2655322392657204
3761 0.673522562654657 0.1947731680611294 3.4763590760964678
1919 0.614182076289852 -0.8160352731765514 -0.5862030689718389
2712 2.7387090583371263 0.767556832156928 -0.9908186212113312
3886 0.3865879678959132 -0.5011504089328085 -0.6282412993812482
1995 -0.6075433072312669 -0.6445447086377577 -0.25578520365626073
1996 -0.02037916410573492 1.3158868200055436 -0.13545792911937207
2001 -0.7646991381960565 0.7172927311800568 -0.30060160224959076
1993 -0.4926682325896369 -0.6689700758020692 -0.08917794932336046
1068 -0.8742922141582377 -0.5110466018805226 -0.44338133837163624
2861 0.3394074275999791 0.090157144171869 0.052863498345686044
1083 -5.202217775948238 -5.4152965699684685 2.906085857492915
2000 -0.3359379090400197 0.28508760447636794 -0.0030926661079235997
3840 0.2909410779685442 0.05522272538172342 -0.29145534618539054
2016 -1.2997820349841502 -0.08205769117641777 -0.3732776497898981
2007 -0.43132414510001504 -0.14580374804006427 0.006693236736229378
1088 -0.07140072333774501 -0.7313858542128946 1.4572801879634774
3896 0.45698325825696573 1.4647205024395473 -0.06113501742890198
3839 4.136080722518924 -0.3954943460825161 -6.029348999411229
1163 -0.13676683912313908 -0.17146526201531542 0.3159564026684291
1251 0.6860309385021128 -0.831989496447486 -0.8350651329669913
3775 0.15785596065863264 -0.05477341685052905 -0.06927821153413306
3904 0.9831260217426167 0.09049935191912249 -0.7253346027604085
3903 -0.48445104276874446 -4.619264336421523 -1.5734490179093334
1248 -1.0401874435609126 -1.3067640565780483 -0.3875050996964617
1244 0.21434606928471228 0.3213697300179256 0.3061935762941252
1245 0.4451032168566374 -0.6715179106812448 -0.07486937689408708
1250 0.8900759502855372 -0.5451273029074982 0.20546268154141503
1329 0.7170399148248447 -1.9228768775012925 -0.16724658179135046
1335 -0.6580383480676602 -1.3365222141226631 -0.34768112249489874
1336 1.2105330416971753 0.4186518156229629 -1.3373866152460991
1424 -1.5604538860005137 3.473390482700205 0.30943029314296105
3778 0.0009481446248371713 -0.057409159455913655 0.14134436664097502
3787 -0.0373324888439393 0.08481142877798646 0.05722325578209062
1423 -0.4153465126844281 2.866214598360805 0.28145753837311666
1243 -1.052899505985079 -1.1126618230705092 0.46362220374166446
1333 -0.27931810450384514 -1.3996266552971302 -0.8267997427977096
1340 1.203507526579589 -0.17445552517156473 -0.5825759994117086
3855 -0.24690621441341912 -0.24647537632150787 -1.2945244283205364
2516 1.2790734033250921 -0.6518363697279111 -2.343754983402532
1495 1.0812924204838068 0.22153771536795436 -8.014027845001179
1417 -6.021888756527489 -1.3837430390787209 -2.666167368305376
3792 -1.1499440365210467 -0.21562528690791607 -0.5184775454346169
2744 -2.221019708464732 5.530415849056912 -3.3720597499372316
1595 11.485868170360542 2.364380768574823 -6.200733380987292
4206 -0.7878865180751297 3.860867846760406 -0.00555569128269427
4523 1.304931158873807 4.278640138722015 0.3757497608214086
4530 -3.9652337519780363 0.5455803940406435 -1.389930418561107
2451 -1.5772376932650445 -5.139857575281276 0.9200320927230975
2818 1.3168060782286304 -0.1624257925018501 0.15982246057818686
4477 19.18708802108753 -3.558324614937752 -4.787031862068303
2601 -0.8141717710664812 -0.29637614834250053 -1.7983975337760256
4639 -3.691663689446684 0.9621579760198703 -6.707600186004795
4741 18.758396192903273 -21.59462488777063 -2.899543130022357
4749 13.728024323355827 20.22260893092148 1.117918667041974
4509 -5.44492159086454 -8.2667931834479 -1.4510177478017134
4531 2.8183279550483507 -1.174595470886844 2.4003999380505463
1677 -5.341142788276642 6.2155802262461854 1.364734512605771
2656 -10.068104443162717 -2.4250914918497655 -1.5033638101968998
4144 -0.17488645681421183 0.898451572873699 -0.39180475294257316
2675 -3.550996313100146 -6.029331762820182 -9.043145463402059
3993 -0.7371334722155033 -0.49956713305403755 -4.159993406684798
2737 3.2017945406873527 0.38773891251949705 0.0902678056171338
3812 1.5987217409002241 -1.9428470050389965 0.6976305531604989
1666 0.9163490027952771 -1.0454406765086148 -1.1956777178159228
2655 -5.798650881929814 -3.0177352715557664 2.9311471550604096
2664 -2.3336044260875477 4.618751392290288 1.8936477095567728
1755 5.849555073866477 0.3876804644439655 -3.527449299237665
1841 0.5954985328545656 -1.0220498141619954 0.6885263374368674
1842 0.8985639260566245 1.328147877890002 -0.5329392331285192
3821 -0.8052305426724453 1.2655739779464827 -2.248041845534781
3828 1.404948686268398 -0.31193258719530914 0.8009485118803146
1850 4.057525829472051 9.345809005109757 0.2695588406062332
3888 -0.39685651108353104 -2.043308189536973 -0.4956500260585595
2728 1.3111932313941561 -0.12010276833017726 0.2004852208962099
2733 -1.4920665007623366 -1.1455145469848684 0.1637983493871254
2650 -0.04096875183694056 -2.5203815138193453 1.8321069280373388
3822 3.129899144111887 -1.4626711869279347 -0.784816321751596
3827 0.4416182999597815 -0.05506856749013694 0.08268827765209867
1921 -0.9970236066106813 1.0724317300463326 -0.4041349472867772
2008 0.9399801375840062 0.051145999158787155 1.431946359395498
2009 2.637896308270935 -3.886850326032347 -1.1624817527524263
2017 -0.833052535433415 0.014871309166883544 -0.5135880842285238
2018 0.40189167254473906 1.5093061259568095 -1.9253185425257004
3887 -0.2481352989324808 0.2988135482313132 0.03142854332657735
2006 -0.004818530931446234 0.4573178962261609 0.07432352838103033
2023 0.41745355906022663 -0.3047730452548404 1.7775514628339681
3889 0.8409472670215484 0.707024510703114 -0.3066201430743033
3895 -0.06584954096720151 0.15905863739684054 -0.21853731967867565
3897 -1.093170384049783 0.5973886424189431 0.9621287837630449
1094 -0.7146660572793428 -0.49242372125813527 -0.5213672163886556
1096 -0.7440730682249482 0.6338830302159182 0.1947548430572315
3841 0.4304067181051634 0.16859854131609647 -0.17203093637385558
3769 0.13060299547988938 -0.265607634207993 0.01605328198963665
1089 -0.26571889690970296 -0.39266588153385806 0.2419476461492419
1095 -0.9005234315657245 -0.5514161546802016 -0.5616411783610009
1173 0.4484738127395988 -0.31106148979636117 0.07956897625425356
3719 -5.7326188421565565 -0.9029493485235499 0.58197383508908
3842 0.33166132031762013 -0.11107158206450271 0.2179410972828311
1277 0.24390970544014876 -0.05988990405475074 -0.2631254109561417
1179 -0.3650173170877177 -0.17361974817880496 -0.32133152909630225
1172 0.09459542286594942 0.3823270420708119 -0.6931096757246722
2170 -1.2664933992598737 0.08264955654335324 0.00562094972657785
1259 2.1275463123347667 -0.4671238553211984 -0.4471226938693972
1260 -0.21956076498185287 -0.0955562686901485 -0.2908339605706785
1268 -1.9960403539765526 -0.5700731997325958 -2.528404237793185
1269 0.9282432068901634 -0.5054532776632662 -0.16068172983447163
3776 -0.4130421290384768 0.6408726400849251 -0.07277429803321753
3851 0.0673661213304638 -0.09413251618705523 -0.19008353079589918
3788 0.10875527183890026 -0.1574884071495291 0.19413682570160615
3852 0.14387509916670382 -0.12575292085031725 0.2893946908648864
1354 0.07949453928848631 -0.12203602825162208 0.8623128678216923
1267 -0.47211116883095544 -0.6390511891413705 -0.5020076894816977
1257 -1.3212986906006159 -1.513567107050245 -0.48669787815626303
2251 0.3627922355030073 -0.7003651589121321 -0.006812174011491175
1342 2.3750252190705328 2.005963152249278 1.660303434216936
1432 0.7793820413839402 0.48216788286278295 -0.6183872392910107
1433 -0.16822984530602036 1.3190151418315745 0.8152104407094506
1437 0.5824164806683196 0.1771375243860248 -0.7773556546326069
1519 -0.09220470347893084 0.3902281136517872 -0.84200148468769
3732 -1.0806829036124173 -0.20516403608564787 -0.16628270207513804
1518 -0.49964285587139545 -0.31264780249865565 1.4636419291819778
3803 1.8330889969591853 -0.287515404538545 -1.2103700857990352
1516 -0.3171547689293126 0.244938151258503 1.1181605680305382
1430 0.3771777583377013 0.2919706874825948 -1.8581442673198345
3856 0.1717992971573071 0.40381935078760384 0.2581046721029435
2310 0.22396118132801274 -1.1040939549120758 -1.0263256420317401
2387 -0.8579493479005063 -1.1511881849971528 2.6141714116048136
4484 -0.8845109675527201 -0.03326135107816068 1.4427039587627648
4717 17.313741122218417 2.857537643657968 3.165864511194918
4658 0.43938099647939444 -12.226985029799296 16.585732638679325
3806 2.181872517688144 -0.45514467120098173 -5.319626350022977
2594 -2.1436575325794665 0.5438720310745992 2.0292542243065372
4071 17.228536685712257 -0.7477709939981022 -2.0640597258593263
4751 -0.7766806142747573 -7.0149616865295155 -11.943955648273691
4321 -2.733883968814308 -1.390480634981382 -0.8932571374753211
4740 -8.430752682507736 -2.54895499019199 -4.044518069520063
4742 28.945262601492665 -7.6127860081057594 10.196793431264066
4744 15.094038060549023 20.964135554988292 -7.753149452054906
4561 -8.60194761337317 2.5571734093035725 -0.7238001852674919
4336 -1.0791172314480049 0.4406311150956566 0.021305978130513728
2654 -4.602773046837936 0.5935532220880005 4.4464578082281045
4459 -1.1833514831618126 1.1718112225149602 0.7525875086097732
1860 -4.529555571268852 1.6813834211277384e-05 0.059940235039054435
1932 -1.1402257583617894 0.29902763661317894 0.26412783724521655
1933 -0.6740252442260405 0.09038714928040398 0.4008158501138826
1940 -0.17747333816256905 0.33711843512155565 -1.3294124254922448
1941 -2.488938099959213 -0.22796729747629532 0.9177921725398512
2024 -0.7380202177809937 -1.3322735264477399 1.80226032504404
3892 0.16288779372208914 0.10571765503453016 0.04475422882408023
1938 1.131612436725129 1.5004411946902254 3.360965997481906
2811 1.551706756654649 -1.2286924522050224 1.926723015384161
3891 -1.217228997641649 -0.2787574568614962 0.6378318328912794
2032 -2.550769090065457 -1.3966117210965894 -1.7484093974272632
3764 1.8199607533926336 -1.6710687124919466 -0.9183627396868498
3890 -0.7155767929278991 0.07466504323335375 1.9532597599161365
1101 0.6618617254905156 -0.3346655040762521 0.18430371175547636
1102 0.27623775007860096 -0.08191644075505367 -0.7363319921297121
1103 3.5256157705276947 2.430402674924768 -3.400612988108273
1109 0.7728244446237286 0.6123337040379204 0.0181463362316303
1192 -0.46053946029825676 -1.2582265357577869 0.578121292342152
3899 0.30377693581006265 0.10268190690661941 -0.30832862600956346
2039 0.8493256990537901 1.1123149319456962 -0.7050885552811973
3765 -1.4656031547901698 -3.0076374506595287 -4.386938639905019
2047 2.5205384456330706 -3.2551541495559992 -0.9120482490632279
1189 -0.06257561204759755 0.722931164084204 -0.511415553035118
1939 -0.5541056843423247 0.5461176437551085 1.621537172302313
3847 0.17847842092492885 -0.053262129197411655 -0.007458062858323885
1181 -0.5515056617734884 -1.2497177901761032 0.06076475219308363
1182 0.03504995426310655 0.2727430181613007 -0.09156794870703867
1191 -0.8051193225050013 0.1598991063301418 0.029282483896875836
1278 0.5980905857866499 0.4683069128051068 0.19310747995245262
1284 0.3740534653644582 0.9367711653996537 -0.1156344410353823
3781 -0.030875624272295003 -0.04663465470571909 -0.022876946236750628
3898 0.40041486278802996 -0.25016167075133966 0.2046860488241958
2184 0.6953345902071978 1.951860094990385 1.3493862366454767
2177 1.0566408313555153 0.85435276536275 -0.7406235153345881
3913 0.3169429761800322 0.011964509311237817 -0.028194463374054263
3789 0.12570907653437705 -0.23356394450482307 0.008947853117983965
1355 0.36832837779009275 -0.33044984048051723 -0.02972299318159733
1362 0.42625483289596106 0.2711620688760578 -0.06201134311104493
1452 -0.20865875280983148 0.1018019190785272 -0.04391552541233611
3779 -1.1644186569462998 0.26019832141555327 0.6512666261175375
3780 -0.13406750173561804 0.3881352198320966 0.09695353592755608
3790 0.11772701636912695 -0.23521489580085014 -0.19327233655497109
1360 0.036024130801761804 0.20855201031776022 2.183840984248311
1449 -0.09084669995391681 -0.2942807459054389 0.05434395810573518
2323 -0.04277292099920887 -0.007441407892272669 0.3942349736804922
2329 -0.1630417103002351 -0.8558234182948974 -0.8365300185916119
2257 -0.06268490100172161 -0.47084589195318843 0.17393244042347566
1443 -0.22348101554408112 0.11269675135634294 0.36911175350427156
1451 0.031237494041619872 -0.4488025354616623 0.9534633550336854
1525 0.20432101236582045 3.0971499346015214 -2.531639204601628
1526 -0.571747177522608 0.009769829037085478 0.2110683583610292
1535 -0.09568368909665464 0.19819069601351114 0.04362164291683249
1536 -0.05409466613178689 -0.9831967360659464 0.708022884434265
3793 -0.1700238296805547 -0.3049670407703584 -0.8349323434233535
3794 0.5514807148980096 0.6413020281631227 -0.38317668926929277
1620 -1.303135458146266 0.22777522676685524 1.1835918220350532
1613 -1.465036027693109 0.3805948330611747 -0.45311319897402513
3864 0.04568087728045956 0.21690597254076419 0.43996457507293124
3863 -0.6513186271223504 1.4731569330838943 -0.45544579495483395
2399 0.057960852237368105 -0.04250978904583199 -0.20161579133641058
2462 -0.20445207651624245 -1.95091673482089 1.151161444951121
4723 -3.92389713764592 -9.019559124067678 3.2525900555948164
4736 43.35774284099762 -1.7811948143673952 -8.681736638337519
2747 0.1252097021228529 -0.41483293705796825 1.5404181275997577
3737 -5.960255780125956 -1.0601298759651425 -2.319172524349312
4437 1.501360544979109 -6.412182458464483 -1.8544278585566742
4201 3.257201577068457 0.3016721274067929 3.6817059782347887
1616 -0.7695298267139544 0.9066872643427811 2.10975331042597
1621 -0.847376110153478 0.6214485418367027 0.2715895618438593
2529 -2.4860387756963873 -2.4275317733251787 2.055385346227611
1710 -0.6841113696435642 0.11978749570617471 -1.1061336767448067
4354 2.0031679859863374 -0.85590420620731 -0.7214289256825712
4671 4.129077946220963 -10.69085614465932 -1.9528273543235495
4585 -2.390344340517522 -3.3467440621987747 8.553949946639108
4683 -9.565092240312493 12.399101188601739 16.268589126299684
4618 -17.786575909047873 2.4615395309783232 7.549636582316588
4429 10.733523022224626 -3.2599390838696753 -3.4406417327833667
4402 18.096404205513693 2.42299675541196 3.9622397254344333
2657 -0.8431324645993734 1.0481493156309754 -3.8339490805525958
4649 4.161752222080436 -5.772697749958763 14.291381296211425
1878 0.23186108094110813 -2.3508647397848352 0.8698379720479665
4721 1.5563220631831507 4.774184483708286 -1.307748349703265
4627 2.000645222271431 -3.307938071357021 -0.8609390225551712
2525 1.2410667262624615 -1.7153446352365211 0.6809529364962481
1949 2.939693622980051 3.6566203393694874 -2.571600910221301
1956 1.1323260401584296 3.7509642952547155 -3.458033087112587
4466 1.0510480443999248 -1.6612947375653724 3.1862842019367554
2048 -0.6606592734480039 -2.8294913201727816 -0.0038313062636526497
2588 1.204677378205129 5.811267750091095 12.058960754243195
2667 5.02665392818939 6.963426943902701 -4.161087232016196
2750 9.763081625607244 6.925758656057969 -4.341760677362051
3756 -3.0407669539677906 -0.3403338154769481 2.815830813990292
4340 -2.59268364648324 3.6446966797106697 3.4534544942261856
1948 2.051292578381679 2.852961385461689 -0.458274254104375
2040 0.3383933268803257 -1.4466350284821186 1.2782303304930447
2045 0.8389323022821716 -0.6136866638425273 -0.20149191192446678
3893 1.6753439160722106 -2.649804845739245 0.8790120451821734
2050 -1.810257349172575 -0.752035719716913 0.14679304662757167
2053 -0.06080575953721816 0.27991060725152406 -0.049225392264015205
2121 7.775289766668803 1.6325598096655147 2.6999292656836116
2049 -0.9745338242373132 -0.2239042124778564 -0.08470175260265436
4028 -0.33213928751773447 -0.3764362612025476 0.4939290972593366
2123 0.24512853256934472 -0.4825009610438068 -0.08307211861435383
2051 -2.312954239462039 -0.339111692760405 3.3877471708214073
4093 -0.28809484341123676 -0.23370871401539856 -0.40536627646317824
2116 1.5924298038215952 0.8696556730116256 1.2355461215240926
2190 -0.2931904746277231 -0.24091559867725568 0.03336010633342221
2196 -1.3383810569823151 0.2653121899911866 0.028916561194190386
2197 -0.1214036532628349 0.2994738060473842 -0.1663486037258081
2115 -0.29847248532604514 0.5773152525095504 0.30651091271461867
2273 -0.35078604380777756 -1.133485286653851 0.8006034822488534
2117 -0.07622103668369067 2.2718158019799923 1.2236901342533772
2191 -0.07796925720067999 0.4107905705930467 0.7589797287512344
2199 -0.4253251030038355 -1.0745457865904353 -0.07645043599501733
2189 0.5227504176650098 0.21054732302734047 0.42837656296725474
2272 -0.7037481176880572 -0.275290766891108 -0.022030956822216723
2341 -1.9423190726177664 -0.4676436296661259 -0.5571029965018963
2342 0.6348033065505436 -0.29446341410843396 -0.20532731131124307
3914 -0.31471370429805506 -0.04871356100721014 -0.35986899197768096
3915 -0.04154108725122996 0.028344834371095647 -0.2098187919937494
2344 -0.050899617683981664 -0.7387410533809116 0.38054730451813057
4050 -0.06327480111431447 -0.05549631366127618 -0.4285349379401414
2274 0.19496717522200527 -0.7730084142806265 0.48944201689652983
2333 -0.5406877072625134 -0.08271641562076232 -0.20313685930428854
2334 2.097088254117926 -0.9949883695604753 -0.9778832050265048
2404 -1.7486558139490869 -0.41365499241492937 0.5253589133928082
2409 0.1678881065607032 0.1638987904273436 -0.02064994644702543
2410 -0.07712871235629294 -0.6971295963401221 -0.01277384337158696
3922 0.08779243546904486 -0.0028975955259956244 0.05398047314287097
2411 0.2230069071810602 0.3325713339266592 -0.07791855102498531
4067 0.19815194905122524 -0.23255868452648573 -0.417333103672845
2403 -0.6885220119115025 0.5037728988425122 -0.5520434601039012
2415 -1.1688444104492015 -1.1581584280595563 0.21326115626409226
2478 -0.22224858179777568 0.07033118017488942 0.26292444576149915
2479 0.22460080127214108 0.3703887603651222 -0.8856241480934174
2480 0.4369184121487591 0.23210064712721926 0.006697064645419592
2546 -0.5196251046746004 0.005588549930608557 -0.3460468520482414
2547 -0.12789246659215467 0.28388875405276076 0.1395784189789637
2476 -0.2818734582177808 -1.8288317103562526 0.285828200392742
3996 -0.2961898654153682 1.1230179726230494 0.9126545771966186
2549 0.4294842946067552 0.05198448322342844 1.330163374708615
4065 -0.7024616155351721 0.39276128472912536 -0.3375712583378924
2626 -0.16733994183488185 0.5325482400311576 -0.503821293026963
2699 -2.72344125123608 -1.8001736721101844 0.42705687885454197
3938 0.04597510891635757 1.6016215969334615 -0.4627829631106866
3945 0.33107420571947765 -0.06059731519366689 0.5641086345541556
4009 -0.5408537543062029 -0.6629873800325867 0.13231278418113668
2684 -0.2692063244620632 0.3355959856568708 0.00564978782723698
1715 0.199985328783743 0.24571917681887012 -0.8040755235999173
2607 0.5462222033136519 0.7687392523292296 -0.588345064187948
2692 2.467917335798538 0.02048780683617612 1.4495953907113992
4003 -0.205932586497578 0.2478265918531205 0.1050673461281279
4002 -0.7525145561667962 0.10899830429789693 -0.19719047219380348
4010 -0.03646802702700206 0.2815560318115117 -0.29051910032437356
2616 -0.23016160783634113 -0.5559391684350968 3.188918670919787
2615 0.6982441777088279 -0.03297153818357042 1.1713563580767266
2693 -0.65726223414866 0.12740836225318886 -0.6796875915562639
2694 2.613862816580878 0.8887752444683246 4.518787388218151
2758 -1.9643575645211317 4.318863441947248 -2.2767463986729233
3947 0.46219408865698725 0.03928814398246724 -0.15405767623257813
3943 0.5125782699606652 1.2787955247285363 -1.0371587775101365
4568 5.224681533920017 2.2562856454667006 0.3922708622290839
4021 0.10655639615169188 -0.5101317416635386 -0.014450330495493673
4525 1.0713385587987632 1.1661470229294253 0.3820865747779242
4510 -0.048365324107621205 0.15074278923139167 0.8914037858935352
2755 -2.771515764650401 2.7724504257040765 -3.008208834949317
2760 0.7601650117732509 1.0443516785335647 -2.293133553134646
2695 -0.1498484008111897 -0.007995315540043233 -0.8273502788476891
2757 4.874754224721209 -8.323906862833155 -3.925013268652212
2827 0.3148415809864697 -0.05260834016660237 0.6717612974330991
2833 -0.09444529652126109 0.21580314666868727 -0.4508263997849577
3957 0.3961320401521423 0.05128702294330861 -0.38941972973994515
4026 0.3542972955942519 -1.2044656610007272 -0.12562475504660978
4027 -0.8030928663607635 -2.0391211707627064 0.30229254767378677
4430 0.39996540142459164 -1.0513957259387594 -0.8763007722472748
3951 -1.2219149938491551 -4.785401449130846 0.9672089128518893
3963 0.15713320661343536 0.27398075774543174 0.13119085149032594
3958 0.2086070538469474 0.3196843151442624 -0.38877815570103014
4032 0.12413448369448958 -0.33257866372123485 -0.39584871479582323
2122 0.35492272739774217 -0.1741140161718518 1.0243564558013019
2129 0.09531349974354286 -0.14591027531424042 -0.04430257814564557
2057 0.03293910723591447 -0.5061055528124836 0.7540007854823186
2130 0.31061127115457887 0.4420226362019138 1.3635083405800454
2138 -0.016180976411333002 -0.13923871577285651 0.12885474239735473
2139 0.10380316794072769 -0.2299708787494997 0.279795556789894
3906 0.10248243365123219 -0.13844391083895533 -0.03157925984981584
2131 0.06448857663801116 -0.8213120330787201 -0.9885155101008546
2212 -0.44277584551721283 -0.2758413397283528 0.680555159999161
4094 -0.07912968834924693 0.09379545948034801 -0.09362785098936043
2205 0.8115238016576211 1.5269815238236337 0.35375247843430974
2211 -0.12240557029810413 -0.03241192818598382 -0.02103015503199366
3909 0.07425955859700167 -0.06508262625692353 -0.1693324440314064
3917 -0.08854038204644815 -0.3697945880906547 -0.07015010802363625
3982 -0.0992790862475694 -0.07113431314392102 -0.20948965062105426
2361 -0.10611060287953467 -0.33934716471026827 0.7591210585153486
3974 -0.031613511686820035 -0.14364767724282698 -0.17843331114475372
3981 -0.063174310075772 -0.1570931582456135 -0.21285008114869797
2207 -0.4278417311663553 1.1583840105822083 1.4246072905534182
2283 0.8775708462338637 1.2564930835196533 -0.27540995770424054
2355 -0.5990938833734396 0.16758952957667597 1.5149579849647057
3973 -0.1779577239848908 0.035734675418707715 -0.1306910770088105
2348 -0.06493124245796818 -0.33826355300718985 -0.06823413408921476
3916 -0.005909927493447575 -0.050502331526157886 -0.10389008227244498
2349 -0.2913071462921933 -0.32930705379340497 0.3078599129046808
2356 -0.013711853511045535 0.4438512893985718 -0.292773633366766
3925 -0.6432011246004601 0.5548702589928625 0.18883840389080914
3987 -0.7065860694272704 0.7588792035595011 0.19967217873459417
2425 -0.11900441346400965 -1.4037737348048736 -0.20392684042910708
2423 6.331200980305815 4.7284348735611825 -0.33157470445961196
2363 -0.7742768907989628 -1.8684419870365898 2.1834632200106068
3986 0.27732968343537473 -0.10630733160064781 0.38863670147339807
2484 0.5275832312831531 0.4116718172059093 -0.11046932389857436
2485 0.13596473544589796 -0.4476829085047897 -0.4972168107637836
2489 -0.6820837945764513 -1.065359253051559 1.5034324442715452
2490 -0.046387572759915105 1.606653320294269 -1.0872856448537012
3924 0.10928902614977656 -0.05103550835708749 0.1767392450325015
3928 0.04360319764055156 -0.07496720435802923 0.002851898962166473
3929 0.24574919848027685 0.17776813292784668 -0.367184602258834
3933 -0.14554855476530787 0.06961932453965863 -0.026062671237555693
2495 2.547815233136671 0.30710686690579964 -1.6853399041087656
3989 0.077452058395215 -0.6090766027827725 -0.9868444282310006
3997 0.010069799228238826 0.06516754913295353 0.08907477596615412
2416 1.745999362133556 0.6256556701657976 -0.448438738581881
2487 -0.4134414735458447 0.13771484669134437 -0.18751854929897302
4059 0.9615749038215877 -0.3335151294360723 -0.5603798489335612
2554 -1.1823619421061011 0.5913031562041288 0.18621204729700416
2486 0.22175503289575957 -0.20133656835857672 -0.251842656209006
2555 0.6572828078734776 -0.11929027286809488 0.3299844935279706
2560 -0.2878188100899479 0.11217556464434528 -0.2569078829286268
2561 0.24088021337703952 -0.12559330383803174 -0.17561060164039033
2633 0.08375039098034189 0.11564334353968243 0.027784955122875526
3939 1.1187405908736983 0.7219453601309318 -1.10047914638077
3940 0.17194198229717772 -0.024941338302375934 -0.19841035034427545
2637 0.08041926415859071 -0.043624398301971776 -0.26482415422069705
2556 -0.2751204891639207 0.048947238359617236 -0.1565878403912157
3946 -4.328982253354214 3.2706264974282986 -0.08580021418380038
3880 1.428071807486025 -2.3596833321637627 0.5236000373732125
2700 -0.8178730649338541 -1.5120062133392553 -0.2727014747404054
2704 -1.763478246376846 -3.0652543080824572 -2.1029820101298307
2706 0.6223827317530861 4.464367331551976 -1.9817099945762917
2777 -0.22708796112893406 -0.07043860483489028 -0.23918391725400698
4016 0.03220944579856465 -0.4448374393589402 -0.9221049817353235
2702 0.0976715429713121 0.4143069796417309 -0.10846128622982562
2627 0.08802244855881564 -0.21820260563231608 0.0861442821498343
2778 -0.4036718630241524 0.6760963671691255 -0.5321273060879043
2771 0.2551296561711017 0.27574165656061034 -0.11980675063540548
2840 0.2548078850861561 0.0033236440237791307 -0.5807381390874206
2845 -0.1525405341092915 -0.16249426271479733 -0.1706010484204202
2846 0.18462688410104647 0.25600176082950754 -0.09439714679773495
3952 0.03605941074558205 -0.1305878701998196 -0.07011385989884542
3959 -0.10551386612385973 0.41005466597334134 0.15255020664446098
4023 -0.1297058847916806 -0.24710527884433955 0.11704248981017418
4030 0.09964018283178525 -0.18615192613371678 -0.0777498155129122
2773 0.1617324162886489 -0.16828458069114902 0.3766147300770185
4022 -0.11050334583308072 -0.18287654736747516 -0.38280298689748243
2847 -0.7017548314342295 0.7789928033929585 -0.6336444223034702
4029 -1.97173139832317 -0.2697399130862892 -1.4879822970969034
2841 1.8669637918907682 0.06494504354091621 1.759729059638441
2843 0.9260057230726972 -0.11542608476815797 1.5481370231600318
2071 -0.06242772456249454 0.694229490848393 0.07179457300613258
2072 0.26487555782255967 -0.8944642147545572 0.08703708463749225
2150 -2.135170079536935 -3.021966324954824 0.5407718512827073
2151 -1.3387613011305801 -0.15235443483078678 1.0542983549257072
3964 0.10321319471654915 0.08537593156017105 0.026895976221844604
3968 -0.0013238113888534501 0.08873182454791174 0.03411063846405564
2153 -0.47183412884859305 1.2251759549267904 -0.5769193534545316
2074 -0.7255532996376876 -1.0734190475148657 -0.3583600413712255
4031 -0.06952935940021293 -0.14656177282817615 -0.23143807694877508
2222 -1.0915924688607233 0.32303037480754565 1.1379957913789924
2293 -1.4287526382006486 -1.879466348081013 0.7053246323901333
3907 0.07923500783979107 0.26450082736997155 0.04200166034605209
3911 0.11301023664394505 0.14278921661256377 -0.07355376112327942
2297 -0.7307091039833972 -0.45192466221225 -0.29643674748455207
3976 1.1754564581609315 2.21203700990692 1.048543254330783
2224 0.5490057814402363 0.6924841219821006 -0.501217291132215
4033 -0.12524580003284297 0.03310327367745153 -0.1613447512410665
2228 0.5402169814994775 0.1832136817382038 -0.9578196968363901
3967 -0.03750412177994418 -0.08601204295016125 -0.3446135871023243
2217 -0.6824378077351476 -1.1568791280921753 -0.33202570234236645
2294 -0.6235667488598555 -1.016943989345888 1.0215541131250545
2362 1.254481855031727 2.4721308483331175 2.1965022536725707
2369 -0.19564668789634554 -0.7901244670569297 1.4717218155775547
2370 0.781846969747591 -2.6826835153528 0.8272209561128205
2434 1.0635377225201488 0.2358423379309528 -0.7195644170383705
3910 0.17183752352855433 0.008721513587603242 -0.05604339667114884
2374 -1.8865706371509632 -0.3188406915736333 0.4175453801575953
4309 -0.5932961224526028 0.49887253509414253 0.09308256152480542
2364 1.187889325766106 0.9052958056753597 -2.686141601227631
4380 1.3985647348953647 -0.22118026422898626 1.4685541956021757
3975 0.14636559092808965 -0.021170559003233877 -0.18859074105425164
2424 0.023099538393412288 -1.0883943873022577 -1.420020729326253
2429 -3.0828780284376767 -4.747893870842661 0.39058867121842966
2430 4.602023744440581 -1.8361172302650133 -1.7423127942462868
2502 -1.1738788290667312 0.9205656052835054 0.7184622478590522
2503 0.5030788119077361 1.721334062007562 -0.3096379080891978
2509 2.947029567042737 -1.8439945198401166 1.9351790692649622
4306 0.7476591645489833 -0.1381282340871425 1.492684877201367
4337 -3.5063812053209475 -1.2804664662645473 2.20933204572069
2505 -1.5821548306996789 1.151658007650216 0.6760995696234045
2431 -7.333648899410531 1.799989050125474 5.459255853144271
2426 0.19906782145066956 -0.633159076137681 0.6025991797125434
2526 -0.28145629401136685 4.015587004743748 5.2359306227848625
2496 0.7427330311589783 -0.3065931807256915 -1.330889102954999
2570 -3.269190862549253 -1.5387433892326787 1.7471896541671703
3934 0.0659689395984117 -0.5387817759267998 -0.316089197439763
3935 0.38179455869733636 0.6876728680655187 -0.22135515074926626
2566 -0.6395622864313936 -0.38524535306529023 0.3893282865490305
2576 -0.45315432598352096 0.3779127850159959 -0.006101955273762661
4012 -0.20754092225627377 0.554516345213627 -0.7470015457505828
3998 0.1661559004786726 0.1533935730798412 0.410560392891624
2571 0.011741500502830808 0.5937923666326842 0.4678346484045952
2498 0.39266118726695226 -0.5314171468233548 -0.7695439418879052
4517 0.6366209930260123 0.9716880645886085 -1.787766067891243
3942 -0.1850031032721332 -0.5659485565454038 -0.35562239361929077
2718 0.3032752929323128 0.11778316197374002 -0.048954162162992323
2719 -0.03026411040853694 -0.4367368184946251 -1.2903030757297158
2720 -1.4624997033564402 0.28759002258178384 0.5805922171232077
3881 0.025514984539635865 0.04992835270122632 -0.004176706725250327
3941 0.27314968164899683 -0.3274691378890552 -0.13351188004733408
3948 -0.28669070242006855 -0.13261227744975204 0.5104829798330422
4017 0.2275753140734094 -4.876380271858559 -3.013011956012016
2721 0.6219385602890467 0.16164100516106236 0.6681287867490441
4004 1.5646291002513 0.5199741084653445 -1.054222398170947
2713 0.6749648893223942 0.6476210826526049 0.9715461595273807
2638 0.16098352400453658 -0.38492883262718613 -1.2475391823726725
2705 1.1510449720499185 -1.9696123552824563 0.8003559414550984
2710 0.17453591701754934 -0.16151697180850508 -0.08121607874625603
2711 0.3150622774313523 0.5800680267799424 -0.34634045042028905
2787 -0.1787129236820082 -0.514839829382453 0.03095969080890692
2788 0.15559091634681171 -0.21798340707819733 -0.618538405643181
2859 0.05935878544819044 -0.052838226979982146 0.0014991424703087852
2860 0.39702538758510886 0.08048783314206291 0.5567484307660328
3953 0.703558435211718 -0.3390907592324185 -0.11067570916987038
2868 0.3139824218914968 -0.05475497926383568 -0.4264824846557284
2789 0.8987225757626296 0.3946078266734123 -0.27224724932669525
2862 -0.14992749313837647 0.08292330292423282 -0.07096183910605973
4086 0.3495760860844169 -0.13970627522576082 -0.1937626718206026
2077 0.20321911930130757 0.7292179417221324 0.282071594917308
2853 -0.3417271661801516 -0.2048740726138554 0.11692893538642372
3960 0.16926334711660612 0.07525247008812591 0.11602454043863543
4024 0.09691233541677644 0.10662417373935816 -0.07210295551822578
2078 -0.22837448497507085 0.2688734682158124 -0.1737977604317892
2085 -0.3975892193254432 1.3786721211685695 -1.4067717796724217
2165 0.06946734148809486 -0.39525419952037655 -0.697414179159294
2084 -0.6881017828295429 0.23424871164988767 -0.6282776865012888
2086 -0.8433357706077695 -1.7029466669824969 -1.033179391458067
2079 0.15633955011595993 0.3068838631257049 0.2615792813058618
2156 0.24142270213196718 0.32601505252589974 0.45143192547799943
2157 0.8678508889631883 0.18418847498481014 2.2321508288105303
2158 -0.28712324252597743 -0.22409431462839452 0.0791522151530161
2159 -0.191402025259302 -0.3425647583056831 0.23549445854418857
2160 1.4178903666181915 0.48783968306667563 -0.8778389279056515
2237 -0.545366799185493 0.021499759890447667 -0.9492133204153634
3969 -0.2501909317059813 0.09210347229981049 -0.3533033097439989
2243 -0.21258636763213237 -0.754564407219211 0.17582034357492363
2231 0.24023864610713813 0.3789755296105617 -0.7237099015968893
2238 0.43813864330438385 -1.1830036279338534 0.4085413580421565
2308 0.4816522778680845 0.6622994798927945 1.5868998948164774
4100 -0.24227230713047612 0.3627348252142409 -0.3274865792435359
2232 0.6850674183800635 0.5938359373347157 -1.2768005113854377
2381 0.3049856420801199 -0.8502536589234018 0.3471818282677236
2382 -1.736046476517021 0.7511606626133401 -1.6556477261360376
3912 -0.23355785886231886 0.013743649018438522 0.13012488094046468
3918 2.424209133098445 0.19432234426704204 -0.5898183956668812
3919 -1.1604521461487831 0.21309522117621207 -0.13829493253953673
3988 0.1982769916064586 -0.6655953333639667 -1.157478185585309
3977 -0.0987026137453149 0.41578730508997735 0.03885223827158984
2298 0.9473392693459539 -2.5214663257091976 -0.9485240284769616
2444 -2.371530174159143 -0.007090997326921847 0.018922824513238387
2602 1.9545423987408748 -1.5079424302562479 -0.9537874273709068
2375 0.2864984102330934 -0.3165992114772155 3.6739591643796383
3870 1.5175763758399554 1.3185378214026766 0.30280015501665236
4070 2.2712143539114775 -1.1120527665721103 2.947808724763305
2450 -0.49727630644896204 -0.7290171847806706 -3.756133576802451
2513 0.3831652222083164 -2.1770776087610133 0.790996983512884
4210 -0.4590775450859249 0.7604942704898177 0.9914419814594727
1602 0.21651634089817437 1.8650227380331683 -0.4158461607336528
2376 1.5348094010814815 -1.841506013431784 1.3894741148393361
4709 -7.194973240872117 -2.237565634571762 -5.549508742049119
4624 28.723133902302685 16.457065113378867 25.51689680615387
2447 -0.10576869258110437 -0.6818395765370884 -1.4257777745793978
4623 2.295285139675984 5.217863005170881 8.42947748655277
2511 -5.170059337320565 9.57075932700617 -3.657299893228103
4664 3.505369356481995 -2.4282216887355945 0.3956278318951086
4702 -5.703285150114935 -5.17501502814102 12.731493233732158
2680 -0.14962094857205827 0.7975847779412975 1.551938701478803
2578 -4.504583154133109 1.7720367051436432 -3.1046823289368977
4327 0.02870250499563161 0.28409137983251725 1.153387605697852
4006 -1.7928228114107114 0.3984897682860269 -3.431094361919065
2668 -1.1555641979743 0.3113227477030164 -0.1753973005893743
4011 0.38217146785664713 0.18499864723381626 -0.012697371608168896
2517 0.14903635134850376 1.691480604074096 0.9981500116057324
3814 -0.8221380378726231 -5.046322792359497 -0.4294810344954386
2649 -2.8904876038220997 -0.19589692724648392 -0.9654343877575539
2732 4.7870214403181235 3.0047867971660835 -5.125861552997999
2727 -3.1114183359396637 0.6162074825627464 4.433592480690461
2731 -1.364183225663723 1.7009621305762659 0.8517265550497525
2796 -0.15922701699722902 -0.058829281167744295 -0.16118851273862173
2797 -0.8083082299836083 3.485831974387667 -1.5287452743772614
3955 0.1283898127437124 -0.04244176611554496 0.6592278119312946
2651 -1.0852312485838944 1.7889559040191203 -2.4165445223655655
2798 0.6219092620674319 0.3135419877662376 0.4053410005977324
4069 -0.8376469292419293 -0.523761767467039 -1.1944891714210861
4082 0.14443767878371536 0.02796928810542356 -0.2765828302759223
2880 -0.03323813326490473 -0.2762579965702249 0.16214718290985955
2794 -2.1341498380847734 -2.565572380018783 0.6282675188870613
2869 -0.5806327208853821 0.8163609525385173 -0.25854043829976786
2870 -0.9591355298299356 0.22575350590140414 -0.16667660712978702
2876 -1.1757759407068202 0.3117147409298541 0.8670776960142954
3954 0.015615790858565489 -1.3439642280532365 1.3107645154644865
4025 0.002592259965710199 0.15073537391764344 -1.1577502387863177
2093 -1.079302909178472 -0.2872216061174446 1.208378133965562
4091 0.06392350282566349 0.08753771434182844 -0.18785613912006296
4088 0.8694175929306318 0.2363300535813837 -0.545210438405623
2105 -2.034127060463307 -1.461404282135672 -0.08875668735945524
2102 -0.4853925825265661 -0.7324258046861155 -0.9539370466760131
2094 1.0694349425344598 3.0367287993523253 1.395135576556011
2095 0.947514036673316 0.7688480123090075 0.7569874753384723
2101 0.35442375416314015 -0.08511731912994859 -0.2806722907498759
2166 0.39432852067836577 0.824990563429637 -0.03434355471223385
3965 0.005541391795584444 -0.575449241669016 0.27952504441974435
4034 0.04248613903426766 -0.3340907512895246 -0.1748435849253775
3908 -0.031297741080727734 -0.060075946881146855 0.1477287235223261
4102 -0.022154898049682323 0.13449795937730216 -0.2735893869265471
2096 -2.194086798326573 1.8187886475941248 0.8463523438654207
4035 0.10280842180821143 0.05756192868640494 -0.04982087561754007
3966 -0.17281896977999237 -0.49422396111617184 0.21332378667655613
2167 -1.2684730276703216 1.2297349464012526 0.12201268876332336
2244 0.22406502356658217 0.6780454716202199 0.3413518462475979
2245 0.34025186917059025 0.39043952192427533 0.6698237336241131
2250 -2.9571663402664914 -2.1220922744507567 0.003275740915963338
3920 0.05522219537257455 0.11833202951855527 0.2576893582815275
3970 0.20812766323891566 -0.47712626312682505 -0.4369057736595981
3921 0.18676518197919467 -0.3246495484704068 -0.062370379933435624
3984 -0.7431678886533047 -2.864037674374447 -1.1952104343841847
2246 0.21191017055913614 0.10327693630857505 0.08340995405123697
2318 -2.4538322753194786 1.5158666787609831 -0.3169892556176346
3978 0.1342297293456687 -0.09736723403134119 -0.18084030559537076
2309 1.7689503979357897 0.6599803405142263 0.4640430057548374
2386 0.7910851265853236 -0.7447509338627067 -0.022829674298882892
2391 0.007772706351409813 -1.0530974518046778 -0.05879740898398777
2454 0.34818606390297424 -0.24324247500043783 -2.8951961447061136
4307 0.5769467823696022 1.1397149829963344 -0.9148992574471201
2599 -1.147571141433577 1.6492580619398782 2.6014933418772315
2606 -3.442573524635196 -6.6784496042201384 -0.9131536921368654
2311 -0.22398547416268327 -0.385921481415504 -0.7773051712440983
4048 -1.6553764645317621 0.45648928836497643 -0.5016869473752813
2518 -1.3023389220272743 -2.043302101614131 -0.8117410926793694
4195 -3.1779123175488557 0.3375758479593467 -1.3490382201779494
4621 -0.5258215339740993 -4.763708785738517 -6.075425969375455
4604 16.23781578810428 8.275881464763563 6.295359559521545
4726 -2.581969043076262 -7.113856214876085 -6.259639839753882
4417 13.187653284806066 20.42451797710559 -1.3352268780107484
4731 4.271581746057607 5.9464756901830915 6.37288664711253
4725 25.797575235201123 -0.8914500742931498 15.476946941371146
4735 -1.4605775412471884 20.903769151971975 -1.0613761940425248
4661 3.6586352782745895 5.023744307456864 5.648258012666625
2803 1.259736560023576 0.7595284486085437 2.1561421278861923
4384 2.2503675562890395 2.5973104811151835 6.033399316461086
4592 4.9824292726735715 14.194563650355594 -1.6137074847085702
2804 3.2930463774014234 1.0202938845454155 -2.1585124948609717
2888 -3.4534480973291637 -1.573244988735239 0.1701792360980793
2889 -0.15216454918019193 0.8368354557489938 0.048969921102958655
3949 -1.9352055817562066 -0.23488994107291436 -0.2730948916504622
2738 -2.4025767736006376 5.4616564418629965 3.281799905040843
2813 -7.215546392719466 5.747427496639725 6.789750652938154
2745 4.195799008403027 4.10522387598403 0.0948949233754076
2893 0.7469106627167766 1.1894171471928772 4.35138767945313
4018 -0.9735287146081517 1.5548510239328082 0.44438517058951155
2882 0.09573324821052814 -1.424108339427951 -1.4688825827195182
2672 -2.903653641511027 1.1747569578301371 5.336385665497298
3961 0.3341756917263675 -0.20247270835930972 -0.47569444935053334
2100 -1.1652868153046116 0.8658768931751014 0.12333615420381891
2881 -3.3810275679770445 -3.6530018502158095 -0.9607057000341204
2106 -0.36601079315572077 0.912172972759651 -1.1611280574863292
2110 -1.4643434757011873 -1.8010239556538266 0.21986199225513306
2109 -0.9781390093273781 0.1745048900305469 -0.2704044309579957
4019 0.403727106666484 -2.192612284761081 2.5348840281867133
2107 1.1127943250556793 -0.6150044642981595 0.8424715941765974
2111 -0.36288931082922266 -0.49531444853956397 -0.5683051063027817
2183 -0.1572741660455003 1.8404064772449482 2.6036617995069213
2176 0.4715900380115177 0.6620237194834528 -0.09436345331331168
2182 1.8587596112446905 2.817451523245358 0.529115556637052
3846 0.2398919065256155 -0.5928266845022687 -0.24299368742659283
2185 -0.2680442148574356 -0.1815974644274037 -0.08975878045143666
3972 0.058722782617255824 0.13412693093275788 -0.18308340141616117
2264 0.020590390282817735 -1.2712684381666752 0.3824199612161949
3980 -0.05723082317375102 -0.13517316713241476 -0.21964855570604594
2322 0.8453285904124453 6.545525339857092 1.724916820822151
2397 -0.4211637513725267 -0.4465461811454648 0.0315309669198108
2398 0.5596810877262454 0.830561417649796 0.44620767832209557
2394 -1.0632355914980582 0.25406819147852183 -0.5459422742481412
2400 2.055373503264598 -1.6475282971698773 -4.138021483401549
2324 -1.4447275584042345 0.7313575726704138 -1.320761592421963
2395 0.49212753016186866 -1.635437350446721 -1.0579149444894993
2455 0.42568666941227934 -0.7337854967280399 0.9159679396149446
2475 0.3995395905208558 0.15184691767332678 -0.5872918717706748
2469 -1.1951812505807617 0.07976306665369952 -1.225437326701127
3857 -3.488648590565219 1.9950570356648931 4.645711869535601
3923 0.13404224444124443 -3.814885416488094 -0.7832583030911575
3926 -0.34438843408420805 -0.1584289948348796 -0.2939792650879963
3927 0.2199280242676368 1.1856134238707647 -0.19334567250284598
3931 -0.10152768976277186 -0.5488213776983963 -1.564939110170989
2461 -0.8012633865590028 0.8879975713192868 0.06331552679295246
2528 0.3846771599529479 -1.33469199656996 1.03658664361006
2535 -0.7939045238983692 -2.9981381088126637 -0.4638151349184737
2470 -1.2140386477857763 3.8818876995079963 -2.9287436404418647
3995 2.1923626801000786 -3.5799438111167734 0.7269189782895875
3740 -5.644428200835077 14.01043534693827 4.717322273709727
4507 -3.2101829699727267 -4.697409915029781 11.905782005332318
2527 0.03229184882596686 0.4075326234702781 1.4324952992021862
2614 0.2018405076247012 2.2139210534760823 -0.2159468401755617
3877 0.45028232820184005 1.6020623600138808 -0.3145567850336463
2689 3.7606511517469166 -0.9133803938996796 -0.983239262803401
2534 0.0869682753275391 2.65606179843217 -0.06117327105665957
4254 1.7181644936577594 -1.3364915149747845 1.970834191133946
2439 0.1574584007993826 -1.352597135873399 1.8240956868195901
2608 0.08453042642766584 3.9526807181195065 0.3529580251347033
4596 -1.1057412703023657 0.3349225425214629 0.2602710339915662
2456 2.233385186728579 -0.7769587228091266 -2.3410829566753866
4714 -8.679810227556054 4.61805201154581 26.317103753469315
4669 24.06069940674074 7.512006598388242 23.895033805854055
4546 0.7773379822734621 -1.2282191154203819 0.27987308407876565
4654 11.830946382072781 10.74162115230632 8.545485254333572
4364 9.273019081377113 -19.494808249416426 10.147580295517631
4347 7.245148870350517 9.868776071931155 -2.277881923283369
2459 5.74719934935131 -7.42250125975347 6.786447573370302
4548 7.728906049333166 6.924474455648295 1.7219075022299988
2678 -5.490672534325539 -0.5231407690742466 -0.8803395554223812
2754 -6.891429374457731 7.940236478908781 1.5095956986194399
2816 0.19534303574379167 8.746233039284741 -4.794601037043672
2514 3.8357252772277763 0.15492742493766384 4.982107363976346
2814 13.554025748035462 18.433772828328447 18.475513596003434
2822 2.8811981834756617 -0.6888865264761699 14.259209416252151
2902 -1.2715005787360034 1.5660311268175815 3.5729314315099194
2603 -12.810666886783109 1.1952716804830934 2.418784852018597
2749 -1.9658949496726537 0.5422782646823654 -4.2432572514795535
2674 0.03875209712792697 0.2932996606145302 0.35740611529116173
3950 -4.41788871101543 -3.1519757761269735 -0.9013827078615325
2815 12.525421623467377 2.5635194522971396 1.58673625295212
4083 0.29259806749909856 2.4074626659168055 -2.8401728991481665
3956 -0.14694423477963264 1.25272783987049 -1.506704371561698
2894 0.46905211297649224 -2.7960853148003784 -1.3276772349498296
2901 -0.5501606520546463 -1.3340077882576475 -2.188793995568181
3962 -0.2084568944532276 -0.6360744571972726 -0.7215596722518058
4156 -4.85821685252195 -1.6031610706163668 -8.130244977850126
2125 2.9705527661248183 1.4541441774821233 1.8031649915111918
4164 0.32812466004223756 -1.2405446903503015 1.3815725407783972
2112 -1.9186275635259984 2.0527262193246973 -0.33550670474626976
2056 -1.4084864171165727 -0.2196893760189473 0.6412177517186278
2126 0.015974341961265206 -0.028622100881162845 -0.1303254717682682
4097 0.8877947065138738 0.07189163782604757 -1.0879993873185825
4169 -0.1390391145445625 0.1796157033386256 0.23363561238407327
2054 1.6934414459467135 -0.04934799219350892 -0.16847129127404914
2831 -0.4012256338165062 0.22870506957437006 0.7685570977879588
2201 2.2103378279208132 -2.5963560172274556 -1.7675546103904076
4036 0.05312542034496032 0.3893879811648178 -0.17309046126070837
4104 0.13432460180503303 0.16864755002582368 -0.1488500117909011
2202 0.5564793269037775 -0.21518533226214992 0.2514780603957365
4105 -0.05601400190474617 0.2842771786324554 -0.5733188806512449
2193 0.12750300412913187 0.24111748230481783 -0.30657052812802854
2266 0.36651421213501034 -0.6816447881749689 -0.06657567746177562
2200 -0.627218119606281 1.1320121674063945 0.5448220387063513
2118 1.5823410333349717 -0.04075476369893828 0.5791150590714275
2124 -2.854148939600628 -1.5947873149004916 -2.9415735767521936
2194 0.009555248867624974 0.11212030788217643 -0.15956945559280186
2269 -1.1342038787042923 1.4426069841173752 -1.1138620115075517
2271 -2.8401972419123704 -1.4028268020368653 0.4957130244774105
2276 0.42556137509162983 -0.3074880004316332 0.12161130860768744
2337 -0.2327332296551962 -0.5089683455159191 0.5813652100718271
3985 -0.1047443249155069 0.03198028377192541 -0.30053233399980805
2330 -0.046793972138592904 0.017544516045847253 -0.49627033444803154
4115 0.7967837868551111 -0.11916939992583823 -0.05388596389956232
4043 0.41960504432568385 0.0038631864962084895 -0.3104737312053206
2270 2.726488059496904 1.0736037151983004 1.2413571929001237
2346 0.43463271097998146 0.4224788514655081 1.530046055752153
2338 -1.5512357038444458 0.3357194980553617 -0.46994257488639624
4180 -0.11368455388362773 -0.03179914368717879 -0.296909504347677
2192 0.7702728546129647 0.5106371515828108 -2.6807802538036896
2275 -0.5617579177759017 0.4417015490284051 1.4545174186628456
4187 0.18200849376300524 -0.04492084423650313 -0.17182476318138262
4243 -0.3067303782012657 -0.14522572618519833 -0.08882179287016587
4051 0.08219344748179973 -0.10718072570329783 -0.3659447811736467
4057 -0.12226972421307185 0.2516470536846397 -0.5240248387291981
4058 0.041931807942805974 -0.05666851176104453 -0.08712933944825918
4133 0.2690330842350388 -0.28469168931547084 -0.27116305191499035
2406 0.5094561044941154 1.1756169102696892 0.8102486974166037
2414 1.0935537983175452 -3.9443045017737832 0.1654973059720547
2413 -0.6289917396175034 1.1238419782245674 0.9707384200066043
2336 -0.23397882544762205 0.005586280009156916 -0.3243545860698242
2412 -0.9148949297874793 -0.2945040611316036 0.12639697748875436
2405 0.024634423798788246 0.28979782759730105 0.2467742794087139
2345 -0.6122178639345179 -0.265354234482571 -0.48019889417789635
4191 0.4801171330180137 0.6188225080399318 -0.6863426258199695
4126 -0.3409979077943414 0.19714516629784176 0.19740772229864573
4250 -0.04577703064715856 -0.8232566708554176 -0.47690537322555626
2477 -2.298960050262494 0.9968731736974482 -2.912574258469208
2541 1.637144768505746 1.9251367563521904 -1.808443418266777
2543 -2.935996788352651 0.015489474844042853 0.8144385234801578
2552 -0.5203742769251195 0.2690206945528044 0.7890781697464313
2610 2.238710022267485 -1.6414714878800176 -1.406149134369042
4066 0.2067190461191295 1.541816354547039 0.6870874044441664
4132 -0.07561433967036121 0.09598790489804568 -0.5993899930260618
2551 0.3901512649394807 0.7007795387047258 -0.4871217511338215
2481 -2.739288399769243 -1.062034387933322 -2.1014325807154717
2544 1.5915846735372017 1.000673118963066 0.05446480858665787
4197 0.9697564772332433 0.7010208093966517 -1.1404135706611835
2537 0.02602947912942091 1.2762865648683646 -0.6442923522618991
2550 -0.42601312226357463 0.5815719584988817 -1.501442413648763
4259 1.00941641696749 -0.5131415739654738 0.4540429521932598
2407 0.656602436800999 0.09609930423075028 1.0238530920576967
4196 -2.4197915828112984 1.4294549939648218 1.1332351661623246
2545 -1.2006466436706245 0.49007754418930666 -0.5215494909200684
2618 -0.20757308234418695 -0.1696464013795178 -0.869958337413287
2620 -0.1422950882744246 0.2621752194334573 1.318368325202036
2623 -1.1700650580390364 -0.9963200454064032 -1.8705070302953843
4075 -0.23373977978241142 0.23672362446409875 0.07279815179611093
2687 0.242188171442953 0.7781789396017458 0.5644584271753681
4146 0.055597897407534215 -0.4197020846042784 -0.015930100719335
4150 1.0290583901647545 -0.2861989921635059 -1.236811491060782
2685 0.06275523344476884 -1.5320964338941019 -2.720221958240145
2619 -0.38571740063604626 -1.812001559148301 0.46253771853972736
2542 2.123194404934873 3.4244561107514477 0.8707662298123069
4211 1.5904957478453103 -0.06145070655467706 0.44091336264020276
2697 0.8727720953527442 0.6519905909804641 1.3728322978228564
2761 -0.4770022173259195 -0.5064062413888434 -0.4825509920046498
2768 0.8629757936719263 0.04894891688219153 0.25764951691432797
4015 0.8570989258369536 0.3696632083272147 0.4691112315247877
4078 -0.26537274077030654 0.6971395245991449 -2.400628315137233
2836 0.4935051705607298 -0.1951775211038348 -0.12951351187298243
2756 0.021537695176678823 -2.9776051717182264 -1.0371906133154207
2767 0.7170519622969456 -0.7717194719430596 -0.5084880685429412
4084 0.9231486776075912 -0.595076924005859 -0.4695294045694992
2696 -0.10108211573825825 -1.1386774635532977 -2.841624916810888
2762 8.470426788169384 0.8317158951736359 -3.399025044922814
4158 -0.26702353378669236 1.0323327804823927 1.4613645779013684
2765 -0.023246441312304352 0.10570727058031826 0.033640883845006325
4151 -2.2424541762654595 0.08974284535994549 0.14345136166261527
4595 -0.10392430735733164 -1.1968748647067782 -0.8322562593005713
4217 0.07161836487038423 0.37536300915067367 -1.3984935123345308
2052 -0.03939495334100339 1.694831307383226 1.4306960761928382
2763 -1.0036961484770066 -2.540351636837884 -0.2539873472245861
2829 0.18721334191279013 1.0137621376284363 1.0105916876679446
4090 -0.30216746941725703 -0.20271077246939684 0.06491983993555078
2904 1.9426945692381614 -0.05713349260986261 -3.3892107420389554
2837 -1.1466980056604015 -0.3157327553026393 -1.8448560197113413
2830 -0.18258386922992118 -0.10385951385124395 1.0420395308251529
2751 -0.15567079577430512 -1.194213355749074 -4.656919488735407
2835 0.3263682259132055 0.012662768197063481 0.46001893823097195
2828 -1.8285368264628643 0.0861366292654392 2.529117151769425
4216 0.04442790418250639 1.6852466832601876 0.7818411933034338
4288 -1.003962126002091 -2.1486545434628006 6.609289198682653
4166 -0.052282593633723604 -0.25539264121030236 -0.3225769302101606
2064 -0.384706574748099 0.12165249757169135 0.20733001597035833
2055 0.7936987147102197 -0.02809501129189871 -0.015180640477788351
2063 0.8550679664583727 0.9724531696678034 -0.6654149417219614
2133 -0.2939816479386212 -0.5258965746400722 -0.4476709007672026
2141 -0.40472688376363736 -0.9637734349098489 -1.238174170171331
2143 3.966928473928579 -0.6980194639641859 2.9607954006621457
4098 0.3156294981352071 0.4831070272233286 0.021887966325497176
4106 0.04482008246943314 -0.029140240310228303 -0.12113527433970953
2214 0.10938964991331919 0.9354145760598394 -0.006003039275614308
2134 -0.11025409205741507 0.46637879570655627 3.644136355328046
2213 -0.18174155007480342 0.11982866646376855 -0.018286602459502633
4165 -0.23400805514408024 -0.12916043300746022 -0.23666882187107283
2142 -0.7975759263968245 -0.16260031064776573 -0.5827124541478058
2059 -0.30416715714267734 0.6163989274243434 0.8187560374728794
2060 0.24517015776534368 1.3732430944853502 2.3435447831192304
4226 -0.37361646701131984 -0.11320982994670674 -0.36804606737520457
2209 -1.4884335718830257 1.33816836384448 0.3591690695050093
4041 -0.33847948517372056 0.3370381137518779 -0.014744416378570907
2135 0.7633707882880918 2.44520091076307 0.10723443105457135
2215 -1.080895474897406 -0.5321452688638906 1.5891804782306955
2281 0.08445397819355686 -0.7326330756935211 -0.14507644490639035
2285 -0.22791937086820602 0.9706667764643879 0.007126171242257647
2287 -0.13920417829902146 -0.08014159216410048 0.07584366339792183
4116 0.39662847893935876 -0.38020904169295855 -0.0030737578103094782
2210 -0.3791123433688846 1.258067484349988 0.7143725700712497
2286 -1.0861179151299531 1.5222905907833046 0.05445673365031198
2284 -0.5358147672161258 0.9067310027054782 -0.8758553079327639
4176 -0.4338439425699292 -0.8893536748434995 -0.555948403623742
2132 1.7236643462904326 0.707958675520869 1.0121519981115148
2208 0.8472767702689563 -2.4097328990242928 1.036305816956866
4175 -0.044533042063423386 -0.17046529111624587 0.03463893258094385
4177 -0.4402740135680072 -0.4999272107053589 -1.014809568561872
2289 -1.6897617918903844 -0.6212441229723066 0.8176908684887128
4044 -0.9514595983513117 -0.11475973263133239 -0.35334003398495206
4052 -0.7048814160302208 1.1199737066674536 0.8005640253689509
4120 -0.14054916577876353 -0.08228585369660697 -0.13243393314062113
2352 -0.5130044822154227 0.11628924824603136 -0.21537104355841313
2359 -0.25550076220935103 0.22466470969473698 0.6088611770022713
2351 -0.6300759221495358 1.3739835586270357 0.7624982403472623
2427 1.1656397879567642 -1.2507498636540078 -1.3422230214425408
2357 1.6076098449041123 1.222854231429363 -0.26108047512938026
2280 -2.163622980529019 0.4009183647323245 -0.17399185436355546
2418 -1.3319053072021911 -0.17977051132234112 2.846647909602643
2420 0.8906545099544022 -0.2816855501367934 0.3333030446158179
2488 0.36884790234072334 0.1515187166011609 1.1763280689163471
2491 -0.11608586809326894 1.4330676230234511 0.6896598119450078
2492 -0.04168865735190194 0.09842939992309792 -0.08528018598854523
4068 0.10658251325923955 -0.2821461499827119 -0.22844077640459823
4135 -0.26758452083473755 -0.847204687655274 -1.534967667555426
2562 -0.04740575730130757 0.3779314669284813 -0.15155877672507123
2417 -0.20190065425700715 0.8183368522035286 0.7222023732853883
4134 -0.1293086761427998 -0.04949881479867628 -0.10046094725561999
2419 0.7743311788150435 1.0404417749376125 -1.6050853287191678
4192 0.06976105667814045 0.1763933435445553 0.24409931975170038
2347 5.131931236673164 8.729938282264339 -6.6775937448506095
2494 -0.10370425320662617 -0.07951648154511666 0.129754061146286
4141 0.3038982763885302 -0.5505104279491162 0.20362395900998903
2624 0.8575951964172184 -0.36132215357909836 -0.045269853002752616
4073 0.04804962314816527 0.1944379820874599 -0.10628462340949879
4140 0.05300958354352439 0.46631536456046535 -1.2545229338591037
2629 0.2788753844275449 -2.238339661526277 4.416037540841259
2636 -0.25827193586257424 2.472559737321957 0.7837452394646119
2563 0.406175991665015 0.2435195016878868 0.8564031272953935
2557 0.6130840189478454 -1.0581498771561113 -0.29256648040157
2630 0.1442008530792294 -0.02526354529792339 -0.12377410388892282
2774 -0.7088324456741578 0.5278789344889409 -0.8178534432218392
2780 0.8260180295985687 0.9010384079186305 -0.8253615722610104
4076 0.4237031576150746 0.09761994259993426 0.011447277703320019
4079 1.5311860307371754 -0.2734012162038068 0.21564598230608492
4080 0.4353765439701611 -0.26791200026522827 -0.1527657215399556
4152 0.1475027873519985 0.0630930122841302 -0.04663158623624046
2703 0.40205206911349384 -0.03861954176917404 0.11338688923568353
2707 -1.2158588253101383 -0.4275887836251317 -0.4279177672464542
2634 0.8048620443708899 0.6304276710973238 0.10745298982113415
2628 0.3124316774208534 -0.33363528155960126 0.45231767345802026
2708 0.049073656075802836 0.02634689895832272 -0.11518934309902648
2766 -0.17744523266199816 0.4547473040049761 0.2697252669373988
2776 0.7484074919111614 -0.7331473826901646 0.014783658946138395
2782 0.11913877379057154 0.04404850633026661 0.5038463062802375
2842 -0.3120791048596706 0.3240122320015062 -0.10470512275089569
2850 -0.5328466306727979 -0.2164725441470221 1.0147338130762862
2848 0.24341267396312752 0.14672380743400293 0.5850695654988163
2062 0.8840444014048344 0.4529033433726826 1.2329771753494676
2775 0.22627017994393805 -1.0197792486389754 0.14801004179070212
4218 -0.13878577559429325 -0.7269741622312896 -0.2375814224030497
2849 0.5011752279202298 0.897007009525162 0.04992921890577897
4222 -0.09271644300269492 0.08065080538721699 -0.3088494886436546
2781 -0.029643830107474192 0.02793889847285015 -0.3941885930198208
4219 0.2539831308229298 0.08791352740692684 -0.33265295223094005
4161 0.017601107289696414 -0.08886722617961235 -0.4042535797165101
2075 0.012418123489198877 0.3639426139420763 -0.12801886600367163
4295 0.023753154090306434 -0.09481412788500687 -0.20760804306534
2068 -0.05294306550596789 0.23750279897182194 0.8692494464073969
2076 -0.11859448725073422 -0.45308152438195354 -1.8417663132396394
2146 -0.24141401816519809 0.5285481296239126 -0.10004336332055323
2067 0.1789366373562767 -0.32709190851180625 -1.886769609160818
4108 -0.051346596907814485 -0.02144323828348148 -0.33464160839892965
2154 0.06590108754335404 0.3426838197954887 1.5771574592256106
2226 0.18093805869991952 -0.154600827289518 -0.5614124656891163
4228 0.579673281336924 0.883722922534976 -0.8413517751131852
4227 -0.05397455271945448 -0.32719750761140765 -0.14046787974169408
2069 0.00016608339099351445 0.3058444535947664 0.44480228314140074
2147 0.09488031740984054 -0.0167068546177587 1.113596822166344
2218 -0.0161926698815337 0.46376445473531624 0.4262646895937486
4118 -0.490604433348983 -0.7186913196878651 0.5590339629652387
4042 0.37215570854241525 0.15553491125821875 -0.4413142512793857
2219 -0.10843308569986025 1.4866751859476548 -0.09444369329885734
2227 0.417185235103692 1.5542968623680091 -0.25308740757993786
2295 -0.7370684762699142 -0.619220357326542 0.540231318681652
2302 2.08331019786811 2.191633078678745 1.1735567961261555
2220 0.8070689094511774 -0.3949632079417753 -0.4054902554319275
4107 -0.1840782047514975 -0.02409474404723811 -0.44508112118898624
2225 -0.4625729693739245 0.5066471554124131 -0.4941842734307105
4170 -0.4552133284543785 -0.29160456175027916 -0.005908643738530098
4171 0.039060288302061257 0.4023786051603356 -0.3074944206013816
2290 -0.07708312339698271 0.7782474931978008 -0.22360514510349946
2358 0.03330228248097996 -0.036264667984339145 -0.3838182895089048
3983 0.4979569617712869 -1.6547362039479867 1.0696042523749747
4045 1.4747450007063228 0.0666876666631664 -0.5900006945690526
4117 0.6339973673756467 0.5825747687349939 -0.016210011257293964
4121 3.1537958929841703 1.4314007031291889 0.8803191541783304
2436 -0.35851599194169775 1.701302365128775 -0.3493205321578186
2366 0.9707973004832967 -0.09029912282581432 -0.835078875578851
2371 2.7595791067290736 0.0944935493111454 -1.3485562242979372
4188 -0.7844188135424527 0.5632340013051208 -0.5841448684463526
4128 -0.2178548538691611 -2.194723932275816 1.3281668505459143
2367 -0.5771669033432362 -0.2700578081182739 -1.0055549061083813
4061 0.0582038417556125 -2.0094076490202095 -0.9972449105072968
4127 2.797484470095207 -2.5977288736969957 -0.37864553562177317
2433 -0.7672887555860184 2.351375129120447 1.615392592350845
4137 0.1647195057725274 -1.2667007764515361 -0.20738550513963852
2446 0.928697335308083 1.4825916464717785 -3.4986603436577046
4060 0.13841531127940906 -1.7392341077337745 0.7775061424600009
4386 1.0264720734969968 -0.9311464782442526 -1.8379330088923687
2515 -6.048585295915999 2.8118691709581487 -0.1847411374274931
2432 -1.7894496801456385 1.36285689428681 -2.5913276327850294
2365 -0.8797867715637709 -0.36856169475812883 0.3899790954054615
4136 1.3273995427444616 -1.9674029489826046 -0.3088748353550338
2499 -0.1186842799118328 0.8025008564703475 0.5098473210805115
2567 -1.608605813353328 -0.08414636811843974 -0.24551652689204614
2568 -0.5216397497442472 1.344086586462456 -0.019673479759216034
2575 -4.01490978041308 1.1726867209066625 1.378083951099278
4142 -0.7388435932945793 0.3277181539104153 -1.5500982695083905
2573 -3.4315388345977653 6.102622530154637 -5.144322825633943
2646 0.9822390002516523 -6.94171519681726 -0.9482076051508019
4063 0.40203909889601064 0.07254487910455203 0.25563802066463226
4005 -2.9601308046927697 -1.0288962572783393 2.917386131016766
2582 1.1794861817617428 -0.34321750516416427 1.8023789374947259
2574 -3.9191879456960685 0.1530982787591589 -1.9344936235827006
2572 -0.34739121439795106 -1.239450965770252 -0.818784857594947
4205 0.2064590763420338 -0.905626608227141 -3.074237507710627
2493 0.051200097445207496 0.2727813176311062 0.2583589433207217
4193 0.1941054899217557 0.9499568205232226 0.0034696241223575487
4143 -0.7606498279500652 -0.5859819373780354 0.15571883442573092
2506 1.4193696015836372 -0.24969839430123558 -1.3877718648161408
2635 -0.20453344652522867 0.3038502439058568 0.31226477062976493
2569 0.04932280217211747 0.0656684767642589 -0.1906706535365929
2640 -0.22717993506455872 -0.046921972411843364 -0.49962299715900527
2642 -1.405588303255172 0.14183565108425758 -1.0969259926646528
2648 -2.2223250585855325 0.8050292764298591 0.9781497341994582
2715 0.009028045553025277 -0.3854250962644438 0.2784264362531745
2723 -0.9254242551537252 0.3721314748916136 -0.23286425265577035
2725 0.21396886388918498 0.13292089229875703 -1.3921373116952265
2790 -0.24760848843893296 -1.415757436949385 0.1013555483753846
2647 1.3631616498298522 -1.1693627701639289 -0.6926612499986439
2724 -0.42028153271421864 1.917928110381219 -1.2266015406615878
2641 2.523801027391772 0.9266083082012032 4.650352410754431
4081 -0.5334746463720642 -0.7570371323684874 0.8746724211569042
4198 -0.1851205026949859 -0.7364601798577208 -0.4299265678096195
2645 -1.0290196995154959 1.2695608140983878 -0.29910491476858153
2722 -0.07034423985032712 -1.1072160693152124 -0.7130794141762442
2639 -1.1941501479556802 0.8196018889136162 0.6345459630241723
2716 -0.5585684948623663 1.20299321915334 -0.08106112087410412
2784 0.08494196113028654 0.9488237723569417 0.0811793611810473
2792 1.065584766320657 0.5312222878887234 -7.289449977020547e-06
4159 -0.005656389047160073 -0.12269314046331803 -0.03343212433325011
2791 0.6287252319180303 0.4326955095912766 0.2170320655434985
2864 0.057914818988222205 -0.25257163757197515 0.242360287132333
4220 -0.08271239277962117 -0.0005748159780618888 -0.08136940540168112
4153 0.005747133687280819 -0.09169032564830086 -0.1699565455894308
2865 -2.602201135341657 2.8363501359738423 2.5029900033735633
2714 0.6411162181929593 -1.018648151891046 -0.5368147249048673
2785 0.12925599362019055 0.005930821745238255 -0.2553576227602045
2866 0.7218002413340343 0.55374776920701 -0.07028378026640156
2066 -0.2060481954980976 -0.9251690037719795 0.15666411418965587
4085 0.01878389079946314 -0.005845926898713134 -0.17600009123190824
2856 0.07372254397111679 0.31912150107545356 0.36911533197946816
2855 0.5202552098595186 0.03257036831137104 -0.2091978264521515
2854 0.3158846111502997 0.13783276075492693 -0.23717304213073967
2863 0.17507605178193422 0.6890653742932381 -0.052738149796020393
2090 -0.28459849487147126 -0.05577530912413144 -0.0838492667217938
2089 -0.23438770897704073 0.6237069800112929 0.9331201164336163
2082 -1.3436940005346638 -0.1097828076284452 -4.986448876300867
4110 0.09037106564345752 0.16250903631427932 0.30556517627665936
2087 0.8163608940389993 -0.5855173206702357 -0.15195309199597504
4230 0.669571693627077 0.10051178902045974 -0.3447657085424797
2088 0.3857997885490652 1.0276071561393814 -0.5115913273489299
4099 9.694395572161751 1.5567192070992968 -2.322710706397811
2161 1.4606740079083773 0.06817340614142992 -0.38923740791138767
4037 -0.38567769853827183 -0.6528911864073773 -0.19286119237619356
4038 -0.25844568376224136 -0.1416800579357378 -0.1883552317264368
4101 0.11023813026808126 -0.09478351506169928 -0.23583345198534492
2304 0.0628758978738534 0.23886208788242688 0.26094531347496286
2241 -0.3367195336529161 -0.052389295181319094 -0.10756771912602152
4109 0.5666641846102611 0.5027272510318374 1.1254786546750506
2240 -0.10952585874910162 -0.1850109544110643 -0.017053416569050215
2080 -0.49699731820701376 0.9852914359928984 -0.9335904190315061
2239 -2.736884108174744 0.6492993915534672 -0.5392281092929646
2247 -0.05757874065883303 -0.6672529747279633 -0.25270650993671095
2162 -0.5345106995505354 0.42341362328099624 0.6373854047297155
4173 0.11717233642550114 -0.1004887394886674 -0.14351209198636727
4172 0.4544727587246326 0.20244904002223255 0.2132928281053156
2235 1.1605971973629399 1.3310736543673243 0.6671934468527971
2300 0.6855101335248697 0.25258850705973757 -1.0183106526911152
2306 -3.6425962965690037 -0.49523426591481884 1.7198640248459938
2378 -0.07265354245319962 0.17292755645373992 3.227349560887329
4047 -0.510492939808607 0.8789092245367357 0.4087371792557965
2305 -0.11774070532824008 0.4604835546684455 0.8134049571233256
2301 -0.3789754685629066 -0.5449976332238831 0.24160179783508262
2384 -0.7030223866126161 0.36765640202405747 -0.2567674508679257
2234 -0.2619907565686186 1.1688973536584617 0.5019157572868473
2520 0.2526611098857296 1.1114059547933817 -1.2446605813965141
2233 -0.2617011214263739 0.47713151158882516 -0.08331824019228114
2303 -1.499244786691703 -0.6192017531170453 0.788522396227363
4062 -0.7372984023746486 1.5683328390572928 -1.0310789627775367
2299 0.6563973506015247 -0.0021639859637294593 1.4070681043760191
3659 7.569087325338931 14.989123703799898 -11.947117402635596
2377 2.27012741821613 1.360296951399182 0.8104414527951811
4053 1.334881810178756 -2.433240217459761 1.4564642244078514
4046 0.6360222575946344 0.6002730560782185 2.4324430286159835
2385 1.2262767190739225 -0.8517538353457317 1.1540914827585758
2438 1.0207122004128837 0.32763998564341557 -0.7201356946803615
4054 0.8370830163084887 1.0187706715700942 0.056477787850702385
2379 2.6875162472440466 -0.1617064752142833 0.363912550285238
2383 0.11546627495187704 -1.87444489224544 -0.7813312210196056
4678 6.537317807155271 4.93650993956301 3.187421691252447
4563 1.6856324231135238 8.819817771377824 7.4411314425167685
4673 -7.482457415444246 8.754698729994086 4.840772891077625
2806 -2.410119002382677 4.927965106628396 5.82425851972951
4738 3.594736155279758 8.429008258661197 -18.180833141550835
4752 -56.3263384824643 5.40745758549564 -62.99479376976008
4672 6.000276898311186 0.7049933141942694 2.51175504700622
2523 0.3469937070256418 1.338536855704172 0.8885067386918895
4148 0.0005555861981341231 -0.2966021193527139 2.188448418328855
4194 2.852705374267401 4.378354612977516 4.678011120894179
2581 0.5127082607756054 5.72769127417732 -1.1222358783996267
4631 3.915670658080825 1.3903900237452538 1.194877670292101
2580 -3.324729371104367 7.602118399687057 0.47554555802106063
4493 9.63856126327038 34.52822969171106 -8.613047005382992
2660 -0.3014328178374007 -1.9880669423467294 -4.87672431956475
2653 -2.4024647782789588 -0.2236429849784041 0.6079818581141914
4279 1.0474733376470942 0.14254683758967318 -0.08215775131383153
2734 -2.072485130206996 3.274132374019514 -3.6521008638498897
4147 -1.181486605531932 -0.8360096986365781 -0.041940756601999384
4155 -0.44712582863363204 0.585165427296447 -0.2052419541912042
4154 0.025489581070675716 0.554154234161818 -0.16303529888044907
2586 2.082170052735395 -0.20579138297009816 2.165557201253603
2739 0.9331881621611144 -0.49053971641688615 -0.4579278110753293
4213 -0.9760620915120192 0.2971522263157102 -0.35521750669895796
2081 0.19017762634363536 -1.0281838460046917 0.31903051793003956
2873 -0.6658469786725003 0.9361644153835528 -1.092168055305599
4087 0.1264211344094283 -0.0864540522701204 -0.1562434697849201
4160 0.2012312841950896 -0.1054672274033175 -0.49117627370940137
2872 -0.10016709010315365 0.33945169748530557 0.2702617189667221
2795 1.5193805072314794 0.684436246874516 -0.17617470565565668
2879 -1.5291439856724838 0.43585543344569516 -1.2028655825299361
2877 -0.08446799277540369 -0.5034460680120247 -0.4969526942283875
4221 0.017777126373456 -0.009522518287756921 -0.00683830214123611
2871 1.1263647621536719 0.7764794028643482 1.2270513768930702
2799 -0.28001176342870265 -0.7262179520707274 2.032522439163491
2726 -0.05893548591922677 -0.08050107978908361 0.6440588684093015
4095 -0.5438356739238032 1.4933520388252666 -1.0865685245763324
2097 -0.5118259881060809 1.3642281340713092 0.04616547266259108
2099 -0.12895515885392073 0.2373724262544009 1.419360623449405
2103 -0.9012953437987663 0.028414095423866696 0.2627958767533138
2168 -0.4423709652958503 -0.3898429209335095 -0.12298662730466624
2172 0.016151763917249158 -0.043169388499191864 0.4166958710908115
4111 0.30727300839234256 0.7253866553229558 -0.33417386607670313
2098 -0.5662225774618261 0.6041651327751681 0.46034831929643694
3971 0.14891281864505568 0.3093956826046526 -0.3581955754160642
4223 -0.279401076736276 -0.16977801683059005 -0.1615326963689768
2173 -0.1314586580062153 -0.08969155310933387 -0.1378930911066755
2883 -2.55548538034754 2.2586145031539577 0.5286413022132442
2171 -0.39723415093396075 -0.17862947940856705 -0.12408556678518821
4231 0.28537904030947087 -0.28688213986284855 -0.1512956117355087
2248 -0.296321510741148 -0.07270217644237884 -0.22687104441100675
2254 0.25771203132345605 0.41314307722024923 0.6132104304550278
2313 -0.12151381994974769 0.21195490616384 -0.3386310038187537
4039 0.048696225485872775 -0.2234323599506344 -0.25213898270502966
4040 -0.035081828246312834 0.3499374988384253 0.024010994231522073
2319 -0.02939922858933985 0.2355581886027426 -0.14350110620311418
2314 -0.34584105259095765 0.48319815441379266 -0.11761936113845751
4114 -0.15958714994359938 -0.09219087671581742 -0.037871766524144555
4124 -0.08313463658968921 -0.049548370155974825 0.0010504093841639736
2253 -0.18706205347358654 -0.11466288376584284 -0.10565649587714299
2320 0.0085032614469404 1.2626286257033275 -0.6825943305001891
4174 0.045317939813438596 -0.09721165374510597 -0.17345447042475115
4184 0.03940378977973378 -1.5405888871627138 -0.244807115940194
4122 -4.102761194992888 1.9176672177221201 0.6688903074574779
2315 0.07481849577357003 -0.5029306039201135 -0.15210841179353218
2321 2.141724347844067 -0.9947813273939236 1.067268246120516
2392 -1.9406267711713807 -1.6478417673466306 -1.1410042917523062
2457 0.29186327135281515 0.145409844882227 3.4299523086911554
4123 -0.9292299917401866 -0.33179259853284065 0.2501748421495756
2452 -0.9217366645411065 -0.33770755568381255 0.9540771531087353
4129 -0.25047829543250133 0.43227630902385134 0.4140265626692881
4055 -0.44163883362450257 -1.8602297915993227 2.566432323098261
2663 -0.10299897520331178 1.419171472114181 3.479634212957643
2312 -2.3811823855143177 0.7587942311606887 0.5311082657713664
2316 -0.08693828051653177 0.08609816588680339 -1.101095362207721
4379 -0.507512724967827 0.3276296461452056 0.3698338800877934
2389 0.6513356101197062 -0.10166127410964144 -1.2446370754440481
4487 -3.183148891683579 7.718739835093463 -1.8363294254879283
4248 2.325140052188124 -1.3974562518669458 -4.6183207177570855
4732 11.539853573889667 -5.619049913781922 34.817516829386115
4270 -3.563797490781505 0.19820297671300224 1.966850899137537
4697 4.909629403545201 13.303537700332823 6.04254320292912
4668 2.498303888283602 -2.0871770648919314 7.547758564083729
2742 0.05749118262171535 -1.4848865884803073 5.009903370922856
4214 -0.7604091999783739 -2.489227164548903 -2.429871552335016
2800 -0.4720307467072289 -0.5220723128105174 0.2214521846719954
2808 0.08801850684019966 -2.51142280016389 1.3961220501286038
4089 -0.24184735434315555 0.008230154808794106 -3.0536022849953444
4162 -3.1469591466845275 -0.430902668668946 -1.5662613703817911
2807 0.43439574560221306 -0.17364413133402537 -1.4885999716111389
2812 1.4191701681837854 -1.8788593137730676 2.026142153616797
2805 -1.382472583080452 -2.0737426998685877 1.1508161712517155
4351 -3.126200671856411 0.12532509433535127 -1.0388675139740313
4224 -0.2711949141139 0.38837341083512283 0.44280910398912593
4092 0.21344271052401245 -0.4882846323372743 -0.003051133103166603
2878 0.046811545812118875 0.602802613087715 -0.12052225953728465
2885 -0.4867619760191808 -0.9325401549021435 0.8538171220967427
2884 -2.0447194399608533 0.37533823527460686 -0.0785076661943915
4103 0.19368168434576463 0.2829498976010938 0.13543704862055578
4096 0.2907564379086456 0.1648917553765471 -0.679338312350902
4168 0.868854592106772 0.5452988359570264 -0.5068313523946566
4113 0.4175480694568582 0.35932220129654563 0.07968516335472867
2903 0.6350077079528221 -0.4823284727632349 -2.350727769701375
2252 0.26465192512648555 0.25004322527828315 -0.10809853029437225
2178 -2.373835038652006 -0.4766428085826338 1.7403669293200827
2180 -0.168230616400662 0.17406593722430697 0.39369560023219907
2187 -0.04174049745406828 -0.2068279050901743 -0.09521951822913152
2259 -0.022369706588594468 -0.24364294119599875 0.04283874139168638
2268 0.3008502168582918 -0.09167096312872285 -0.6735389160385125
4112 -0.17371905029731866 0.4633706212024673 -0.12353946096791651
2260 -4.080951044265832 -2.8289113825670564 2.4127629053095974
2267 0.8978584313408565 0.9229026705200318 -1.45406609546456
3979 0.060643409842927355 0.07170284820587826 -0.10022668846184665
2265 -0.4948431788262238 -0.034575431310753676 0.3897163370673159
2186 -0.027729767626192 -0.2556565426104722 -0.24628427792677482
2179 0.16982656914980723 -0.2802329181209953 -0.45753084856389264
4167 -0.4139268917099179 0.0375095792702534 -0.4125361616399813
2261 0.22483693825860585 -0.2563719638954658 -0.04990390960555054
2325 0.12169776133828071 0.00707222942741832 -0.2513816466662002
2327 -0.45088064442115444 -0.11870382526688501 0.4561969175604399
2331 0.020543555722165086 -0.3798838549336537 0.3717992530174716
4049 -0.14565327664521413 -0.004929554809674879 -0.15533330592101124
2326 -0.21028293021475186 -0.35931414172310816 0.5144539375323717
4125 -0.37037188041967734 0.020637596525215473 -0.2584121736626346
4119 0.005443641731651285 0.07901140134243052 -0.08163033557668584
4186 0.7314979576575564 -1.5584194538314802 -0.8233605432817738
4185 -0.05213725737066241 0.3348629047315457 -0.47020242913637583
2258 -0.3008462661301941 0.47063215708203304 0.3821798055134965
2262 0.6209000590978652 0.39235733329385 0.5321088961690031
2328 -0.12190034727148787 2.1329988130080197 -2.227535570407701
2401 -1.0737966724231465 0.8119870333558525 0.34473643036595264
2458 0.47306267718187506 -1.8962034851481413 -1.7380206557645808
2396 -0.4678514447883565 0.19656139174174067 -0.26811924428337575
2463 0.18273301860471533 1.4415479828704842 -1.0693215099551094
2466 1.0520270738875561 -0.9354483965987906 0.643220209452059
2472 0.20533238445617194 1.1647079797906075 -0.6576979438437749
2531 0.3120193197099926 0.08510683979823323 2.2822064595677984
4056 -0.7523563691993598 -0.1407198160480103 -0.750156107158589
4131 0.2116192570507127 0.24662238413844348 -0.866514412609735
4130 0.4568808596125063 -0.5587218763968822 0.1744189789690895
4139 2.8575331992175355 0.34357000666864207 1.5091318929310085
2465 -2.2085457730798845 -0.08663015030092795 -1.4441292061560411
2471 1.801900475960859 -1.9399921358350543 0.275565925306625
4189 0.9212103843471661 0.4721490458075015 -0.7906326430433641
2464 -1.013154165420535 2.019151209657154 -2.651581202433639
4072 3.196639897858851 -0.33676952160191703 0.9844934474437341
4074 -0.5801745032972275 0.2441217513413116 1.9888632049807224
2538 -0.2610929669174137 -0.7228864523454117 1.3534773291931925
2530 5.907798442062119 -3.422798079757824 3.656375005420931
2539 -1.1869520230498074 -2.040209504737778 -0.34924313863061146
4145 3.079717602850882 -4.115015313983196 -1.0313640462404072
2688 4.114906302821843 0.9919255334063308 -3.2183639509062596
4476 -0.19498763274177228 -1.3975380972902427 -2.26961945555967
2611 0.927197223922889 3.5505142703348516 0.03663425661894571
2536 -4.361848681128867 -3.037180252633625 1.1792791451641604
4713 7.544800192856998 -2.2380263153903583 6.914673847316095
4712 2.8182945056100084 -3.8812885108953386 -0.6631621049366818
4665 0.5648167699950408 -3.802081453552354 -5.039794881350975
4692 -4.719230230398191 8.348992135735935 -0.9647438890962768
2823 -1.069332306723249 0.27662724253908216 -0.4252414982199932
2825 3.952218869847041 -1.8070133722225028 -1.859937676083152
4157 0.6368289731743918 4.706483462561304 -0.8670139723288328
2819 -2.1780460974189912 -3.6369762637766168 -2.7693509452616296
2824 1.40978101601671 -0.5840429943480018 -0.6012158314606254
4688 8.725837540656922 1.246785710367525 -8.758891906788788
2895 -2.330290419432909 -0.6450877389878175 -1.3443684062593693
2890 2.8638934432245264 -2.286558663719797 -2.6941203395858975
4405 3.2379057649143 -4.751345387856311 -3.741271468451699
2741 0.25340119522164994 16.34165000118272 -0.3800134672210049
2820 10.39310575457184 12.03460892783786 -1.6112396486237048
2897 -0.11947327940316282 -2.459419153138003 -1.7118530360456348
2906 1.7410638225438655 2.842464742125916 -0.7987040526148254
4163 0.16959055109948604 0.4417912083051617 0.08433092448846297
2905 -1.4410688945070669 -3.9557057892006884 -0.6233248183458854
2898 -3.6545247911515384 6.361716444708521 -7.74826470581097
2896 2.832803371804499 -1.917238389983014 -0.7051175755194539
2817 0.9579118435102811 -2.422216641432757 -1.6244472668275827
4225 0.0031359223456789162 0.2128303090476731 -0.24814776801915403
4294 -0.4254111695384386 -1.3148158403296508 0.24376101434886982
2907 3.1991921600006785 -0.6586671810398489 0.5411548510274979
4298 -0.2188535014567225 0.8019046560975404 -0.8659311055714454
2119 -0.8126969255896244 0.299983179151467 -0.14627745505534587
4234 -0.2234125862192631 0.2008741976637826 -0.18657269372830781
4299 0.018821049811735956 -0.4135443538477204 -0.03843008084155675
2120 -0.5958477068053102 -1.0936476068440142 1.1668561609009827
2188 0.22615279968461924 -0.06875413142114235 0.2546418030978829
2204 -0.48679812740014844 -0.8226373738639289 -0.06710441408416111
2195 -0.1486879920794825 -0.4259958593642406 1.0851799931311907
4242 2.9835123532770753 -0.2489241524720937 -5.275215261793109
2278 -0.005220464418960478 -0.00831204922729501 -0.12836573664879028
2277 -0.39504509409653277 0.6331504425089606 -0.509068082294987
2339 1.4947671768411965 0.009987172906150435 0.6081800773843153
4251 -0.6070301440355725 -0.7486955820584952 -0.04504008032926714
2340 -0.333699066507985 -0.32086927884821714 0.38681592397223075
2408 0.0789611511731409 1.2875866261844913 0.9773511316257942
2473 -1.0083677572406398 0.5785338242620053 -1.1965426944886397
4203 0.48017628550954805 -0.27230420830993374 -1.6820480588082414
4264 -0.15737989379017803 0.8855789612621713 0.4918689978722779
2483 -1.6606950512447682 -0.3103887906018617 2.698854664237169
2553 -0.4972465826847142 -0.07115198200867522 0.051997762750054695
4265 -0.08303051994371326 -0.5752194112018766 -0.595518620658874
2617 -0.09142254362186042 3.1326153603503832 -0.6479650173353665
4204 0.03078334044758706 -0.6286195029062105 0.49682299732115665
4207 0.019566119218777638 0.47418692395662265 -2.4494980894765286
4271 -0.742016393398109 -0.6952551377653455 0.9811029783540868
2612 -0.19798894141661255 2.0317401248549647 0.17139348629139559
2625 0.6123303788356923 0.7284349274609435 0.09903910092814748
4472 1.1714952881956604 -0.7356676655621578 -0.900658748435755
4681 2.2326161770322566 1.2546857640666826 0.27823114771346413
2622 1.0715410096969502 0.1277104162093532 0.26651044916062644
2621 0.5946328873542207 0.7956023825988452 -0.9135881881610651
2690 0.7991160051655307 0.30413278302086916 -0.7108300393235077
4282 -0.56131053500981 0.35813986064362885 0.5968950765262817
2770 -0.11378311650198718 0.0716504530303411 -0.4996957227309214
2682 1.0845314499150698 -1.324023329176103 -1.1933488053642007
2698 -0.7146000474089449 1.435778264812723 1.8139458016521683
4008 -0.9106570739439979 -0.017496790428031858 -1.8743529659212446
4659 -8.621637759322088 7.056957648048554 2.130162889233036
4289 -0.4504875102790271 -1.6538760582079626 1.4621647235707533
2832 -0.8723513627353972 -0.9383742659915076 -1.576544426224157
2839 0.2573310040122186 0.052218724573105536 0.14908989612972717
4362 -4.463722307329542 -1.4383752457583525 -2.2549814042799925
4349 -6.673907563355164 8.914764465024952 8.441178662495107
2851 0.061667242726063505 -0.29190672996918127 0.6957946554485539
2852 0.0947501400034391 -0.2597959442880292 0.8374731538503976
2838 -0.5882348231906736 0.38118083006484554 -0.6158280298099568
2136 -0.18585474135891972 0.30771518350696697 -1.2905747217110515
4300 -0.2051313456385105 0.5847402178897042 -0.2601898313162076
2144 -0.03903351581746704 0.5244357778516653 0.4920036138244527
4301 -0.5433888312847863 0.21059656283892575 -0.3270092326856474
2137 0.4078992825120685 1.4111956201202807 -1.691153257912069
2128 0.08849374283044754 0.17496433694463492 0.8130008000717378
2203 1.506534929557579 4.837046760803367 -0.05026535976914414
2127 0.41996104049989147 -0.4094829455886797 0.5357893137507422
4238 -0.727274339292144 -0.5151225565015496 -0.3465991939747716
2216 -1.5954529936713306 0.3597694907951941 0.21219080103042992
4237 -0.27263053932339176 0.15316703509736793 -0.36364475652536954
4181 -0.22946415632370756 0.21957373362067487 0.059595866329442124
2353 -4.187456751335392 0.14070680944985306 3.692147249608428
4244 0.030380016732910946 0.2495816033414945 0.017954162120584528
4252 -0.9136861624091716 0.045315373655524085 0.13949677185081646
2360 -0.07888193504030026 -0.22728612945672208 -0.8966177197852009
2354 -0.0851321455564891 -0.05545057956323166 1.2065007844765965
2421 -3.559446932761248 -5.971815727381237 6.146643482412369
4256 -0.09872983224084854 -0.7507424914993908 -0.305572445951549
2422 -0.08624875251931981 0.4062925695236589 -0.16216379723758312
2501 0.4803974850285213 -0.13740916501197328 -0.054420151700930314
2482 0.060243210874511406 -0.8491575669930101 -0.9785351383654638
2558 0.1928133592515335 -0.8059801820771113 0.07348066956261065
4273 -0.18703449719099147 -0.3800316361013026 -0.7280475700418391
2565 -0.3710349225614879 0.44994175678490084 0.4027993743975589
4272 0.18113986375635768 1.0905979696115609 -0.5378448178006484
2559 -0.10388608115650269 0.20985669585283537 0.5310704786290594
2631 -0.080303418077596 -0.07599861441799137 -0.4728426768323316
4277 0.030666029105645826 0.22925670400936715 -0.41162407916190963
2709 0.6833419725794385 0.6007596582127334 -0.12155621398630222
2632 -0.18848271806899683 0.32475727181615405 0.11312618743508977
4284 0.05503178982581205 -0.19475541838180885 0.05854618336488601
4425 0.8806868351922125 15.820478551648934 19.219143612230415
4283 4.13113207715958 -2.0747534245638666 12.375222305312237
2769 -3.013193653354339 -0.6795199429012553 1.364159405891631
4212 1.721953065743111 0.038592470039999056 0.6859245147256037
4290 0.054790144632627796 0.07535819933899647 -0.2700591982046114
2844 -0.07932568845494134 -0.14562395352701027 -0.032197127580928936
2857 0.07409284241292591 0.06539139654188729 -0.2293879331738839
4302 -0.5786553457103745 -0.33361956445098806 -0.6485676468415918
2070 0.00144678392526628 0.4536215303660555 -0.1337809259468505
2148 0.1973153112718555 0.31058313089057527 -0.3064413404650851
2229 0.44482677414689975 -0.6358656694281815 0.34663680863031243
4178 0.31284678420254103 -0.01746106641459704 -0.0516293341623532
2221 1.5224557427004466 0.6542132910765831 1.5328592520337094
2155 -0.13853411274505023 0.04100691402056383 0.29435414155317113
2230 0.7759168160823499 -0.33128087961533353 0.48978548828923396
2149 0.0270404763113792 -0.37388431106744113 0.5130422149692742
4183 0.07262375816024139 0.21747877024739737 -0.26999669866212755
2291 -0.3344160924505093 -0.6399007920976784 -0.27515335783554845
4182 0.14280546259318824 1.0332783856745646 -0.03385809158072167
4245 -0.10800860359933427 0.23271777634814966 -0.386344220541317
2296 -1.9827182968634323 -2.871800555443416 3.3768912507498516
2292 -0.9566618193808958 -0.8469503249901944 1.040821149494135
2373 0.09087971750236888 1.5390434469502559 -0.7316162473728329
2380 1.2416515216249389 -1.947392680037443 3.3157139602557577
2372 0.1926760835301099 -1.6193466306573048 -2.588845633765565
2368 -1.056671633547063 -2.242864145219147 0.07147536515685689
2428 -0.02496756636253569 1.916581508523908 -0.670128179230086
4260 0.03792316441789557 0.35772233652264046 -0.09508353437626227
4257 0.36354317269067127 -1.2342309890144574 0.11382562876988843
2437 1.1903186251978473 0.2713648498278352 0.1902916545690186
4258 1.3215268811867602 -2.958619259722056 -1.3947295264402488
2512 0.3535060875931992 -0.3076308508839039 -0.8756258979470333
2508 -1.4007625148285887 0.11874105158632724 -0.9077418815677433
4422 -6.879153250522259 -8.954704935468769 2.4215983981317777
4574 -0.6535824326313563 -7.8956425193856195 -1.9445685805237385
2500 -0.1642536046719668 0.09505263447543426 0.7120113109589661
4199 0.0178073097824194 -1.4363099907798216 0.9242881301109017
4266 2.7884932490848118 1.288887467072992 -1.9599477471676945
4267 -1.1860527892836656 0.35749158833997147 0.10954466577663358
2507 0.81797053610328 -0.02554178033921098 0.49865561791892415
2584 0.28172185528370725 -1.253250385717463 0.8595055471871519
4419 -2.376336839505635 -3.8324922950136897 -0.6668314382289159
2564 0.16852601341121407 0.113926609580139 -0.20509311001381678
2643 0.3454313118475493 -0.7402846824651782 0.1785020006808605
4274 3.1006020990662284 -5.163371860415672 4.277474323139898
2730 0.0005809861893461984 -3.417258316698944 -0.6533027396797134
4275 0.17462984239790974 2.420963669686809 0.04025787088697165
4278 -0.0900904716978767 0.3091274447859002 -0.04851403514400109
2717 0.3721900732521125 0.25416773270741655 -0.05444742733041932
4285 -2.059662628431385 -5.189626378320716 1.9808673514728437
4291 0.07946666182160783 -0.23193204802954437 -0.28412549175886603
2793 0.29897792415171187 0.04635652202198618 1.3327381269964071
2786 0.0739515673844634 0.3702876187395811 0.037646473483467134
2783 0.13428614170462408 -0.2908910964668773 0.0796005842787877
2858 -0.007943594681447577 0.32624728189933044 0.5136225284454219
2867 0.3776557233606711 -1.270480977754434 0.08353856833047411
2874 3.8965300792383806 0.18607475646119817 7.6112748780791994
2092 -0.06996064486462081 -0.018421356515275863 -0.02098064572752541
2083 -4.769845131133016 7.690072913881962 -21.455324258173217
4229 0.3910519306172672 -0.10267911361852909 -0.3328158369836803
4235 -0.02743888387836019 -0.3056467137753201 -0.19428023100685363
2164 0.7245871516999912 0.3858070885805542 0.6117509640023373
4303 -1.509646912741118 -5.93070260891986 -3.0288758197050027
2163 -0.3663152589197174 0.19150972917272957 -0.1455003398951022
2236 0.0315899615595567 0.5156066010165955 0.07962841838526721
4239 1.0425728290234484 0.9718139271723172 -0.20121527122048974
4247 2.343551867408496 0.4067039384467595 3.0757549565845
2388 1.7086324982412004 -1.768914392858873 -0.6157190785829356
4014 -6.962232484256185 1.801609604824552 -5.037705023426964
4436 2.6699230535642546 3.3631612655299046 -0.8624426257644668
4640 -2.0116451382469256 6.739092852490169 4.4006969103962685
2445 4.110541944587785 -2.68754715141747 2.201957173831264
4246 0.9716824043107234 -1.9316002696812993 1.4585283423029567
4253 -0.4606232737714853 -1.770728460030844 -4.991358353170166
4535 0.1641544937598939 2.495550030319154 -0.2076541219152452
4670 -6.530123694641461 -0.08085451829877742 -2.589644853781659
2593 -1.2797035254638531 1.3567538514343225 4.58409852814313
4564 -0.3176175950662307 0.4377577955032679 -2.3418999807315113
2659 4.687596750776003 5.715346103465396 7.562582760187527
2752 3.62900553902824 1.5253405580826982 -6.474136684049319
4529 4.694049908614757 -4.2150725186422635 -0.8612771356089933
2587 1.715295789415538 0.08602180576420479 0.7939095896453763
4690 -10.816820425017761 4.999239986071875 -1.8827693000209094
2583 -0.2130682149212343 2.792487437356405 -0.32390818340245636
4276 -0.8613837346462562 1.0964952783124655 0.7820707949771043
2661 -1.053255209554066 -0.8793919812357204 -2.066961350904621
2729 -0.47616416413057144 -0.9660705193644622 -0.2682685322238967
4208 2.738016601526476 3.317087649997923 -1.521086514826859
2802 0.9154701438467272 1.9799305165292649 0.22880878504897523
2736 0.024636611521212947 -1.2533577455876612 2.3828046218672094
4393 1.7233214783137758 -4.095022509680745 1.6200144730799575
4292 -9.961677685682664 6.9996485958127375 8.256215869743256
4293 -0.07674059749243063 0.9490743602668527 -0.6006591495992879
2875 -0.1845464449018446 0.9794097856966075 -0.05117867328566763
2892 -0.6038891014376397 -0.16190874360246418 0.4100345012670494
4296 -0.14105181998346084 -0.33040306113226847 -0.3286941489688358
2886 -1.2533231670468183 0.031069833653835668 0.11593552060484243
2091 0.42775017369177937 0.5703933561219161 -0.19823876896968579
4232 -0.23768258944856588 -0.055855257047432154 -0.11727558607048966
4297 0.05792902576921993 -0.02519776352078877 -0.5618687846960966
4304 -0.10580627995589055 -0.15117980488202284 -0.16115641492798252
2175 0.2896910231590692 1.3177699835333903 0.22192746693385346
2104 0.30028592125386244 -0.22429197417160637 0.541261091038477
2242 0.7165135402413884 0.04525449731589076 0.16484133812165752
4179 -0.5498446740089621 -0.23869045495962882 0.39066143530651176
4240 2.9827042568864 -1.0289024831854252 -1.4235071799828658
2256 -0.19638589192615877 -0.1483633398196173 0.04207447449306972
2249 0.0781167461159859 0.4990934333218698 0.2369519590142551
2169 -0.6113709631057508 -0.5583902028509308 0.2734931959259264
4441 -31.337951243890842 -2.7480909605196553 -26.425869462822682
2307 1.2824672446121055 -1.600620394395813 -0.0008320315295953272
4315 8.423332060361233 -2.469042577352383 -4.603571629303097
2390 -0.9012701691949596 1.1245801170584804 -0.5305430707513384
2317 0.27932425716622744 -0.9091438555741195 0.6377808177790338
2393 -1.5125554263987657 -0.3190345020373406 -4.341400860324735
4261 0.7042637969216287 -0.24706733260337427 -0.059952423354651736
4516 -5.585646904382829 -1.4273815817977114 0.593758346392814
3816 -2.230950987530184 -3.283806169339394 -4.53270447595431
4635 -14.192136982944588 -0.3780714429465313 16.720715933758772
4553 0.21570523689688084 0.8923200546016393 8.495105952762206
4653 -22.238594895946182 21.66735260627055 12.92298073792503
2662 2.6568635552738415 -3.56325369153713 -1.3536925188017823
2665 -5.038808359381052 0.8825734061393005 3.238161321229484
4341 5.414102484543538 -0.5042477002516081 -3.381682048631231
2809 -3.7660767654508818 -1.3104084454139375 -1.7457763754473767
2810 5.7483702430499015 -2.0444269089446574 -2.50322017367679
4268 4.65171666274634 -6.173706037282286 0.7610966412647163
3994 3.2400410763567966 0.413400804417638 0.610887534788264
4470 8.840094844872057 2.7017209382794287 1.7985250480098993
4394 3.102859173064936 -0.8738544020422674 0.4506649306275678
4662 1.9326327630152424 -1.3997834925616457 4.266635995404982
2801 -0.8234869165631372 0.6405514390852929 -0.5480333126750748
2887 0.8743830319985628 -0.9160335194817202 0.06483996036971215
2113 0.6409141454517349 0.6550257522990285 -3.2992013661999158
2899 -2.5579692537903744 -1.5690723945524971 -0.2536142217031125
4233 0.3468788938754025 -0.32768529175509864 0.03476209314947448
2891 1.020920114993142 1.5448293085829643 -0.8131673736036712
2114 -0.0940569832692929 0.2824065977490442 0.4742108232683557
2908 -1.439870659672082 0.13394404598450366 0.128590014870901
2108 0.7954079794532334 -0.09935330487454709 0.6281283871103084
2174 -0.39727395160709134 -0.07399219687119307 -0.518875398173889
4236 -0.2829009097199163 0.06806281795003852 -0.195283357333587
4305 0.3159841801495447 0.04692044464144335 -0.07340559629758256
2181 0.4002089804503652 0.13125591937421602 -0.7531871495461635
4241 -0.8687411855854519 -1.1785352280043537 -0.21262597413132456
2255 0.8366971794169603 0.953017061465614 -0.04820463917073425
2332 1.1446490794819717 0.8671089883414344 0.30393048629406394
2263 -0.6968127624209548 -0.3177197843690166 0.3383150742624137
4569 0.4903413266597675 -1.3982452499253322 -0.6312456538855769
4249 -6.667421424094838 -3.6507376171770427 -8.38661474484766
4190 -0.03921896519210975 -0.28829774519456386 -0.20390039716493782
4255 -0.47570342116198244 0.37319338900915855 -0.5808502566575052
2402 1.8807997710622233 0.552387144125775 0.69591453773317
2474 -0.551341625701912 -0.14587060118429476 0.09474515060406691
2468 -0.6828326754732146 0.20482425507040025 -0.7392030933838167
4414 -20.970204499617676 -4.310038042467866 -8.929887128289021
4262 1.137119747981539 0.841188110701431 -4.586213241636859
2467 -3.188017478348769 2.1364544615867374 0.8805674631226768
4648 -13.499464753082785 7.882251223124727 -2.723242544817398
4263 0.3522779300074257 -1.709336062043587 -0.1179077209455185
2533 -0.9352573926728547 -1.4096473874579536 -0.707255045675264
4636 4.132249561340209 -4.75670151027712 2.7508779631401468
4269 -0.21241357698975005 -3.8434209573886515 7.157115332186141
4708 5.365697494682594 -7.327606010337785 -16.84260060267182
4494 -1.1757322034360358 -6.474842504641151 4.092422454200658
4701 -6.99876184844968 4.5629514201178925 5.259064710560581
4666 0.6962435366700778 3.0739379763906522 -2.1530556386689588
4501 -4.599250944227847 -10.506980155751204 7.909433646935295
3799 2.226860491555852 -8.200965535546661 -4.718333052407521
2826 3.143529625901693 -0.6859444626604474 0.20579164736228087
4286 0.39250951173636367 1.72781121305646 -5.794829618037542
2821 1.0648013060145647 -1.3389942609511103 -0.5964316563128059
2900 -0.7274610845109616 0.10547232376137661 0.32389048876505155
4287 -0.5374066690701248 -0.3954064598977254 0.022724454929196797
2691 3.366406844576266 2.817533762176542 1.2841307623316567
4515 -14.508393186772777 26.295202201011072 8.409775060700282
4486 1.258522981777153 1.7545034849076653 -5.443406402189564
4001 0.964988183106515 2.3402158302026677 -1.1366568815759857
4614 -6.1284598414494535 8.441648722398604 -0.014082778310696695
4497 0.12257024475609639 4.951934207548553 -4.053034734338277
4663 -1.3323324827496905 -7.468967855741893 -4.896358998931094
4634 0.5919688371094516 3.1473137710190877 3.8012029520911685
4519 -2.933774511796584 2.009245857989843 7.161174793882801
4680 -4.865916794252135 3.2136501911464666 0.13443826846866622
4350 10.184388006330872 -2.906540777165376 -3.177949199189766
4545 3.8070588051594263 2.665645694236374 8.293124119574783
4410 15.24961622226013 8.48398381394184 15.672254938674795
4532 -0.7028892528178159 -26.85041175420575 -2.7821825628590666
4450 -2.329721962033575 -4.566875208286758 -2.1014860792562837
4308 -5.516705047652166 -10.570272769434917 -8.171848672104547
4458 1.4590870671029228 -34.78360501217929 4.979020238970814
4575 9.701471914538493 -35.51772827636865 10.056163915681172
4421 -3.6214541348954072 -0.811341249223016 5.478896736208657
4667 -1.7482314514449344 9.873904286885798 -1.7689170139016164
4520 -3.1305556837112474 -3.2730417733333743 -0.08956451024889173
4492 -2.4175409492473046 -4.6665699716936375 -4.57563059571956
4644 -4.4423123391180575 -10.797672479845879 13.02884711245311
4599 -3.3387569335393494 -16.422117962236303 9.913213299623106
4463 -5.943750287719841 -3.4343827634604605 -1.624671483940788
4373 3.6200098310263615 -3.204990869985608 5.016392376415992
4457 -9.885003689366346 -10.521063798621965 -5.177274363526431
4461 12.326824823819917 -1.7251146143611409 -0.829839373771518
4722 11.608990044463846 -12.314307099157324 4.821814030321673
4334 0.7455473538913066 -6.1339503192160025 3.995744660113489
4684 11.0483800081289 -1.202975017826882 -9.855947025633851
4469 13.519214278865938 -1.093388884119495 -9.803119613117413
4471 -6.093370916681994 -4.037363429385947 10.994197268068833
4601 -31.247349981064893 10.252357726917005 -13.160436573541135
4565 19.562811486372176 -10.819678729666563 33.135037642856474
4496 3.6832616448601097 3.1484827258916086 5.558887744199558
4600 -1.4303399694839354 -1.1780486292889005 -0.00374112839287732
4522 0.8713441772949905 -7.102160221480875 2.2399675196114512
4518 -5.7002406301877535 -0.35692729994618877 12.958017757909634
4343 -4.460097479110768 -1.2605886798417376 6.969114354574585
4577 -14.726812650664542 3.6720119832480362 -4.029031076319686
4398 -1.4466769858999633 -4.469246437466221 6.157002076095061
4374 -2.974090004634884 0.6885838284501675 4.321286648035971
4537 18.46507538171003 19.329922213092196 -1.9401003331090938
4423 -2.282489923265615 -4.994618424766715 0.29295364790604317
4567 -7.063410809663343 15.658266513290052 -5.194540676928118
4498 -1.3055496553103985 1.5600434759234822 2.2724023576507166
4555 7.853049128246793 -7.436303158832991 12.146044966330724
4747 4.26707396223007 -25.307296909339335 -16.16685733786731
4215 1.8698339648407716 8.333144903557843 6.616955183258869
4572 -4.644444525748026 -2.6493708003374774 4.003715999819823
4435 -2.7567842958323343 2.62603649008361 8.182239806522947
4619 7.763939362677836 3.0269293671328166 11.336381148760614
4324 1.5734552681034315 0.7869061577144058 0.7297209989800474
4566 0.3838322246631753 5.005582702677914 0.4380981784126251
4617 17.06705298040056 15.002816621844154 15.50213386473685
4625 -1.851712848538741 23.812030663723068 10.262839477194396
3805 6.200714591605109 -3.1136464995816064 -4.76772322457359
4580 -2.512532415864611 6.0739793858931215 -6.022874030891969
3862 11.1908537836035 1.0350255547689906 4.148390443183155
4483 6.812625717085169 2.300098000513942 5.7504219994265995
4404 -16.234453099480042 15.958520866510064 12.128845780213949
4407 -16.2155556558722 18.685169133121946 3.092831972182256
4474 2.5389167549295775 3.355146242539052 -3.055398156004454
4513 1.851132810575808 16.889420677827253 6.863122981484224
4481 -7.898521205883372 -28.169295446648913 -0.46479231207352617
4746 42.49405146751105 -35.26571384877592 17.372040028705676
4478 16.167701005982842 7.061544325198358 -2.304732080573457
4360 -3.9980255983500346 -7.559641571625617 2.598041956794784
4310 -4.156901798310784 -1.3473794504686485 -3.066071356270141
4610 -32.3466395218965 -6.96988222512595 4.073674444925303
4652 -2.8753679495311077 -23.507771774764866 -8.437635229753377
4500 6.482867476657363 2.175768717032715 3.41996033446064
4582 4.627053575716948 -3.4130339221673753 14.00984650755726
4209 -2.8672918395362617 -5.386905229287877 6.87360373860393
4359 -1.5085580002979257 -5.442849214753872 17.42058299034782
4647 -8.005940141352388 -8.890522637800894 9.033657047399686
4465 -9.757282104836252 11.76790145264397 12.300466988898695
4400 -1.8925835639715 -12.769612500183062 9.05763136295008
4581 -9.737476851788026 -3.7665466383313144 4.954679347004622
4608 -17.444801657241722 6.179258040898506 0.25980468538143625
4527 -7.01939317971564 0.33767172846098664 0.2299552405302097
4718 20.62036230162395 -2.4247829386180553 18.79902127126249
4455 6.482189706510748 1.079450215380695 11.643647592381496
4536 2.5385352944910955 -3.4517598460375134 -0.592006940027565
4433 -10.256567621314694 -11.907715612331137 -12.258204283164295
4597 -6.387980533952336 -14.725014144039138 9.169054285985462
4593 9.344905043640784 -0.731380154652811 12.04891022833713
4311 18.548839193169353 -7.7653784326916195 6.841081619980504
4629 -9.929197167876302 14.030068617904867 -1.260630711698777
4488 12.233894950624302 8.864456667862461 4.6178386035055645
4418 -17.264933541257086 9.091389969993385 11.676481213264719
4499 1.7666097186677918 7.929904069896215 13.268375546930908
4560 -3.0404107275728647 1.3537290171403753 5.2514301906154275
4542 -16.70237491329581 -7.401650484228728 -8.372690909890075
4521 -7.69981619189571 -2.070487377429625 10.134759204258021
4675 -15.111510793786689 -2.3999351106901066 -7.764560075356315
4626 -6.133931375713818 -3.8931043703476305 1.0346228342039392
4524 -0.1949350803483804 3.515636679049567 15.815195665464946
4464 15.557979785854561 4.777797179020907 6.7631122798337815
4656 -20.371325039472357 2.3718466628493418 -4.803208002345558
4613 -7.363063253594971 0.8356584239687513 13.16551249214732
4611 0.29871211791307106 6.788778043914252 11.713120180876997
4447 2.0568139211337053 -0.35070310747504824 3.210072728562157
4570 5.382642180322095 14.862415073433496 13.6451716739813
4576 7.06783440330128 2.7775891021011367 16.63973484434891
4606 -5.148919704324679 -30.631906661486376 -0.07652516878771791
4657 1.344888729683895 28.97763004217088 8.40270894952332
4338 -3.6360995925516786 7.932584403141977 23.12168141841136
4528 -2.323857150992116 -11.253339904567303 7.876094840060368
4729 -7.529507869336839 -24.260152796100584 20.053584473241155
4551 4.251813835501007 1.0039050127006968 -8.416757958614465
4637 -3.2365426685743217 1.4212194665865536 0.7011556695897198
4368 -4.002998617575146 -8.576084422713159 -6.93696079857836
4642 -8.699207676452525 -4.143933945991732 -1.409220752087269
4578 16.048314510074874 9.290411929748878 -9.902838294661313
4707 -18.039104652749717 -25.154070616107987 13.619999701341786
4694 16.428561182811286 9.751787735502088 11.43909310936893
4328 7.974738232459678 -15.736427317599906 20.27889105933467
4554 -8.103504263088944 6.059525228840016 6.995262255015072
4641 3.699642349594046 6.77164925009301 0.9192028934877637
3804 -11.047178067231226 14.831510348594648 -1.4912292572515402
4366 4.589755314625925 -1.2943351901454396 11.144321246976295
4511 -0.05145265207983651 8.495889623959421 -2.293036440902974
4630 -2.7705683598262 -4.175908742151078 8.683303379376069
4745 1.9157533154115254 -4.994817675397536 24.5570676342076
4612 7.295289740318723 16.041754159761368 18.732920005119876
4490 5.407588090666693 15.23660008071313 4.73381500580409
4616 -16.298162391179968 -5.542139765424657 -5.692337021227996
4397 -4.476484182874229 4.943939581112484 11.79360131191079
4202 -0.2020259466892806 5.943428717335457 12.033416895245539
4594 -2.3073914542078184 4.083354431715683 4.093287463535127
4628 9.365594501106452 13.852060491413399 4.828446692967588
4541 6.210125908015365 -33.76519173577142 39.74928684678008
4590 -12.378483261721387 -20.66483737705975 17.719707145383254
4445 -0.7720235801216097 -10.19100717474103 8.417556067167222
4588 -9.260095419664568 -9.63798582676878 4.056169844307605
4650 -1.894063231532472 -13.698595957163104 10.240648449469173
4607 -3.391444638954215 -13.10493789202952 10.38955810177833
4448 -4.43007530188558 -17.0350166345406 9.568712199857153
4504 4.202540198697421 -10.374804793294745 15.543761801717329
4645 18.49043387765737 4.006911053866677 -0.31975114359386164
4467 -16.27224963125443 -15.727674830600494 -1.9169963197585027
4689 -3.291603862080367 -0.6744281764656432 8.683788200177624
4609 20.5618131927586 -17.734702662936993 12.828936260240269
4281 16.55697301085141 0.9577504568308841 14.779345467007113
4716 15.660350957465576 10.714385450964702 -0.4025792911873432
4538 14.309881083876228 16.309221400802585 2.139687361789249
4584 10.549763648096091 10.44977042918306 10.317083327609158
4413 2.0236914621113695 4.044253841535677 7.261791924718202
4687 -3.9097893192091866 -22.83572091181966 15.920607423541481
4412 -0.9554226757338463 -15.535677568376025 7.934314406480211
4583 12.566318760925768 -2.069801324390938 19.28873755859125
4544 32.578874465897634 -7.665040180406252 13.126536551564975
4598 12.709518862813113 10.968754228961675 23.82150035462136
4743 16.488954910139817 -16.547001974353023 -25.763102466936196
2592 1.8054958236712044 1.2053198876521087 -2.6382395920263404
4344 4.247940320121507 -4.442182266170981 12.927040885935131
4706 -10.174504660020956 -8.187038966024565 31.716479816838163
4416 -4.6606462402865665 -8.117072702880808 17.930625399584134
4699 17.096137554977464 21.04751281928484 10.204268912603471
4557 11.01777049348028 -0.7274127162342644 10.727170715658941
4389 4.066149402629156 -6.25351659817576 20.81681589577245
4710 3.559130780978562 14.50480776261509 31.88820374489893
4200 2.8344088218248773 1.799702199278492 7.23324278261154
4356 4.611650068475616 2.50210268398651 25.751624788329874
