52
Lattice="6.1150000000000002 0 0 -3.0574999999999988 5.2957453441418432 0 0 0 54.205876500000002" Properties=species:S:1:pos:R:3:PW_PBE_forces:R:3:lammps_id:I:1:central_pair:I:1 pbc="T T F" PW_PBE_energy_eV=-390.44501762197348 config_type=AgSi_parent_36A_dipoleON_k6x6x1_sigma0p10_v19
Ti 0 0 20.388251499999999 0.00074245599174354053 -0.00043113670146780424 0.1603782657140588 19101000 0
Ti 0 0 29.200001499999999 0.00092181432982235462 -0.0013548772391428197 -0.016211947990631439 19101001 0
Ti 1.5287652899999999 0.88261540000000005 22.776235750000001 2.4382108069876217e-05 -9.934042218595917e-06 -0.25615218428375602 19101002 0
Ti 0 1.7652308000000001 31.587985750000001 0.0094981351947521307 0.0084950808107937814 -0.072506341817159772 19101003 0
Ti 1.5287500000000001 0.88264187999999999 26.81201725 0.00021821078398303638 -0.0013167823232341533 0.014510116329303987 19101004 0
Ti -1.5290000000000001e-05 1.76525727 18.00026725 0.00076243337057962544 -0.00062383056648315761 0.55058631304278149 19101005 0
Si 0 0 24.794126500000001 0.00087095763025638994 -0.00040714494018608796 0.073377842402932728 19101006 0
Si 0 0 33.605876500000001 0.040536116688645478 0.02073901230772986 0.94701688532759098 19101007 1
C -1.5290000000000001e-05 1.76525727 21.6606682 -0.0013562464146777127 0.00085275338782244163 0.17299788441306074 19101008 0
C 1.5287500000000001 0.88264187999999999 30.4724182 -0.0015638086741162423 -0.0021548591247667758 0.082001743829434065 19101009 0
C 0 1.7652308000000001 27.927584800000002 -0.0010494946279567877 0.0021948317872641102 -0.10143119470581292 19101010 0
C 1.5287652899999999 0.88261540000000005 19.115834799999998 -0.00069873763787164749 0.00066588890737214466 -0.89418183826948072 19101011 0
Ti -1.5287500000000001 2.6478726699999999 20.388251499999999 0.00073189930746913852 -0.00042250395461678706 0.16037665599476433 19101012 0
Ti -1.5287500000000001 2.6478726699999999 29.200001499999999 0.00091700394616407721 -0.0013538178255130694 -0.016206467757981024 19101013 0
Ti 1.5290000000000001e-05 3.5304880700000001 22.776235750000001 2.7638464073467817e-05 -5.2013702944082605e-06 -0.25615376372373205 19101014 0
Ti -1.5287500000000001 4.4131034700000003 31.587985750000001 0.0094951443973573836 0.0084980675798492378 -0.072507350093041989 19101015 0
Ti 0 3.5305145499999999 26.81201725 0.00022561103442590938 -0.0013185416128367591 0.014511449235744862 19101016 0
Ti -1.5287652899999999 4.4131299500000001 18.00026725 0.00077444662104004006 -0.00062525448135452709 0.55058934722771458 19101017 0
Si -1.5287500000000001 2.6478726699999999 24.794126500000001 0.00087344103267519662 -0.00040503486600789828 0.073377395873483381 19101018 0
Si -1.5287500000000001 2.6478726699999999 33.605876500000001 0.040535976905326655 0.020741865046565378 0.94701636691195001 19101019 0
C -1.5287652899999999 4.4131299500000001 21.6606682 -0.001358133779620995 0.00085407637809499254 0.17300458339693367 19101020 0
C 0 3.5305145499999999 30.4724182 -0.0015722627570043874 -0.0021463278798303348 0.082000445221993387 19101021 0
C -1.5287500000000001 4.4131034700000003 27.927584800000002 -0.0010460032827160426 0.0021913870524263301 -0.101429525066558 19101022 0
C 1.5290000000000001e-05 3.5304880700000001 19.115834799999998 -0.00069752151234190977 0.00066499005350518267 -0.89418293362766321 19101023 0
Ti 3.0575000000000001 0 20.388251499999999 0.00073377780713904984 -0.0004240738702085882 0.16037623958500155 19101024 0
Ti 3.0575000000000001 0 29.200001499999999 0.00091656126245140586 -0.001352078609123704 -0.016208311104584289 19101025 0
Ti 4.58626529 0.88261540000000005 22.776235750000001 2.7616763444393435e-05 -1.3087837060933693e-05 -0.25615236622261955 19101026 0
Ti 3.0575000000000001 1.7652308000000001 31.587985750000001 0.0094967859464935769 0.008495508902193109 -0.072504135479416337 19101027 0
Ti 4.5862499999999997 0.88264187999999999 26.81201725 0.00022434698470900287 -0.0013196889011866304 0.014512189136118854 19101028 0
Ti 3.0574847100000002 1.76525727 18.00026725 0.00077231623134818984 -0.00062741846754480694 0.55059079765631969 19101029 0
Si 3.0575000000000001 0 24.794126500000001 0.00087380585528417612 -0.00040802354901895972 0.073377181877626749 19101030 0
Si 3.0575000000000001 0 33.605876500000001 0.040533317684998016 0.020740333839757173 0.94701994234899234 19101031 0
C 3.0574847100000002 1.76525727 21.6606682 -0.0013603520300885317 0.00085471434827970945 0.17299825842734917 19101032 0
C 4.5862499999999997 0.88264187999999999 30.4724182 -0.0015726114067985723 -0.0021472336196277095 0.081998910135780131 19101033 0
C 3.0575000000000001 1.7652308000000001 27.927584800000002 -0.0010444581354514721 0.0021919388443257756 -0.10143008781985798 19101034 0
C 4.58626529 0.88261540000000005 19.115834799999998 -0.00069654191517361111 0.00066514588370623949 -0.89418016323363836 19101035 0
Ti 1.5287500000000001 2.6478726699999999 20.388251499999999 0.00074219735070332846 -0.00043061305856521918 0.16038021344132469 19101036 0
Ti 1.5287500000000001 2.6478726699999999 29.200001499999999 0.00092092385183264981 -0.0013571260024179297 -0.01620945796521504 19101037 0
Ti 3.05751529 3.5304880700000001 22.776235750000001 2.3749865569552657e-05 -2.228645443679054e-06 -0.25615206990202549 19101038 0
Ti 1.5287500000000001 4.4131034700000003 31.587985750000001 0.0094964630636225084 0.0084970174542877003 -0.072507199142788456 19101039 0
Ti 3.0575000000000001 3.5305145499999999 26.81201725 0.00021833865460819989 -0.0013145060196468104 0.01450980220050198 19101040 0
Ti 1.5287347099999999 4.4131299500000001 18.00026725 0.00076248236382582167 -0.00062259502847517012 0.55058942015833667 19101041 0
Si 1.5287500000000001 2.6478726699999999 24.794126500000001 0.00087313752089788511 -0.00040395218484219554 0.073376789521238411 19101042 0
Si 1.5287500000000001 2.6478726699999999 33.605876500000001 0.04053820683399572 0.020741714622683399 0.947013265591931 19101043 0
C 1.5287347099999999 4.4131299500000001 21.6606682 -0.001357841425484967 0.00085092523658950709 0.17300347756256149 19101044 0
C 3.0575000000000001 3.5305145499999999 30.4724182 -0.0015601451562122343 -0.0021516286385106611 0.082001733707255026 19101045 0
C 1.5287500000000001 4.4131034700000003 27.927584800000002 -0.0010490281309396819 0.0021945446911652484 -0.10142829256155997 19101046 0
C 3.05751529 3.5304880700000001 19.115834799999998 -0.00070006627132021201 0.00066947342737936114 -0.89418673957129358 19101047 0
Ag 0.81023750000000005 0.55605325999999999 36.205876500000002 -0.048749692952570152 -0.026223024048930382 -0.65910775069370731 19101048 1
Ag -0.7185125 3.20392593 36.205876500000002 -0.048756186194203598 -0.026218159670730063 -0.65910725125894798 19101049 0
Ag 3.8677375000000001 0.55605325999999999 36.205876500000002 -0.048756130076290351 -0.026218932899199496 -0.65911009733881243 19101050 0
Ag 2.3389875 3.20392593 36.205876500000002 -0.048748859798573893 -0.026223607800534562 -0.65910618756787354 19101051 0
