48
Lattice="28.0 0.0 0.0 0.0 28.0 0.0 0.0 0.0 28.0" Properties=species:S:1:pos:R:3:lammps_id:I:1:lammps_type:I:1:central_pair:I:1:REF_forces:R:3:PW_PBE_forces:R:3:magmoms:R:1:forces:R:3 config_type=AgC_d2p4_periodic_PW_PBE training_label_policy=forces_only_LCAO_energy_excluded PW_PBE_energy_eV=-258.9332034547212 free_energy=-260.07661446281656 energy=-258.9332034547212 dipole="1.449122095509787 -1.301684935007069 0.1941716028373744" magmom=0.0 pbc="T T T"
Ti      14.70421265      11.99602911      19.02041598   113766        1        0      -0.80196731      -0.04741438      -1.96866339      -0.73375730      -0.06249080      -1.92812394       0.00000000      -0.73375730      -0.06249080      -1.92812394
Ti      19.72946485      14.09698890      12.27111014   600768        1        0      -1.45380968      -0.63186396       1.80020794      -1.40635529      -0.61797963       1.76993411       0.00000000      -1.40635529      -0.61797963       1.76993411
Ti      15.07396679      14.02135323       8.94561416   602398        1        0      -0.90722151      -1.15666851       1.69585261      -1.01561268      -1.25274718       1.72900571       0.00000000      -1.01561268      -1.25274718       1.72900571
Ti      16.62929910      11.29786275      12.28481694   602560        1        0       1.06136287       1.62849299      -0.86650388       0.91344651       1.56431187      -0.87666794       0.00000000       0.91344651       1.56431187      -0.87666794
C       15.72969900      12.22025104      10.36095243   602563        3        0       0.64670462      -0.58765839       0.70283825       0.58648767      -0.62134046       0.74323065       0.00000000       0.58648767      -0.62134046       0.74323065
C       15.17669210      10.20026769      13.15152436   602564        3        0       5.35275909      -2.38307935      -0.24401839       5.25669559      -2.35123377      -0.26706682       0.00000000       5.25669559      -2.35123377      -0.26706682
C       15.01908631      17.68667141      11.01228795   602568        3        0       0.63191568       1.03002197       1.24654845       0.56345125       1.03587844       1.35475868       0.00000000       0.56345125       1.03587844       1.35475868
Ti      16.11448967      17.76311691      12.69635565   602569        1        0      -0.03832813       0.65402317       0.54287346      -0.13299769       0.67377510       0.49749440       0.00000000      -0.13299769       0.67377510       0.49749440
C       15.00354719      19.49982550      13.65818251   602577        3        0      -1.72166491      -4.31756723      -2.09233897      -1.72423326      -4.36700068      -2.09499415       0.00000000      -1.72423326      -4.36700068      -2.09499415
Ti      16.66547951      12.91999110      14.39568336   602709        1        0      -0.55350067      -0.19050344      -0.97760969      -0.52432115      -0.18704754      -0.90577209       0.00000000      -0.52432115      -0.18704754      -0.90577209
Ti      16.21991955       9.83047336      15.09283891   602714        1        0      -0.80814950       1.76151711      -1.33974607      -0.80062821       1.77491580      -1.33954161       0.00000000      -0.80062821       1.77491580      -1.33954161
Si      16.19906282      11.72691730      16.84655127   602717        2        0      -0.73713321      -0.34814817       0.29187536      -0.66908437      -0.25059846       0.23853046       0.00000000      -0.66908437      -0.25059846       0.23853046
Ti      19.50639144      12.76381075      14.83274481   602720        1        0      -1.60933832       0.72249398      -1.14392231      -1.54361804       0.70464669      -1.10906653       0.00000000      -1.54361804       0.70464669      -1.10906653
Si      17.59062416      13.58029236      16.48576025   602722        2        0       1.43587573       0.85139892       0.57404569       1.31853298       0.81914661       0.48267559       0.00000000       1.31853298       0.81914661       0.48267559
Si      17.63267815      16.01971860      16.22972921   602726        2        0      -0.05475803       0.42803854      -1.42936905      -0.03916382       0.37336094      -1.43537625       0.00000000      -0.03916382       0.37336094      -1.43537625
Si      18.14844387      17.95924422      14.48671751   602728        2        0      -0.49419206      -1.71810371       0.81188232      -0.51068342      -1.73596083       0.84562082       0.00000000      -0.51068342      -1.73596083       0.84562082
Ti      14.69157055      10.19724740      10.96370450   604584        1        0       1.49331331      -3.57812997      -1.75602564       1.37393895      -3.37346466      -1.59900630       0.00000000       1.37393895      -3.37346466      -1.59900630
C       13.11429589       8.63266994      11.56644909   604585        3        0       0.94908593       0.10867922       0.58456218       0.99439963       0.21837608       0.65308560       0.00000000       0.99439963       0.21837608       0.65308560
Ti      11.65349978      10.09302321      11.98742137   604586        1        0       1.54372287      -1.61422281      -0.12647828       1.67749759      -1.58167140      -0.13822144       0.00000000       1.67749759      -1.58167140      -0.13822144
C       13.13979285      11.11718839      11.16941206   604587        3        0      -4.13195760      -2.65855225       1.39896536      -4.01142495      -2.67710112       1.43196391       0.00000000      -4.01142495      -2.67710112       1.43196391
Ti      14.28738671       8.47959042      13.20551870   604588        1        0      -3.38458096       0.44519182      -0.33324746      -3.40680133       0.57217613      -0.39309507       0.00000000      -3.40680133       0.57217613      -0.39309507
Ti      13.81107131      11.42356511      13.12787750   604589        1        0       0.00015278       3.82445533      -0.58421303      -0.04803919       3.62232583      -0.55644477       0.00000000      -0.04803919       3.62232583      -0.55644477
Ti      13.83486296      12.70685820      10.84009666   604590        1        0       4.03309286       3.44251535       0.02587247       3.90192848       3.35650099      -0.05169436       0.00000000       3.90192848       3.35650099      -0.05169436
C       12.73392275      10.02554673      13.76644647   604592        3        0      -2.89282389      -2.97706415       3.28303203      -2.85215074      -2.91277379       3.18951496       0.00000000      -2.85215074      -2.91277379       3.18951496
Si       9.92348750      12.74898038      11.31435587   604593        2        0       0.21334059      -0.21470590       1.28669485       0.21933711      -0.20457702       1.28783948       0.00000000       0.21933711      -0.20457702       1.28783948
Si       9.89304472      11.38372228      13.60459646   604594        2        0       0.11322892       1.04319642      -0.49207872       0.14959600       1.05961011      -0.49794209       0.00000000       0.14959600       1.05961011      -0.49794209
C       13.29592661      13.41218506       9.19704134   604596        3        0       0.84239585       0.60913098      -3.34254805       0.92585342       0.67570645      -3.21125258       0.00000000       0.92585342       0.67570645      -3.21125258
C       12.75409091      16.11854113       9.85522983   604598        3        0      -0.60544186      -0.65147541       0.92055576      -0.68694928      -0.63968673       1.01745888       0.00000000      -0.68694928      -0.63968673       1.01745888
Ti      11.89403153      14.19520326      10.32262416   604599        1        0      -0.97603895       2.53249550      -0.03917060      -0.84692913       2.44354874      -0.01208216       0.00000000      -0.84692913       2.44354874      -0.01208216
Ti      13.99002587      15.88789818      11.51308169   604600        1        0      -1.84361514       2.56350515      -2.06141014      -1.84785519       2.53404538      -1.93278702       0.00000000      -1.84785519       2.53404538      -1.93278702
Ti      11.37655870      17.34674296      10.50781042   604601        1        0       2.02507257      -0.71820449       0.02355035       2.01911111      -0.73064572       0.14160126       0.00000000       2.01911111      -0.73064572       0.14160126
C       13.05169693      14.06274742      12.05531177   604602        3        0      -0.08310053       0.63972936       0.51392923      -0.02475855       0.69211586       0.48029897       0.00000000      -0.02475855       0.69211586       0.48029897
C       12.73083688      17.44324369      12.40804017   604603        3        0      -1.37063097       0.92021046       0.85399171      -1.34533241       0.98670845       0.79591785       0.00000000      -1.34533241       0.98670845       0.79591785
Si       9.75810803      15.47933378      10.52333573   604605        2        0      -1.38338579      -0.23514775       1.52347781      -1.30290296      -0.22203154       1.56031077       0.00000000      -1.30290296      -0.22203154       1.56031077
Ti      13.82491636      19.11920886      11.74146196   604608        1        0       1.82507782      -0.98420092      -0.04831470       1.87953490      -1.05514863       0.03118195       0.00000000       1.87953490      -1.05514863       0.03118195
Ti      11.20201144      18.83132959      12.48771158   604611        1        0       0.40726626      -0.72980868       1.20804440       0.47688065      -0.84755846       1.10390699       0.00000000       0.47688065      -0.84755846       1.10390699
Ti      12.20532193      10.42288720      17.66000503   604794        1        0       0.48706503       1.11868650      -0.82279790       0.45092197       1.08462700      -0.80262409       0.00000000       0.45092197       1.08462700      -0.80262409
Ti      11.74162704       8.62035514      15.15326412   604795        1        0       1.52713963       2.66540541      -1.02630293       1.53417789       2.69590494      -1.05349302       0.00000000       1.53417789       2.69590494      -1.05349302
Ti      12.10728202      11.67814678      15.04999314   604796        1        0      -0.62419234       0.15929083       0.86733265      -0.56707002       0.12692127       0.74491065       0.00000000      -0.56707002       0.12692127       0.74491065
Si      10.07867620      12.90234182      16.16506260   604803        2        0       0.12252286       0.90436333      -0.41361385       0.17072731       0.89687123      -0.45105424       0.00000000       0.17072731       0.89687123      -0.45105424
C       13.44688515      12.95175704      14.18775159   604804        3        1       0.00667161       1.57160412       1.70228587       0.02263435       1.59832737       1.66064908       0.00000000       0.02263435       1.59832737       1.66064908
Ti      13.85080071      17.62213886      14.17289370   604805        1        0       0.13850804       1.59467092      -0.56287401       0.15697057       1.62562755      -0.69812418       0.00000000       0.15697057       1.62562755      -0.69812418
Ti      12.20322713      13.58204009      17.56905296   604806        1        0       1.13410640       0.24414787      -1.63730893       1.12036167       0.31633043      -1.65645194       0.00000000       1.12036167       0.31633043      -1.65645194
C       13.41127052      14.82936034      16.48807003   604810        3        0      -1.22431550      -1.10879374      -0.01664367      -1.24220786      -1.15665686       0.01006332       0.00000000      -1.24220786      -1.15665686       0.01006332
Si      10.20068675      15.60669127      15.59047793   604813        2        0       0.75402120      -1.67521945       0.20306739       0.72899893      -1.68474308       0.20987874       0.00000000       0.72899893      -1.68474308       0.20987874
Si       9.65479972      16.85580644      12.61421246   606503        2        0       0.42164370      -0.86754244      -0.90949002       0.46657577      -0.85539032      -0.97394805       0.00000000       0.46657577      -0.85539032      -0.97394805
Ag      14.55311485      15.04824296      13.81224841   688433        4        1      -0.16753320      -1.30425379       2.08608345      -0.27841815      -1.31135887       1.93524938       0.00000000      -0.27841815      -1.31135887       1.93524938
Ag      16.53600026      14.96202636      11.77289621   751743        4        0       0.73383472      -0.78445170       0.05996184       0.66897352      -0.74735912       0.07339724       0.00000000       0.66897352      -0.74735912       0.07339724
