32
Lattice="8.1799999999999997 0 0 0 8.1799999999999997 0 0 0 8.1799999999999997" Properties=species:S:1:pos:R:3:PW_PBE_forces:R:3:local_new_id:I:1 pbc="T T T" PW_PBE_energy_eV=-91.445952049993593 config_type=Ag_displacement_p01_k6x6x6_v19
Ag 0.01 0 0 -0.058626569583566233 0 0 1
Ag 0 2.0449999999999999 2.0449999999999999 -0.0014948636623435194 -2.0828408507427614e-06 -2.0828408507427725e-06 2
Ag 2.0449999999999999 0 2.0449999999999999 0.0079056008822935737 0 0.0093152660457297299 3
Ag 2.0449999999999999 2.0449999999999999 0 0.0079056008822935737 0.0093152660457297282 0 4
Ag 0 0 4.0899999999999999 -0.00032030159628415963 0 0 5
Ag 0 2.0449999999999999 6.1349999999999998 -0.0014948636623435194 -2.0828408507427725e-06 2.082840850742794e-06 6
Ag 2.0449999999999999 0 6.1349999999999998 0.0079056008822935737 -5.4445231301947732e-21 -0.0093152660457297299 7
Ag 2.0449999999999999 2.0449999999999999 4.0899999999999999 0.00010490724959828071 0.00021725346837036191 -1.3611307825486933e-21 8
Ag 0 4.0899999999999999 0 -0.00032030159628415974 1.7014134781858666e-22 0 9
Ag 0 6.1349999999999998 2.0449999999999999 -0.0014948636623435194 2.0828408507427453e-06 -2.0828408507427996e-06 10
Ag 2.0449999999999999 4.0899999999999999 2.0449999999999999 0.00010490724959828069 1.3611307825486933e-21 0.00021725346837036191 11
Ag 2.0449999999999999 6.1349999999999998 0 0.007905600882293572 -0.0093152660457297264 -5.4445231301947732e-21 12
Ag 0 4.0899999999999999 4.0899999999999999 0.00014528700204445921 0 0 13
Ag 0 6.1349999999999998 6.1349999999999998 -0.0014948636623435194 2.0828408507427669e-06 2.082840850742778e-06 14
Ag 2.0449999999999999 4.0899999999999999 6.1349999999999998 0.00010490724959828073 0 -0.00021725346837036188 15
Ag 2.0449999999999999 6.1349999999999998 4.0899999999999999 0.00010490724959828071 -0.00021725346837036191 0 16
Ag 4.0899999999999999 0 0 0.0011896283554080744 -1.0889046260389546e-20 0 17
Ag 4.0899999999999999 2.0449999999999999 2.0449999999999999 0.00040933742787280372 -4.6842820824539243e-06 -4.6842820824539269e-06 18
Ag 6.1349999999999998 0 2.0449999999999999 0.0076746662977457613 -5.4445231301947732e-21 -0.0090095914807682507 19
Ag 6.1349999999999998 2.0449999999999999 0 0.0076746662977457613 -0.009009591480768249 0 20
Ag 4.0899999999999999 0 4.0899999999999999 -0.00030516085279865392 0 0 21
Ag 4.0899999999999999 2.0449999999999999 6.1349999999999998 0.00040933742787280383 -4.6842820824539243e-06 4.6842820824539218e-06 22
Ag 6.1349999999999998 0 6.1349999999999998 0.0076746662977457613 0 0.0090095914807682507 23
Ag 6.1349999999999998 2.0449999999999999 4.0899999999999999 0.000115049706263914 -0.00024294640050537343 0 24
Ag 4.0899999999999999 4.0899999999999999 0 -0.00030516085279865397 2.1778092520779093e-20 0 25
Ag 4.0899999999999999 6.1349999999999998 2.0449999999999999 0.00040933742787280383 4.6842820824539353e-06 -4.6842820824539243e-06 26
Ag 6.1349999999999998 4.0899999999999999 2.0449999999999999 0.00011504970626391403 2.7222615650973866e-21 -0.00024294640050537343 27
Ag 6.1349999999999998 6.1349999999999998 0 0.0076746662977457613 0.009009591480768249 0 28
Ag 4.0899999999999999 4.0899999999999999 4.0899999999999999 -0.0003592583582172768 0 0 29
Ag 4.0899999999999999 6.1349999999999998 6.1349999999999998 0.00040933742787280388 4.6842820824539302e-06 4.6842820824539302e-06 30
Ag 6.1349999999999998 4.0899999999999999 6.1349999999999998 0.00011504970626391403 0 0.00024294640050537343 31
Ag 6.1349999999999998 6.1349999999999998 4.0899999999999999 0.00011504970626391403 0.00024294640050537343 0 32
