51
Lattice="27.86 0.0 0.0 0.0 27.86 0.0 0.0 0.0 27.86" Properties=species:S:1:pos:R:3:lammps_id:I:1:lammps_type:I:1:central_pair:I:1:PW_PBE_forces:R:3:magmoms:R:1:forces:R:3 config_type=AgSi_widespan_registry_acq_v16_01 dataset_role=unlabeled_training_acquisition_proposal parent_config_type=AgSi_registry_strain_acq_v14_01_periodic_PW_PBE_energy_force_v14_train parent_file_sha256=3323cdbd3081fc8d91673662c5f83c8da93ba3b4d7a23428f6b70d0e7a4c9faf parent_geometry_sha256=3dad8caf2cc912de64bdc9b7b4f46165847df2b3215572a2d7e6780599f284bf sampling_axis=registry sampling_offset_A=-0.3 not_validated_training_data=T geometry_screening_decision=GEOMETRY_PASS_A_REVIEW requires_A_review=T geometry_review_flags=none PW_PBE_energy_eV=-208.7761694140073 source_method="GPAW 26.7.0 PW-PBE 500 eV Gamma single point" free_energy=-209.69879599610437 energy=-208.7761694140073 dipole="-0.5548982259525869 -0.26437955529884466 2.3964212362217663" magmom=0.0 pbc="T T T"
C       18.59997229      12.48568832      11.10844207   365143        3        0      -2.25277824      -0.59432751      -0.60769416       0.00000000      -2.25277824      -0.59432751      -0.60769416
Ti      17.68639525      11.50950205      17.41787882   365320        1        0      -4.05606723      -0.31340269      -2.57204618       0.00000000      -4.05606723      -0.31340269      -2.57204618
C       16.41880913      11.23745333       9.78030353   366772        3        0       1.24643041       1.39495556       1.33264897       0.00000000       1.24643041       1.39495556       1.33264897
C       16.47896696      14.68517760       9.59220696   366778        3        0      -0.96277090       0.56421449       0.41851658       0.00000000      -0.96277090       0.56421449       0.41851658
Si      13.03247546      10.81256428      11.54588199   366929        2        0       0.79880116       0.94768634      -0.56308969       0.00000000       0.79880116       0.94768634      -0.56308969
C       16.85595198      10.57457416      13.54804023   366931        3        0      -1.55741915       1.14267140       1.25238905       0.00000000      -1.55741915       1.14267140       1.25238905
Si      13.24756583      10.09299501      13.89543918   366933        2        0       0.31166960       0.71133845       1.34821245       0.00000000       0.31166960       0.71133845       1.34821245
Si      13.57862136      12.84027175      14.30526025   366934        2        1      -2.05379114      -0.69474022       0.40647975       0.00000000      -2.05379114      -0.69474022       0.40647975
Ti      15.29981075      11.23489767      15.30672895   366935        1        0       2.30547025      -2.42251600       0.61948987       0.00000000       2.30547025      -2.42251600       0.61948987
Si      14.07452393      13.07440001      11.84527460   366936        2        0      -0.52084522      -0.16690790      -1.05554255       0.00000000      -0.52084522      -0.16690790      -1.05554255
C       16.32293638       9.78228197      16.33324608   367109        3        0      -0.10400618       1.80745006       2.85772130       0.00000000      -0.10400618       1.80745006       2.85772130
Si      13.15366079      10.13595433      16.63871231   367110        2        0      -0.14213208       0.10832248      -0.51707767       0.00000000      -0.14213208       0.10832248      -0.51707767
C       16.48100250      12.76445334      16.24568078   367111        3        0       0.06485802       0.08214795       1.03262241       0.00000000       0.06485802       0.08214795       1.03262241
Ti      15.25461263       9.99188169      18.18059921   367112        1        0       0.99408961       0.42744107      -2.95912885       0.00000000       0.99408961       0.42744107      -2.95912885
Ti      15.21048961      12.94153364      18.03487212   367113        1        0       0.05312421       0.76145433       0.46622972       0.00000000       0.05312421       0.76145433       0.46622972
Si      13.17741765      13.14324215      19.70608455   367115        2        0      -0.25828829       0.45792257      -1.09576114       0.00000000      -0.25828829       0.45792257      -1.09576114
Ti      15.40588122      14.54471635      15.86904406   367117        1        0       0.94604792       0.42826060       2.21298968       0.00000000       0.94604792       0.42826060       2.21298968
Si      12.78455653      15.18854922      16.36834406   367118        2        0       0.80686828       0.24672524       0.26005027       0.00000000       0.80686828       0.24672524       0.26005027
Si      12.95712017      18.30295279      16.70442317   367120        2        0      -0.26458218      -1.23302433      -0.15875627       0.00000000      -0.26458218      -1.23302433      -0.15875627
Ti      14.51271213      16.54892641      18.01865841   367121        1        0       0.12875795      -2.23781170      -0.32739755       0.00000000       0.12875795      -2.23781170      -0.32739755
C       15.68829271      14.87916034      18.37964165   367122        3        0      -1.36823168       0.13229680      -1.76626400       0.00000000      -1.36823168       0.13229680      -1.76626400
C        9.90649004      12.77431746      10.77224184   368645        3        0       1.16270186       0.70877325      -0.22289296       0.00000000       1.16270186       0.70877325      -0.22289296
Ti      11.05639828       9.10291227      15.13117419   368823        1        0      -0.02128701       2.48574986       1.65851624       0.00000000      -0.02128701       2.48574986       1.65851624
Ti      11.06514563      10.57972820      12.94209330   368827        1        0      -2.35464416       0.39373788      -0.94933918       0.00000000      -2.35464416       0.39373788      -0.94933918
C        9.58869661      11.96959291      13.50714254   368829        3        0       0.86396880       0.24696368       0.38807472       0.00000000       0.86396880       0.24696368       0.38807472
Ti       8.41925107      13.28695754      14.63229457   368832        1        0       0.46783377       0.30676763       0.03997061       0.00000000       0.46783377       0.30676763       0.03997061
Ti      10.95041350      12.38211774      15.00689863   368833        1        0       0.13611473      -1.04233388       1.89456041       0.00000000       0.13611473      -1.04233388       1.89456041
C        9.56136862      16.94432396      11.26681068   368838        3        0       1.55071497      -0.82861557      -0.90591677       0.00000000       1.55071497      -0.82861557      -0.90591677
C        8.74996730      15.07383077      14.18303296   368841        3        0       1.34529164       0.38489902       0.97567166       0.00000000       1.34529164       0.38489902       0.97567166
Ti      10.21724449      15.52569843      15.45789755   368844        1        0      -1.30755989      -1.72665622      -0.22813090       0.00000000      -1.30755989      -1.72665622      -0.22813090
C       10.10142178      10.76686600      15.98766623   369024        3        0       2.15669686      -0.97165442      -2.05202378       0.00000000       2.15669686      -0.97165442      -2.05202378
C        9.73645404      13.62008341      16.26033390   369026        3        0       1.19553925       0.66413237      -0.09727148       0.00000000       1.19553925       0.66413237      -0.09727148
Ti      11.11186787      13.46402473      17.97657710   369031        1        0      -0.10785066       0.94566055      -1.93097599       0.00000000      -0.10785066       0.94566055      -1.93097599
Ti      11.68602437      16.29832535      18.34290273   369042        1        0       0.81786953      -0.16505879      -0.82232853       0.00000000       0.81786953      -0.16505879      -0.82232853
Ag      13.79911084      15.21735387      13.71795822   683609        4        1      -0.48630506       0.84464049      -0.24876804       0.00000000      -0.48630506       0.84464049      -0.24876804
Ag      15.83251287      13.18553619      13.71829332   685172        4        0       2.60607696      -0.06767275      -2.21382270       0.00000000       2.60607696      -0.06767275      -2.21382270
Ag      11.79567607      17.26228541      13.71397964   696217        4        0      -0.01875627       0.04941572       0.14895803       0.00000000      -0.01875627       0.04941572       0.14895803
Ag      11.79332246      17.26163155       9.63054985   700029        4        0      -0.42189548      -0.08270164       0.52521574       0.00000000      -0.42189548      -0.08270164       0.52521574
Ag      15.84280321      17.26181967      13.71503183   701518        4        0       0.06236713      -0.08949412       0.18746625       0.00000000       0.06236713      -0.08949412       0.18746625
Ag      15.82428712      17.25578616       9.63473704   703887        4        0       0.18127150      -1.06338573       0.45782701       0.00000000       0.18127150      -1.06338573       0.45782701
Ag       9.76441717      15.21722642       9.63702147   707313        4        0       0.06868276       0.11897911       1.42522622       0.00000000       0.06868276       0.11897911       1.42522622
Ag      13.82768207      15.20819721       9.63909963   710704        4        0       0.95469539      -0.34944412       0.38990526       0.00000000       0.95469539      -0.34944412       0.38990526
Ag      17.83820822      17.26402539      11.67442682   714846        4        0      -0.52396607      -0.32375431      -0.07270824       0.00000000      -0.52396607      -0.32375431      -0.07270824
Ag      11.78590547      19.29809949      11.68116928   729574        4        0       0.01252663      -0.47155057       0.07972857       0.00000000       0.01252663      -0.47155057       0.07972857
Ag      11.80614600      15.21058769      11.67845050   730721        4        0      -0.48982296      -0.13066543       0.11866564       0.00000000      -0.48982296      -0.13066543       0.11866564
Ag      11.79493717      13.18970175       9.61141820   735549        4        0      -0.57928525      -0.44342212       0.93317767       0.00000000      -0.57928525      -0.44342212       0.93317767
Ag      13.82229291      17.25254396      11.67590227   737082        4        0       0.20412321       0.28459611      -0.01209937       0.00000000       0.20412321       0.28459611      -0.01209937
Ag      15.83914274      19.31126542      15.76315800   737200        4        0      -0.40358653      -0.76184415       0.00016590       0.00000000      -0.40358653      -0.76184415       0.00016590
Ag      13.81227272      19.32269683      13.71347117   744883        4        0      -0.09706600      -0.41724499       0.20945207       0.00000000      -0.09706600      -0.41724499       0.20945207
Ag      17.85132764      15.22886063      13.70696502   752169        4        0      -0.44821309       0.09675290       0.06530067       0.00000000      -0.44821309       0.09675290       0.06530067
Ag      17.85141640      17.26807942      15.76426284   755982        4        0      -0.64474283      -0.14407834      -0.32455079       0.00000000      -0.64474283      -0.14407834      -0.32455079
