49
Lattice="28.0 0.0 0.0 0.0 28.0 0.0 0.0 0.0 28.0" Properties=species:S:1:pos:R:3:lammps_id:I:1:lammps_type:I:1:central_pair:I:1:PW_PBE_forces:R:3:magmoms:R:1:forces:R:3 config_type=AgTi_registry_probe_v13_01 source_config_type=AgTi_2p70_periodic_PW_PBE_energy_force_holdout source_structure_sha256=28d3ddc63332361c014b42bfb54c87eb06d0945ede734b965229ceea46c5f60e validation_target_distance_A=2.6 validation_source_distance_A=2.6999999924868017 central_pair_elements=Ag-Ti source_method="GPAW 26.7.0 PW-PBE 500 eV Gamma single point" dataset_role=acquisition geometry_family=AgTi_existing_cluster_motif correlation_note="Derived from an existing motif; not an independent material morphology." PW_PBE_energy_eV=-176.57984627488767 free_energy=-177.2248826556789 energy=-176.57984627488767 dipole="0.44792053374757723 0.33251505161507827 0.2243335521362468" magmom=0.0 pbc="T T T"
C       13.89902107      12.90667166       9.57093308   478831        3        0      -1.51484456       2.35447931       0.38511922       0.00000000      -1.51484456       2.35447931       0.38511922
Ti      12.62304525      14.70227784       8.74620905   478840        1        0       1.34157813      -0.81884435       4.01704409       0.00000000       1.34157813      -0.81884435       4.01704409
Si      16.74663914      14.99666412       9.05588053   478841        2        0      -0.91415725      -0.91149883       1.30517165       0.00000000      -0.91415725      -0.91149883       1.30517165
C       13.77615718      16.76659830       9.46205532   478844        3        0      -3.91919849       0.12049718       0.88494297       0.00000000      -3.91919849       0.12049718       0.88494297
Ti      12.49439364      12.82858132      11.26096292   479021        1        0       0.55793896      -1.05080023      -1.60004650       0.00000000       0.55793896      -1.05080023      -1.60004650
Ti      12.74652762      14.24815681      13.89771094   479027        1        1      -0.85378395       3.84893492       1.18322434       0.00000000      -0.85378395       3.84893492       1.18322434
Ti      13.27333691      17.52276133      13.67525409   479028        1        0       0.10060853       0.27919779      -1.35553401       0.00000000       0.10060853       0.27919779      -1.35553401
C       12.19406070      16.00730532      12.98699267   479030        3        0      -0.88998923      -1.13812805       0.52608843       0.00000000      -0.88998923      -1.13812805       0.52608843
C       11.92979276      17.83928667      10.04608242   479031        3        0       3.48100787      -2.29895153      -0.89872131       0.00000000       3.48100787      -2.29895153      -0.89872131
C       11.14030857      11.60980287      10.51944505   480798        3        0      -1.11456559       0.60490252       2.23689529       0.00000000      -1.11456559       0.60490252       2.23689529
Ti       9.67365027      11.73672021      12.52949502   480801        1        0       4.26010705      -0.89802252       0.00457477       0.00000000       4.26010705      -0.89802252       0.00457477
C       10.41266283       9.58775109      13.76894219   480802        3        0       0.21064154       1.41008544       2.95127825       0.00000000       0.21064154       1.41008544       2.95127825
C       11.34811906      12.99570560      13.31832051   480805        3        0      -1.79015744      -0.32969881      -0.53676522       0.00000000      -1.79015744      -0.32969881      -0.53676522
C       11.26779912      14.20441406      10.34350882   480807        3        0       0.96442705       0.50830891      -0.44432241       0.00000000       0.96442705       0.50830891      -0.44432241
Ti      10.63277880      14.68120764      12.23793466   480810        1        0      -0.78845698      -0.26212803      -0.37348515       0.00000000      -0.78845698      -0.26212803      -0.37348515
Ti      11.15181567      17.42898892      11.87855887   480811        1        0      -0.01353236       0.45063547      -1.30397590       0.00000000      -0.01353236       0.45063547      -1.30397590
Ti      10.57490139      16.47263116      14.34546801   480812        1        0       1.42603180      -0.16183697       0.08126968       0.00000000       1.42603180      -0.16183697       0.08126968
C       11.98467917      18.76062403      12.89743879   480813        3        0       0.50616461      -0.79235721       0.95649638       0.00000000       0.50616461      -0.79235721       0.95649638
C       10.74527181       9.34898918      15.92141080   480974        3        0       0.40658419       1.85087457      -3.66478596       0.00000000       0.40658419       1.85087457      -3.66478596
C       10.58950093      11.90905331      16.64358691   480975        3        0      -0.06662749       1.73191575      -1.57633129       0.00000000      -0.06662749       1.73191575      -1.57633129
Ti       9.93014220      13.54071165      15.28648610   480980        1        0       2.23284254      -2.07843333       0.02197646       0.00000000       2.23284254      -2.07843333       0.02197646
Ag      13.17921387      11.93477149      14.08448967   682693        4        0       0.24011667      -2.98078286       0.42434134       0.00000000       0.24011667      -2.98078286       0.42434134
Ag      19.27103991      16.06172680      16.14325276   685396        4        0      -0.38321430      -0.14828624      -0.15806165       0.00000000      -0.38321430      -0.14828624      -0.15806165
Ag      17.23061775      16.04744124      14.08084112   685467        4        0       0.07230908       0.39897953      -0.18019556       0.00000000       0.07230908       0.39897953      -0.18019556
Ag      15.22028550      11.92319346      16.13660310   686309        4        0      -0.13003355      -0.15846561       0.35361573       0.00000000      -0.13003355      -0.15846561       0.35361573
Ag      17.24075717      13.99811487      16.15267925   686324        4        0       0.36739395      -0.10268494       0.24122819       0.00000000       0.36739395      -0.10268494       0.24122819
Ag      15.20543632       9.88047407      14.08505358   686418        4        0       0.07597450       0.06844642       0.02278933       0.00000000       0.07597450       0.06844642       0.02278933
Ag      19.26799971      14.00431639      14.08329543   686622        4        0      -0.38889806       0.18700402       0.17140483       0.00000000      -0.38889806       0.18700402       0.17140483
Ag      17.23987145      16.04230202      18.18247801   686899        4        0      -0.12045895      -0.00492816      -0.18329893       0.00000000      -0.12045895      -0.00492816      -0.18329893
Ag      17.23652607       9.89177748      16.14439265   687243        4        0      -0.28739770       0.32748625      -0.16551725       0.00000000      -0.28739770       0.32748625      -0.16551725
Ag      15.31257904      13.97927572      14.09960194   687247        4        1       0.28747790       0.18129251      -0.02182134       0.00000000       0.28747790       0.18129251      -0.02182134
Ag      15.22219692      16.05137911      16.15723208   688096        4        0      -0.48506505       0.18324836      -0.21279050       0.00000000      -0.48506505       0.18324836      -0.21279050
Ag      17.25172922       9.88253321      12.04485225   688280        4        0      -0.27266474       0.45230460       0.09978734       0.00000000      -0.27266474       0.45230460       0.09978734
Ag      15.20875603      13.98728606      18.19713620   688689        4        0      -0.15090453      -0.12118421      -0.08437793       0.00000000      -0.15090453      -0.12118421      -0.08437793
Ag      17.21273800      18.09581139      16.15000652   688707        4        0      -0.11832556      -0.23619746      -0.05916521       0.00000000      -0.11832556      -0.23619746      -0.05916521
Ag      17.25143735      11.93238003      14.08784430   689682        4        0       0.29764476      -0.29647076      -0.02993958       0.00000000       0.29764476      -0.29647076      -0.02993958
Ag      13.18170587      16.04176470      18.17151177   690927        4        0       0.00273439      -0.31820918      -0.22144204       0.00000000       0.00273439      -0.31820918      -0.22144204
Ag      15.20634649      18.09577674      18.20004601   691757        4        0       0.07319656      -0.33111914      -0.29846835       0.00000000       0.07319656      -0.33111914      -0.29846835
Ag      13.17617624      11.95798587      18.19172182   694331        4        0      -0.20913852       0.23974507      -0.60421498       0.00000000      -0.20913852       0.23974507      -0.60421498
Ag      17.23960348      11.93172895      18.18219469   696686        4        0      -0.29905665       0.14277232      -0.42859835       0.00000000      -0.29905665       0.14277232      -0.42859835
Ag      13.17664715       9.88304979      16.15300997   700223        4        0      -1.00800096       0.16916757      -0.30065899       0.00000000      -1.00800096       0.16916757      -0.30065899
Ag      11.15662076      13.98813182      18.20237906   701905        4        0       0.16544466      -0.47070970      -0.89159821       0.00000000       0.16544466      -0.47070970      -0.89159821
Ag      17.22145846      18.09982138      12.03659182   703736        4        0      -0.30545938      -0.55806025       0.33299336       0.00000000      -0.30545938      -0.55806025       0.33299336
Ag      15.20366532      16.05436369      12.04745982   704767        4        0      -0.05245843      -0.09093193      -0.54280612       0.00000000      -0.05245843      -0.09093193      -0.54280612
Ag      17.24398153      13.98686690      12.02973371   716228        4        0       0.09302944       0.10119838      -0.84722796       0.00000000       0.09302944       0.10119838      -0.84722796
Ag      15.21598282      11.95285569      12.02298661   720990        4        0      -0.15084587      -0.05935623      -0.58689984       0.00000000      -0.15084587      -0.05935623      -0.58689984
Ag      13.17576280      18.10103246      16.12750949   721910        4        0      -0.24114671      -0.16867482       0.89313473       0.00000000      -0.24114671      -0.16867482       0.89313473
Ag      17.24565333      11.93660568       9.97615916   728014        4        0      -0.34713417       0.70704977       0.33424670       0.00000000      -0.34713417       0.70704977       0.33424670
Ag      13.17551906       9.88412807      12.01790751   741114        4        0      -0.34223551       0.46341742       0.14768333       0.00000000      -0.34223551       0.46341742       0.14768333
