52
Lattice="6.1150000000000002 0 0 -3.0574999999999988 5.2957453441418432 0 0 0 44.205876500000002" Properties=species:S:1:pos:R:3:PW_PBE_forces:R:3:lammps_id:I:1:central_pair:I:1 pbc="T T F" PW_PBE_energy_eV=-390.86910854570561 config_type=AgSi_rigid_Ag_z_m020_k6x6x1_sigma0p10_dipoleXY_v19
Ti 0 0 15.388251500000001 0.0007586375749365794 -0.00039964341363392809 0.15972704015777661 19101000 0
Ti 0 0 24.200001499999999 0.00072097005374817088 -0.0014257278548626964 -0.02499659289703475 19101001 0
Ti 1.5287652899999999 0.88261540000000005 17.776235750000001 0.00022497929831602714 -4.79694887875331e-05 -0.25520291351900087 19101002 0
Ti 0 1.7652308000000001 26.587985750000001 0.013071242633254489 0.0099794957169501135 -0.048912682815547628 19101003 0
Ti 1.5287500000000001 0.88264187999999999 21.81201725 -5.7795351491518479e-05 -0.0014949170321343411 0.016377202349961546 19101004 0
Ti -1.5290000000000001e-05 1.76525727 13.00026725 0.00060785351589044895 -0.00057247108656971067 0.55117719164976964 19101005 0
Si 0 0 19.794126500000001 0.0009270725067836472 -0.00029174119050968294 0.072766051485909963 19101006 0
Si 0 0 28.605876500000001 -0.044279597306335516 -0.04083922531041824 0.60336868857317261 19101007 1
C -1.5290000000000001e-05 1.76525727 16.6606682 -0.001369675061509473 0.00082735672106420337 0.17111456753081228 19101008 0
C 1.5287500000000001 0.88264187999999999 25.4724182 -0.0044237917148283361 -0.0038075988831429465 0.09224392051998348 19101009 0
C 0 1.7652308000000001 22.927584800000002 -0.00059408260081320605 0.0024994862827271433 -0.098956055377878271 19101010 0
C 1.5287652899999999 0.88261540000000005 14.1158348 -0.00070401080505507656 0.00048416229501930635 -0.89591527056916054 19101011 0
Ti -1.5287500000000001 2.6478726699999999 15.388251500000001 0.00075857359946915576 -0.00039906566649958191 0.15972965643209064 19101012 0
Ti -1.5287500000000001 2.6478726699999999 24.200001499999999 0.00072134242196049078 -0.0014252155846251476 -0.024998287619867776 19101013 0
Ti 1.5290000000000001e-05 3.5304880700000001 17.776235750000001 0.00022414610134539152 -4.7286870512973576e-05 -0.25520353637562365 19101014 0
Ti -1.5287500000000001 4.4131034700000003 26.587985750000001 0.013070386137132295 0.0099783283309498715 -0.04891180146933892 19101015 0
Ti 0 3.5305145499999999 21.81201725 -5.8049126743461063e-05 -0.0014946012917790882 0.016376590038056402 19101016 0
Ti -1.5287652899999999 4.4131299500000001 13.00026725 0.0006089759630957236 -0.00057497487973235523 0.55118021273552731 19101017 0
Si -1.5287500000000001 2.6478726699999999 19.794126500000001 0.00092608126565321832 -0.00029135115768002764 0.072764781699772296 19101018 0
Si -1.5287500000000001 2.6478726699999999 28.605876500000001 -0.044279403360756101 -0.040839637035127233 0.60336882926144264 19101019 0
C -1.5287652899999999 4.4131299500000001 16.6606682 -0.0013694078194070984 0.00082751122932244424 0.17111271440240469 19101020 0
C 0 3.5305145499999999 25.4724182 -0.0044246729963162909 -0.0038094998114360842 0.092243820525517328 19101021 0
C -1.5287500000000001 4.4131034700000003 22.927584800000002 -0.00059526974252759588 0.0024991184023615645 -0.098956146047411889 19101022 0
C 1.5290000000000001e-05 3.5304880700000001 14.1158348 -0.00069920983963043593 0.00048137609193422612 -0.89591160876147113 19101023 0
Ti 3.0575000000000001 0 15.388251500000001 0.00075152053957359434 -0.00040196074941224139 0.15973045893627125 19101024 0
Ti 3.0575000000000001 0 24.200001499999999 0.00072138528550012794 -0.0014260315118989019 -0.024997196675093727 19101025 0
Ti 4.58626529 0.88261540000000005 17.776235750000001 0.00022585262515039905 -4.7902881048850619e-05 -0.25520202633338429 19101026 0
Ti 3.0575000000000001 1.7652308000000001 26.587985750000001 0.0130703623529648 0.0099791174899331366 -0.04891293323309101 19101027 0
Ti 4.5862499999999997 0.88264187999999999 21.81201725 -5.714583183429207e-05 -0.0014954615719263353 0.016378251073370164 19101028 0
Ti 3.0574847100000002 1.76525727 13.00026725 0.0006256760907987712 -0.00056521503211483563 0.55118490084740213 19101029 0
Si 3.0575000000000001 0 19.794126500000001 0.00092634492186759415 -0.00029245474542259717 0.072765905978287942 19101030 0
Si 3.0575000000000001 0 28.605876500000001 -0.044280678280857022 -0.040839440847925207 0.60336827769226054 19101031 0
C 3.0574847100000002 1.76525727 16.6606682 -0.0013721674794237584 0.00082610748752370996 0.17111554104270904 19101032 0
C 4.5862499999999997 0.88264187999999999 25.4724182 -0.0044236195342495579 -0.0038081854673825358 0.092244329532628899 19101033 0
C 3.0575000000000001 1.7652308000000001 22.927584800000002 -0.000594593609454367 0.002499705885490369 -0.098956236579171034 19101034 0
C 4.58626529 0.88261540000000005 14.1158348 -0.00070104219890280788 0.00048919682230890566 -0.89591443105497559 19101035 0
Ti 1.5287500000000001 2.6478726699999999 15.388251500000001 0.00075526659066210006 -0.00040383527381731871 0.15973314803124819 19101036 0
Ti 1.5287500000000001 2.6478726699999999 24.200001499999999 0.00072053043153870455 -0.0014244326239326603 -0.0249980164184785 19101037 0
Ti 3.05751529 3.5304880700000001 17.776235750000001 0.00022497432690396434 -4.5672807934894896e-05 -0.25520269413552099 19101038 0
Ti 1.5287500000000001 4.4131034700000003 26.587985750000001 0.013069799259377039 0.0099779999152066843 -0.048911880970329932 19101039 0
Ti 3.0575000000000001 3.5305145499999999 21.81201725 -5.8145365967624538e-05 -0.0014940720028496848 0.016376746989558301 19101040 0
Ti 1.5287347099999999 4.4131299500000001 13.00026725 0.00062003560153142993 -0.00056326911730710373 0.55117793035784546 19101041 0
Si 1.5287500000000001 2.6478726699999999 19.794126500000001 0.00092601150959118405 -0.00029129807861100112 0.072765271702840847 19101042 0
Si 1.5287500000000001 2.6478726699999999 28.605876500000001 -0.044280009548533283 -0.04083978299755265 0.60336923819123001 19101043 0
C 1.5287347099999999 4.4131299500000001 16.6606682 -0.0013728708923837288 0.00082583442356980717 0.17111435774086545 19101044 0
C 3.0575000000000001 3.5305145499999999 25.4724182 -0.0044247705171833887 -0.0038083736998500684 0.092244095254725225 19101045 0
C 1.5287500000000001 4.4131034700000003 22.927584800000002 -0.00059459819087664945 0.0024994684511697261 -0.098956332952573015 19101046 0
C 3.05751529 3.5304880700000001 14.1158348 -0.00069588532400462839 0.00048425740990048604 -0.89590892808169564 19101047 0
Ag 0.81023750000000005 0.55605325999999999 31.005876499999999 0.035287259558911183 0.035299473742256754 -0.33916414454888899 19101048 1
Ag -0.7185125 3.20392593 31.005876499999999 0.035285706673103538 0.035298231615542193 -0.3391653885645613 19101049 0
Ag 3.8677375000000001 0.55605325999999999 31.005876499999999 0.03528781981973602 0.03529984148357198 -0.33915732387048775 19101050 0
Ag 2.3389875 3.20392593 31.005876499999999 0.035286297312761797 0.035297559902121571 -0.33916438859708536 19101051 0
