32
Lattice="8.1799999999999997 0 0 0.040899999999999999 8.1799999999999997 0 0 0 8.1799999999999997" Properties=species:S:1:pos:R:3:PW_PBE_forces:R:3:local_new_id:I:1 pbc="T T T" PW_PBE_energy_eV=-91.400226624876652 config_type=Ag_shear_p005_k8x8x8_v19
Ag 0 0 0 0 0 0 1
Ag 0.010225 2.0449999999999999 2.0449999999999999 -4.1056625054156223e-06 3.3008350171005531e-06 7.2853165498172811e-06 2
Ag 2.0449999999999999 0 2.0449999999999999 3.0781548668782914e-06 -4.1392778601004505e-06 7.2935796369623761e-06 3
Ag 2.0552250000000001 2.0449999999999999 0 8.585425078037021e-06 8.7938922850776463e-06 0 4
Ag 0 0 4.0899999999999999 0 0 0 5
Ag 0.010225 2.0449999999999999 6.1349999999999998 -4.1056625054156215e-06 3.3008350171005531e-06 -7.2853165498172811e-06 6
Ag 2.0449999999999999 0 6.1349999999999998 3.0781548668782914e-06 -4.1392778601004514e-06 -7.2935796369623761e-06 7
Ag 2.0552250000000001 2.0449999999999999 4.0899999999999999 2.7885576195620796e-05 2.8003904749873209e-05 0 8
Ag 0.020449999999999999 4.0899999999999999 0 0 0 0 9
Ag 0.030675000000000001 6.1349999999999998 2.0449999999999999 4.1056625054156215e-06 -3.3008350171005531e-06 7.2853165498172802e-06 10
Ag 2.0654499999999998 4.0899999999999999 2.0449999999999999 3.2161992691755443e-05 5.0213363405156701e-06 2.7662405648917835e-05 11
Ag 2.0756749999999999 6.1349999999999998 0 6.252785867021702e-06 -6.5061738835436053e-06 0 12
Ag 0.020449999999999999 4.0899999999999999 4.0899999999999999 0 0 0 13
Ag 0.030675000000000001 6.1349999999999998 6.1349999999999998 4.1056625054156215e-06 -3.3008350171005531e-06 -7.2853165498172802e-06 14
Ag 2.0654499999999998 4.0899999999999999 6.1349999999999998 3.2161992691755443e-05 5.0213363405156701e-06 -2.7662405648917835e-05 15
Ag 2.0756749999999999 6.1349999999999998 4.0899999999999999 2.8139279151778132e-05 -2.8522669872601313e-05 0 16
Ag 4.0899999999999999 0 0 0 0 0 17
Ag 4.100225 2.0449999999999999 2.0449999999999999 5.1894988992061369e-06 3.2301032293552707e-05 2.7666670669651866e-05 18
Ag 6.1349999999999998 0 2.0449999999999999 -3.0781548668782918e-06 4.1392778601004514e-06 7.2935796369623761e-06 19
Ag 6.1452249999999999 2.0449999999999999 0 -6.2527858670217037e-06 6.5061738835436053e-06 0 20
Ag 4.0899999999999999 0 4.0899999999999999 0 0 0 21
Ag 4.100225 2.0449999999999999 6.1349999999999998 5.1894988992061369e-06 3.2301032293552707e-05 -2.7666670669651866e-05 22
Ag 6.1349999999999998 0 6.1349999999999998 -3.0781548668782914e-06 4.1392778601004514e-06 -7.2935796369623761e-06 23
Ag 6.1452249999999999 2.0449999999999999 4.0899999999999999 -2.8139279151778139e-05 2.8522669872601313e-05 0 24
Ag 4.1104500000000002 4.0899999999999999 0 0 0 0 25
Ag 4.1206750000000003 6.1349999999999998 2.0449999999999999 -5.1894988992061369e-06 -3.2301032293552707e-05 2.7666670669651866e-05 26
Ag 6.1554500000000001 4.0899999999999999 2.0449999999999999 -3.2161992691755443e-05 -5.0213363405156701e-06 2.7662405648917835e-05 27
Ag 6.1656750000000002 6.1349999999999998 0 -8.585425078037021e-06 -8.7938922850776463e-06 0 28
Ag 4.1104500000000002 4.0899999999999999 4.0899999999999999 0 0 0 29
Ag 4.1206750000000003 6.1349999999999998 6.1349999999999998 -5.1894988992061369e-06 -3.2301032293552707e-05 -2.7666670669651866e-05 30
Ag 6.1554500000000001 4.0899999999999999 6.1349999999999998 -3.2161992691755443e-05 -5.0213363405156709e-06 -2.7662405648917831e-05 31
Ag 6.1656750000000002 6.1349999999999998 4.0899999999999999 -2.7885576195620796e-05 -2.8003904749873209e-05 0 32
