48
Lattice="28.139999999999997 0.0 0.0 0.0 28.139999999999997 0.0 0.0 0.0 28.139999999999997" Properties=species:S:1:pos:R:3:lammps_id:I:1:lammps_type:I:1:central_pair:I:1:PW_PBE_forces:R:3:magmoms:R:1:forces:R:3 config_type=AgC_widespan_registry_acq_v16_01 dataset_role=unlabeled_training_acquisition_proposal parent_config_type=AgC_registry_strain_acq_v14_01_periodic_PW_PBE_energy_force_v14_train parent_file_sha256=3323cdbd3081fc8d91673662c5f83c8da93ba3b4d7a23428f6b70d0e7a4c9faf parent_geometry_sha256=26e44aa3caea382ceb631493823033d949d4ee318c6210aff9ed861d5bdce7b2 sampling_axis=registry sampling_offset_A=0.45 not_validated_training_data=T geometry_screening_decision=GEOMETRY_PASS_A_REVIEW requires_A_review=T geometry_review_flags=none PW_PBE_energy_eV=-258.18861141140616 source_method="GPAW 26.7.0 PW-PBE 500 eV Gamma single point" free_energy=-259.35537631317584 energy=-258.18861141140616 dipole="1.4593416684202116 -1.3194942764375654 0.24051996943122655" magmom=0.0 pbc="T T T"
Ti      14.77773371      12.05600926      19.11551806   113766        1        0      -0.71949759      -0.04314002      -1.98468451       0.00000000      -0.71949759      -0.04314002      -1.98468451
Ti      19.82811217      14.16747384      12.33246569   600768        1        0      -1.45159076      -0.60163818       1.70995796       0.00000000      -1.45159076      -0.60163818       1.70995796
Ti      15.14933662      14.09146000       8.99034223   602398        1        0      -1.18282413      -1.42140160       1.86570677       0.00000000      -1.18282413      -1.42140160       1.86570677
Ti      16.70700672      11.35471852      12.38368619   602560        1        0       0.91551591       1.35328135      -1.16216531       0.00000000       0.91551591       1.35328135      -1.16216531
C       15.80834749      12.28135230      10.41275719   602563        3        0       0.30509446      -0.56408557       0.71590331       0.00000000       0.30509446      -0.56408557       0.71590331
C       15.24595730      10.24678088      13.19736310   602564        3        0       5.11622123      -2.54833391      -0.16301667       0.00000000       5.11622123      -2.54833391      -0.16301667
C       15.09615209      17.79866568      11.05647245   602568        3        0       0.46956791       0.83683480       1.62143293       0.00000000       0.46956791       0.83683480       1.62143293
Ti      16.22196177      17.83062629      12.74423018   602569        1        0      -0.59538269       0.64130880       0.31599366       0.00000000      -0.59538269       0.64130880       0.31599366
C       15.07856493      19.59732463      13.72647342   602577        3        0      -1.72010313      -4.46102356      -1.99605448       0.00000000      -1.72010313      -4.46102356      -1.99605448
Ti      16.76440974      12.97642676      14.38731587   602709        1        0      -0.13084425      -0.00275029      -0.07396282       0.00000000      -0.13084425      -0.00275029      -0.07396282
Ti      16.30101915       9.87962573      15.16830310   602714        1        0      -0.81163451       1.75893655      -1.40229866       0.00000000      -0.81163451       1.75893655      -1.40229866
Si      16.28907112      11.75977571      16.92416559   602717        2        0      -0.58228954      -0.03176945       0.14515727       0.00000000      -0.58228954      -0.03176945       0.14515727
Ti      19.60392340      12.82762980      14.90690853   602720        1        0      -1.56989635       0.71375626      -1.07150891       0.00000000      -1.56989635       0.71375626      -1.07150891
Si      17.67857728      13.64819382      16.56818905   602722        2        0       1.01852688       0.54698112      -0.02269135       0.00000000       1.01852688       0.54698112      -0.02269135
Si      17.72084154      16.09981719      16.31087786   602726        2        0      -0.04194276       0.33065157      -1.43151575       0.00000000      -0.04194276       0.33065157      -1.43151575
Si      18.23918609      18.04904044      14.55915110   602728        2        0      -0.55660715      -1.71662882       0.83530467       0.00000000      -0.55660715      -1.71662882       0.83530467
Ti      14.76502840      10.24823364      11.01852302   604584        1        0       1.24425624      -3.25102875      -1.39863481       0.00000000       1.24425624      -3.25102875      -1.39863481
C       13.17986737       8.67583329      11.62428134   604585        3        0       1.13705294       0.34662548       0.71874263       0.00000000       1.13705294       0.34662548       0.71874263
Ti      11.74276545      10.17736294      12.03503218   604586        1        0       1.03858868      -1.93638185       0.04602532       0.00000000       1.03858868      -1.93638185       0.04602532
C       13.19563199      11.17968796      11.24892195   604587        3        0      -3.58823796      -3.17617222       1.38285848       0.00000000      -3.58823796      -3.17617222       1.38285848
Ti      14.35882364       8.52198837      13.27154629   604588        1        0      -3.46343999       0.72021949      -0.54479691       0.00000000      -3.46343999       0.72021949      -0.54479691
Ti      13.89522027      11.47862233      13.19404990   604589        1        0      -0.61781561       3.46810643       0.26830004       0.00000000      -0.61781561       3.46810643       0.26830004
Ti      13.89476314      12.73690514      10.90480480   604590        1        0       3.89637858       4.79883632      -0.63879079       0.00000000       3.89637858       4.79883632      -0.63879079
C       12.76671152      10.07059819      13.82600363   604592        3        0      -2.34357452      -2.36416873       3.02240654       0.00000000      -2.34357452      -2.36416873       3.02240654
Si       9.97310494      12.81272528      11.37092765   604593        2        0       0.25992186      -0.16045344       1.36655280       0.00000000       0.25992186      -0.16045344       1.36655280
Si       9.91049250      11.50366541      13.68373389   604594        2        0       0.33086594       0.98958794      -0.52711574       0.00000000       0.33086594       0.98958794      -0.52711574
C       13.36240624      13.47924599       9.24302655   604596        3        0       1.12041742       0.54064442      -2.61825572       0.00000000       1.12041742       0.54064442      -2.61825572
C       12.81786136      16.19913384       9.90450598   604598        3        0      -0.64586820      -0.61580810       1.20025713       0.00000000      -0.64586820      -0.61580810       1.20025713
Ti      11.95350169      14.26617928      10.37423728   604599        1        0      -0.65828588       2.47200503      -0.07627870       0.00000000      -0.65828588       2.47200503      -0.07627870
Ti      14.07288981      15.96040749      11.56987937   604600        1        0      -1.84762272       2.70442349      -2.02275104       0.00000000      -1.84762272       2.70442349      -2.02275104
Ti      11.43344149      17.43347667      10.56034947   604601        1        0       2.09499275      -0.88048537       0.28186575       0.00000000       2.09499275      -0.88048537       0.28186575
C       13.06646719      14.13684670      12.10746617   604602        3        0       0.26001828       0.47458932       0.20748982       0.00000000       0.26001828       0.47458932       0.20748982
C       12.78805257      17.51047972      12.49636784   604603        3        0      -1.04692567       1.19594975       0.71193456       0.00000000      -1.04692567       1.19594975       0.71193456
Si       9.80689857      15.55673045      10.57595241   604605        2        0      -1.17909600      -0.14710508       1.56282249       0.00000000      -1.17909600      -0.14710508       1.56282249
Ti      13.89404094      19.21480490      11.80016927   604608        1        0       1.86226519      -1.38177746       0.27979181       0.00000000       1.86226519      -1.38177746       0.27979181
Ti      11.25802150      18.92548624      12.55015014   604611        1        0       0.64252971      -1.06892356       1.06066829       0.00000000       0.64252971      -1.06892356       1.06066829
Ti      12.26634854      10.47500164      17.74830506   604794        1        0       0.47028724       1.11995382      -0.87638538       0.00000000       0.47028724       1.11995382      -0.87638538
Ti      11.80033518       8.66345692      15.22903044   604795        1        0       1.55343008       2.73319856      -1.07259383       0.00000000       1.55343008       2.73319856      -1.07259383
Ti      12.16895326      11.73834240      15.12525415   604796        1        0      -0.31052855       0.30220229       0.47603061       0.00000000      -0.31052855       0.30220229       0.47603061
Si      10.14239037      12.97278704      16.23387027   604803        2        0       0.25573051       0.94419556      -0.48071862       0.00000000       0.25573051       0.94419556      -0.48071862
C       13.53093455      13.07225817      14.23329628   604804        3        1      -0.12870697       0.89459532       1.38027449       0.00000000      -0.12870697       0.89459532       1.38027449
Ti      13.94132315      17.72599046      14.28329593   604805        1        0       0.41756210       1.21812433      -1.31426317       0.00000000       0.41756210       1.21812433      -1.31426317
Ti      12.29104930      13.63698510      17.68575294   604806        1        0       1.12476096       0.31046376      -1.79741332       0.00000000       1.12476096       0.31046376      -1.79741332
C       13.50469061      14.90550135      16.60374365   604810        3        0      -1.39327911      -1.29186313       0.27649828       0.00000000      -1.39327911      -1.29186313       0.27649828
Si      10.25169018      15.68472473      15.66843032   604813        2        0       0.68725613      -1.69152918       0.19953188       0.00000000       0.68725613      -1.69152918       0.19953188
Si       9.70307372      16.94008547      12.67728352   606503        2        0       0.54542570      -0.82731569      -1.04822984       0.00000000       0.54542570      -0.82731569      -1.04822984
Ag      14.77729604      14.94381481      13.72951918   688433        4        1      -0.21769198      -0.69671390       1.80818643       0.00000000      -0.21769198      -0.69671390       1.80818643
Ag      16.83346081      14.94455228      11.65879226   751743        4        0       0.05766045      -0.53299238       0.26738281       0.00000000       0.05766045      -0.53299238       0.26738281
