48
Lattice="6.0739584949392285 0.0 0.0 -3.036979247469613 5.260202358149667 0.0 0.0 0.0 17.505217912602042" Properties=species:S:1:pos:R:3:spacegroup_kinds:I:1:local_new_id:I:1 proposal_role=pure_phase_numerical_stability_control_NOT_VALIDATED phase=Ti3SiC2 case=volume_m02 identity_note="Local new IDs only; not historical lammps identities" pbc="T T T"
Ti       0.00000000       0.00000000       0.00000000        0        1
Ti       0.00000000       0.00000000       8.75260896        0        2
Ti       1.51850481       0.87669163       2.37195703        1        3
Ti       0.00000000       1.75338325      11.12456598        1        4
Ti       1.51848962       0.87671793       6.38065193        1        5
Ti      -0.00001518       1.75340955      15.13326089        1        6
Si       0.00000000       0.00000000       4.37630448        2        7
Si       0.00000000       0.00000000      13.12891343        2        8
C       -0.00001518       1.75340955       1.26387673        3        9
C        1.51848962       0.87671793      10.01648569        3       10
C        0.00000000       1.75338325       7.48873222        3       11
C        1.51850481       0.87669163      16.24134118        3       12
Ti      -1.51848962       2.63010118       0.00000000        0       13
Ti      -1.51848962       2.63010118       8.75260896        0       14
Ti       0.00001518       3.50679281       2.37195703        1       15
Ti      -1.51848962       4.38348443      11.12456598        1       16
Ti       0.00000000       3.50681911       6.38065193        1       17
Ti      -1.51850481       4.38351073      15.13326089        1       18
Si      -1.51848962       2.63010118       4.37630448        2       19
Si      -1.51848962       2.63010118      13.12891343        2       20
C       -1.51850481       4.38351073       1.26387673        3       21
C        0.00000000       3.50681911      10.01648569        3       22
C       -1.51848962       4.38348443       7.48873222        3       23
C        0.00001518       3.50679281      16.24134118        3       24
Ti       3.03697925       0.00000000       0.00000000        0       25
Ti       3.03697925       0.00000000       8.75260896        0       26
Ti       4.55548406       0.87669163       2.37195703        1       27
Ti       3.03697925       1.75338325      11.12456598        1       28
Ti       4.55546887       0.87671793       6.38065193        1       29
Ti       3.03696406       1.75340955      15.13326089        1       30
Si       3.03697925       0.00000000       4.37630448        2       31
Si       3.03697925       0.00000000      13.12891343        2       32
C        3.03696406       1.75340955       1.26387673        3       33
C        4.55546887       0.87671793      10.01648569        3       34
C        3.03697925       1.75338325       7.48873222        3       35
C        4.55548406       0.87669163      16.24134118        3       36
Ti       1.51848962       2.63010118       0.00000000        0       37
Ti       1.51848962       2.63010118       8.75260896        0       38
Ti       3.03699443       3.50679281       2.37195703        1       39
Ti       1.51848962       4.38348443      11.12456598        1       40
Ti       3.03697925       3.50681911       6.38065193        1       41
Ti       1.51847444       4.38351073      15.13326089        1       42
Si       1.51848962       2.63010118       4.37630448        2       43
Si       1.51848962       2.63010118      13.12891343        2       44
C        1.51847444       4.38351073       1.26387673        3       45
C        3.03697925       3.50681911      10.01648569        3       46
C        1.51848962       4.38348443       7.48873222        3       47
C        3.03699443       3.50679281      16.24134118        3       48
