48
Lattice="6.155497868960091 0.0 0.0 -3.077748934480044 5.3308175274604155 0.0 0.0 0.0 17.740215321932652" Properties=species:S:1:pos:R:3:spacegroup_kinds:I:1:local_new_id:I:1 proposal_role=pure_phase_numerical_stability_control_NOT_VALIDATED phase=Ti3SiC2 case=volume_p02 identity_note="Local new IDs only; not historical lammps identities" pbc="T T T"
Ti       0.00000000       0.00000000       0.00000000        0        1
Ti       0.00000000       0.00000000       8.87010766        0        2
Ti       1.53888986       0.88846070       2.40379918        1        3
Ti       0.00000000       1.77692141      11.27390684        1        4
Ti       1.53887447       0.88848736       6.46630848        1        5
Ti      -0.00001539       1.77694806      15.33641615        1        6
Si       0.00000000       0.00000000       4.43505383        2        7
Si       0.00000000       0.00000000      13.30516149        2        8
C       -0.00001539       1.77694806       1.28084355        3        9
C        1.53887447       0.88848736      10.15095121        3       10
C        0.00000000       1.77692141       7.58926411        3       11
C        1.53888986       0.88846070      16.45937178        3       12
Ti      -1.53887447       2.66540876       0.00000000        0       13
Ti      -1.53887447       2.66540876       8.87010766        0       14
Ti       0.00001539       3.55386947       2.40379918        1       15
Ti      -1.53887447       4.44233017      11.27390684        1       16
Ti       0.00000000       3.55389612       6.46630848        1       17
Ti      -1.53888986       4.44235682      15.33641615        1       18
Si      -1.53887447       2.66540876       4.43505383        2       19
Si      -1.53887447       2.66540876      13.30516149        2       20
C       -1.53888986       4.44235682       1.28084355        3       21
C        0.00000000       3.55389612      10.15095121        3       22
C       -1.53887447       4.44233017       7.58926411        3       23
C        0.00001539       3.55386947      16.45937178        3       24
Ti       3.07774893       0.00000000       0.00000000        0       25
Ti       3.07774893       0.00000000       8.87010766        0       26
Ti       4.61663879       0.88846070       2.40379918        1       27
Ti       3.07774893       1.77692141      11.27390684        1       28
Ti       4.61662340       0.88848736       6.46630848        1       29
Ti       3.07773355       1.77694806      15.33641615        1       30
Si       3.07774893       0.00000000       4.43505383        2       31
Si       3.07774893       0.00000000      13.30516149        2       32
C        3.07773355       1.77694806       1.28084355        3       33
C        4.61662340       0.88848736      10.15095121        3       34
C        3.07774893       1.77692141       7.58926411        3       35
C        4.61663879       0.88846070      16.45937178        3       36
Ti       1.53887447       2.66540876       0.00000000        0       37
Ti       1.53887447       2.66540876       8.87010766        0       38
Ti       3.07776432       3.55386947       2.40379918        1       39
Ti       1.53887447       4.44233017      11.27390684        1       40
Ti       3.07774893       3.55389612       6.46630848        1       41
Ti       1.53885908       4.44235682      15.33641615        1       42
Si       1.53887447       2.66540876       4.43505383        2       43
Si       1.53887447       2.66540876      13.30516149        2       44
C        1.53885908       4.44235682       1.28084355        3       45
C        3.07774893       3.55389612      10.15095121        3       46
C        1.53887447       4.44233017       7.58926411        3       47
C        3.07776432       3.55386947      16.45937178        3       48
