48
Lattice="6.1150000000000002 0 0 -3.0574999999999988 5.2957453441418432 0 0 0 17.6235" Properties=species:S:1:pos:R:3:PW_PBE_forces:R:3:local_new_id:I:1 pbc="T T T" PW_PBE_energy_eV=-389.80803880551315 config_type=Ti3SiC2_C4f_id0009_z_p020A_k10x10x4_v19
Ti 0 0 0 2.2921944091797353e-05 0.0070408514005168964 0.022966592652961384 1
Ti 0 0 8.81175 7.0698128722652413e-06 -0.00027911929780413295 -8.0591392570100262e-05 2
Ti 1.5287652899999999 0.88261540000000005 2.3879842500000001 0.042149573625658639 -0.024331320600993304 0.009320773297491659 3
Ti 0 1.7652308000000001 11.199734250000001 -0.001017249602723147 0.00091758587583136853 -0.043773133065716389 4
Ti 1.5287500000000001 0.88264187999999999 6.4237657500000003 0.00041723828898261063 -0.00057125644834721311 0.045454738112969038 5
Ti -1.5290000000000001e-05 1.76525727 15.235515749999999 -0.00071100279561076886 0.00040681800117725635 0.053361945104163033 6
Si 0 0 4.405875 -0.00066531953088800754 -0.007678397287584857 0.0056332889372225931 7
Si 0 0 13.217625 0.0006710054018292267 -0.00074259537814604191 -0.00032994286828796313 8
C -1.5290000000000001e-05 1.76525727 1.2924167 -0.00016956387974272099 0.00010529925470781226 -0.21641497232585813 9
C 1.5287500000000001 0.88264187999999999 10.084166700000001 0.00073143191960174799 -0.00084911910372211018 0.087145893047386472 10
C 0 1.7652308000000001 7.5393333 -0.0005191705702294792 0.00072640785215887557 -0.087357725615162349 11
C 1.5287652899999999 0.88261540000000005 16.351083299999999 -0.008401638472707201 0.0048445938401815453 -0.073286418447119209 12
Ti -1.5287500000000001 2.6478726699999999 0 0.0060981593119376091 -0.0035206866107937176 0.023030591445473699 13
Ti -1.5287500000000001 2.6478726699999999 8.81175 -0.00024710014042604258 0.00014272471522876922 -9.6290263677627544e-05 14
Ti 1.5290000000000001e-05 3.5304880700000001 2.3879842500000001 0.00073754553700882232 0.047435056838723524 0.0093158771605578363 15
Ti -1.5287500000000001 4.4131034700000003 11.199734250000001 -0.0012805479435079924 0.00078021242392928563 -0.043524187148410484 16
Ti 0 3.5305145499999999 6.4237657500000003 0.0010334227044762557 -0.0016121622186117228 0.045451721461746149 17
Ti -1.5287652899999999 4.4131299500000001 15.235515749999999 -0.0012882096350339317 7.9556564089286209e-05 0.041974629356394129 18
Si -1.5287500000000001 2.6478726699999999 4.405875 -0.0076383762627312392 0.0044199534762896456 0.0056297628375138959 19
Si -1.5287500000000001 2.6478726699999999 13.217625 0.00034407950741095322 -0.00020862143056255223 -0.00033541093564026488 20
C -1.5287652899999999 4.4131299500000001 1.2724167 -0.0036762361684345374 -0.0019475166694473489 0.081831263525347961 21
C 0 3.5305145499999999 10.084166700000001 0.00052488654847884808 -0.00048255747789449979 0.087178247130891284 22
C -1.5287500000000001 4.4131034700000003 7.5393333 0.00018217042333417921 0.0011367954819966988 -0.086920023132307858 23
C 1.5290000000000001e-05 3.5304880700000001 16.351083299999999 0.00015260228741108864 -0.0099410548983388438 -0.073303382593923869 24
Ti 3.0575000000000001 0 0 -3.8635619773766021e-06 2.2242222385027888e-06 -0.0011010336440479319 25
Ti 3.0575000000000001 0 8.81175 -1.0211968619572231e-05 5.9134440907996402e-06 -0.00054493222984067506 26
Ti 4.58626529 0.88261540000000005 2.3879842500000001 -0.040710158002273851 -0.024351814975251431 0.0093170768061423374 27
Ti 3.0575000000000001 1.7652308000000001 11.199734250000001 -0.0010297464649947224 0.0012144974963213724 -0.04352415380118195 28
Ti 4.5862499999999997 0.88264187999999999 6.4237657500000003 0.0016266281573150976 -0.00058449694637451889 0.045451718643337427 29
Ti 3.0574847100000002 1.76525727 15.235515749999999 -0.00071590216187918706 0.0010706632105861697 0.041974684634803444 30
Si 3.0575000000000001 0 4.405875 -0.00064435031812509281 0.00038189118442079985 0.0072755151030878202 31
Si 3.0575000000000001 0 13.217625 0.00062816711233848238 -0.00037258476270423725 -0.001329729643289588 32
C 3.0574847100000002 1.76525727 1.2724167 -0.000146317173020106 0.0041663814299077737 0.081831509124783125 33
C 4.5862499999999997 0.88264187999999999 10.084166700000001 0.00031082164444715203 -0.00085335475818959169 0.087178307740171671 34
C 3.0575000000000001 1.7652308000000001 7.5393333 -0.00052403315548337881 -8.5991723175537897e-05 -0.086920123312256889 35
C 4.58626529 0.88261540000000005 16.351083299999999 0.0086802376582553915 0.0048291425652518261 -0.073303665901603032 36
Ti 1.5287500000000001 2.6478726699999999 0 -0.006085494311870574 -0.0035399387143619015 0.022965749410886603 37
Ti 1.5287500000000001 2.6478726699999999 8.81175 0.00024536641686814922 0.00013349749033008231 -8.0771357605498954e-05 38
Ti 3.05751529 3.5304880700000001 2.3879842500000001 0.00072827341392276649 -0.00041686385844306323 -0.046151980379464663 39
Ti 1.5287500000000001 4.4131034700000003 11.199734250000001 -0.00075737883759148333 0.00076779549908536065 -0.04355684296149491 40
Ti 3.0575000000000001 3.5305145499999999 6.4237657500000003 0.0010123515770974862 -0.00091509044787166068 0.041505846984401552 41
Ti 1.5287347099999999 4.4131299500000001 15.235515749999999 -0.00014398084064825225 7.9834027828119876e-05 0.042026709112749215 42
Si 1.5287500000000001 2.6478726699999999 4.405875 0.0063255922532070618 0.0044302464796795622 0.0056334148263343028 43
Si 1.5287500000000001 2.6478726699999999 13.217625 0.00097005845765020396 -0.00022473184173674133 -0.00032995319951451967 44
C 1.5287347099999999 4.4131299500000001 1.2724167 0.0033520129207453351 -0.0019293150453262551 0.081855146631716405 45
C 3.0575000000000001 3.5305145499999999 10.084166700000001 0.00051393059829656616 -0.00072331991508417406 0.085999060943256059 46
C 1.5287500000000001 4.4131034700000003 7.5393333 -0.0012202420239548102 0.0011311417584811548 -0.08693430923951373 47
C 3.05751529 3.5304880700000001 16.351083299999999 0.00013711008123255526 -8.5257109632431755e-05 -0.062821462386199595 48
