52
Lattice="6.1150000000000002 0 0 -3.0574999999999988 5.2957453441418432 0 0 0 34.205876500000002" Properties=species:S:1:pos:R:3:PW_PBE_forces:R:3:lammps_id:I:1:central_pair:I:1 pbc="T T F" PW_PBE_energy_eV=-390.44395403993826 config_type=AgSi_originalvac_slab_dipole_off_v19
Ti 0 0 10.388251500000001 0.00072072366842022026 -0.00041327816981448853 0.1598120449755808 19101000 0
Ti 0 0 19.200001499999999 0.0010342955824951231 -0.001244811005569704 -0.016563072231698544 19101001 0
Ti 1.5287652899999999 0.88261540000000005 12.77623575 8.876071837935009e-05 -1.9436055679530937e-05 -0.25591236869389056 19101002 0
Ti 0 1.7652308000000001 21.587985750000001 0.0094210244639552805 0.0083717122418251484 -0.073030068229643877 19101003 0
Ti 1.5287500000000001 0.88264187999999999 16.81201725 0.0002370309485159288 -0.0013153348821299915 0.014333653852922392 19101004 0
Ti -1.5290000000000001e-05 1.76525727 8.0002672500000003 0.00074717575135312066 -0.0005472448785510313 0.54982986150022006 19101005 0
Si 0 0 14.794126500000001 0.0009561068196270937 -0.00035434132200147322 0.073372000356961772 19101006 0
Si 0 0 23.605876500000001 0.040811402611031583 0.020716945598400455 0.94698779344104322 19101007 1
C -1.5290000000000001e-05 1.76525727 11.6606682 -0.0013536339634065068 0.00079616605024568116 0.17218278829971967 19101008 0
C 1.5287500000000001 0.88264187999999999 20.4724182 -0.0017712828612347863 -0.0023144583240942177 0.083491548286882544 19101009 0
C 0 1.7652308000000001 17.927584800000002 -0.0010351262950039259 0.0022975572871822792 -0.10036091796989811 19101010 0
C 1.5287652899999999 0.88261540000000005 9.1158348 -0.00072413766947296114 0.0005415457213662734 -0.89584554604395306 19101011 0
Ti -1.5287500000000001 2.6478726699999999 10.388251500000001 0.00072077084951154631 -0.00041312081202997934 0.15981199965491766 19101012 0
Ti -1.5287500000000001 2.6478726699999999 19.200001499999999 0.0010343367648667882 -0.001244779950202208 -0.01656308393835591 19101013 0
Ti 1.5290000000000001e-05 3.5304880700000001 12.77623575 8.8751715078498711e-05 -1.9443558396221945e-05 -0.25591228045255737 19101014 0
Ti -1.5287500000000001 4.4131034700000003 21.587985750000001 0.0094209507649991898 0.0083717349593440508 -0.073030220552043237 19101015 0
Ti 0 3.5305145499999999 16.81201725 0.00023706519125910776 -0.0013152296703002606 0.014333717172103563 19101016 0
Ti -1.5287652899999999 4.4131299500000001 8.0002672500000003 0.0007473028892978922 -0.0005474027376591575 0.54982927931341019 19101017 0
Si -1.5287500000000001 2.6478726699999999 14.794126500000001 0.00095611212977008222 -0.000354352056832857 0.073371985883483398 19101018 0
Si -1.5287500000000001 2.6478726699999999 23.605876500000001 0.040811434341167206 0.020716954292922949 0.94698782584545627 19101019 0
C -1.5287652899999999 4.4131299500000001 11.6606682 -0.0013536440062085493 0.00079589180274428008 0.17218284941518153 19101020 0
C 0 3.5305145499999999 20.4724182 -0.001771303500868992 -0.0023143458784432359 0.083491578076403228 19101021 0
C -1.5287500000000001 4.4131034700000003 17.927584800000002 -0.00103515467941008 0.0022977044836489401 -0.10036084563603234 19101022 0
C 1.5290000000000001e-05 3.5304880700000001 9.1158348 -0.0007241197303276721 0.00054149536452109996 -0.89584557456803793 19101023 0
Ti 3.0575000000000001 0 10.388251500000001 0.00072072979956767068 -0.00041328259774442943 0.15981204053618092 19101024 0
Ti 3.0575000000000001 0 19.200001499999999 0.0010342961517452334 -0.0012448144001573297 -0.016563072195056344 19101025 0
Ti 4.58626529 0.88261540000000005 12.77623575 8.8768860056269978e-05 -1.9438880615591443e-05 -0.25591237624783447 19101026 0
Ti 3.0575000000000001 1.7652308000000001 21.587985750000001 0.0094210245595632153 0.0083717146493864237 -0.073030068402153411 19101027 0
Ti 4.5862499999999997 0.88264187999999999 16.81201725 0.00023702471294482618 -0.001315334702435273 0.014333664049510086 19101028 0
Ti 3.0574847100000002 1.76525727 8.0002672500000003 0.00074717197311077439 -0.00054723126290590334 0.54982980548295102 19101029 0
Si 3.0575000000000001 0 14.794126500000001 0.00095610506835003555 -0.00035434485216143038 0.073372005408910243 19101030 0
Si 3.0575000000000001 0 23.605876500000001 0.040811406559755584 0.020716944869596299 0.94698780051493592 19101031 0
C 3.0574847100000002 1.76525727 11.6606682 -0.0013536311564111743 0.00079617131976364702 0.17218279101528619 19101032 0
C 4.5862499999999997 0.88264187999999999 20.4724182 -0.0017712761087388376 -0.002314459167083378 0.083491547671577626 19101033 0
C 3.0575000000000001 1.7652308000000001 17.927584800000002 -0.0010351336712980622 0.0022975476317950794 -0.10036091262136983 19101034 0
C 4.58626529 0.88261540000000005 9.1158348 -0.00072411147495485544 0.00054152857499764964 -0.89584555370172503 19101035 0
Ti 1.5287500000000001 2.6478726699999999 10.388251500000001 0.0007207719548398999 -0.00041312543223597013 0.15981198505775127 19101036 0
Ti 1.5287500000000001 2.6478726699999999 19.200001499999999 0.0010343330359600395 -0.0012447780821272427 -0.016563083665537794 19101037 0
Ti 3.05751529 3.5304880700000001 12.77623575 8.8748374901660292e-05 -1.9437314956747891e-05 -0.25591227643243292 19101038 0
Ti 1.5287500000000001 4.4131034700000003 21.587985750000001 0.0094209492395883245 0.0083717542737545298 -0.073030216192889352 19101039 0
Ti 3.0575000000000001 3.5305145499999999 16.81201725 0.00023706492163468458 -0.0013152316047047063 0.014333738149144069 19101040 0
Ti 1.5287347099999999 4.4131299500000001 8.0002672500000003 0.00074727858635634877 -0.00054740705518148696 0.5498294199240733 19101041 0
Si 1.5287500000000001 2.6478726699999999 14.794126500000001 0.00095610609164244122 -0.00035435275447956942 0.073371990459129455 19101042 0
Si 1.5287500000000001 2.6478726699999999 23.605876500000001 0.040811430884565424 0.020716956305945857 0.94698782325291153 19101043 0
C 1.5287347099999999 4.4131299500000001 11.6606682 -0.0013536335819433196 0.00079589474173494604 0.17218285128376395 19101044 0
C 3.0575000000000001 3.5305145499999999 20.4724182 -0.0017713023649777236 -0.0023143416297239545 0.083491575686949385 19101045 0
C 1.5287500000000001 4.4131034700000003 17.927584800000002 -0.0010351710091367984 0.0022976994102113699 -0.10036084143095293 19101046 0
C 3.05751529 3.5304880700000001 9.1158348 -0.00072413676095872486 0.00054150623555414387 -0.89584555196384374 19101047 0
Ag 0.81023750000000005 0.55605325999999999 26.205876499999999 -0.048561479296923012 -0.02591404854645827 -0.65844422408461378 19101048 1
Ag -0.7185125 3.20392593 26.205876499999999 -0.048561793507270398 -0.025914362480027989 -0.65844546393653958 19101049 0
Ag 3.8677375000000001 0.55605325999999999 26.205876499999999 -0.04856146461263789 -0.025913999895304872 -0.65844425988190547 19101050 0
Ag 2.3389875 3.20392593 26.205876499999999 -0.04856180463883799 -0.02591437406346005 -0.65844542545254148 19101051 0
