52
Lattice="6.1150000000000002 0 0 -3.0574999999999988 5.2957453441418432 0 0 0 34.205876500000002" Properties=species:S:1:pos:R:3:PW_PBE_forces:R:3:lammps_id:I:1:central_pair:I:1 pbc="T T T" PW_PBE_energy_eV=-390.44205755538445 config_type=AgSi_COD9009647_pilot_k6x6_sigma0p05
Ti 0 0 10.388251500000001 0.0014274643774661658 -0.00068521402289384509 0.16220287718025836 19101000 0
Ti 0 0 19.200001499999999 0.0011725809206034464 -0.0016402994020556585 -0.022639745953214104 19101001 0
Ti 1.5287652899999999 0.88261540000000005 12.77623575 -0.00095724913805571559 0.00065277801340581998 -0.28373768743731398 19101002 0
Ti 0 1.7652308000000001 21.587985750000001 0.0089257557801952388 0.0099505783730079993 -0.10108079225528631 19101003 0
Ti 1.5287500000000001 0.88264187999999999 16.81201725 -0.0013513772415524958 -0.00090928278510964686 0.032410134254911349 19101004 0
Ti -1.5290000000000001e-05 1.76525727 8.0002672500000003 0.0033981566130099278 -0.0023762710081558069 0.55119540181122573 19101005 0
Si 0 0 14.794126500000001 0.0027128552504207828 -0.0013199126407239887 0.075814636083550907 19101006 0
Si 0 0 23.605876500000001 0.042379513756474148 0.019951214089943655 0.97202639369713539 19101007 1
C -1.5290000000000001e-05 1.76525727 11.6606682 -0.0021863165051440705 0.0012818827031795027 0.18635295886739137 19101008 0
C 1.5287500000000001 0.88264187999999999 20.4724182 -0.0024568549991824083 -0.0022781489726929802 0.091826058487426032 19101009 0
C 0 1.7652308000000001 17.927584800000002 -0.00045970814664736599 0.0024430401765447654 -0.1120046489326334 19101010 0
C 1.5287652899999999 0.88261540000000005 9.1158348 -0.003086641010169827 0.0020441148128041348 -0.88837198243636739 19101011 0
Ti -1.5287500000000001 2.6478726699999999 10.388251500000001 0.0014274516729497271 -0.00068515417529350084 0.16220282587984425 19101012 0
Ti -1.5287500000000001 2.6478726699999999 19.200001499999999 0.001172565845438312 -0.0016402385322194198 -0.02263973492726112 19101013 0
Ti 1.5290000000000001e-05 3.5304880700000001 12.77623575 -0.00095727148186949362 0.00065284265656462271 -0.28373782113998663 19101014 0
Ti -1.5287500000000001 4.4131034700000003 21.587985750000001 0.0089257773082589646 0.0099506162931116346 -0.10108082639758928 19101015 0
Ti 0 3.5305145499999999 16.81201725 -0.0013513801495569563 -0.00090923137699025459 0.03241012914656962 19101016 0
Ti -1.5287652899999999 4.4131299500000001 8.0002672500000003 0.0033981704046608355 -0.0023763141867930646 0.55119544890707484 19101017 0
Si -1.5287500000000001 2.6478726699999999 14.794126500000001 0.0027128516135616646 -0.0013199439129198492 0.075814639530832256 19101018 0
Si -1.5287500000000001 2.6478726699999999 23.605876500000001 0.042379480637072565 0.019951226207159039 0.97202636360152861 19101019 0
C -1.5287652899999999 4.4131299500000001 11.6606682 -0.0021863273241282239 0.0012817838677291072 0.18635295376001446 19101020 0
C 0 3.5305145499999999 20.4724182 -0.0024568253513474218 -0.0022780235792985849 0.091826112682303174 19101021 0
C -1.5287500000000001 4.4131034700000003 17.927584800000002 -0.00045974391914346238 0.0024431041496789782 -0.11200465294363859 19101022 0
C 1.5290000000000001e-05 3.5304880700000001 9.1158348 -0.0030866409853235821 0.0020440913882818772 -0.88837201920480935 19101023 0
Ti 3.0575000000000001 0 10.388251500000001 0.0014274690851821404 -0.00068522139236301975 0.16220287191538812 19101024 0
Ti 3.0575000000000001 0 19.200001499999999 0.0011725793242733289 -0.001640294102316668 -0.0226397276439417 19101025 0
Ti 4.58626529 0.88261540000000005 12.77623575 -0.000957256356016988 0.00065278713910559753 -0.28373769321487619 19101026 0
Ti 3.0575000000000001 1.7652308000000001 21.587985750000001 0.0089257327001685937 0.0099505688534155621 -0.10108092811834467 19101027 0
Ti 4.5862499999999997 0.88264187999999999 16.81201725 -0.0013513892102511975 -0.00090928845014554894 0.03241014189043278 19101028 0
Ti 3.0574847100000002 1.76525727 8.0002672500000003 0.0033981988600565202 -0.0023762711767870569 0.55119541158962782 19101029 0
Si 3.0575000000000001 0 14.794126500000001 0.0027128453769193353 -0.0013199157173578975 0.075814627790549274 19101030 0
Si 3.0575000000000001 0 23.605876500000001 0.042379522132490022 0.019951232046440153 0.97202639070754948 19101031 0
C 3.0574847100000002 1.76525727 11.6606682 -0.0021863149275412339 0.0012818781485625906 0.18635296897213566 19101032 0
C 4.5862499999999997 0.88264187999999999 20.4724182 -0.0024568581730448472 -0.0022781579297686985 0.091826068868080951 19101033 0
C 3.0575000000000001 1.7652308000000001 17.927584800000002 -0.00045973922635860035 0.0024430395224323866 -0.11200465026892049 19101034 0
C 4.58626529 0.88261540000000005 9.1158348 -0.0030866036588171049 0.0020441214189429457 -0.88837198182854571 19101035 0
Ti 1.5287500000000001 2.6478726699999999 10.388251500000001 0.0014274495781622337 -0.00068514067114740793 0.162202796358908 19101036 0
Ti 1.5287500000000001 2.6478726699999999 19.200001499999999 0.001172572155747138 -0.001640240378573672 -0.022639733073908711 19101037 0
Ti 3.05751529 3.5304880700000001 12.77623575 -0.00095726778293210926 0.00065283947206535317 -0.28373782954158988 19101038 0
Ti 1.5287500000000001 4.4131034700000003 21.587985750000001 0.0089257713251793599 0.0099506002182299363 -0.10108083055223577 19101039 0
Ti 3.0575000000000001 3.5305145499999999 16.81201725 -0.0013513798829515365 -0.00090923900746195429 0.032410078133539119 19101040 0
Ti 1.5287347099999999 4.4131299500000001 8.0002672500000003 0.0033981764933108346 -0.002376335178894776 0.55119542363381702 19101041 0
Si 1.5287500000000001 2.6478726699999999 14.794126500000001 0.0027128469221708914 -0.0013199500267663811 0.075814648761329581 19101042 0
Si 1.5287500000000001 2.6478726699999999 23.605876500000001 0.042379508468531529 0.01995122462671358 0.97202636518448704 19101043 0
C 1.5287347099999999 4.4131299500000001 11.6606682 -0.0021863230393055094 0.0012817900936145958 0.18635294495232832 19101044 0
C 3.0575000000000001 3.5305145499999999 20.4724182 -0.002456852371442473 -0.002278034205211282 0.091826109287344873 19101045 0
C 1.5287500000000001 4.4131034700000003 17.927584800000002 -0.0004597392869369258 0.0024430883123666065 -0.11200464353133105 19101046 0
C 3.05751529 3.5304880700000001 9.1158348 -0.0030866471130790597 0.0020440995896720739 -0.88837201417089817 19101047 0
Ag 0.81023750000000005 0.55605325999999999 26.205876499999999 -0.049299864532044692 -0.026628616159215572 -0.66339190190391861 19101048 1
Ag -0.7185125 3.20392593 26.205876499999999 -0.049301303150538663 -0.026629757987148433 -0.66339276361371924 19101049 0
Ag 3.8677375000000001 0.55605325999999999 26.205876499999999 -0.049299987084209802 -0.026629493527850379 -0.66339158786911179 19101050 0
Ag 2.3389875 3.20392593 26.205876499999999 -0.049300987044695092 -0.026629850484166832 -0.66339179943812621 19101051 0
