48
Lattice="6.1150000000000002 0 0 -3.0574999999999988 5.2957453441418432 0 0 0 17.6235" Properties=species:S:1:pos:R:3:PW_PBE_forces:R:3:local_new_id:I:1 pbc="T T T" PW_PBE_energy_eV=-389.82556440417676 config_type=Ti3SiC2_baseline_k8x8x2_v19
Ti 0 0 0 0 0 0 1
Ti 0 0 8.81175 0 0 0 2
Ti 1.5287652899999999 0.88261540000000005 2.3879842500000001 -0.004603819050694141 0.0026640530039531113 -0.05042749319345094 3
Ti 0 1.7652308000000001 11.199734250000001 0.004309331845664891 -0.0021556288316947514 -0.050410651860726768 4
Ti 1.5287500000000001 0.88264187999999999 6.4237657500000003 -0.0043093318725556107 0.0021555784490983531 0.050410656142226402 5
Ti -1.5290000000000001e-05 1.76525727 15.235515749999999 0.0046038190935180686 -0.002663981348908156 0.050427499479375061 6
Si 0 0 4.405875 0.0021532872361981542 -0.0012331947751518437 7.6921966776173499e-07 7
Si 0 0 13.217625 -0.0021532872361981542 0.0012331947751518437 -7.6921966776173499e-07 8
C -1.5290000000000001e-05 1.76525727 1.2724167 0.0023736042071913358 -0.0013642510829439908 0.09127487403722076 9
C 1.5287500000000001 0.88264187999999999 10.084166700000001 -0.0020069996060138079 0.00073041844619016016 0.091225480175324461 10
C 0 1.7652308000000001 7.5393333 0.002006999607222385 -0.00073046358367967522 -0.091225473615585542 11
C 1.5287652899999999 0.88261540000000005 16.351083299999999 -0.0023736042180863915 0.0013643147786589654 -0.091274864804738426 12
Ti -1.5287500000000001 2.6478726699999999 0 0 0 0 13
Ti -1.5287500000000001 2.6478726699999999 8.81175 0 0 0 14
Ti 1.5290000000000001e-05 3.5304880700000001 2.3879842500000001 -0.0046038190943006761 0.0026639813489699594 -0.050427499479731117 15
Ti -1.5287500000000001 4.4131034700000003 11.199734250000001 0.0043093318728560865 -0.0021555784491769717 -0.050410656141799431 16
Ti 0 3.5305145499999999 6.4237657500000003 -0.0043093318454831752 0.0021556288316105037 0.050410651861187102 17
Ti -1.5287652899999999 4.4131299500000001 15.235515749999999 0.0046038190505213201 -0.0026640530035912523 0.050427493193736524 18
Si -1.5287500000000001 2.6478726699999999 4.405875 0.0021532872513861374 -0.0012331943016215953 7.5382298557855933e-07 19
Si -1.5287500000000001 2.6478726699999999 13.217625 -0.0021532872513861374 0.0012331943016215953 -7.5382298557855933e-07 20
C -1.5287652899999999 4.4131299500000001 1.2724167 0.002373604217060957 -0.0013643147788623294 0.091274864804807246 21
C 0 3.5305145499999999 10.084166700000001 -0.0020069996067569335 0.00073046358435317684 0.091225473615682548 22
C -1.5287500000000001 4.4131034700000003 7.5393333 0.0020069996080043719 -0.00073041844648878652 -0.091225480175729748 23
C 1.5290000000000001e-05 3.5304880700000001 16.351083299999999 -0.0023736042068530959 0.0013642510829202847 -0.09127487403701523 24
Ti 3.0575000000000001 0 0 0 0 0 25
Ti 3.0575000000000001 0 8.81175 0 0 0 26
Ti 4.58626529 0.88261540000000005 2.3879842500000001 -0.0046038190505213201 0.0026640530035912523 -0.050427493193736524 27
Ti 3.0575000000000001 1.7652308000000001 11.199734250000001 0.0043093318454831752 -0.0021556288316105037 -0.050410651861187102 28
Ti 4.5862499999999997 0.88264187999999999 6.4237657500000003 -0.0043093318728560865 0.0021555784491769717 0.050410656141799431 29
Ti 3.0574847100000002 1.76525727 15.235515749999999 0.0046038190943006761 -0.0026639813489699594 0.050427499479731117 30
Si 3.0575000000000001 0 4.405875 0.0021532872363207536 -0.0012331947751609785 7.6921978978858437e-07 31
Si 3.0575000000000001 0 13.217625 -0.0021532872363207536 0.0012331947751609785 -7.6921978978858437e-07 32
C 3.0574847100000002 1.76525727 1.2724167 0.0023736042068530959 -0.0013642510829202847 0.09127487403701523 33
C 4.5862499999999997 0.88264187999999999 10.084166700000001 -0.0020069996080043719 0.00073041844648878652 0.091225480175729748 34
C 3.0575000000000001 1.7652308000000001 7.5393333 0.0020069996067569335 -0.00073046358435317684 -0.091225473615682548 35
C 4.58626529 0.88261540000000005 16.351083299999999 -0.002373604217060957 0.0013643147788623294 -0.091274864804807246 36
Ti 1.5287500000000001 2.6478726699999999 0 0 0 0 37
Ti 1.5287500000000001 2.6478726699999999 8.81175 0 0 0 38
Ti 3.05751529 3.5304880700000001 2.3879842500000001 -0.0046038190935180686 0.002663981348908156 -0.050427499479375061 39
Ti 1.5287500000000001 4.4131034700000003 11.199734250000001 0.0043093318725556107 -0.0021555784490983531 -0.050410656142226402 40
Ti 3.0575000000000001 3.5305145499999999 6.4237657500000003 -0.004309331845664891 0.0021556288316947514 0.050410651860726768 41
Ti 1.5287347099999999 4.4131299500000001 15.235515749999999 0.004603819050694141 -0.0026640530039531113 0.05042749319345094 42
Si 1.5287500000000001 2.6478726699999999 4.405875 0.0021532872512282455 -0.0012331943017540078 7.5382306375261027e-07 43
Si 1.5287500000000001 2.6478726699999999 13.217625 -0.0021532872512282455 0.0012331943017540078 -7.5382306375261027e-07 44
C 1.5287347099999999 4.4131299500000001 1.2724167 0.0023736042180863915 -0.0013643147786589654 0.091274864804738426 45
C 3.0575000000000001 3.5305145499999999 10.084166700000001 -0.002006999607222385 0.00073046358367967522 0.091225473615585542 46
C 1.5287500000000001 4.4131034700000003 7.5393333 0.0020069996060138079 -0.00073041844619016016 -0.091225480175324461 47
C 3.05751529 3.5304880700000001 16.351083299999999 -0.0023736042071913358 0.0013642510829439908 -0.09127487403722076 48
