48
Lattice="28.139999999999997 0.0 0.0 0.0 28.139999999999997 0.0 0.0 0.0 28.139999999999997" Properties=species:S:1:pos:R:3:lammps_id:I:1:lammps_type:I:1:central_pair:I:1 config_type=AgC_wide_surroundings_p0p12 dataset_role=unlabeled_training_acquisition_proposal parent_config_type=AgC_registry_strain_acq_v14_01_periodic_PW_PBE_energy_force_v14_train parent_file_sha256=3323cdbd3081fc8d91673662c5f83c8da93ba3b4d7a23428f6b70d0e7a4c9faf parent_geometry_sha256=26e44aa3caea382ceb631493823033d949d4ee318c6210aff9ed861d5bdce7b2 sampling_axis=surroundings sampling_offset_A=0.12 not_validated_training_data=T geometry_screening_decision=REVIEW_NEAR_EXISTING_TRAINING_VARIANT requires_A_review=T geometry_review_flags=near_existing_input pbc="T T T"
Ti      14.77773371      12.05600926      19.11551806   113766        1        0
Ti      19.82811217      14.16747384      12.33246569   600768        1        0
Ti      15.14933662      14.09146000       8.99034223   602398        1        0
Ti      16.70700672      11.35471852      12.38368619   602560        1        0
C       15.80834749      12.28135230      10.41275719   602563        3        0
C       15.24595730      10.24678088      13.19736310   602564        3        0
C       15.09615209      17.79866568      11.05647245   602568        3        0
Ti      16.22196177      17.83062629      12.74423018   602569        1        0
C       15.07856493      19.59732463      13.72647342   602577        3        0
Ti      16.76440974      12.97642676      14.38731587   602709        1        0
Ti      16.30101915       9.87962573      15.16830310   602714        1        0
Si      16.28907112      11.75977571      16.92416559   602717        2        0
Ti      19.60392340      12.82762980      14.90690853   602720        1        0
Si      17.67857728      13.64819382      16.56818905   602722        2        0
Si      17.72084154      16.09981719      16.31087786   602726        2        0
Si      18.23918609      18.04904044      14.55915110   602728        2        0
Ti      14.76502840      10.24823364      11.01852302   604584        1        0
C       13.17986737       8.67583329      11.62428134   604585        3        0
Ti      11.74276545      10.17736294      12.03503218   604586        1        0
C       13.19563199      11.17968796      11.24892195   604587        3        0
Ti      14.35882364       8.52198837      13.27154629   604588        1        0
Ti      13.89522027      11.47862233      13.19404990   604589        1        0
Ti      13.90773745      12.72494629      10.78610917   604590        1        0
C       12.76671152      10.07059819      13.82600363   604592        3        0
Si       9.97310494      12.81272528      11.37092765   604593        2        0
Si       9.91049250      11.50366541      13.68373389   604594        2        0
C       13.36240624      13.47924599       9.24302655   604596        3        0
C       12.81786136      16.19913384       9.90450598   604598        3        0
Ti      11.95350169      14.26617928      10.37423728   604599        1        0
Ti      14.07288981      15.96040749      11.56987937   604600        1        0
Ti      11.43344149      17.43347667      10.56034947   604601        1        0
C       13.06646719      14.13684670      12.10746617   604602        3        0
C       12.78805257      17.51047972      12.49636784   604603        3        0
Si       9.80689857      15.55673045      10.57595241   604605        2        0
Ti      13.89404094      19.21480490      11.80016927   604608        1        0
Ti      11.25802150      18.92548624      12.55015014   604611        1        0
Ti      12.26634854      10.47500164      17.74830506   604794        1        0
Ti      11.80033518       8.66345692      15.22903044   604795        1        0
Ti      12.16895326      11.73834240      15.12525415   604796        1        0
Si      10.14239037      12.97278704      16.23387027   604803        2        0
C       13.53093455      13.07225817      14.23329628   604804        3        1
Ti      13.94132315      17.72599046      14.28329593   604805        1        0
Ti      12.25096207      13.65524352      17.79737572   604806        1        0
C       13.50469061      14.90550135      16.60374365   604810        3        0
Si      10.25169018      15.68472473      15.66843032   604813        2        0
Si       9.70307372      16.94008547      12.67728352   606503        2        0
Ag      14.36040925      15.11324150      13.72951918   688433        4        1
Ag      16.41657402      15.11397897      11.65879226   751743        4        0
