51
Lattice="27.86 0.0 0.0 0.0 27.86 0.0 0.0 0.0 27.86" Properties=species:S:1:pos:R:3:lammps_id:I:1:lammps_type:I:1:central_pair:I:1 config_type=AgSi_wide_distance_m0p20 dataset_role=unlabeled_training_acquisition_proposal parent_config_type=AgSi_registry_strain_acq_v14_01_periodic_PW_PBE_energy_force_v14_train parent_file_sha256=3323cdbd3081fc8d91673662c5f83c8da93ba3b4d7a23428f6b70d0e7a4c9faf parent_geometry_sha256=3dad8caf2cc912de64bdc9b7b4f46165847df2b3215572a2d7e6780599f284bf sampling_axis=distance sampling_offset_A=-0.2 not_validated_training_data=T geometry_screening_decision=GEOMETRY_PASS_A_REVIEW requires_A_review=T geometry_review_flags=none pbc="T T T"
C       18.59997229      12.48568832      11.10844207   365143        3        0
Ti      17.68639525      11.50950205      17.41787882   365320        1        0
C       16.41880913      11.23745333       9.78030353   366772        3        0
C       16.47896696      14.68517760       9.59220696   366778        3        0
Si      13.03247546      10.81256428      11.54588199   366929        2        0
C       16.85595198      10.57457416      13.54804023   366931        3        0
Si      13.24756583      10.09299501      13.89543918   366933        2        0
Si      13.57862136      12.84027175      14.30526025   366934        2        1
Ti      15.29981075      11.23489767      15.30672895   366935        1        0
Si      14.07452393      13.07440001      11.84527460   366936        2        0
C       16.32293638       9.78228197      16.33324608   367109        3        0
Si      13.15366079      10.13595433      16.63871231   367110        2        0
C       16.48100250      12.76445334      16.24568078   367111        3        0
Ti      15.25461263       9.99188169      18.18059921   367112        1        0
Ti      15.21048961      12.94153364      18.03487212   367113        1        0
Si      13.17741765      13.14324215      19.70608455   367115        2        0
Ti      15.40588122      14.54471635      15.86904406   367117        1        0
Si      12.78455653      15.18854922      16.36834406   367118        2        0
Si      12.95712017      18.30295279      16.70442317   367120        2        0
Ti      14.51271213      16.54892641      18.01865841   367121        1        0
C       15.68829271      14.87916034      18.37964165   367122        3        0
C        9.90649004      12.77431746      10.77224184   368645        3        0
Ti      11.05639828       9.10291227      15.13117419   368823        1        0
Ti      11.06514563      10.57972820      12.94209330   368827        1        0
C        9.58869661      11.96959291      13.50714254   368829        3        0
Ti       8.41925107      13.28695754      14.63229457   368832        1        0
Ti      10.95041350      12.38211774      15.00689863   368833        1        0
C        9.56136862      16.94432396      11.26681068   368838        3        0
C        8.74996730      15.07383077      14.18303296   368841        3        0
Ti      10.21724449      15.52569843      15.45789755   368844        1        0
C       10.10142178      10.76686600      15.98766623   369024        3        0
C        9.73645404      13.62008341      16.26033390   369026        3        0
Ti      11.11186787      13.46402473      17.97657710   369031        1        0
Ti      11.68602437      16.29832535      18.34290273   369042        1        0
Ag      14.04990172      14.96282156      13.76609588   683609        4        1
Ag      16.08330375      12.93100388      13.76643098   685172        4        0
Ag      12.04646695      17.00775310      13.76211730   696217        4        0
Ag      12.04411334      17.00709924       9.67868751   700029        4        0
Ag      16.09359409      17.00728736      13.76316949   701518        4        0
Ag      16.07507800      17.00125385       9.68287470   703887        4        0
Ag      10.01520805      14.96269411       9.68515913   707313        4        0
Ag      14.07847295      14.95366490       9.68723729   710704        4        0
Ag      18.08899910      17.00949308      11.72256448   714846        4        0
Ag      12.03669635      19.04356718      11.72930694   729574        4        0
Ag      12.05693688      14.95605538      11.72658816   730721        4        0
Ag      12.04572805      12.93516944       9.65955586   735549        4        0
Ag      14.07308379      16.99801165      11.72403993   737082        4        0
Ag      16.08993362      19.05673311      15.81129566   737200        4        0
Ag      14.06306360      19.06816452      13.76160883   744883        4        0
Ag      18.10211852      14.97432832      13.75510268   752169        4        0
Ag      18.10220728      17.01354711      15.81240050   755982        4        0
