49
Lattice="28.0 0.0 0.0 0.0 28.0 0.0 0.0 0.0 28.0" Properties=species:S:1:pos:R:3:lammps_id:I:1:lammps_type:I:1:central_pair:I:1 config_type=AgTi_wide_distance_p0p20 dataset_role=unlabeled_training_acquisition_proposal parent_config_type=AgTi_registry_probe_v13_01_periodic_PW_PBE_energy_force_v14_train parent_file_sha256=3323cdbd3081fc8d91673662c5f83c8da93ba3b4d7a23428f6b70d0e7a4c9faf parent_geometry_sha256=b78ee569d0bafe0cbb68dc693ce5a47df03eff043b70e2ea8ca96c5bca7e8964 sampling_axis=distance sampling_offset_A=0.2 not_validated_training_data=T geometry_screening_decision=GEOMETRY_PASS_A_REVIEW requires_A_review=T geometry_review_flags=none pbc="T T T"
C       13.89902107      12.90667166       9.57093308   478831        3        0
Ti      12.62304525      14.70227784       8.74620905   478840        1        0
Si      16.74663914      14.99666412       9.05588053   478841        2        0
C       13.77615718      16.76659830       9.46205532   478844        3        0
Ti      12.49439364      12.82858132      11.26096292   479021        1        0
Ti      12.74652762      14.24815681      13.89771094   479027        1        1
Ti      13.27333691      17.52276133      13.67525409   479028        1        0
C       12.19406070      16.00730532      12.98699267   479030        3        0
C       11.92979276      17.83928667      10.04608242   479031        3        0
C       11.14030857      11.60980287      10.51944505   480798        3        0
Ti       9.67365027      11.73672021      12.52949502   480801        1        0
C       10.41266283       9.58775109      13.76894219   480802        3        0
C       11.34811906      12.99570560      13.31832051   480805        3        0
C       11.26779912      14.20441406      10.34350882   480807        3        0
Ti      10.63277880      14.68120764      12.23793466   480810        1        0
Ti      11.15181567      17.42898892      11.87855887   480811        1        0
Ti      10.57490139      16.47263116      14.34546801   480812        1        0
C       11.98467917      18.76062403      12.89743879   480813        3        0
C       10.74527181       9.34898918      15.92141080   480974        3        0
C       10.58950093      11.90905331      16.64358691   480975        3        0
Ti       9.93014220      13.54071165      15.28648610   480980        1        0
Ag      13.37751868      11.91399232      14.10009183   682693        4        0
Ag      19.46934472      16.04094763      16.15885492   685396        4        0
Ag      17.42892256      16.02666207      14.09644328   685467        4        0
Ag      15.41859031      11.90241429      16.15220526   686309        4        0
Ag      17.43906198      13.97733570      16.16828141   686324        4        0
Ag      15.40374113       9.85969490      14.10065574   686418        4        0
Ag      19.46630452      13.98353722      14.09889759   686622        4        0
Ag      17.43817626      16.02152285      18.19808017   686899        4        0
Ag      17.43483088       9.87099831      16.15999481   687243        4        0
Ag      15.51088385      13.95849655      14.11520410   687247        4        1
Ag      15.42050173      16.03059994      16.17283424   688096        4        0
Ag      17.45003403       9.86175404      12.06045441   688280        4        0
Ag      15.40706084      13.96650689      18.21273836   688689        4        0
Ag      17.41104281      18.07503222      16.16560868   688707        4        0
Ag      17.44974216      11.91160086      14.10344646   689682        4        0
Ag      13.38001068      16.02098553      18.18711393   690927        4        0
Ag      15.40465130      18.07499757      18.21564817   691757        4        0
Ag      13.37448105      11.93720670      18.20732398   694331        4        0
Ag      17.43790829      11.91094978      18.19779685   696686        4        0
Ag      13.37495196       9.86227062      16.16861213   700223        4        0
Ag      11.35492557      13.96735265      18.21798122   701905        4        0
Ag      17.41976327      18.07904221      12.05219398   703736        4        0
Ag      15.40197013      16.03358452      12.06306198   704767        4        0
Ag      17.44228634      13.96608773      12.04533587   716228        4        0
Ag      15.41428763      11.93207652      12.03858877   720990        4        0
Ag      13.37406761      18.08025329      16.14311165   721910        4        0
Ag      17.44395814      11.91582651       9.99176132   728014        4        0
Ag      13.37382387       9.86334890      12.03350967   741114        4        0
