49
Lattice="28.0 0.0 0.0 0.0 28.0 0.0 0.0 0.0 28.0" Properties=species:S:1:pos:R:3:lammps_id:I:1:lammps_type:I:1:central_pair:I:1 config_type=AgTi_wide_distance_m0p35 dataset_role=unlabeled_training_acquisition_proposal parent_config_type=AgTi_registry_probe_v13_01_periodic_PW_PBE_energy_force_v14_train parent_file_sha256=3323cdbd3081fc8d91673662c5f83c8da93ba3b4d7a23428f6b70d0e7a4c9faf parent_geometry_sha256=b78ee569d0bafe0cbb68dc693ce5a47df03eff043b70e2ea8ca96c5bca7e8964 sampling_axis=distance sampling_offset_A=-0.35 not_validated_training_data=T geometry_screening_decision=FLAG_GEOMETRY_NARROW_OR_DROP requires_A_review=T geometry_review_flags=short_Ag-C pbc="T T T"
C       13.89902107      12.90667166       9.57093308   478831        3        0
Ti      12.62304525      14.70227784       8.74620905   478840        1        0
Si      16.74663914      14.99666412       9.05588053   478841        2        0
C       13.77615718      16.76659830       9.46205532   478844        3        0
Ti      12.49439364      12.82858132      11.26096292   479021        1        0
Ti      12.74652762      14.24815681      13.89771094   479027        1        1
Ti      13.27333691      17.52276133      13.67525409   479028        1        0
C       12.19406070      16.00730532      12.98699267   479030        3        0
C       11.92979276      17.83928667      10.04608242   479031        3        0
C       11.14030857      11.60980287      10.51944505   480798        3        0
Ti       9.67365027      11.73672021      12.52949502   480801        1        0
C       10.41266283       9.58775109      13.76894219   480802        3        0
C       11.34811906      12.99570560      13.31832051   480805        3        0
C       11.26779912      14.20441406      10.34350882   480807        3        0
Ti      10.63277880      14.68120764      12.23793466   480810        1        0
Ti      11.15181567      17.42898892      11.87855887   480811        1        0
Ti      10.57490139      16.47263116      14.34546801   480812        1        0
C       11.98467917      18.76062403      12.89743879   480813        3        0
C       10.74527181       9.34898918      15.92141080   480974        3        0
C       10.58950093      11.90905331      16.64358691   480975        3        0
Ti       9.93014220      13.54071165      15.28648610   480980        1        0
Ag      12.83218045      11.97113503      14.05718588   682693        4        0
Ag      18.92400649      16.09809034      16.11594897   685396        4        0
Ag      16.88358433      16.08380478      14.05353733   685467        4        0
Ag      14.87325208      11.95955700      16.10929931   686309        4        0
Ag      16.89372375      14.03447841      16.12537546   686324        4        0
Ag      14.85840290       9.91683761      14.05774979   686418        4        0
Ag      18.92096629      14.04067993      14.05599164   686622        4        0
Ag      16.89283803      16.07866556      18.15517422   686899        4        0
Ag      16.88949265       9.92814102      16.11708886   687243        4        0
Ag      14.96554562      14.01563926      14.07229815   687247        4        1
Ag      14.87516350      16.08774265      16.12992829   688096        4        0
Ag      16.90469580       9.91889675      12.01754846   688280        4        0
Ag      14.86172261      14.02364960      18.16983241   688689        4        0
Ag      16.86570458      18.13217493      16.12270273   688707        4        0
Ag      16.90440393      11.96874357      14.06054051   689682        4        0
Ag      12.83467245      16.07812824      18.14420798   690927        4        0
Ag      14.85931307      18.13214028      18.17274222   691757        4        0
Ag      12.82914282      11.99434941      18.16441803   694331        4        0
Ag      16.89257006      11.96809249      18.15489090   696686        4        0
Ag      12.82961373       9.91941333      16.12570618   700223        4        0
Ag      10.80958734      14.02449536      18.17507527   701905        4        0
Ag      16.87442504      18.13618492      12.00928803   703736        4        0
Ag      14.85663190      16.09072723      12.02015603   704767        4        0
Ag      16.89694811      14.02323044      12.00242992   716228        4        0
Ag      14.86894940      11.98921923      11.99568282   720990        4        0
Ag      12.82872938      18.13739600      16.10020570   721910        4        0
Ag      16.89861991      11.97296922       9.94885537   728014        4        0
Ag      12.82848564       9.92049161      11.99060372   741114        4        0
