49
Lattice="28.0 0.0 0.0 0.0 28.0 0.0 0.0 0.0 28.0" Properties=species:S:1:pos:R:3:lammps_id:I:1:lammps_type:I:1:central_pair:I:1 config_type=AgTi_wide_registry_m0p90 dataset_role=unlabeled_training_acquisition_proposal parent_config_type=AgTi_registry_probe_v13_01_periodic_PW_PBE_energy_force_v14_train parent_file_sha256=3323cdbd3081fc8d91673662c5f83c8da93ba3b4d7a23428f6b70d0e7a4c9faf parent_geometry_sha256=b78ee569d0bafe0cbb68dc693ce5a47df03eff043b70e2ea8ca96c5bca7e8964 sampling_axis=registry sampling_offset_A=-0.9 not_validated_training_data=T geometry_screening_decision=FLAG_GEOMETRY_NARROW_OR_DROP requires_A_review=T geometry_review_flags=short_Ag-Si,short_Ag-Ti pbc="T T T"
C       13.89902107      12.90667166       9.57093308   478831        3        0
Ti      12.62304525      14.70227784       8.74620905   478840        1        0
Si      16.74663914      14.99666412       9.05588053   478841        2        0
C       13.77615718      16.76659830       9.46205532   478844        3        0
Ti      12.49439364      12.82858132      11.26096292   479021        1        0
Ti      12.74652762      14.24815681      13.89771094   479027        1        1
Ti      13.27333691      17.52276133      13.67525409   479028        1        0
C       12.19406070      16.00730532      12.98699267   479030        3        0
C       11.92979276      17.83928667      10.04608242   479031        3        0
C       11.14030857      11.60980287      10.51944505   480798        3        0
Ti       9.67365027      11.73672021      12.52949502   480801        1        0
C       10.41266283       9.58775109      13.76894219   480802        3        0
C       11.34811906      12.99570560      13.31832051   480805        3        0
C       11.26779912      14.20441406      10.34350882   480807        3        0
Ti      10.63277880      14.68120764      12.23793466   480810        1        0
Ti      11.15181567      17.42898892      11.87855887   480811        1        0
Ti      10.57490139      16.47263116      14.34546801   480812        1        0
C       11.98467917      18.76062403      12.89743879   480813        3        0
C       10.74527181       9.34898918      15.92141080   480974        3        0
C       10.58950093      11.90905331      16.64358691   480975        3        0
Ti       9.93014220      13.54071165      15.28648610   480980        1        0
Ag      13.27300596      12.82987095      14.08448967   682693        4        0
Ag      19.36483200      16.95682626      16.14325276   685396        4        0
Ag      17.32440984      16.94254070      14.08084112   685467        4        0
Ag      15.31407759      12.81829292      16.13660310   686309        4        0
Ag      17.33454926      14.89321433      16.15267925   686324        4        0
Ag      15.29922841      10.77557353      14.08505358   686418        4        0
Ag      19.36179180      14.89941585      14.08329543   686622        4        0
Ag      17.33366354      16.93740148      18.18247801   686899        4        0
Ag      17.33031816      10.78687694      16.14439265   687243        4        0
Ag      15.40637113      14.87437518      14.09960194   687247        4        1
Ag      15.31598901      16.94647857      16.15723208   688096        4        0
Ag      17.34552131      10.77763267      12.04485225   688280        4        0
Ag      15.30254812      14.88238552      18.19713620   688689        4        0
Ag      17.30653009      18.99091085      16.15000652   688707        4        0
Ag      17.34522944      12.82747949      14.08784430   689682        4        0
Ag      13.27549796      16.93686416      18.17151177   690927        4        0
Ag      15.30013858      18.99087620      18.20004601   691757        4        0
Ag      13.26996833      12.85308533      18.19172182   694331        4        0
Ag      17.33339557      12.82682841      18.18219469   696686        4        0
Ag      13.27043924      10.77814925      16.15300997   700223        4        0
Ag      11.25041285      14.88323128      18.20237906   701905        4        0
Ag      17.31525055      18.99492084      12.03659182   703736        4        0
Ag      15.29745741      16.94946315      12.04745982   704767        4        0
Ag      17.33777362      14.88196636      12.02973371   716228        4        0
Ag      15.30977491      12.84795515      12.02298661   720990        4        0
Ag      13.26955489      18.99613192      16.12750949   721910        4        0
Ag      17.33944542      12.83170514       9.97615916   728014        4        0
Ag      13.26931115      10.77922753      12.01790751   741114        4        0
