49
Lattice="28.0 0.0 0.0 0.0 28.0 0.0 0.0 0.0 28.0" Properties=species:S:1:pos:R:3:lammps_id:I:1:lammps_type:I:1:central_pair:I:1 config_type=AgTi_wide_distance_m0p20 dataset_role=unlabeled_training_acquisition_proposal parent_config_type=AgTi_registry_probe_v13_01_periodic_PW_PBE_energy_force_v14_train parent_file_sha256=3323cdbd3081fc8d91673662c5f83c8da93ba3b4d7a23428f6b70d0e7a4c9faf parent_geometry_sha256=b78ee569d0bafe0cbb68dc693ce5a47df03eff043b70e2ea8ca96c5bca7e8964 sampling_axis=distance sampling_offset_A=-0.2 not_validated_training_data=T geometry_screening_decision=GEOMETRY_PASS_A_REVIEW requires_A_review=T geometry_review_flags=none pbc="T T T"
C       13.89902107      12.90667166       9.57093308   478831        3        0
Ti      12.62304525      14.70227784       8.74620905   478840        1        0
Si      16.74663914      14.99666412       9.05588053   478841        2        0
C       13.77615718      16.76659830       9.46205532   478844        3        0
Ti      12.49439364      12.82858132      11.26096292   479021        1        0
Ti      12.74652762      14.24815681      13.89771094   479027        1        1
Ti      13.27333691      17.52276133      13.67525409   479028        1        0
C       12.19406070      16.00730532      12.98699267   479030        3        0
C       11.92979276      17.83928667      10.04608242   479031        3        0
C       11.14030857      11.60980287      10.51944505   480798        3        0
Ti       9.67365027      11.73672021      12.52949502   480801        1        0
C       10.41266283       9.58775109      13.76894219   480802        3        0
C       11.34811906      12.99570560      13.31832051   480805        3        0
C       11.26779912      14.20441406      10.34350882   480807        3        0
Ti      10.63277880      14.68120764      12.23793466   480810        1        0
Ti      11.15181567      17.42898892      11.87855887   480811        1        0
Ti      10.57490139      16.47263116      14.34546801   480812        1        0
C       11.98467917      18.76062403      12.89743879   480813        3        0
C       10.74527181       9.34898918      15.92141080   480974        3        0
C       10.58950093      11.90905331      16.64358691   480975        3        0
Ti       9.93014220      13.54071165      15.28648610   480980        1        0
Ag      12.98090906      11.95555066      14.06888751   682693        4        0
Ag      19.07273510      16.08250597      16.12765060   685396        4        0
Ag      17.03231294      16.06822041      14.06523896   685467        4        0
Ag      15.02198069      11.94397263      16.12100094   686309        4        0
Ag      17.04245236      14.01889404      16.13707709   686324        4        0
Ag      15.00713151       9.90125324      14.06945142   686418        4        0
Ag      19.06969490      14.02509556      14.06769327   686622        4        0
Ag      17.04156664      16.06308119      18.16687585   686899        4        0
Ag      17.03822126       9.91255665      16.12879049   687243        4        0
Ag      15.11427423      14.00005489      14.08399978   687247        4        1
Ag      15.02389211      16.07215828      16.14162992   688096        4        0
Ag      17.05342441       9.90331238      12.02925009   688280        4        0
Ag      15.01045122      14.00806523      18.18153404   688689        4        0
Ag      17.01443319      18.11659056      16.13440436   688707        4        0
Ag      17.05313254      11.95315920      14.07224214   689682        4        0
Ag      12.98340106      16.06254387      18.15590961   690927        4        0
Ag      15.00804168      18.11655591      18.18444385   691757        4        0
Ag      12.97787143      11.97876504      18.17611966   694331        4        0
Ag      17.04129867      11.95250812      18.16659253   696686        4        0
Ag      12.97834234       9.90382896      16.13740781   700223        4        0
Ag      10.95831595      14.00891099      18.18677690   701905        4        0
Ag      17.02315365      18.12060055      12.02098966   703736        4        0
Ag      15.00536051      16.07514286      12.03185766   704767        4        0
Ag      17.04567672      14.00764607      12.01413155   716228        4        0
Ag      15.01767801      11.97363486      12.00738445   720990        4        0
Ag      12.97745799      18.12181163      16.11190733   721910        4        0
Ag      17.04734852      11.95738485       9.96055700   728014        4        0
Ag      12.97721425       9.90490724      12.00230535   741114        4        0
