52
Lattice="6.1150000000000002 0 0 -3.0574999999999988 5.2957453441418432 0 0 0 44.205876500000002" Properties=species:S:1:pos:R:3:PW_PBE_forces:R:3:lammps_id:I:1:central_pair:I:1 pbc="T T F" PW_PBE_energy_eV=-390.44466600172899 config_type=AgSi_rigid_Ag_z_parent_k6x6x1_sigma0p10_dipoleXY_v19
Ti 0 0 15.388251500000001 0.00075468670990648415 -0.00042316235048331141 0.16004458896798901 19101000 0
Ti 0 0 24.200001499999999 0.0010374740412428043 -0.0012456592280614995 -0.016044155061792929 19101001 0
Ti 1.5287652899999999 0.88261540000000005 17.776235750000001 8.8884368978098182e-05 -8.0125344791513421e-06 -0.25614570879019599 19101002 0
Ti 0 1.7652308000000001 26.587985750000001 0.0094189351782915567 0.0084177896707642742 -0.07328717717939065 19101003 0
Ti 1.5287500000000001 0.88264187999999999 21.81201725 0.00022789736481051225 -0.00132024448157504 0.014278095013857137 19101004 0
Ti -1.5290000000000001e-05 1.76525727 13.00026725 0.000732029453569228 -0.000564082449268542 0.55048231051277074 19101005 0
Si 0 0 19.794126500000001 0.0009480692135736097 -0.00036233673184637722 0.073150747925386936 19101006 0
Si 0 0 28.605876500000001 0.041046753373721906 0.020861097079945035 0.94802781368945677 19101007 1
C -1.5290000000000001e-05 1.76525727 16.6606682 -0.0013683233704580252 0.00082984749628035154 0.17165577461299811 19101008 0
C 1.5287500000000001 0.88264187999999999 25.4724182 -0.0017937540946251281 -0.0022759411096222675 0.082597403321796881 19101009 0
C 0 1.7652308000000001 22.927584800000002 -0.00101898241589088 0.0022818913454726508 -0.099635677570773629 19101010 0
C 1.5287652899999999 0.88261540000000005 14.1158348 -0.00075325656757615567 0.00052789214854641667 -0.89623780079326609 19101011 0
Ti -1.5287500000000001 2.6478726699999999 15.388251500000001 0.00075290734514891968 -0.00042474808983107809 0.16004389738356481 19101012 0
Ti -1.5287500000000001 2.6478726699999999 24.200001499999999 0.0010367857876379667 -0.0012460513034429049 -0.016045107428436588 19101013 0
Ti 1.5290000000000001e-05 3.5304880700000001 17.776235750000001 8.9104206997351218e-05 -7.8288167904433917e-06 -0.25614510051072731 19101014 0
Ti -1.5287500000000001 4.4131034700000003 26.587985750000001 0.0094190171933396082 0.0084193756328882468 -0.073287020784933987 19101015 0
Ti 0 3.5305145499999999 21.81201725 0.00022749984841020018 -0.0013203973640477417 0.014278239410902888 19101016 0
Ti -1.5287652899999999 4.4131299500000001 13.00026725 0.00072925248202831332 -0.00056234208869494426 0.55048216938751482 19101017 0
Si -1.5287500000000001 2.6478726699999999 19.794126500000001 0.000947697011857749 -0.00036241272451766532 0.0731506686375272 19101018 0
Si -1.5287500000000001 2.6478726699999999 28.605876500000001 0.041046374356544589 0.020860805158498794 0.9480274816592934 19101019 0
C -1.5287652899999999 4.4131299500000001 16.6606682 -0.001367698350525886 0.00082965739363827283 0.17165515953753038 19101020 0
C 0 3.5305145499999999 25.4724182 -0.0017938687686587401 -0.0022755929468539693 0.082597539075359813 19101021 0
C -1.5287500000000001 4.4131034700000003 22.927584800000002 -0.001019343531889037 0.0022811210401134704 -0.099635492259494335 19101022 0
C 1.5290000000000001e-05 3.5304880700000001 14.1158348 -0.00075472057894138123 0.00052925023334303943 -0.89623639193922167 19101023 0
Ti 3.0575000000000001 0 15.388251500000001 0.00075384005974844044 -0.00042387843087368811 0.1600436953672669 19101024 0
Ti 3.0575000000000001 0 24.200001499999999 0.0010373594145543193 -0.0012452893611190324 -0.01604407067369314 19101025 0
Ti 4.58626529 0.88261540000000005 17.776235750000001 8.9104133997295294e-05 -7.7747111807730249e-06 -0.25614572752874509 19101026 0
Ti 3.0575000000000001 1.7652308000000001 26.587985750000001 0.0094195434896004303 0.0084179354986256717 -0.07328713889326724 19101027 0
Ti 4.5862499999999997 0.88264187999999999 21.81201725 0.00022744932523617806 -0.0013202758890298121 0.014277642302840732 19101028 0
Ti 3.0574847100000002 1.76525727 13.00026725 0.00073078290253908982 -0.00056394847853243003 0.55048288289133585 19101029 0
Si 3.0575000000000001 0 19.794126500000001 0.00094832128376451982 -0.00036246417553984764 0.073150692590810681 19101030 0
Si 3.0575000000000001 0 28.605876500000001 0.041046899891275405 0.020861273370729565 0.94802748924471103 19101031 0
C 3.0574847100000002 1.76525727 16.6606682 -0.001368353927039441 0.00083005698745882729 0.17165571204209382 19101032 0
C 4.5862499999999997 0.88264187999999999 25.4724182 -0.0017938430254867072 -0.0022762321343893564 0.082597517720462796 19101033 0
C 3.0575000000000001 1.7652308000000001 22.927584800000002 -0.0010191362451380907 0.0022816328823394346 -0.099635798496297889 19101034 0
C 4.58626529 0.88261540000000005 14.1158348 -0.00075428160605430427 0.00052794092156473074 -0.89623762585362221 19101035 0
Ti 1.5287500000000001 2.6478726699999999 15.388251500000001 0.00075312955040160478 -0.00042509578745947838 0.16004437335984206 19101036 0
Ti 1.5287500000000001 2.6478726699999999 24.200001499999999 0.0010370424712946669 -0.0012466302547855996 -0.016044666424689939 19101037 0
Ti 3.05751529 3.5304880700000001 17.776235750000001 8.9000059476579838e-05 -7.7723354536027731e-06 -0.25614438421116498 19101038 0
Ti 1.5287500000000001 4.4131034700000003 26.587985750000001 0.0094182376220110654 0.008419155798594171 -0.073287047140415618 19101039 0
Ti 3.0575000000000001 3.5305145499999999 21.81201725 0.00022795059254743238 -0.0013201878158738481 0.014278650405525653 19101040 0
Ti 1.5287347099999999 4.4131299500000001 13.00026725 0.00072989732854395742 -0.00056214603124678242 0.55048248662831956 19101041 0
Si 1.5287500000000001 2.6478726699999999 19.794126500000001 0.00094774362841313015 -0.0003622052906683158 0.073150694357110982 19101042 0
Si 1.5287500000000001 2.6478726699999999 28.605876500000001 0.041046189020083869 0.020860534155112971 0.94802759853210394 19101043 0
C 1.5287347099999999 4.4131299500000001 16.6606682 -0.0013683410177730564 0.00082885175416778857 0.17165497117446546 19101044 0
C 3.0575000000000001 3.5305145499999999 25.4724182 -0.0017940990894515689 -0.0022755572579535614 0.082597373953904665 19101045 0
C 1.5287500000000001 4.4131034700000003 22.927584800000002 -0.0010194487460047747 0.0022813983090362445 -0.09963553974355302 19101046 0
C 3.05751529 3.5304880700000001 14.1158348 -0.0007550672232713645 0.00052819271904664148 -0.89623731688398378 19101047 0
Ag 0.81023750000000005 0.55605325999999999 31.205876499999999 -0.049257097308277896 -0.026551874052393572 -0.65761771098183397 19101048 1
Ag -0.7185125 3.20392593 31.205876499999999 -0.049256750625979812 -0.026549463812827939 -0.65762063211953103 19101049 0
Ag 3.8677375000000001 0.55605325999999999 31.205876499999999 -0.04925752675693424 -0.026549891907107163 -0.65761338612324294 19101050 0
Ag 2.3389875 3.20392593 31.205876499999999 -0.049257537239453315 -0.026551015898714041 -0.65762267668238628 19101051 0
