48
Lattice="6.1150000000000002 0 0 -3.0574999999999988 5.2957453441418432 0 0 0 17.6235" Properties=species:S:1:pos:R:3:PW_PBE_forces:R:3:local_new_id:I:1 pbc="T T T" PW_PBE_energy_eV=-389.80436179723472 config_type=Ti3SiC2_C4f_id0009_z_m020A_k10x10x4_v19
Ti 0 0 0 -2.667207327708457e-05 -0.0099840868585080785 -0.024735987134778144 1
Ti 0 0 8.81175 -9.5921531285727921e-06 0.00027238511428175451 -0.0001367405831508052 2
Ti 1.5287652899999999 0.88261540000000005 2.3879842500000001 -0.037745018300700352 0.021794956358965396 -0.096282736072003897 3
Ti 0 1.7652308000000001 11.199734250000001 -0.00099708634075923301 0.00090623717466070187 -0.044436933740937511 4
Ti 1.5287500000000001 0.88264187999999999 6.4237657500000003 0.0015378154843467126 -0.0012183426682175009 0.043015408758709489 5
Ti -1.5290000000000001e-05 1.76525727 15.235515749999999 -0.00072344255964817712 0.00041444221096851333 0.034900000074423905 6
Si 0 0 4.405875 -0.0006400270045217656 0.008130439785601835 -0.0054405251426950484 7
Si 0 0 13.217625 0.00062964663735857942 -1.9819010248120374e-05 0.00026316698816133163 8
C -1.5290000000000001e-05 1.76525727 1.2524166999999999 -0.00011893384938754219 7.37496135830077e-05 0.39360453147811969 9
C 1.5287500000000001 0.88264187999999999 10.084166700000001 0.00030213716298597699 -0.00060098574297165659 0.088883125715778249 10
C 0 1.7652308000000001 7.5393333 -0.00050113039193357459 0.00071577311824693357 -0.08839016114828166 11
C 1.5287652899999999 0.88261540000000005 16.351083299999999 0.0089734524683958376 -0.0051868606825229086 -0.10325994071039322 12
Ti -1.5287500000000001 2.6478726699999999 0 -0.0086451403196696128 0.0049911673476394931 -0.024801190303653912 13
Ti -1.5287500000000001 2.6478726699999999 8.81175 0.00024198232082247732 -0.00013962186670368276 -0.0001191453569371748 14
Ti 1.5290000000000001e-05 3.5304880700000001 2.3879842500000001 0.00070147878508879026 -0.044831090906302648 -0.096270873668393195 15
Ti -1.5287500000000001 4.4131034700000003 11.199734250000001 -0.00073710490833406414 0.0010471291725353792 -0.044721031056440305 16
Ti 0 3.5305145499999999 6.4237657500000003 0.00098749062566527105 -0.00028130062848123126 0.043014148153603105 17
Ti -1.5287652899999999 4.4131299500000001 15.235515749999999 -0.00011271546752509749 0.00076840187228249498 0.046630533637698542 18
Si -1.5287500000000001 2.6478726699999999 4.405875 0.0060602541525131238 -0.0034888028922969035 -0.0054360663256965676 19
Si -1.5287500000000001 2.6478726699999999 13.217625 0.00096736057321377019 -0.00056841744443133612 0.00026598457641932523 20
C -1.5287652899999999 4.4131299500000001 1.2724167 0.0031990209224208783 0.0020248448037165439 0.093861109897198716 21
C 0 3.5305145499999999 10.084166700000001 0.00049857675728999312 -0.00094340793564520829 0.088851468347172141 22
C -1.5287500000000001 4.4131034700000003 7.5393333 -0.0012041871197258857 0.00030735845327964118 -0.088806927661404883 23
C 1.5290000000000001e-05 3.5304880700000001 16.351083299999999 0.00014479241330857739 0.010087468603198408 -0.10324701144492263 24
Ti 3.0575000000000001 0 0 7.2529751787117688e-06 -4.1083692209466966e-06 0.0013136664503977566 25
Ti 3.0575000000000001 0 8.81175 1.3135769837657488e-05 -7.536224193926571e-06 0.00032549170627781555 26
Ti 4.58626529 0.88261540000000005 2.3879842500000001 0.039180422340806799 0.021813693850693452 -0.096272074848997996 27
Ti 3.0575000000000001 1.7652308000000001 11.199734250000001 -0.00098917419295939412 0.00061050728075215963 -0.044721066511508506 28
Ti 4.5862499999999997 0.88264187999999999 6.4237657500000003 0.00045110000596441084 -0.001210305774621685 0.04301417206871691 29
Ti 3.0574847100000002 1.76525727 15.235515749999999 -0.00072486030564952329 -0.0002916552210363331 0.046630465622439929 30
Si 3.0575000000000001 0 4.405875 -0.00065490533263375095 0.00038810253262776159 -0.0069134291186685954 31
Si 3.0575000000000001 0 13.217625 0.00067464169967778014 -0.00039948850102745806 0.0012293812515383107 32
C 3.0574847100000002 1.76525727 1.2724167 -0.0001488582964204335 -0.0037736695463374088 0.093860759845678043 33
C 4.5862499999999997 0.88264187999999999 10.084166700000001 0.00069692337485884818 -0.00059989319871972101 0.088851470818881548 34
C 3.0575000000000001 1.7652308000000001 7.5393333 -0.00049890157724901785 0.0015287685511180397 -0.088806863128580119 35
C 4.58626529 0.88261540000000005 16.351083299999999 -0.0086687335723894341 -0.0051781292788493725 -0.10324667767286926 36
Ti 1.5287500000000001 2.6478726699999999 0 0.0086326498973102201 0.0050147437175642627 -0.024735263885118656 37
Ti 1.5287500000000001 2.6478726699999999 8.81175 -0.00024066997806763035 -0.00012779153659654992 -0.00013671566859843802 38
Ti 3.05751529 3.5304880700000001 2.3879842500000001 0.00070802593372041689 -0.00040528706088790176 -0.042630548526478775 39
Ti 1.5287500000000001 4.4131034700000003 11.199734250000001 -0.0012555993152182216 0.0010554155449857539 -0.044689881054919382 40
Ti 3.0575000000000001 3.5305145499999999 6.4237657500000003 0.00099881641908606926 -0.00090715121383430424 0.046959483183760073 41
Ti 1.5287347099999999 4.4131299500000001 15.235515749999999 -0.0013295858958289317 0.00076411666656491905 0.046580937179880245 42
Si 1.5287500000000001 2.6478726699999999 4.405875 -0.0073525759266477074 -0.0034958930189031697 -0.0054405285096781018 43
Si 1.5287500000000001 2.6478726699999999 13.217625 0.00032332444118756754 -0.00055029165657142869 0.00026320976512082974 44
C 1.5287347099999999 4.4131299500000001 1.2724167 -0.003459224683158596 0.0020031854772524786 0.093826692741028062 45
C 3.0575000000000001 3.5305145499999999 10.084166700000001 0.00050411169387520047 -0.00071754919971290881 0.090019816946969741 46
C 1.5287500000000001 4.4131034700000003 7.5393333 0.00020090446960892405 0.00031051412287852112 -0.088791024293439574 47
C 3.05751529 3.5304880700000001 16.351083299999999 0.00014971247780062481 -9.2450821790759246e-05 -0.11350681511554697 48
