48
Lattice="6.1150000000000002 0 0 -3.0574999999999988 5.2957453441418432 0 0 0 17.6235" Properties=species:S:1:pos:R:3:PW_PBE_forces:R:3:local_new_id:I:1 pbc="T T T" PW_PBE_energy_eV=-389.8092428601276 config_type=Ti3SiC2_baseline_k10x10x4_v19
Ti 0 0 0 0 0 0 1
Ti 0 0 8.81175 0 0 0 2
Ti 1.5287652899999999 0.88261540000000005 2.3879842500000001 0.00071996853187244396 -0.00041202407075390993 -0.04495673961162263 3
Ti 0 1.7652308000000001 11.199734250000001 -0.0010083543781054393 0.00091279269900177633 -0.044983686544231044 4
Ti 1.5287500000000001 0.88264187999999999 6.4237657500000003 0.0010083544753400878 -0.00091284282147830115 0.044983690531552385 5
Ti -1.5290000000000001e-05 1.76525727 15.235515749999999 -0.00071996856945019238 0.00041209543568160539 0.044956745856218887 6
Si 0 0 4.405875 -0.00065253538178185091 0.00038614735634135257 7.0039932738145152e-06 7
Si 0 0 13.217625 0.00065253538178185091 -0.00038614735634135257 -7.0039932738145152e-06 8
C -1.5290000000000001e-05 1.76525727 1.2724167 -0.00014770863571377223 9.1236588178784613e-05 0.087863764820535803 9
C 1.5287500000000001 0.88264187999999999 10.084166700000001 0.00051232226992210437 -0.00072236353711457976 0.087840472293524485 10
C 0 1.7652308000000001 7.5393333 -0.00051232236905924329 0.00072231811569173181 -0.087840466303080886 11
C 1.5287652899999999 0.88261540000000005 16.351083299999999 0.00014770900146071771 -9.1172625847901011e-05 -0.087863756336324969 12
Ti -1.5287500000000001 2.6478726699999999 0 0 0 0 13
Ti -1.5287500000000001 2.6478726699999999 8.81175 0 0 0 14
Ti 1.5290000000000001e-05 3.5304880700000001 2.3879842500000001 0.00071996856900584058 -0.00041209543557088575 -0.044956745856729034 15
Ti -1.5287500000000001 4.4131034700000003 11.199734250000001 -0.0010083544748323212 0.00091284282158388304 -0.044983690531341505 16
Ti 0 3.5305145499999999 6.4237657500000003 0.001008354378750206 -0.00091279269925888327 0.04498368654430486 17
Ti -1.5287652899999999 4.4131299500000001 15.235515749999999 -0.00071996853226827815 0.00041202407111023037 0.044956739611909241 18
Si -1.5287500000000001 2.6478726699999999 4.405875 -0.0006525353784490375 0.00038614790600530045 6.9890492258734177e-06 19
Si -1.5287500000000001 2.6478726699999999 13.217625 0.0006525353784490375 -0.00038614790600530045 -6.9890492258734177e-06 20
C -1.5287652899999999 4.4131299500000001 1.2724167 -0.00014770900247694765 9.1172625955855929e-05 0.0878637563364177 21
C 0 3.5305145499999999 10.084166700000001 0.00051232236987937122 -0.00072231811545895609 0.087840466303354556 22
C -1.5287500000000001 4.4131034700000003 7.5393333 -0.00051232226871581051 0.0007223635366107006 -0.087840472293978081 23
C 1.5290000000000001e-05 3.5304880700000001 16.351083299999999 0.0001477086363084519 -9.1236588150231444e-05 -0.087863764820564932 24
Ti 3.0575000000000001 0 0 0 0 0 25
Ti 3.0575000000000001 0 8.81175 0 0 0 26
Ti 4.58626529 0.88261540000000005 2.3879842500000001 0.00071996853226827815 -0.00041202407111023037 -0.044956739611909241 27
Ti 3.0575000000000001 1.7652308000000001 11.199734250000001 -0.001008354378750206 0.00091279269925888327 -0.04498368654430486 28
Ti 4.5862499999999997 0.88264187999999999 6.4237657500000003 0.0010083544748323212 -0.00091284282158388304 0.044983690531341505 29
Ti 3.0574847100000002 1.76525727 15.235515749999999 -0.00071996856900584058 0.00041209543557088575 0.044956745856729034 30
Si 3.0575000000000001 0 4.405875 -0.00065253538164220177 0.00038614735655342875 7.0039932885446875e-06 31
Si 3.0575000000000001 0 13.217625 0.00065253538164220177 -0.00038614735655342875 -7.0039932885446875e-06 32
C 3.0574847100000002 1.76525727 1.2724167 -0.0001477086363084519 9.1236588150231444e-05 0.087863764820564932 33
C 4.5862499999999997 0.88264187999999999 10.084166700000001 0.00051232226871581051 -0.0007223635366107006 0.087840472293978081 34
C 3.0575000000000001 1.7652308000000001 7.5393333 -0.00051232236987937122 0.00072231811545895609 -0.087840466303354556 35
C 4.58626529 0.88261540000000005 16.351083299999999 0.00014770900247694765 -9.1172625955855929e-05 -0.0878637563364177 36
Ti 1.5287500000000001 2.6478726699999999 0 0 0 0 37
Ti 1.5287500000000001 2.6478726699999999 8.81175 0 0 0 38
Ti 3.05751529 3.5304880700000001 2.3879842500000001 0.00071996856945019238 -0.00041209543568160539 -0.044956745856218887 39
Ti 1.5287500000000001 4.4131034700000003 11.199734250000001 -0.0010083544753400878 0.00091284282147830115 -0.044983690531552385 40
Ti 3.0575000000000001 3.5305145499999999 6.4237657500000003 0.0010083543781054393 -0.00091279269900177633 0.044983686544231044 41
Ti 1.5287347099999999 4.4131299500000001 15.235515749999999 -0.00071996853187244396 0.00041202407075390993 0.04495673961162263 42
Si 1.5287500000000001 2.6478726699999999 4.405875 -0.00065253537841511835 0.00038614790589561448 6.9890493081352611e-06 43
Si 1.5287500000000001 2.6478726699999999 13.217625 0.00065253537841511835 -0.00038614790589561448 -6.9890493081352611e-06 44
C 1.5287347099999999 4.4131299500000001 1.2724167 -0.00014770900146071771 9.1172625847901011e-05 0.087863756336324969 45
C 3.0575000000000001 3.5305145499999999 10.084166700000001 0.00051232236905924329 -0.00072231811569173181 0.087840466303080886 46
C 1.5287500000000001 4.4131034700000003 7.5393333 -0.00051232226992210437 0.00072236353711457976 -0.087840472293524485 47
C 3.05751529 3.5304880700000001 16.351083299999999 0.00014770863571377223 -9.1236588178784613e-05 -0.087863764820535803 48
