52
Lattice="6.115 0.0 0.0 -3.0574999999999988 5.295745344141843 0.0 0.0 0.0 44.2058765" Properties=species:S:1:pos:R:3:spacegroup_kinds:I:1:lammps_id:I:1:central_pair:I:1 config_type=AgTi_cod9009647_slab_v19_dev_proposal dataset_role=CIF_DERIVED_DEVELOPMENT_PROPOSAL source_method="COD9009647 uploaded CIF; Kisi et al1998 DOI10.1016/S0022-3697(98)00226-1" new_ids_not_historical=T pbc="T T F"
Ti       0.00000000       0.00000000      13.37036075        0 19102000        0
Ti       0.00000000       0.00000000      22.18211075        0 19102001        0
Ti       1.52876529       0.88261540      15.75834500        1 19102002        0
Ti       0.00000000       1.76523080      24.57009500        1 19102003        0
Ti       1.52875000       0.88264188      19.79412650        1 19102004        0
Ti      -0.00001529       1.76525727      28.60587650        1 19102005        0
Si       0.00000000       0.00000000      17.77623575        2 19102006        0
Si       0.00000000       0.00000000      26.58798575        2 19102007        0
C       -0.00001529       1.76525727      14.64277745        3 19102008        0
C        1.52875000       0.88264188      23.45452745        3 19102009        0
C        0.00000000       1.76523080      20.90969405        3 19102010        0
C        1.52876529       0.88261540      12.09794405        3 19102011        0
Ti      -1.52875000       2.64787267      13.37036075        0 19102012        0
Ti      -1.52875000       2.64787267      22.18211075        0 19102013        0
Ti       0.00001529       3.53048807      15.75834500        1 19102014        0
Ti      -1.52875000       4.41310347      24.57009500        1 19102015        0
Ti       0.00000000       3.53051455      19.79412650        1 19102016        0
Ti      -1.52876529       4.41312995      28.60587650        1 19102017        1
Si      -1.52875000       2.64787267      17.77623575        2 19102018        0
Si      -1.52875000       2.64787267      26.58798575        2 19102019        0
C       -1.52876529       4.41312995      14.64277745        3 19102020        0
C        0.00000000       3.53051455      23.45452745        3 19102021        0
C       -1.52875000       4.41310347      20.90969405        3 19102022        0
C        0.00001529       3.53048807      12.09794405        3 19102023        0
Ti       3.05750000       0.00000000      13.37036075        0 19102024        0
Ti       3.05750000       0.00000000      22.18211075        0 19102025        0
Ti       4.58626529       0.88261540      15.75834500        1 19102026        0
Ti       3.05750000       1.76523080      24.57009500        1 19102027        0
Ti       4.58625000       0.88264188      19.79412650        1 19102028        0
Ti       3.05748471       1.76525727      28.60587650        1 19102029        0
Si       3.05750000       0.00000000      17.77623575        2 19102030        0
Si       3.05750000       0.00000000      26.58798575        2 19102031        0
C        3.05748471       1.76525727      14.64277745        3 19102032        0
C        4.58625000       0.88264188      23.45452745        3 19102033        0
C        3.05750000       1.76523080      20.90969405        3 19102034        0
C        4.58626529       0.88261540      12.09794405        3 19102035        0
Ti       1.52875000       2.64787267      13.37036075        0 19102036        0
Ti       1.52875000       2.64787267      22.18211075        0 19102037        0
Ti       3.05751529       3.53048807      15.75834500        1 19102038        0
Ti       1.52875000       4.41310347      24.57009500        1 19102039        0
Ti       3.05750000       3.53051455      19.79412650        1 19102040        0
Ti       1.52873471       4.41312995      28.60587650        1 19102041        0
Si       1.52875000       2.64787267      17.77623575        2 19102042        0
Si       1.52875000       2.64787267      26.58798575        2 19102043        0
C        1.52873471       4.41312995      14.64277745        3 19102044        0
C        3.05750000       3.53051455      23.45452745        3 19102045        0
C        1.52875000       4.41310347      20.90969405        3 19102046        0
C        3.05751529       3.53048807      12.09794405        3 19102047        0
Ag       0.81023750       0.55605326      31.40587650        0 19102048        0
Ag      -0.71851250       3.20392593      31.40587650        0 19102049        1
Ag       3.86773750       0.55605326      31.40587650        0 19102050        0
Ag       2.33898750       3.20392593      31.40587650        0 19102051        0
