32
Lattice="8.1799999999999997 0 0 0 8.1799999999999997 0 0 0 8.1799999999999997" Properties=species:S:1:pos:R:3:PW_PBE_forces:R:3:local_new_id:I:1 pbc="T T T" PW_PBE_energy_eV=-91.407686213467443 config_type=Ag_displacement_p01_k4x4x4_v19
Ag 0.01 0 0 -0.058055112887330063 -2.1778092520779093e-20 0 1
Ag 0 2.0449999999999999 2.0449999999999999 -0.0015312809135939237 -3.4136271110373754e-05 -3.4136271110373761e-05 2
Ag 2.0449999999999999 0 2.0449999999999999 0.0077149278389549219 0 0.0089546341252155336 3
Ag 2.0449999999999999 2.0449999999999999 0 0.0077149278389549219 0.0089546341252155336 0 4
Ag 0 0 4.0899999999999999 -0.00058682750157659986 0 0 5
Ag 0 2.0449999999999999 6.1349999999999998 -0.0015312809135939237 -3.4136271110373768e-05 3.4136271110373761e-05 6
Ag 2.0449999999999999 0 6.1349999999999998 0.0077149278389549219 -2.7222615650973866e-21 -0.0089546341252155336 7
Ag 2.0449999999999999 2.0449999999999999 4.0899999999999999 6.7081004001129388e-05 0.00023728032121603091 0 8
Ag 0 4.0899999999999999 0 -0.00058682750157659986 0 0 9
Ag 0 6.1349999999999998 2.0449999999999999 -0.0015312809135939237 3.4136271110373727e-05 -3.4136271110373761e-05 10
Ag 2.0449999999999999 4.0899999999999999 2.0449999999999999 6.7081004001129374e-05 -5.4445231301947732e-21 0.00023728032121603088 11
Ag 2.0449999999999999 6.1349999999999998 0 0.0077149278389549219 -0.0089546341252155336 0 12
Ag 0 4.0899999999999999 4.0899999999999999 -1.8788513233834738e-05 0 0 13
Ag 0 6.1349999999999998 6.1349999999999998 -0.0015312809135939237 3.4136271110373754e-05 3.4136271110373761e-05 14
Ag 2.0449999999999999 4.0899999999999999 6.1349999999999998 6.7081004001129374e-05 -5.4445231301947732e-21 -0.00023728032121603083 15
Ag 2.0449999999999999 6.1349999999999998 4.0899999999999999 6.7081004001129388e-05 -0.00023728032121603091 0 16
Ag 4.0899999999999999 0 0 0.00096143556792685199 0 0 17
Ag 4.0899999999999999 2.0449999999999999 2.0449999999999999 0.00064018215137941084 -2.594851498492352e-05 -2.594851498492352e-05 18
Ag 6.1349999999999998 0 2.0449999999999999 0.0075294709781748058 0 -0.0086701818818671339 19
Ag 6.1349999999999998 2.0449999999999999 0 0.0075294709781748058 -0.0086701818818671339 0 20
Ag 4.0899999999999999 0 4.0899999999999999 7.2893246531026179e-05 0 0 21
Ag 4.0899999999999999 2.0449999999999999 6.1349999999999998 0.00064018215137941073 -2.594851498492352e-05 2.5948514984923537e-05 22
Ag 6.1349999999999998 0 6.1349999999999998 0.0075294709781748058 0 0.0086701818818671322 23
Ag 6.1349999999999998 2.0449999999999999 4.0899999999999999 0.00011866782839111583 -0.00029358864140639437 0 24
Ag 4.0899999999999999 4.0899999999999999 0 7.2893246531026179e-05 0 0 25
Ag 4.0899999999999999 6.1349999999999998 2.0449999999999999 0.00064018215137941073 2.594851498492352e-05 -2.5948514984923527e-05 26
Ag 6.1349999999999998 4.0899999999999999 2.0449999999999999 0.0001186678283911158 0 -0.00029358864140639437 27
Ag 6.1349999999999998 6.1349999999999998 0 0.007529470978174805 0.0086701818818671322 0 28
Ag 4.0899999999999999 4.0899999999999999 4.0899999999999999 -6.1267983060452223e-05 0 0 29
Ag 4.0899999999999999 6.1349999999999998 6.1349999999999998 0.00064018215137941073 2.594851498492352e-05 2.5948514984923513e-05 30
Ag 6.1349999999999998 4.0899999999999999 6.1349999999999998 0.0001186678283911158 0 0.00029358864140639437 31
Ag 6.1349999999999998 6.1349999999999998 4.0899999999999999 0.00011866782839111583 0.00029358864140639448 0 32
