48
Lattice="28.139999999999997 0.0 0.0 0.0 28.139999999999997 0.0 0.0 0.0 28.139999999999997" Properties=species:S:1:pos:R:3:lammps_id:I:1:lammps_type:I:1:central_pair:I:1 config_type=AgC_residual_shell_v15_01 dataset_role=v15_acquisition_candidate geometry_family=AgC_residual_targeted_local_perturbation correlation_note="Targeted local perturbation of an existing small-cell motif; not an independent morphology or thermal snapshot." source_label=AgC_registry_strain_acq_v14_01 targeted_lammps_ids=604804,688433,604600 pbc="T T T"
Ti      14.77773371      12.05600926      19.11551806   113766        1        0
Ti      19.82811217      14.16747384      12.33246569   600768        1        0
Ti      15.12909886      14.05949712       8.96376420   602398        1        0
Ti      16.68771955      11.36614851      12.36412218   602560        1        0
C       15.83587001      12.27557301      10.41285829   602563        3        0
C       15.25544723      10.21890544      13.18240648   602564        3        0
C       15.07182108      17.80401535      11.06558824   602568        3        0
Ti      16.21049706      17.82520003      12.72755326   602569        1        0
C       15.07271794      19.59145303      13.76221691   602577        3        0
Ti      16.76365713      12.95482339      14.33572664   602709        1        0
Ti      16.29602899       9.87292906      15.17910921   602714        1        0
Si      16.29623736      11.70576048      16.93692730   602717        2        0
Ti      19.60392340      12.82762980      14.90690853   602720        1        0
Si      17.67857728      13.64819382      16.56818905   602722        2        0
Si      17.74352034      16.08282763      16.29483697   602726        2        0
Si      18.23918609      18.04904044      14.55915110   602728        2        0
Ti      14.76166482      10.24594345      11.01127789   604584        1        0
C       13.17986737       8.67583329      11.62428134   604585        3        0
Ti      11.77271855      10.16054437      12.07961346   604586        1        0
C       13.16309866      11.15703239      11.24994476   604587        3        0
Ti      14.35882364       8.52198837      13.27154629   604588        1        0
Ti      13.90292133      11.48431288      13.20346969   604589        1        0
Ti      13.90703556      12.76733695      10.88907204   604590        1        0
C       12.76931668      10.06742890      13.79881864   604592        3        0
Si       9.97310494      12.81272528      11.37092765   604593        2        0
Si       9.89761420      11.48436655      13.67768514   604594        2        0
C       13.37656913      13.46623496       9.20585782   604596        3        0
C       12.81750902      16.18495834       9.90954883   604598        3        0
Ti      11.96120210      14.25624470      10.39312951   604599        1        0
Ti      14.04607861      15.95105818      11.57808362   604600        1        0
Ti      11.41425653      17.44566529      10.57183703   604601        1        0
C       13.08863827      14.11930030      12.10603268   604602        3        0
C       12.76935077      17.50188077      12.47641392   604603        3        0
Si       9.79798089      15.57341805      10.56012221   604605        2        0
Ti      13.88557001      19.22526666      11.81736422   604608        1        0
Ti      11.26219267      18.91472392      12.54529904   604611        1        0
Ti      12.26634854      10.47500164      17.74830506   604794        1        0
Ti      11.80033518       8.66345692      15.22903044   604795        1        0
Ti      12.15593909      11.72392467      15.14179805   604796        1        0
Si      10.16894577      12.97965800      16.18023886   604803        2        0
C       13.51061795      13.06152122      14.25082641   604804        3        1
Ti      13.93203645      17.72049792      14.28296046   604805        1        0
Ti      12.31879570      13.64348345      17.69452560   604806        1        0
C       13.49249159      14.93042593      16.58342693   604810        3        0
Si      10.25583337      15.68024025      15.68223448   604813        2        0
Si       9.70307372      16.94008547      12.67728352   606503        2        0
Ag      14.35743866      15.07721391      13.69028371   688433        4        1
Ag      16.41629644      15.10794589      11.66569942   751743        4        0
