51
Lattice="27.86 0.0 0.0 0.0 27.86 0.0 0.0 0.0 27.86" Properties=species:S:1:pos:R:3:lammps_id:I:1:lammps_type:I:1:central_pair:I:1 config_type=AgSi_residual_shell_v15_01 dataset_role=v15_acquisition_candidate geometry_family=AgSi_residual_targeted_local_perturbation correlation_note="Targeted local perturbation of an existing small-cell motif; not an independent morphology or thermal snapshot." source_label=AgSi_registry_strain_acq_v14_01 targeted_lammps_ids=366934,683609,685172,710704,366778 pbc="T T T"
C       18.48059254      12.49964617      11.14930846   365143        3        0
Ti      17.69365761      11.48516750      17.38185691   365320        1        0
C       16.39616639      11.22374157       9.80206962   366772        3        0
C       16.46964044      14.74663815       9.57691458   366778        3        0
Si      13.08838066      10.83860117      11.51541662   366929        2        0
C       16.89510605      10.57369767      13.57116909   366931        3        0
Si      13.22210840      10.11793249      13.88009429   366933        2        0
Si      13.60922753      12.84143978      14.35117305   366934        2        1
Ti      15.23932459      11.24062217      15.29552225   366935        1        0
Si      14.03097547      13.13293343      11.83503212   366936        2        0
C       16.31521600       9.79922698      16.32837575   367109        3        0
Si      13.12870194      10.15722502      16.65627150   367110        2        0
C       16.41475022      12.78434157      16.26393649   367111        3        0
Ti      15.25461263       9.99188169      18.18059921   367112        1        0
Ti      15.14859219      12.93268012      18.02427355   367113        1        0
Si      13.17741765      13.14324215      19.70608455   367115        2        0
Ti      15.36293005      14.51336324      15.87001479   367117        1        0
Si      12.79012245      15.24930691      16.37245548   367118        2        0
Si      12.93694103      18.33919793      16.74395531   367120        2        0
Ti      14.51271213      16.54892641      18.01865841   367121        1        0
C       15.68829271      14.87916034      18.37964165   367122        3        0
C        9.90649004      12.77431746      10.77224184   368645        3        0
Ti      11.05639828       9.10291227      15.13117419   368823        1        0
Ti      11.11535422      10.57014960      12.89730377   368827        1        0
C        9.58460319      11.94848604      13.51046496   368829        3        0
Ti       8.41925107      13.28695754      14.63229457   368832        1        0
Ti      10.94428429      12.39110525      15.02771907   368833        1        0
C        9.56136862      16.94432396      11.26681068   368838        3        0
C        8.74996730      15.07383077      14.18303296   368841        3        0
Ti      10.23479840      15.47447540      15.45915712   368844        1        0
C       10.06829300      10.79320507      15.99913353   369024        3        0
C        9.69833984      13.59625588      16.26139027   369026        3        0
Ti      11.08342290      13.50293454      17.95164117   369031        1        0
Ti      11.68602437      16.29832535      18.34290273   369042        1        0
Ag      14.18390998      15.13506143      13.70757539   683609        4        1
Ag      16.07312814      13.09906573      13.63361188   685172        4        0
Ag      12.12658244      17.17725269      13.67955503   696217        4        0
Ag      12.13266135      17.20478789       9.62017575   700029        4        0
Ag      16.15897830      17.21999452      13.71753954   701518        4        0
Ag      16.08106236      17.18902838       9.56070496   703887        4        0
Ag      10.04579901      15.19054567       9.67672747   707313        4        0
Ag      14.09423645      15.10865820       9.64088266   710704        4        0
Ag      18.11418915      17.19028948      11.68257809   714846        4        0
Ag      12.07877319      19.23307260      11.68116928   729574        4        0
Ag      12.11255332      15.18119097      11.67901526   730721        4        0
Ag      12.11409047      13.07320457       9.54162439   735549        4        0
Ag      14.12631249      17.27488120      11.69548545   737082        4        0
Ag      16.13201046      19.24623853      15.76315800   737200        4        0
Ag      14.10564436      19.26135147      13.68969354   744883        4        0
Ag      18.13397893      15.17706645      13.74222944   752169        4        0
Ag      18.14428412      17.20305253      15.76426284   755982        4        0
