49
Lattice="28.0 0.0 0.0 0.0 28.0 0.0 0.0 0.0 28.0" Properties=species:S:1:pos:R:3:lammps_id:I:1:lammps_type:I:1:central_pair:I:1 config_type=AgTi_residual_shell_v15_01 source_config_type=AgTi_2p70_periodic_PW_PBE_energy_force_holdout source_structure_sha256=28d3ddc63332361c014b42bfb54c87eb06d0945ede734b965229ceea46c5f60e validation_target_distance_A=2.6 validation_source_distance_A=2.6999999924868017 central_pair_elements=Ag-Ti dataset_role=v15_acquisition_candidate geometry_family=AgTi_residual_targeted_local_perturbation correlation_note="Targeted local perturbation of an existing small-cell motif; not an independent morphology or thermal snapshot." source_label=AgTi_registry_probe_v13_01 targeted_lammps_ids=479027,687247,480810,480812 pbc="T T T"
C       13.89902107      12.90667166       9.57093308   478831        3        0
Ti      12.65145195      14.68125315       8.80907176   478840        1        0
Si      16.74663914      14.99666412       9.05588053   478841        2        0
C       13.77615718      16.76659830       9.46205532   478844        3        0
Ti      12.52073841      12.81804059      11.21367253   479021        1        0
Ti      12.79391184      14.20967401      13.89668174   479027        1        1
Ti      13.28277547      17.52458865      13.66155274   479028        1        0
C       12.15175400      15.99909223      12.96465198   479030        3        0
C       11.98853479      17.80917003      10.01132533   479031        3        0
C       11.11451254      11.62627022      10.48467063   480798        3        0
Ti       9.67354144      11.70899895      12.55025572   480801        1        0
C       10.41266283       9.58775109      13.76894219   480802        3        0
C       11.34229479      12.94440917      13.35443360   480805        3        0
C       11.28374990      14.20773200      10.31327606   480807        3        0
Ti      10.66223566      14.68803236      12.20706253   480810        1        0
Ti      11.15486925      17.41711765      11.90352167   480811        1        0
Ti      10.58201147      16.46215107      14.28072625   480812        1        0
C       11.96210142      18.77118885      12.88507762   480813        3        0
C       10.74527181       9.34898918      15.92141080   480974        3        0
C       10.62622570      11.85220159      16.64461392   480975        3        0
Ti       9.93269127      13.47667665      15.31060751   480980        1        0
Ag      13.15635032      11.92681631      14.15096508   682693        4        0
Ag      19.27103991      16.06172680      16.14325276   685396        4        0
Ag      17.26700927      16.04206165      14.13636119   685467        4        0
Ag      15.21476112      11.91528697      16.16910796   686309        4        0
Ag      17.21392936      13.97398654      16.13597887   686324        4        0
Ag      15.25984795       9.84522751      14.06702254   686418        4        0
Ag      19.28086435      13.99972927      14.11166018   686622        4        0
Ag      17.23987145      16.04230202      18.18247801   686899        4        0
Ag      17.23652607       9.89177748      16.14439265   687243        4        0
Ag      15.37371093      13.95678829      14.11127121   687247        4        1
Ag      15.21209897      16.06715970      16.10901688   688096        4        0
Ag      17.25172922       9.88253321      12.04485225   688280        4        0
Ag      15.28470047      14.01780436      18.19582085   688689        4        0
Ag      17.21273800      18.09581139      16.15000652   688707        4        0
Ag      17.22920221      11.97852300      14.04843188   689682        4        0
Ag      13.18170587      16.04176470      18.17151177   690927        4        0
Ag      15.20634649      18.09577674      18.20004601   691757        4        0
Ag      13.17617624      11.95798587      18.19172182   694331        4        0
Ag      17.23960348      11.93172895      18.18219469   696686        4        0
Ag      13.17664715       9.88304979      16.15300997   700223        4        0
Ag      11.15662076      13.98813182      18.20237906   701905        4        0
Ag      17.22145846      18.09982138      12.03659182   703736        4        0
Ag      15.15062621      16.06754654      12.04374819   704767        4        0
Ag      17.23079361      14.02746892      12.01255758   716228        4        0
Ag      15.24024594      11.95276850      12.02649924   720990        4        0
Ag      13.20991379      18.16115910      16.18286910   721910        4        0
Ag      17.24565333      11.93660568       9.97615916   728014        4        0
Ag      13.17551906       9.88412807      12.01790751   741114        4        0
