32
Lattice="8.125099016942418 0.0 0.0 0.0 8.125099016942418 0.0 0.0 0.0 8.125099016942418" Properties=species:S:1:pos:R:3:local_new_id:I:1 proposal_role=pure_phase_numerical_stability_control_NOT_VALIDATED phase=Ag case=volume_m02 identity_note="Local new IDs only; not historical lammps identities" pbc="T T T"
Ag       0.00000000       0.00000000       0.00000000        1
Ag       0.00000000       2.03127475       2.03127475        2
Ag       2.03127475       0.00000000       2.03127475        3
Ag       2.03127475       2.03127475       0.00000000        4
Ag       0.00000000       0.00000000       4.06254951        5
Ag       0.00000000       2.03127475       6.09382426        6
Ag       2.03127475       0.00000000       6.09382426        7
Ag       2.03127475       2.03127475       4.06254951        8
Ag       0.00000000       4.06254951       0.00000000        9
Ag       0.00000000       6.09382426       2.03127475       10
Ag       2.03127475       4.06254951       2.03127475       11
Ag       2.03127475       6.09382426       0.00000000       12
Ag       0.00000000       4.06254951       4.06254951       13
Ag       0.00000000       6.09382426       6.09382426       14
Ag       2.03127475       4.06254951       6.09382426       15
Ag       2.03127475       6.09382426       4.06254951       16
Ag       4.06254951       0.00000000       0.00000000       17
Ag       4.06254951       2.03127475       2.03127475       18
Ag       6.09382426       0.00000000       2.03127475       19
Ag       6.09382426       2.03127475       0.00000000       20
Ag       4.06254951       0.00000000       4.06254951       21
Ag       4.06254951       2.03127475       6.09382426       22
Ag       6.09382426       0.00000000       6.09382426       23
Ag       6.09382426       2.03127475       4.06254951       24
Ag       4.06254951       4.06254951       0.00000000       25
Ag       4.06254951       6.09382426       2.03127475       26
Ag       6.09382426       4.06254951       2.03127475       27
Ag       6.09382426       6.09382426       0.00000000       28
Ag       4.06254951       4.06254951       4.06254951       29
Ag       4.06254951       6.09382426       6.09382426       30
Ag       6.09382426       4.06254951       6.09382426       31
Ag       6.09382426       6.09382426       4.06254951       32
