48
Lattice="6.115 0.0 0.0 -3.0574999999999988 5.295745344141843 0.0 0.0 0.0 17.6235" Properties=species:S:1:pos:R:3:spacegroup_kinds:I:1:local_new_id:I:1 proposal_role=pure_phase_numerical_stability_control_NOT_VALIDATED phase=Ti3SiC2 case=displacement_m01 identity_note="Local new IDs only; not historical lammps identities" pbc="T T T"
Ti      -0.01000000       0.00000000       0.00000000        0        1
Ti       0.00000000       0.00000000       8.81175000        0        2
Ti       1.52876529       0.88261540       2.38798425        1        3
Ti       0.00000000       1.76523080      11.19973425        1        4
Ti       1.52875000       0.88264188       6.42376575        1        5
Ti      -0.00001529       1.76525727      15.23551575        1        6
Si       0.00000000       0.00000000       4.40587500        2        7
Si       0.00000000       0.00000000      13.21762500        2        8
C       -0.00001529       1.76525727       1.27241670        3        9
C        1.52875000       0.88264188      10.08416670        3       10
C        0.00000000       1.76523080       7.53933330        3       11
C        1.52876529       0.88261540      16.35108330        3       12
Ti      -1.52875000       2.64787267       0.00000000        0       13
Ti      -1.52875000       2.64787267       8.81175000        0       14
Ti       0.00001529       3.53048807       2.38798425        1       15
Ti      -1.52875000       4.41310347      11.19973425        1       16
Ti       0.00000000       3.53051455       6.42376575        1       17
Ti      -1.52876529       4.41312995      15.23551575        1       18
Si      -1.52875000       2.64787267       4.40587500        2       19
Si      -1.52875000       2.64787267      13.21762500        2       20
C       -1.52876529       4.41312995       1.27241670        3       21
C        0.00000000       3.53051455      10.08416670        3       22
C       -1.52875000       4.41310347       7.53933330        3       23
C        0.00001529       3.53048807      16.35108330        3       24
Ti       3.05750000       0.00000000       0.00000000        0       25
Ti       3.05750000       0.00000000       8.81175000        0       26
Ti       4.58626529       0.88261540       2.38798425        1       27
Ti       3.05750000       1.76523080      11.19973425        1       28
Ti       4.58625000       0.88264188       6.42376575        1       29
Ti       3.05748471       1.76525727      15.23551575        1       30
Si       3.05750000       0.00000000       4.40587500        2       31
Si       3.05750000       0.00000000      13.21762500        2       32
C        3.05748471       1.76525727       1.27241670        3       33
C        4.58625000       0.88264188      10.08416670        3       34
C        3.05750000       1.76523080       7.53933330        3       35
C        4.58626529       0.88261540      16.35108330        3       36
Ti       1.52875000       2.64787267       0.00000000        0       37
Ti       1.52875000       2.64787267       8.81175000        0       38
Ti       3.05751529       3.53048807       2.38798425        1       39
Ti       1.52875000       4.41310347      11.19973425        1       40
Ti       3.05750000       3.53051455       6.42376575        1       41
Ti       1.52873471       4.41312995      15.23551575        1       42
Si       1.52875000       2.64787267       4.40587500        2       43
Si       1.52875000       2.64787267      13.21762500        2       44
C        1.52873471       4.41312995       1.27241670        3       45
C        3.05750000       3.53051455      10.08416670        3       46
C        1.52875000       4.41310347       7.53933330        3       47
C        3.05751529       3.53048807      16.35108330        3       48
