48
Lattice="28.140000000000001 0 0 0 28.140000000000001 0 0 0 28.140000000000001" Properties=species:S:1:pos:R:3:PW_PBE_forces:R:3:lammps_id:I:1:central_pair:I:1 pbc="T T T" PW_PBE_energy_eV=-254.22869105914666 config_type=AgC_residual_mode_p_06_v19_acq
Ti 14.77773371 12.05600926 19.115518059999999 -0.72569633907612152 -0.049293161159741888 -1.9748546455955487 113766 0
Ti 19.828112170000001 14.16747384 12.332465689999999 -1.2478105537970354 -0.69476317475348648 1.8733984821385687 600768 0
Ti 15.14933662 14.09146 8.9903422299999995 -1.2181257167706574 -1.4606976256445345 1.8690164264802087 602398 0
Ti 16.707006719999999 11.35471852 12.383686190000001 0.90846760790068759 1.2318993543582404 -1.0770610766942825 602560 0
C 15.808347489999999 12.2813523 10.412757190000001 0.20641732871373289 -0.67707236367571522 0.75585796688943496 602563 0
C 15.245957300000001 10.246780879999999 13.1973631 5.2060015624359925 -2.6594534936230843 -0.19385573802288189 602564 0
C 15.09615209 17.798665679999999 11.056472449999999 0.6269029742933524 1.1627231277411949 1.5077133369086819 602568 0
Ti 16.22196177 17.830626290000001 12.744230180000001 -0.44996212033400185 1.9680795049797368 0.89590775762969566 602569 0
C 15.078564930000001 19.597324629999999 13.72647342 -1.6112598970348506 -4.3152300686168257 -2.0998350430456512 602577 0
Ti 16.764409740000001 12.976426760000001 14.38731587 -0.46542782657889492 0.12697069394887397 -0.064926123295634741 602709 0
Ti 16.301019149999998 9.8796257300000008 15.168303099999999 -0.81654908708627216 1.812848081026855 -1.4296824200439862 602714 0
Si 16.289071119999999 11.75977571 16.924165590000001 -0.55627894286679858 -0.035569138619220016 0.14249835127508093 602717 0
Ti 19.603923399999999 12.8276298 14.906908530000001 -1.6322221905325123 0.75531587694300861 -1.151417497409621 602720 0
Si 17.678577279999999 13.648193819999999 16.568189050000001 1.0431482906181297 0.53593630752171173 -0.057562391149993009 602722 0
Si 17.720841539999999 16.09981719 16.310877860000002 0.010391139559736508 0.36392548632563892 -1.4225766338022154 602726 0
Si 18.23918609 18.049040439999999 14.559151099999999 -0.55409419631180412 -1.7673147159340119 0.84053780461762251 602728 0
Ti 14.7650284 10.24823364 11.01852302 1.2249455601364549 -3.2133718078507338 -1.4040182760282554 604584 0
C 13.17986737 8.6758332899999999 11.62428134 1.1340339073457926 0.37963822250250828 0.71742485161528369 604585 0
Ti 11.74276545 10.17736294 12.03503218 1.0639486683248309 -1.9669884246048026 0.050051320772107173 604586 0
C 13.195631990000001 11.179687960000001 11.24892195 -3.6429209015518729 -3.1921699415104823 1.3042975237186725 604587 0
Ti 14.358823640000001 8.5219883700000008 13.27154629 -3.4493689159153562 0.68905323176488831 -0.53207682938332845 604588 0
Ti 13.895220269999999 11.47862233 13.1940499 -0.2813951794394195 3.158161224816614 -0.29501514285907071 604589 0
Ti 13.89476314 12.736905139999999 10.904804800000001 3.9619897552372469 4.8309515725049277 -0.647921113496708 604590 0
C 12.766711519999999 10.07059819 13.826003630000001 -2.4483816797002271 -2.5298068395063718 3.036203108693337 604592 0
Si 9.9731049400000007 12.81272528 11.37092765 0.25666360535291921 -0.1635405399609639 1.3715463262697598 604593 0
Si 9.9104925000000001 11.50366541 13.683733889999999 0.27530176645715104 0.9978036453466218 -0.57857939187039931 604594 0
C 13.36240624 13.479245990000001 9.2430265499999997 1.1189159966316184 0.59784835237757106 -2.6168117520367686 604596 0
C 12.81786136 16.199133839999998 9.9045059799999997 -0.75495968251238743 -0.46546510189107254 1.2306613135694962 604598 0
Ti 11.95350169 14.266179279999999 10.374237279999999 -0.54825230078759302 2.5594847800902154 -0.067492657788860849 604599 0
Ti 14.118815489155969 15.957052139958165 11.60834459611606 -8.354079425088818 4.401376299238887 -6.5662478389829717 604600 0
Ti 11.43344149 17.433476670000001 10.56034947 2.1615105118252842 -0.9211984377910547 0.20506386292485618 604601 0
C 13.066467189999999 14.1368467 12.10746617 0.17899622319199396 0.34976278679867384 -0.027926188556576578 604602 0
C 12.78805257 17.510479719999999 12.49636784 -1.287448808873803 1.6185003629007695 0.64966252341448072 604603 0
Si 9.8068985699999995 15.55673045 10.575952409999999 -1.170277729805705 -0.15714485005189499 1.5878580703612066 604605 0
Ti 13.89404094 19.214804900000001 11.80016927 1.7875819733371225 -1.4748364052345002 0.28068177192695187 604608 0
Ti 11.2580215 18.925486240000001 12.55015014 0.65759373770221108 -1.1234022771801127 1.0314775312315378 604611 0
Ti 12.266348539999999 10.47500164 17.74830506 0.47458114594780715 1.0742046328698776 -0.76622555461763275 604794 0
Ti 11.800335179999999 8.6634569199999998 15.229030440000001 1.5774510013177296 2.7150599830602924 -1.1203499803580883 604795 0
Ti 12.16895326 11.738342400000001 15.12525415 -0.76993812971522901 -0.16390391254352712 0.77044056248209203 604796 0
Si 10.142390369999999 12.97278704 16.233870270000001 0.18750731362723722 0.97188930034154497 -0.42440315343078977 604803 0
C 13.47588002 12.93679245 14.26673336 -0.075811830644550868 1.8784821140189756 1.7993524458406809 604804 1
Ti 13.941323150000001 17.725990459999998 14.28329593 -0.044271354022249146 4.0556779254416861 -0.29559868476670143 604805 0
Ti 12.291049299999999 13.6369851 17.68575294 1.2007885881376636 0.38723514655919655 -1.8379873215570788 604806 0
C 13.504690610000001 14.90550135 16.603743649999998 -1.4887898696620252 -1.1576966982496051 0.16581178181917722 604810 0
Si 10.251690180000001 15.684724729999999 15.668430320000001 0.72031981191665451 -1.6863968655293786 0.17786096194315892 604813 0
Si 9.7030737200000008 16.94008547 12.67728352 0.52187631208293295 -0.82843530322147352 -1.0243691104135455 606503 0
Ag 14.11040925 15.463241500000001 13.72951918 0.20045130722574922 -4.8091597628660852 5.7786572283082762 688433 1
Ag 16.166574019999999 15.463978969999999 11.65879226 6.9063169808382403 -3.107201999680707 -0.3570046573062553 751743 0
