52
Lattice="6.1150000000000002 0 0 -3.0574999999999988 5.2957453441418432 0 0 0 34.205876500000002" Properties=species:S:1:pos:R:3:PW_PBE_forces:R:3:lammps_id:I:1:central_pair:I:1 pbc="T T F" PW_PBE_energy_eV=-390.44386354806477 config_type=AgSi_originalvac_slab_dipole_on_v19
Ti 0 0 10.388251500000001 0.00074874920540677053 -0.00042361320947011685 0.16022762445849326 19101000 0
Ti 0 0 19.200001499999999 0.001036185948566671 -0.0012295969713516357 -0.015807094272264684 19101001 0
Ti 1.5287652899999999 0.88261540000000005 12.77623575 0.00010105759548382745 -6.4058662264813841e-06 -0.25659335771343694 19101002 0
Ti 0 1.7652308000000001 21.587985750000001 0.0094473982855778522 0.0084047645222324677 -0.073596475723749596 19101003 0
Ti 1.5287500000000001 0.88264187999999999 16.81201725 0.00022670125888265335 -0.0013298748869541056 0.013767343800633044 19101004 0
Ti -1.5290000000000001e-05 1.76525727 8.0002672500000003 0.00073835538271792322 -0.00055140985924489148 0.55207533428698807 19101005 0
Si 0 0 14.794126500000001 0.00094649629821326995 -0.00037131521231269221 0.073222558322101061 19101006 0
Si 0 0 23.605876500000001 0.041095520638801467 0.020872100092101459 0.94755804850247072 19101007 1
C -1.5290000000000001e-05 1.76525727 11.6606682 -0.0013591686128472651 0.00079188248380196555 0.17195380528878779 19101008 0
C 1.5287500000000001 0.88264187999999999 20.4724182 -0.0017786841905113834 -0.0023021673543160812 0.083052331226840609 19101009 0
C 0 1.7652308000000001 17.927584800000002 -0.0010080074007441139 0.0022638777176446387 -0.10044355937251395 19101010 0
C 1.5287652899999999 0.88261540000000005 9.1158348 -0.00068600432475591643 0.00052700215343509974 -0.89652998353390345 19101011 0
Ti -1.5287500000000001 2.6478726699999999 10.388251500000001 0.0007485404934564413 -0.00042711819970187124 0.16023230502943353 19101012 0
Ti -1.5287500000000001 2.6478726699999999 19.200001499999999 0.0010347376878238517 -0.0012278219262440919 -0.015807034660860551 19101013 0
Ti 1.5290000000000001e-05 3.5304880700000001 12.77623575 0.00010007356569756291 -6.2771098788290937e-06 -0.25659355191111055 19101014 0
Ti -1.5287500000000001 4.4131034700000003 21.587985750000001 0.009447495311070607 0.0084046092313462724 -0.073593803400455154 19101015 0
Ti 0 3.5305145499999999 16.81201725 0.00022686866352204555 -0.0013289541342919682 0.013768394751844193 19101016 0
Ti -1.5287652899999999 4.4131299500000001 8.0002672500000003 0.00073936819386297137 -0.00054706561695777535 0.55206433804266541 19101017 0
Si -1.5287500000000001 2.6478726699999999 14.794126500000001 0.00094703569491018131 -0.00037041158015217827 0.073222042472041088 19101018 0
Si -1.5287500000000001 2.6478726699999999 23.605876500000001 0.041096877679766192 0.020873563765083661 0.94755941965695945 19101019 0
C -1.5287652899999999 4.4131299500000001 11.6606682 -0.0013573979018748315 0.00079028962485828969 0.17195790481909684 19101020 0
C 0 3.5305145499999999 20.4724182 -0.0017790877569465605 -0.0023043197156328451 0.08304901531691801 19101021 0
C -1.5287500000000001 4.4131034700000003 17.927584800000002 -0.0010097982996343244 0.0022627242630490906 -0.10044316001443207 19101022 0
C 1.5290000000000001e-05 3.5304880700000001 9.1158348 -0.00068733203223019217 0.00052274567799415477 -0.89653388189124339 19101023 0
Ti 3.0575000000000001 0 10.388251500000001 0.00074886482383239241 -0.0004231718567762081 0.16022736077128996 19101024 0
Ti 3.0575000000000001 0 19.200001499999999 0.0010357498086843451 -0.0012293543541267572 -0.015807423480345882 19101025 0
Ti 4.58626529 0.88261540000000005 12.77623575 0.00010114736350043202 -6.278473012926771e-06 -0.25659297453248631 19101026 0
Ti 3.0575000000000001 1.7652308000000001 21.587985750000001 0.0094483940866910664 0.0084046382345222895 -0.073596234784663012 19101027 0
Ti 4.5862499999999997 0.88264187999999999 16.81201725 0.00022556615971942366 -0.0013299239930083728 0.013766845951966748 19101028 0
Ti 3.0574847100000002 1.76525727 8.0002672500000003 0.00073843213664607599 -0.00055015917640583941 0.55207657912420327 19101029 0
Si 3.0575000000000001 0 14.794126500000001 0.00094684685348712288 -0.00037094163549634111 0.073222831680332279 19101030 0
Si 3.0575000000000001 0 23.605876500000001 0.041096049505647804 0.020872665146721082 0.94755838760490529 19101031 0
C 3.0574847100000002 1.76525727 11.6606682 -0.0013584152833956854 0.00079156025404352414 0.17195307989064809 19101032 0
C 4.5862499999999997 0.88264187999999999 20.4724182 -0.0017785948408048568 -0.0023018780728957969 0.083051798122813228 19101033 0
C 3.0575000000000001 1.7652308000000001 17.927584800000002 -0.0010078699216662262 0.0022640671386604098 -0.10044469303384213 19101034 0
C 4.58626529 0.88261540000000005 9.1158348 -0.00068549696204617586 0.00052717240043982422 -0.89653116902239971 19101035 0
Ti 1.5287500000000001 2.6478726699999999 10.388251500000001 0.00074912136587890253 -0.00042659753505045226 0.16023234785611773 19101036 0
Ti 1.5287500000000001 2.6478726699999999 19.200001499999999 0.0010353708179539893 -0.0012273067069101626 -0.015806814950069283 19101037 0
Ti 3.05751529 3.5304880700000001 12.77623575 0.00010067711179967347 -6.1670568133604919e-06 -0.25659370037687551 19101038 0
Ti 1.5287500000000001 4.4131034700000003 21.587985750000001 0.0094472098669819756 0.0084050901199883392 -0.073594608493936703 19101039 0
Ti 3.0575000000000001 3.5305145499999999 16.81201725 0.00022724966948104686 -0.0013294013365093484 0.01376890764534125 19101040 0
Ti 1.5287347099999999 4.4131299500000001 8.0002672500000003 0.00073756120210414122 -0.0005459484986379908 0.55206354144396286 19101041 0
Si 1.5287500000000001 2.6478726699999999 14.794126500000001 0.00094703735424724717 -0.00037051800426905805 0.073221969199126408 19101042 0
Si 1.5287500000000001 2.6478726699999999 23.605876500000001 0.041095971244828562 0.020873189015028444 0.94755921247884467 19101043 0
C 1.5287347099999999 4.4131299500000001 11.6606682 -0.0013577738262997405 0.00079030796166547855 0.17195717419111878 19101044 0
C 3.0575000000000001 3.5305145499999999 20.4724182 -0.0017791111004968746 -0.0023041507062300753 0.083048886622956619 19101045 0
C 1.5287500000000001 4.4131034700000003 17.927584800000002 -0.0010097253883278696 0.002262604456200959 -0.10044393278405978 19101046 0
C 3.05751529 3.5304880700000001 9.1158348 -0.00068659895654517289 0.00052190835233703744 -0.89653385842524502 19101047 0
Ag 0.81023750000000005 0.55605325999999999 26.205876499999999 -0.049876180498601069 -0.02696164913304434 -0.65558476470478377 19101048 1
Ag -0.7185125 3.20392593 26.205876499999999 -0.049875645047101 -0.026961885046395163 -0.65558133338210489 19101049 0
Ag 3.8677375000000001 0.55605325999999999 26.205876499999999 -0.049877803820499632 -0.026960924856448725 -0.65558664952367152 19101050 0
Ag 2.3389875 3.20392593 26.205876499999999 -0.049874680854828823 -0.026961342400616324 -0.6555802560984253 19101051 0
