32
Lattice="8.1799999999999997 0 0 -0.040899999999999999 8.1799999999999997 0 0 0 8.1799999999999997" Properties=species:S:1:pos:R:3:PW_PBE_forces:R:3:local_new_id:I:1 pbc="T T T" PW_PBE_energy_eV=-91.443575990817621 config_type=Ag_shear_m005_k6x6x6_v19
Ag 0 0 0 0 0 0 1
Ag -0.010225 2.0449999999999999 2.0449999999999999 -7.1916431415728073e-06 2.2742479239163693e-05 2.2912785643510148e-05 2
Ag 2.0449999999999999 0 2.0449999999999999 2.2522137865133764e-05 -7.1384108535903392e-06 2.4038014663548773e-05 3
Ag 2.0347749999999998 2.0449999999999999 0 2.3655077645978781e-05 2.4953058335767074e-05 0 4
Ag 0 0 4.0899999999999999 0 0 0 5
Ag -0.010225 2.0449999999999999 6.1349999999999998 -7.1916431415728073e-06 2.2742479239163693e-05 -2.2912785643510145e-05 6
Ag 2.0449999999999999 0 6.1349999999999998 2.2522137865133764e-05 -7.1384108535903392e-06 -2.4038014663548769e-05 7
Ag 2.0347749999999998 2.0449999999999999 4.0899999999999999 -7.6790163318399709e-06 -8.3403287530375202e-06 0 8
Ag -0.020449999999999999 4.0899999999999999 0 0 0 0 9
Ag -0.030675000000000001 6.1349999999999998 2.0449999999999999 7.1916431415728073e-06 -2.2742479239163693e-05 2.2912785643510145e-05 10
Ag 2.0245500000000001 4.0899999999999999 2.0449999999999999 -5.4944948338489937e-06 6.7013745988229529e-06 -6.7069227388971098e-06 11
Ag 2.0143249999999999 6.1349999999999998 0 2.2525379852670032e-05 -2.391594026115041e-05 0 12
Ag -0.020449999999999999 4.0899999999999999 4.0899999999999999 0 0 0 13
Ag -0.030675000000000001 6.1349999999999998 6.1349999999999998 7.1916431415728073e-06 -2.2742479239163693e-05 -2.2912785643510145e-05 14
Ag 2.0245500000000001 4.0899999999999999 6.1349999999999998 -5.4944948338489937e-06 6.7013745988229529e-06 6.7069227388971098e-06 15
Ag 2.0143249999999999 6.1349999999999998 4.0899999999999999 -3.8957230475575926e-06 4.7818158589398968e-06 0 16
Ag 4.0899999999999999 0 0 0 0 0 17
Ag 4.0797749999999997 2.0449999999999999 2.0449999999999999 6.8123320955400395e-06 -5.1949039350030997e-06 -5.5704195307826707e-06 18
Ag 6.1349999999999998 0 2.0449999999999999 -2.252213786513376e-05 7.1384108535903392e-06 2.4038014663548769e-05 19
Ag 6.1247749999999996 2.0449999999999999 0 -2.2525379852670032e-05 2.391594026115041e-05 0 20
Ag 4.0899999999999999 0 4.0899999999999999 0 0 0 21
Ag 4.0797749999999997 2.0449999999999999 6.1349999999999998 6.8123320955400395e-06 -5.1949039350030997e-06 5.5704195307826715e-06 22
Ag 6.1349999999999998 0 6.1349999999999998 -2.252213786513376e-05 7.1384108535903409e-06 -2.4038014663548766e-05 23
Ag 6.1247749999999996 2.0449999999999999 4.0899999999999999 3.8957230475575926e-06 -4.7818158589398977e-06 0 24
Ag 4.0695499999999996 4.0899999999999999 0 0 0 0 25
Ag 4.0593250000000003 6.1349999999999998 2.0449999999999999 -6.8123320955400395e-06 5.1949039350030997e-06 -5.5704195307826715e-06 26
Ag 6.1145500000000004 4.0899999999999999 2.0449999999999999 5.4944948338489937e-06 -6.7013745988229529e-06 -6.7069227388971098e-06 27
Ag 6.1043250000000002 6.1349999999999998 0 -2.3655077645978781e-05 -2.4953058335767074e-05 0 28
Ag 4.0695499999999996 4.0899999999999999 4.0899999999999999 0 0 0 29
Ag 4.0593250000000003 6.1349999999999998 6.1349999999999998 -6.8123320955400395e-06 5.1949039350030997e-06 5.5704195307826724e-06 30
Ag 6.1145500000000004 4.0899999999999999 6.1349999999999998 5.4944948338489937e-06 -6.7013745988229529e-06 6.7069227388971098e-06 31
Ag 6.1043250000000002 6.1349999999999998 4.0899999999999999 7.6790163318399709e-06 8.3403287530375202e-06 0 32
