48
Lattice="28.139999999999997 0.0 0.0 0.0 28.139999999999997 0.0 0.0 0.0 28.139999999999997" Properties=species:S:1:pos:R:3:lammps_id:I:1:lammps_type:I:1:central_pair:I:1:PW_PBE_forces:R:3:magmoms:R:1:forces:R:3 config_type=AgC_widespan_distance_acq_v16_01 dataset_role=unlabeled_training_acquisition_proposal parent_config_type=AgC_registry_strain_acq_v14_01_periodic_PW_PBE_energy_force_v14_train parent_file_sha256=3323cdbd3081fc8d91673662c5f83c8da93ba3b4d7a23428f6b70d0e7a4c9faf parent_geometry_sha256=26e44aa3caea382ceb631493823033d949d4ee318c6210aff9ed861d5bdce7b2 sampling_axis=distance sampling_offset_A=0.35 not_validated_training_data=T geometry_screening_decision=GEOMETRY_PASS_A_REVIEW requires_A_review=T geometry_review_flags=none PW_PBE_energy_eV=-256.28133618928143 source_method="GPAW 26.7.0 PW-PBE 500 eV Gamma single point" free_energy=-257.4380004635673 energy=-256.28133618928143 dipole="1.452631529463728 -1.2972739742911343 0.23648552781214305" magmom=0.0 pbc="T T T"
Ti      14.77773371      12.05600926      19.11551806   113766        1        0      -0.72582507      -0.04589381      -1.97883958       0.00000000      -0.72582507      -0.04589381      -1.97883958
Ti      19.82811217      14.16747384      12.33246569   600768        1        0      -1.36849232      -0.62579996       1.79242043       0.00000000      -1.36849232      -0.62579996       1.79242043
Ti      15.14933662      14.09146000       8.99034223   602398        1        0      -1.18629398      -1.45054540       1.89922878       0.00000000      -1.18629398      -1.45054540       1.89922878
Ti      16.70700672      11.35471852      12.38368619   602560        1        0       0.89045970       1.25771497      -1.11666185       0.00000000       0.89045970       1.25771497      -1.11666185
C       15.80834749      12.28135230      10.41275719   602563        3        0       0.22601491      -0.63716952       0.73339900       0.00000000       0.22601491      -0.63716952       0.73339900
C       15.24595730      10.24678088      13.19736310   602564        3        0       5.10521945      -2.54689994      -0.17322625       0.00000000       5.10521945      -2.54689994      -0.17322625
C       15.09615209      17.79866568      11.05647245   602568        3        0       0.55073388       1.01772137       1.55480047       0.00000000       0.55073388       1.01772137       1.55480047
Ti      16.22196177      17.83062629      12.74423018   602569        1        0      -0.52448218       1.37000719       0.55618207       0.00000000      -0.52448218       1.37000719       0.55618207
C       15.07856493      19.59732463      13.72647342   602577        3        0      -1.67351320      -4.39489848      -2.01308175       0.00000000      -1.67351320      -4.39489848      -2.01308175
Ti      16.76440974      12.97642676      14.38731587   602709        1        0      -0.46327885       0.12052427      -0.08296316       0.00000000      -0.46327885       0.12052427      -0.08296316
Ti      16.30101915       9.87962573      15.16830310   602714        1        0      -0.79943129       1.79004948      -1.40918858       0.00000000      -0.79943129       1.79004948      -1.40918858
Si      16.28907112      11.75977571      16.92416559   602717        2        0      -0.57570112      -0.03581864       0.12324180       0.00000000      -0.57570112      -0.03581864       0.12324180
Ti      19.60392340      12.82762980      14.90690853   602720        1        0      -1.61367562       0.74349730      -1.12323121       0.00000000      -1.61367562       0.74349730      -1.12323121
Si      17.67857728      13.64819382      16.56818905   602722        2        0       1.04187552       0.53297669      -0.05980216       0.00000000       1.04187552       0.53297669      -0.05980216
Si      17.72084154      16.09981719      16.31087786   602726        2        0      -0.01282447       0.34283468      -1.40781916       0.00000000      -0.01282447       0.34283468      -1.40781916
Si      18.23918609      18.04904044      14.55915110   602728        2        0      -0.56009900      -1.74539058       0.79572160       0.00000000      -0.56009900      -1.74539058       0.79572160
Ti      14.76502840      10.24823364      11.01852302   604584        1        0       1.25305018      -3.23964766      -1.41864366       0.00000000       1.25305018      -3.23964766      -1.41864366
C       13.17986737       8.67583329      11.62428134   604585        3        0       1.14057901       0.35203362       0.71712674       0.00000000       1.14057901       0.35203362       0.71712674
Ti      11.74276545      10.17736294      12.03503218   604586        1        0       1.03391401      -1.94519787       0.04176611       0.00000000       1.03391401      -1.94519787       0.04176611
C       13.19563199      11.17968796      11.24892195   604587        3        0      -3.59855176      -3.16549979       1.39048101       0.00000000      -3.59855176      -3.16549979       1.39048101
Ti      14.35882364       8.52198837      13.27154629   604588        1        0      -3.47122615       0.71208058      -0.54682593       0.00000000      -3.47122615       0.71208058      -0.54682593
Ti      13.89522027      11.47862233      13.19404990   604589        1        0      -0.61524384       3.58885491       0.34958352       0.00000000      -0.61524384       3.58885491       0.34958352
Ti      13.89476314      12.73690514      10.90480480   604590        1        0       3.96090805       4.78639970      -0.61549781       0.00000000       3.96090805       4.78639970      -0.61549781
C       12.76671152      10.07059819      13.82600363   604592        3        0      -2.36012625      -2.38415290       3.03800357       0.00000000      -2.36012625      -2.38415290       3.03800357
Si       9.97310494      12.81272528      11.37092765   604593        2        0       0.24751558      -0.17377196       1.36582035       0.00000000       0.24751558      -0.17377196       1.36582035
Si       9.91049250      11.50366541      13.68373389   604594        2        0       0.32911210       0.99018107      -0.53485435       0.00000000       0.32911210       0.99018107      -0.53485435
C       13.36240624      13.47924599       9.24302655   604596        3        0       1.13570822       0.56771577      -2.61912595       0.00000000       1.13570822       0.56771577      -2.61912595
C       12.81786136      16.19913384       9.90450598   604598        3        0      -0.83384051      -0.56303564       1.06279044       0.00000000      -0.83384051      -0.56303564       1.06279044
Ti      11.95350169      14.26617928      10.37423728   604599        1        0      -0.67169983       2.50851885      -0.09395830       0.00000000      -0.67169983       2.50851885      -0.09395830
Ti      14.07288981      15.96040749      11.56987937   604600        1        0      -3.53733232       3.44547957      -5.64657662       0.00000000      -3.53733232       3.44547957      -5.64657662
Ti      11.43344149      17.43347667      10.56034947   604601        1        0       2.13662322      -0.90421090       0.26150939       0.00000000       2.13662322      -0.90421090       0.26150939
C       13.06646719      14.13684670      12.10746617   604602        3        0       0.28194154       0.32700162       0.34461431       0.00000000       0.28194154       0.32700162       0.34461431
C       12.78805257      17.51047972      12.49636784   604603        3        0      -1.19725542       1.42228131       0.64143229       0.00000000      -1.19725542       1.42228131       0.64143229
Si       9.80689857      15.55673045      10.57595241   604605        2        0      -1.17905594      -0.16795377       1.56446372       0.00000000      -1.17905594      -0.16795377       1.56446372
Ti      13.89404094      19.21480490      11.80016927   604608        1        0       1.80522718      -1.42828716       0.26405658       0.00000000       1.80522718      -1.42828716       0.26405658
Ti      11.25802150      18.92548624      12.55015014   604611        1        0       0.64698133      -1.09124764       1.04461780       0.00000000       0.64698133      -1.09124764       1.04461780
Ti      12.26634854      10.47500164      17.74830506   604794        1        0       0.47247685       1.11269033      -0.86515427       0.00000000       0.47247685       1.11269033      -0.86515427
Ti      11.80033518       8.66345692      15.22903044   604795        1        0       1.55379823       2.73456101      -1.08235708       0.00000000       1.55379823       2.73456101      -1.08235708
Ti      12.16895326      11.73834240      15.12525415   604796        1        0      -0.32455605       0.30624542       0.48614306       0.00000000      -0.32455605       0.30624542       0.48614306
Si      10.14239037      12.97278704      16.23387027   604803        2        0       0.24383535       0.94780586      -0.46801052       0.00000000       0.24383535       0.94780586      -0.46801052
C       13.53093455      13.07225817      14.23329628   604804        3        1      -0.09371625       0.98944154       1.15212613       0.00000000      -0.09371625       0.98944154       1.15212613
Ti      13.94132315      17.72599046      14.28329593   604805        1        0      -0.19115097       3.00916123      -0.63362886       0.00000000      -0.19115097       3.00916123      -0.63362886
Ti      12.29104930      13.63698510      17.68575294   604806        1        0       1.13204991       0.30700154      -1.80416087       0.00000000       1.13204991       0.30700154      -1.80416087
C       13.50469061      14.90550135      16.60374365   604810        3        0      -1.41714001      -1.25470343       0.19915853       0.00000000      -1.41714001      -1.25470343       0.19915853
Si      10.25169018      15.68472473      15.66843032   604813        2        0       0.69925228      -1.68919986       0.18844322       0.00000000       0.69925228      -1.68919986       0.18844322
Si       9.70307372      16.94008547      12.67728352   606503        2        0       0.53183658      -0.82530962      -1.03016031       0.00000000       0.53183658      -0.82530962      -1.03016031
Ag      14.48886983      15.42932817      13.65149932   688433        4        1       1.07063695      -3.71176744       5.33707029       0.00000000       1.07063695      -3.71176744       5.33707029
Ag      16.54503460      15.43006564      11.58077240   751743        4        0       1.52483904      -1.25543701      -0.17554307       0.00000000       1.52483904      -1.25543701      -0.17554307
