49
Lattice="28.0 0.0 0.0 0.0 28.0 0.0 0.0 0.0 28.0" Properties=species:S:1:pos:R:3:lammps_id:I:1:lammps_type:I:1:central_pair:I:1:PW_PBE_forces:R:3:magmoms:R:1:forces:R:3 source_config_type=AgTi_registry_probe_v13_01_periodic_PW_PBE_energy_force_v14_train source_dataset_path=research/mace-v12-transfer/periodic_interface_v4/mace_periodic_v14_interface_energy/data/train.extxyz source_dataset_sha256=3323cdbd3081fc8d91673662c5f83c8da93ba3b4d7a23428f6b70d0e7a4c9faf source_frame_geometry_sha256=18dc1be733a506b748386175293d2f094e720e3e1c9dc96e259623088c005b7c proposal_mode=framework_neighbor proposal_sign=1 proposal_displacement_A="0.03395962258497193 -0.01621292764976134 -0.013560420749735916" candidate_role=proposed_training_acquisition_geometry_unassigned config_type=AgTi_framework_neighbor_p_acq_v17_01 proposal_only_no_DFT_label=T PW_PBE_energy_eV=-176.46246944845967 source_method="GPAW 26.7.0 PW-PBE 500 eV Gamma single point" free_energy=-177.1099923022521 energy=-176.46246944845967 dipole="0.44962382512487653 0.32853174987283373 0.2239288079235646" magmom=0.0 pbc="T T T"
C       13.89902107      12.90667166       9.57093308   478831        3        0      -1.51227377       2.35327001       0.37958030       0.00000000      -1.51227377       2.35327001       0.37958030
Ti      12.62304525      14.70227784       8.74620905   478840        1        0       1.34334439      -0.81875843       4.01498282       0.00000000       1.34334439      -0.81875843       4.01498282
Si      16.74663914      14.99666412       9.05588053   478841        2        0      -0.91359451      -0.90892283       1.30233167       0.00000000      -0.91359451      -0.90892283       1.30233167
C       13.77615718      16.76659830       9.46205532   478844        3        0      -3.92125819       0.11941806       0.88311024       0.00000000      -3.92125819       0.11941806       0.88311024
Ti      12.49439364      12.82858132      11.26096292   479021        1        0       0.54393707      -1.06267349      -1.60727797       0.00000000       0.54393707      -1.06267349      -1.60727797
Ti      12.78048724      14.23194388      13.88415052   479027        1        1      -1.23156245       4.15818580       0.96460460       0.00000000      -1.23156245       4.15818580       0.96460460
Ti      13.27333691      17.52276133      13.67525409   479028        1        0       0.09690972       0.26861285      -1.36248403       0.00000000       0.09690972       0.26861285      -1.36248403
C       12.19406070      16.00730532      12.98699267   479030        3        0      -0.84679791      -1.22547070       0.61380084       0.00000000      -0.84679791      -1.22547070       0.61380084
C       11.92979276      17.83928667      10.04608242   479031        3        0       3.48197689      -2.29612190      -0.89932495       0.00000000       3.48197689      -2.29612190      -0.89932495
C       11.14030857      11.60980287      10.51944505   480798        3        0      -1.11097112       0.60023495       2.22804185       0.00000000      -1.11097112       0.60023495       2.22804185
Ti       9.67365027      11.73672021      12.52949502   480801        1        0       4.26042650      -0.88845015       0.01400609       0.00000000       4.26042650      -0.88845015       0.01400609
C       10.41266283       9.58775109      13.76894219   480802        3        0       0.20964482       1.40721861       2.95229063       0.00000000       0.20964482       1.40721861       2.95229063
C       11.34811906      12.99570560      13.31832051   480805        3        0      -1.71285982      -0.26965371      -0.50958475       0.00000000      -1.71285982      -0.26965371      -0.50958475
C       11.26779912      14.20441406      10.34350882   480807        3        0       0.95474723       0.51117296      -0.43670542       0.00000000       0.95474723       0.51117296      -0.43670542
Ti      10.63277880      14.68120764      12.23793466   480810        1        0      -0.70457187      -0.27814917      -0.31514488       0.00000000      -0.70457187      -0.27814917      -0.31514488
Ti      11.15181567      17.42898892      11.87855887   480811        1        0      -0.01050608       0.44971715      -1.29690292       0.00000000      -0.01050608       0.44971715      -1.29690292
Ti      10.57490139      16.47263116      14.34546801   480812        1        0       1.45274253      -0.16291026       0.06798426       0.00000000       1.45274253      -0.16291026       0.06798426
C       11.98467917      18.76062403      12.89743879   480813        3        0       0.50141036      -0.79052527       0.95127728       0.00000000       0.50141036      -0.79052527       0.95127728
C       10.74527181       9.34898918      15.92141080   480974        3        0       0.40600270       1.85069992      -3.66682669       0.00000000       0.40600270       1.85069992      -3.66682669
C       10.58950093      11.90905331      16.64358691   480975        3        0      -0.07079537       1.73464391      -1.57860812       0.00000000      -0.07079537       1.73464391      -1.57860812
Ti       9.93014220      13.54071165      15.28648610   480980        1        0       2.24594417      -2.09603704       0.02291106       0.00000000       2.24594417      -2.09603704       0.02291106
Ag      13.17921387      11.93477149      14.08448967   682693        4        0       0.23837968      -3.20727688       0.47456076       0.00000000       0.23837968      -3.20727688       0.47456076
Ag      19.27103991      16.06172680      16.14325276   685396        4        0      -0.38505063      -0.14828861      -0.15714865       0.00000000      -0.38505063      -0.14828861      -0.15714865
Ag      17.23061775      16.04744124      14.08084112   685467        4        0       0.07418056       0.40179655      -0.18236775       0.00000000       0.07418056       0.40179655      -0.18236775
Ag      15.22028550      11.92319346      16.13660310   686309        4        0      -0.12944221      -0.15656014       0.35302518       0.00000000      -0.12944221      -0.15656014       0.35302518
Ag      17.24075717      13.99811487      16.15267925   686324        4        0       0.36789082      -0.10394805       0.24303678       0.00000000       0.36789082      -0.10394805       0.24303678
Ag      15.20543632       9.88047407      14.08505358   686418        4        0       0.07749910       0.06661879       0.02295796       0.00000000       0.07749910       0.06661879       0.02295796
Ag      19.26799971      14.00431639      14.08329543   686622        4        0      -0.38905918       0.18720152       0.17058743       0.00000000      -0.38905918       0.18720152       0.17058743
Ag      17.23987145      16.04230202      18.18247801   686899        4        0      -0.11950789      -0.00399178      -0.18276025       0.00000000      -0.11950789      -0.00399178      -0.18276025
Ag      17.23652607       9.89177748      16.14439265   687243        4        0      -0.28852164       0.32698780      -0.16491243       0.00000000      -0.28852164       0.32698780      -0.16491243
Ag      15.31257904      13.97927572      14.09960194   687247        4        1       0.45198695       0.17272647      -0.00431644       0.00000000       0.45198695       0.17272647      -0.00431644
Ag      15.22219692      16.05137911      16.15723208   688096        4        0      -0.48612780       0.18168850      -0.21320346       0.00000000      -0.48612780       0.18168850      -0.21320346
Ag      17.25172922       9.88253321      12.04485225   688280        4        0      -0.27406368       0.45209543       0.09998029       0.00000000      -0.27406368       0.45209543       0.09998029
Ag      15.20875603      13.98728606      18.19713620   688689        4        0      -0.15043575      -0.12108815      -0.08412599       0.00000000      -0.15043575      -0.12108815      -0.08412599
Ag      17.21273800      18.09581139      16.15000652   688707        4        0      -0.11737859      -0.23543118      -0.05923662       0.00000000      -0.11737859      -0.23543118      -0.05923662
Ag      17.25143735      11.93238003      14.08784430   689682        4        0       0.29662356      -0.29710312      -0.02963559       0.00000000       0.29662356      -0.29710312      -0.02963559
Ag      13.18170587      16.04176470      18.17151177   690927        4        0       0.00202639      -0.31743168      -0.22114736       0.00000000       0.00202639      -0.31743168      -0.22114736
Ag      15.20634649      18.09577674      18.20004601   691757        4        0       0.07324216      -0.33319134      -0.29913443       0.00000000       0.07324216      -0.33319134      -0.29913443
Ag      13.17617624      11.95798587      18.19172182   694331        4        0      -0.20787683       0.23857081      -0.60230269       0.00000000      -0.20787683       0.23857081      -0.60230269
Ag      17.23960348      11.93172895      18.18219469   696686        4        0      -0.30033188       0.14189575      -0.42843752       0.00000000      -0.30033188       0.14189575      -0.42843752
Ag      13.17664715       9.88304979      16.15300997   700223        4        0      -1.00680294       0.16710551      -0.29833931       0.00000000      -1.00680294       0.16710551      -0.29833931
Ag      11.15662076      13.98813182      18.20237906   701905        4        0       0.16396928      -0.46926554      -0.89063364       0.00000000       0.16396928      -0.46926554      -0.89063364
Ag      17.22145846      18.09982138      12.03659182   703736        4        0      -0.30437244      -0.55693703       0.33235596       0.00000000      -0.30437244      -0.55693703       0.33235596
Ag      15.20366532      16.05436369      12.04745982   704767        4        0      -0.05373271      -0.09585991      -0.53859313       0.00000000      -0.05373271      -0.09585991      -0.53859313
Ag      17.24398153      13.98686690      12.02973371   716228        4        0       0.09292690       0.10113364      -0.84759105       0.00000000       0.09292690       0.10113364      -0.84759105
Ag      15.21598282      11.95285569      12.02298661   720990        4        0      -0.15141495      -0.05388691      -0.58545256       0.00000000      -0.15141495      -0.05388691      -0.58545256
Ag      13.17576280      18.10103246      16.12750949   721910        4        0      -0.24153889      -0.16677655       0.89415835       0.00000000      -0.24153889      -0.16677655       0.89415835
Ag      17.24565333      11.93660568       9.97615916   728014        4        0      -0.34752239       0.70705434       0.33490615       0.00000000      -0.34752239       0.70705434       0.33490615
Ag      13.17551906       9.88412807      12.01790751   741114        4        0      -0.34209476       0.46157532       0.14605310       0.00000000      -0.34209476       0.46157532       0.14605310
