32
Lattice="8.2341737642017243 0 0 0 8.2341737642017243 0 0 0 8.2341737642017243" Properties=species:S:1:pos:R:3:PW_PBE_forces:R:3:local_new_id:I:1 pbc="T T T" PW_PBE_energy_eV=-91.659598529096968 config_type=Ag_volume_p02_k6x6x6_v19
Ag 0 0 0 -1.0633834238661666e-23 -1.4178445651548888e-23 -1.0633834238661666e-23 1
Ag 0 2.0585434399999998 2.0585434399999998 3.5446114128872219e-24 -7.6835014395843545e-06 -7.6835014395843545e-06 2
Ag 2.0585434399999998 0 2.0585434399999998 -7.6835014395843545e-06 3.5446114128872219e-24 -7.6835014395843545e-06 3
Ag 2.0585434399999998 2.0585434399999998 0 -7.6835014395843511e-06 -7.6835014395843545e-06 1.772305706443611e-23 4
Ag 0 0 4.1170868799999996 -7.0892228257744438e-24 7.0892228257744438e-24 7.0892228257744438e-24 5
Ag 0 2.0585434399999998 6.1756303199999998 -3.1901502715984998e-23 -7.6835014395843545e-06 7.6835014395843528e-06 6
Ag 2.0585434399999998 0 6.1756303199999998 -7.6835014395843545e-06 -3.5446114128872219e-24 7.6835014395843528e-06 7
Ag 2.0585434399999998 2.0585434399999998 4.1170868799999996 2.3671560130325332e-05 2.3671560130325332e-05 0 8
Ag 0 4.1170868799999996 0 7.0892228257744438e-24 -1.772305706443611e-23 7.0892228257744438e-24 9
Ag 0 6.1756303199999998 2.0585434399999998 -1.6615365997908852e-23 7.6835014395843528e-06 -7.6835014395843545e-06 10
Ag 2.0585434399999998 4.1170868799999996 2.0585434399999998 2.3671560130325339e-05 -7.0892228257744438e-24 2.3671560130325329e-05 11
Ag 2.0585434399999998 6.1756303199999998 0 -7.6835014395843545e-06 7.6835014395843528e-06 -3.5446114128872219e-24 12
Ag 0 4.1170868799999996 4.1170868799999996 1.0633834238661666e-23 3.5446114128872219e-24 0 13
Ag 0 6.1756303199999998 6.1756303199999998 -2.6584585596654164e-23 7.6835014395843545e-06 7.6835014395843562e-06 14
Ag 2.0585434399999998 4.1170868799999996 6.1756303199999998 2.3671560130325339e-05 -4.9624559780421111e-23 -2.3671560130325332e-05 15
Ag 2.0585434399999998 6.1756303199999998 4.1170868799999996 2.3671560130325329e-05 -2.3671560130325326e-05 7.0892228257744438e-24 16
Ag 4.1170868799999996 0 0 7.0892228257744438e-24 7.0892228257744438e-24 7.0892228257744438e-24 17
Ag 4.1170868799999996 2.0585434399999998 2.0585434399999998 1.4178445651548888e-23 2.3671560130325339e-05 2.3671560130325332e-05 18
Ag 6.1756303199999998 0 2.0585434399999998 7.6835014395843528e-06 -1.9495362770879722e-23 -7.6835014395843545e-06 19
Ag 6.1756303199999998 2.0585434399999998 0 7.6835014395843528e-06 -7.6835014395843545e-06 -1.772305706443611e-23 20
Ag 4.1170868799999996 0 4.1170868799999996 0 -3.5446114128872219e-24 0 21
Ag 4.1170868799999996 2.0585434399999998 6.1756303199999998 7.0892228257744438e-24 2.3671560130325339e-05 -2.3671560130325332e-05 22
Ag 6.1756303199999998 0 6.1756303199999998 7.6835014395843545e-06 -1.4178445651548888e-23 7.6835014395843545e-06 23
Ag 6.1756303199999998 2.0585434399999998 4.1170868799999996 -2.3671560130325326e-05 2.3671560130325329e-05 7.0892228257744438e-24 24
Ag 4.1170868799999996 4.1170868799999996 0 0 0 1.0633834238661666e-23 25
Ag 4.1170868799999996 6.1756303199999998 2.0585434399999998 7.9753756789962495e-24 -2.3671560130325329e-05 2.3671560130325326e-05 26
Ag 6.1756303199999998 4.1170868799999996 2.0585434399999998 -2.3671560130325332e-05 1.0633834238661666e-23 2.3671560130325329e-05 27
Ag 6.1756303199999998 6.1756303199999998 0 7.6835014395843545e-06 7.6835014395843545e-06 -1.4178445651548888e-23 28
Ag 4.1170868799999996 4.1170868799999996 4.1170868799999996 0 3.5446114128872219e-24 0 29
Ag 4.1170868799999996 6.1756303199999998 6.1756303199999998 2.3039974183766941e-23 -2.3671560130325332e-05 -2.3671560130325329e-05 30
Ag 6.1756303199999998 4.1170868799999996 6.1756303199999998 -2.3671560130325329e-05 -3.5446114128872219e-24 -2.3671560130325322e-05 31
Ag 6.1756303199999998 6.1756303199999998 4.1170868799999996 -2.3671560130325322e-05 -2.3671560130325319e-05 -7.0892228257744438e-24 32
