LAMMPS (30 Sep 2026)
  using 5 OpenMP thread(s) per MPI task
package omp 5
using multi-threaded neighbor list subroutines
units metal
dimension 3
atom_style atomic
boundary p p m
read_data structures/start_after_hit_487.data
Reading data file ...
  triclinic box = (0 0 -10) to (37.285975 32.290601 103.82797) with tilt (-18.642987 0 0)
WARNING: Triclinic box skew is large. LAMMPS will run inefficiently. (src/domain.cpp:214)
  1 by 1 by 1 MPI processor grid
  reading atoms ...
  4792 atoms
  reading velocities ...
  4792 velocities
  read_data CPU = 0.035 seconds
include potentials/potential_stage69.inc
# Stage69 collision-ready candidate potential; no physical run is implied.
# Baseline: Ag EAM + Ti/Si/C TSCBOP + calibrated Ag-interface Morse.
# ZBL is overlaid only in the 0.8-1.5 A short-range window.
pair_style hybrid/overlay eam tersoff morse 8.0 zbl 0.8 1.5
pair_coeff 4 4 eam potentials/Ag_u3.eam
Reading eam potential file potentials/Ag_u3.eam with DATE: 2007-06-11
pair_coeff * * tersoff potentials/TSCBOP.tersoff Ti Si C NULL
pair_coeff 1 4 morse 0.94814194 2.00000000 2.33708864 8.0
pair_coeff 2 4 morse 0.93944948 2.00000000 2.40407837 8.0
pair_coeff 3 4 morse 1.35077230 2.00000000 2.15255924 8.0
pair_coeff 1 4 zbl 22 47
pair_coeff 2 4 zbl 14 47
pair_coeff 3 4 zbl 6 47
pair_coeff 4 4 zbl 47 47
neighbor 2.0 bin
neigh_modify delay 0 every 1 check yes
region sink_region block INF INF INF INF 8.0 18.0 units box
region crater_region cylinder z 9.9573898076 24.2578814220 8.0 12.0 100.0 units box
group projectiles id 4306:4792
487 atoms in group projectiles
group all_projectiles id 4306:4792
487 atoms in group all_projectiles
group fixed_part_01 id 2 3 9 90 2969 3032 81 82 2909 2910 2914 2975 170 250 251 255 256 257 351 356 2921 341 342 352 444 445 516 2924 2933 2992 2998 3003 436 511 517 596 603 604 2934 2939 3006 597 693 698 699 777 2948 3010 3018 3019 766 849 850 859 2953 2954 2955 2958 3022 3024 851 952 953 2963 24 3033 16 17 25 96 97 104 105 106 189 184 190 260 261 269 270 2915 2916 2983 2989 262 357 358 364 2925
90 atoms in group fixed_part_01
group fixed_part_02 id 2926 2993 453 454 523 530 537 626 2935 2999 524 610 611 617 618 708 715 792 2941 2942 778 783 784 785 875 876 882 2949 867 868 869 877 963 970 971 972 2964 23 964 119 120 127 2970 2971 111 112 113 121 203 285 2917 2976 2985 277 286 372 373 380 381 389 475 2984 374 466 470 545 550 2927 2928 2937 538 627 637 638 639 644 2936 3007 628 725 901 2943 2950 3011 3012 3020 883 884 892 893
90 atoms in group fixed_part_02
group fixed_part_03 id 984 985 2956 38 986 2965 3025 3035 39 44 2972 40 128 135 136 2911 2918 2977 2978 210 294 295 299 300 396 406 2986 2987 390 397 398 486 2929 2930 556 557 558 654 655 2938 645 646 656 728 818 2944 2951 3013 3014 729 805 806 807 902 912 913 914 922 2957 3021 43 903 991 2959 2966 3026 3027 60 53 54 61 146 150 151 2913 2973 2980 222 223 224 229 315 316 2912 2920 2979 2991 308 309 407
90 atoms in group fixed_part_03
group fixed_part_04 id 497 2922 2990 2995 408 562 563 573 574 575 2931 2932 3001 564 659 660 667 2945 3008 3009 742 743 750 819 826 827 828 2952 3015 3016 923 924 930 931 932 999 1000 2960 2967 3028 1001 71 75 76 80 163 2974 3036 3037 156 157 158 164 236 2919 2981 2982 237 325 326 327 334 340 431 432 2997 424 425 433 498 504 505 587 2923 3002 499 580 581 582 588 589 675 681 682 692 2940 3005 756 760 765
90 atoms in group fixed_part_04
group fixed_part_05 id 841 842 2946 2947 835 836 837 843 939 946 2962 3023 3031 1 74 1015 2961 2968 3030 4 5 12 91 3105 83 85 94 171 177 181 3110 175 252 254 258 3044 3049 343 346 449 515 518 520 605 607 3063 700 3074 3075 3082 767 769 775 852 863 949 856 954 960 3099 26 3101 98 100 107 3039 3100 3106 185 188 3038 3045 3046 368 459 2994 3050 3051 457 463 531 535 3000 3004 3052 527 619 716 3068 3069
90 atoms in group fixed_part_05
group fixed_part_06 id 710 779 780 786 3076 3083 870 872 965 974 3087 3093 32 35 36 122 3034 3102 114 117 123 206 287 3040 291 375 382 3047 3054 377 467 469 471 472 546 3053 539 540 629 3064 3065 3070 3071 632 721 726 793 802 3077 796 885 894 897 987 3088 3089 3095 989 3094 41 45 3103 129 137 141 3041 3107 298 304 399 3048 391 402 3055 3059 551 554 559 560 3058 3066 3072 647 658 736 740 3078 811 817 904
90 atoms in group fixed_part_06
group fixed_part_07 id 915 918 3090 3096 62 55 59 66 147 152 3108 148 225 226 231 317 3042 310 312 321 409 413 421 2996 3056 487 488 565 576 577 3060 568 668 672 3017 3073 747 820 830 933 3079 3084 823 925 926 3029 3091 3092 3097 1002 1004 72 73 77 3104 3109 166 247 2988 3043 328 331 335 338 434 426 428 500 3057 3061 3062 583 593 676 683 687 3067 679 757 761 844 3080 3081 838 943 947 951 3085 3086 1016
90 atoms in group fixed_part_07
group fixed_part_08 id 1020 1025 3098
3 atoms in group fixed_part_08
group fixed union fixed_part_01 fixed_part_02 fixed_part_03 fixed_part_04 fixed_part_05 fixed_part_06 fixed_part_07 fixed_part_08
633 atoms in group fixed
group sink region sink_region
955 atoms in group sink
group mobile subtract all fixed
4159 atoms in group mobile
group crater region crater_region
374 atoms in group crater
group freezone intersect mobile crater
374 atoms in group freezone
group free_substrate subtract freezone all_projectiles
191 atoms in group free_substrate
group anchored subtract mobile freezone
3785 atoms in group anchored
group bath subtract sink freezone
842 atoms in group bath
fix hold fixed setforce 0.0 0.0 0.0
fix integrate all nve
fix anchor anchored spring/self 100.0
fix_modify anchor energy yes
fix bathfix bath langevin 300.0 300.0 0.05 626487 zero yes tally yes
compute Tfree free_substrate temp
compute Tmobile mobile temp
timestep 0.000025
thermo 200
thermo_style custom step time atoms c_Tfree c_Tmobile pe ke etotal f_bathfix
thermo_modify flush yes
dump tr all custom 200 dumps/cool_after_62eV_0p5ps.dump id type x y z xu yu zu vx vy vz fx fy fz
dump_modify tr sort id
run 20000
Hybrid pair style last /omp style zbl
Last active /omp style is pair_style zbl
Neighbor list info ...
  update: every = 1 steps, delay = 0 steps, check = yes
  max neighbors/atom: 2000, page size: 100000
  master list distance cutoff = 10
  ghost atom cutoff = 10
  binsize = 5, bins = 12 7 23
  6 neighbor lists, perpetual/occasional/extra = 6 0 0
  (1) pair eam, perpetual, skip from (5)
      attributes: half, newton on, omp
      pair build: skip/omp
      stencil: none
      bin: none
  (2) pair tersoff, perpetual, skip from (6)
      attributes: full, newton on, omp
      pair build: skip/omp
      stencil: none
      bin: none
  (3) pair morse, perpetual, skip from (5)
      attributes: half, newton on, omp
      pair build: skip/omp
      stencil: none
      bin: none
  (4) pair zbl, perpetual, skip from (5)
      attributes: half, newton on, omp
      pair build: skip/omp
      stencil: none
      bin: none
  (5) neighbor class addition, perpetual, half/full from (6)
      attributes: half, newton on, omp
      pair build: halffull/newton/tri/omp
      stencil: none
      bin: none
  (6) neighbor class addition, perpetual
      attributes: full, newton on, omp
      pair build: full/bin/atomonly/omp
      stencil: full/bin/3d
      bin: standard
Per MPI rank memory allocation (min/avg/max) = 25.05 | 25.05 | 25.05 Mbytes
   Step          Time         Atoms       c_Tfree       c_Tmobile        PotEng         KinEng         TotEng       f_bathfix   
         0   0                   4792   3745.2008      1448.7788     -30669.787      778.666       -29891.121     -0            
       200   0.005               4792   3840.3965      1259.9826     -30568.013      677.19491     -29890.818     -0.30300957   
       400   0.01                4792   3814.8011      909.35012     -30375.891      488.74266     -29887.148     -3.9725734    
       600   0.015               4792   3734.8805      682.24362     -30250.461      366.68117     -29883.78      -7.3402818    
       800   0.02                4792   3475.9428      756.47964     -30288.289      406.58033     -29881.709     -9.4105173    
      1000   0.025               4792   3360.7856      1015.4081     -30426.317      545.74497     -29880.572     -10.54755     
      1200   0.03                4792   3406.9271      1298.7457     -30576.981      698.02863     -29878.952     -12.167723    
      1400   0.035               4792   3284.5449      1335.2512     -30596.276      717.64901     -29878.627     -12.492823    
      1600   0.04                4792   3383.737       1114.1047     -30476.621      598.79084     -29877.83      -13.291202    
      1800   0.045               4792   3558.9975      801.51429     -30307.217      430.78482     -29876.432     -14.68791     
      2000   0.05                4792   3570.4447      680.03031     -30240.662      365.49159     -29875.171     -15.949291    
      2200   0.055               4792   3556.6878      857.88027     -30334.858      461.07949     -29873.778     -17.343119    
      2400   0.06                4792   3628.0072      1188.3015     -30511.853      638.66892     -29873.184     -17.937361    
      2600   0.065               4792   3580.0578      1385.8001     -30617.123      744.81723     -29872.306     -18.815246    
      2800   0.07                4792   3627.0452      1320.3851     -30581.084      709.65905     -29871.425     -19.6975      
      3000   0.075               4792   3608.3064      1049.6766     -30435.615      564.16303     -29871.452     -19.670631    
      3200   0.08                4792   3497.6886      795.85625     -30298.823      427.74383     -29871.079     -20.043395    
      3400   0.085               4792   3363.6536      755.75193     -30276.948      406.18922     -29870.759     -20.363091    
      3600   0.09                4792   3398.59        969.65138     -30392.523      521.1524      -29871.371     -19.752355    
      3800   0.095               4792   3330.6476      1250.0322     -30542.61       671.84692     -29870.763     -20.360847    
      4000   0.1                 4792   3334.0581      1367.2987     -30604.123      734.87341     -29869.25      -21.87454     
      4200   0.105               4792   3272.5075      1203.1033     -30514.978      646.62432     -29868.354     -22.770231    
      4400   0.11                4792   3186.6059      917.24509     -30362.149      492.98592     -29869.163     -21.960583    
      4600   0.115               4792   3168.3059      748.60469     -30272.108      402.34783     -29869.76      -21.364089    
      4800   0.12                4792   3406.9143      840.88088     -30322.923      451.94293     -29870.98      -20.145365    
      5000   0.125               4792   3564.1758      1100.0961     -30462.614      591.26169     -29871.353     -19.772665    
      5200   0.13                4792   3679.7972      1340.5231     -30591.245      720.48251     -29870.763     -20.361651    
      5400   0.135               4792   3420.457       1346.329      -30594.295      723.60293     -29870.692     -20.431726    
      5600   0.14                4792   3501.7905      1137.2878     -30482.349      611.25091     -29871.098     -20.027176    
      5800   0.145               4792   3527.7749      850.46216     -30326.847      457.09252     -29869.754     -21.370844    
      6000   0.15                4792   3416.8348      724.16025     -30258.626      389.20983     -29869.416     -21.709384    
      6200   0.155               4792   3457.8757      869.40238     -30335.96       467.2722      -29868.688     -22.437965    
      6400   0.16                4792   3745.2023      1177.5748     -30501.316      632.90371     -29868.412     -22.714641    
      6600   0.165               4792   3818.1272      1364.3625     -30601.515      733.29531     -29868.219     -22.906675    
      6800   0.17                4792   3606.4278      1272.0499     -30551.794      683.68062     -29868.113     -23.012876    
      7000   0.175               4792   3526.9108      990.09756     -30400.187      532.14148     -29868.046     -23.079176    
      7200   0.18                4792   3588.1768      752.01562     -30273.167      404.18108     -29868.986     -22.138638    
      7400   0.185               4792   3638.274       744.28338     -30269.197      400.02528     -29869.171     -21.952163    
      7600   0.19                4792   3705.1164      971.41265     -30392.263      522.09902     -29870.164     -20.960181    
      7800   0.195               4792   3864.0775      1272.4052     -30553.585      683.87157     -29869.713     -21.411088    
      8000   0.2                 4792   3908.365       1396.2522     -30619.54       750.43487     -29869.105     -22.019856    
      8200   0.205               4792   3913.8217      1217.4428     -30523.77       654.3313      -29869.438     -21.685624    
      8400   0.21                4792   3830.2235      905.23831     -30355.808      486.53272     -29869.276     -21.848019    
      8600   0.215               4792   3804.5202      721.2572      -30256.799      387.64955     -29869.149     -21.974983    
      8800   0.22                4792   3591.9339      808.34128     -30303.076      434.45408     -29868.621     -22.502814    
      9000   0.225               4792   3286.0228      1076.7831     -30447.979      578.73182     -29869.247     -21.877035    
      9200   0.23                4792   3471.126       1328.3489     -30583.575      713.93931     -29869.635     -21.487563    
      9400   0.235               4792   3451.3752      1326.4163     -30582.734      712.9006      -29869.833     -21.289301    
      9600   0.24                4792   3359.4959      1079.9414     -30450.294      580.42926     -29869.865     -21.256905    
      9800   0.245               4792   3196.3123      784.52161     -30291.231      421.65187     -29869.579     -21.542591    
     10000   0.25                4792   3028.869       687.38883     -30239.046      369.44653     -29869.599     -21.521983    
     10200   0.255               4792   3142.1069      866.46368     -30335.215      465.69276     -29869.522     -21.600455    
     10400   0.26                4792   3245.6345      1166.5556     -30496.402      626.98128     -29869.421     -21.702349    
     10600   0.265               4792   3295.5571      1333.2896     -30586.052      716.59474     -29869.458     -21.664828    
     10800   0.27                4792   3454.2764      1246.102      -30539.491      669.73459     -29869.757     -21.364396    
     11000   0.275               4792   3641.0235      980.74074     -30397.102      527.11253     -29869.989     -21.13261     
     11200   0.28                4792   3767.4201      763.19074     -30280.369      410.18731     -29870.181     -20.94153     
     11400   0.285               4792   3638.9963      775.88818     -30286.882      417.01172     -29869.871     -21.251018    
     11600   0.29                4792   3584.0476      1012.0982     -30414.508      543.96602     -29870.542     -20.579977    
     11800   0.295               4792   3671.1816      1284.9927     -30561.1        690.63691     -29870.463     -20.659631    
     12000   0.3                 4792   3608.0643      1361.5509     -30602.436      731.78415     -29870.652     -20.470275    
     12200   0.305               4792   3529.1536      1180.3879     -30505.871      634.41564     -29871.455     -19.665102    
     12400   0.31                4792   3582.9335      902.29313     -30357.581      484.94979     -29872.631     -18.490123    
     12600   0.315               4792   3657.8887      750.29943     -30275.324      403.2587      -29872.065     -19.055675    
     12800   0.32                4792   3594.2156      847.83839     -30328.548      455.68235     -29872.865     -18.255495    
     13000   0.325               4792   3599.1666      1120.0411     -30474.724      601.98143     -29872.743     -18.378463    
     13200   0.33                4792   3710.5406      1353.5799     -30600.991      727.50004     -29873.491     -17.630789    
     13400   0.335               4792   3741.7762      1342.8517     -30595.791      721.73404     -29874.057     -17.06468     
     13600   0.34                4792   3429.1556      1101.4963     -30465.894      592.01426     -29873.88      -17.242412    
     13800   0.345               4792   3348.3412      839.62217     -30325.457      451.26642     -29874.19      -16.93108     
     14000   0.35                4792   3423.9793      770.51323     -30288.315      414.12288     -29874.192     -16.92815     
     14200   0.355               4792   3461.1003      935.65192     -30377.782      502.87893     -29874.903     -16.218309    
     14400   0.36                4792   3526.7683      1223.1873     -30531.571      657.41874     -29874.152     -16.970414    
     14600   0.365               4792   3534.8238      1375.1934     -30613.006      739.11651     -29873.89      -17.232674    
     14800   0.37                4792   3369.1334      1255.4385     -30548.948      674.75262     -29874.195     -16.927767    
     15000   0.375               4792   3116.3456      951.53118     -30385.365      511.41346     -29873.951     -17.171813    
     15200   0.38                4792   3057.522       723.49729     -30263.445      388.85352     -29874.591     -16.531415    
     15400   0.385               4792   3141.5514      731.61627     -30267.908      393.21718     -29874.691     -16.430459    
     15600   0.39                4792   3227.6297      962.13275     -30392.02       517.11141     -29874.908     -16.213216    
     15800   0.395               4792   3333.4756      1222.7405     -30531.972      657.17861     -29874.794     -16.327615    
     16000   0.4                 4792   3664.8681      1323.4613     -30586.737      711.3124      -29875.425     -15.696402    
     16200   0.405               4792   3826.055       1161.5164     -30498.997      624.27286     -29874.724     -16.397149    
     16400   0.41                4792   4001.0495      900.51484     -30358.948      483.99402     -29874.954     -16.167938    
     16600   0.415               4792   3966.7923      759.04171     -30282.453      407.95735     -29874.496     -16.625269    
     16800   0.42                4792   3938.8779      880.00245     -30346.864      472.96936     -29873.895     -17.226015    
     17000   0.425               4792   3637.0147      1133.6517     -30482.698      609.29661     -29873.401     -17.718583    
     17200   0.43                4792   3567.7001      1343.7563     -30595.693      722.22021     -29873.473     -17.647889    
     17400   0.435               4792   3628.8296      1319.6009     -30583.142      709.23757     -29873.904     -17.214715    
     17600   0.44                4792   3686.8202      1084.1501     -30456.389      582.6913      -29873.698     -17.421232    
     17800   0.445               4792   3658.4613      813.10498     -30310.961      437.0144      -29873.947     -17.172357    
     18000   0.45                4792   3556.519       738.03715     -30271.217      396.66817     -29874.548     -16.5709      
     18200   0.455               4792   3487.4522      922.17479     -30370.312      495.63546     -29874.676     -16.442841    
     18400   0.46                4792   3451.6999      1204.2028     -30521.725      647.21527     -29874.51      -16.608641    
     18600   0.465               4792   3451.9753      1338.7619     -30594.244      719.53591     -29874.709     -16.409737    
     18800   0.47                4792   3396.7615      1216.405      -30528.094      653.7735      -29874.321     -16.797656    
     19000   0.475               4792   3463.112       936.03031     -30377.737      503.0823      -29874.655     -16.464125    
     19200   0.48                4792   3518.1978      730.98014     -30267.534      392.87528     -29874.659     -16.45898     
     19400   0.485               4792   3540.6941      756.78344     -30281.435      406.74362     -29874.691     -16.427955    
     19600   0.49                4792   3549.4221      991.00604     -30407.174      532.62976     -29874.545     -16.574076    
     19800   0.495               4792   3470.3498      1235.4067     -30539.145      663.98625     -29875.159     -15.959662    
     20000   0.5                 4792   3304.4259      1286.0559     -30566.549      691.20836     -29875.34      -15.778321    
Loop time of 220.238 on 5 procs for 20000 steps with 4792 atoms

Performance: 0.196 ns/day, 122.355 hours/ns, 90.811 timesteps/s, 435.165 katom-step/s
399.5% CPU use with 1 MPI tasks x 5 OpenMP threads

MPI task timing breakdown:
Section |  min time  |  avg time  |  max time  |%varavg| %total
---------------------------------------------------------------
Pair    | 209.43     | 209.43     | 209.43     |   0.0 | 95.09
Neigh   | 0.30426    | 0.30426    | 0.30426    |   0.0 |  0.14
Comm    | 2.0126     | 2.0126     | 2.0126     |   0.0 |  0.91
Output  | 1.7283     | 1.7283     | 1.7283     |   0.0 |  0.78
Modify  | 6.3958     | 6.3958     | 6.3958     |   0.0 |  2.90
Other   |            | 0.3651     |            |       |  0.17

Nlocal:           4792 ave        4792 max        4792 min
Histogram: 1 0 0 0 0 0 0 0 0 0
Nghost:           7748 ave        7748 max        7748 min
Histogram: 1 0 0 0 0 0 0 0 0 0
Neighs:              0 ave           0 max           0 min
Histogram: 1 0 0 0 0 0 0 0 0 0

Total # of neighbors = 0
Ave neighs/atom = 0
Neighbor list builds = 22
Dangerous builds = 0
undump tr
write_data structures/after_cool_62eV_0p5ps.data
System init for write_data ...
Hybrid pair style last /omp style zbl
Last active /omp style is pair_style zbl
write_restart restart/after_cool_62eV_0p5ps.restart
System init for write_restart ...
Hybrid pair style last /omp style zbl
Last active /omp style is pair_style zbl


Total wall time: 0:03:40
