LAMMPS (30 Sep 2026)
  using 5 OpenMP thread(s) per MPI task
package omp 5
using multi-threaded neighbor list subroutines
units metal
dimension 3
atom_style atomic
boundary p p m
read_data structures/impact_486_62eV_safe.data
Reading data file ...
  triclinic box = (0 0 -10) to (37.285975 32.290601 103.82797) with tilt (-18.642987 0 0)
WARNING: Triclinic box skew is large. LAMMPS will run inefficiently. (src/domain.cpp:214)
  1 by 1 by 1 MPI processor grid
  reading atoms ...
  4791 atoms
  reading velocities ...
  4791 velocities
  read_data CPU = 0.041 seconds
create_atoms 4 single 12.9864744115 25.6118938726 42.000 units box
Created 1 atoms
  using box units in triclinic box = (0 0 -10) to (37.285975 32.290601 103.82797) with tilt (-18.642987 0 0)
  create_atoms CPU = 0.000 seconds
include potentials/potential_stage69.inc
# Stage69 collision-ready candidate potential; no physical run is implied.
# Baseline: Ag EAM + Ti/Si/C TSCBOP + calibrated Ag-interface Morse.
# ZBL is overlaid only in the 0.8-1.5 A short-range window.
pair_style hybrid/overlay eam tersoff morse 8.0 zbl 0.8 1.5
pair_coeff 4 4 eam potentials/Ag_u3.eam
Reading eam potential file potentials/Ag_u3.eam with DATE: 2007-06-11
pair_coeff * * tersoff potentials/TSCBOP.tersoff Ti Si C NULL
pair_coeff 1 4 morse 0.94814194 2.00000000 2.33708864 8.0
pair_coeff 2 4 morse 0.93944948 2.00000000 2.40407837 8.0
pair_coeff 3 4 morse 1.35077230 2.00000000 2.15255924 8.0
pair_coeff 1 4 zbl 22 47
pair_coeff 2 4 zbl 14 47
pair_coeff 3 4 zbl 6 47
pair_coeff 4 4 zbl 47 47
neighbor 2.0 bin
neigh_modify delay 0 every 1 check yes
region sink_region block INF INF INF INF 8.0 18.0 units box
region crater_region cylinder z 9.9573898076 24.2578814220 8.0 12.0 100.0 units box
group projectiles id 4306:4791
486 atoms in group projectiles
group new_projectile id 4792
1 atoms in group new_projectile
group all_projectiles union projectiles new_projectile
487 atoms in group all_projectiles
group fixed_part_01 id 2 3 9 90 2969 3032 81 82 2909 2910 2914 2975 170 250 251 255 256 257 351 356 2921 341 342 352 444 445 516 2924 2933 2992 2998 3003 436 511 517 596 603 604 2934 2939 3006 597 693 698 699 777 2948 3010 3018 3019 766 849 850 859 2953 2954 2955 2958 3022 3024 851 952 953 2963 24 3033 16 17 25 96 97 104 105 106 189 184 190 260 261 269 270 2915 2916 2983 2989 262 357 358 364 2925
90 atoms in group fixed_part_01
group fixed_part_02 id 2926 2993 453 454 523 530 537 626 2935 2999 524 610 611 617 618 708 715 792 2941 2942 778 783 784 785 875 876 882 2949 867 868 869 877 963 970 971 972 2964 23 964 119 120 127 2970 2971 111 112 113 121 203 285 2917 2976 2985 277 286 372 373 380 381 389 475 2984 374 466 470 545 550 2927 2928 2937 538 627 637 638 639 644 2936 3007 628 725 901 2943 2950 3011 3012 3020 883 884 892 893
90 atoms in group fixed_part_02
group fixed_part_03 id 984 985 2956 38 986 2965 3025 3035 39 44 2972 40 128 135 136 2911 2918 2977 2978 210 294 295 299 300 396 406 2986 2987 390 397 398 486 2929 2930 556 557 558 654 655 2938 645 646 656 728 818 2944 2951 3013 3014 729 805 806 807 902 912 913 914 922 2957 3021 43 903 991 2959 2966 3026 3027 60 53 54 61 146 150 151 2913 2973 2980 222 223 224 229 315 316 2912 2920 2979 2991 308 309 407
90 atoms in group fixed_part_03
group fixed_part_04 id 497 2922 2990 2995 408 562 563 573 574 575 2931 2932 3001 564 659 660 667 2945 3008 3009 742 743 750 819 826 827 828 2952 3015 3016 923 924 930 931 932 999 1000 2960 2967 3028 1001 71 75 76 80 163 2974 3036 3037 156 157 158 164 236 2919 2981 2982 237 325 326 327 334 340 431 432 2997 424 425 433 498 504 505 587 2923 3002 499 580 581 582 588 589 675 681 682 692 2940 3005 756 760 765
90 atoms in group fixed_part_04
group fixed_part_05 id 841 842 2946 2947 835 836 837 843 939 946 2962 3023 3031 1 74 1015 2961 2968 3030 4 5 12 91 3105 83 85 94 171 177 181 3110 175 252 254 258 3044 3049 343 346 449 515 518 520 605 607 3063 700 3074 3075 3082 767 769 775 852 863 949 856 954 960 3099 26 3101 98 100 107 3039 3100 3106 185 188 3038 3045 3046 368 459 2994 3050 3051 457 463 531 535 3000 3004 3052 527 619 716 3068 3069
90 atoms in group fixed_part_05
group fixed_part_06 id 710 779 780 786 3076 3083 870 872 965 974 3087 3093 32 35 36 122 3034 3102 114 117 123 206 287 3040 291 375 382 3047 3054 377 467 469 471 472 546 3053 539 540 629 3064 3065 3070 3071 632 721 726 793 802 3077 796 885 894 897 987 3088 3089 3095 989 3094 41 45 3103 129 137 141 3041 3107 298 304 399 3048 391 402 3055 3059 551 554 559 560 3058 3066 3072 647 658 736 740 3078 811 817 904
90 atoms in group fixed_part_06
group fixed_part_07 id 915 918 3090 3096 62 55 59 66 147 152 3108 148 225 226 231 317 3042 310 312 321 409 413 421 2996 3056 487 488 565 576 577 3060 568 668 672 3017 3073 747 820 830 933 3079 3084 823 925 926 3029 3091 3092 3097 1002 1004 72 73 77 3104 3109 166 247 2988 3043 328 331 335 338 434 426 428 500 3057 3061 3062 583 593 676 683 687 3067 679 757 761 844 3080 3081 838 943 947 951 3085 3086 1016
90 atoms in group fixed_part_07
group fixed_part_08 id 1020 1025 3098
3 atoms in group fixed_part_08
group fixed union fixed_part_01 fixed_part_02 fixed_part_03 fixed_part_04 fixed_part_05 fixed_part_06 fixed_part_07 fixed_part_08
633 atoms in group fixed
group sink region sink_region
958 atoms in group sink
group mobile subtract all fixed
4159 atoms in group mobile
group crater region crater_region
375 atoms in group crater
group freezone intersect mobile crater
375 atoms in group freezone
group free_substrate subtract freezone all_projectiles
191 atoms in group free_substrate
group anchored subtract mobile freezone
3784 atoms in group anchored
group bath subtract sink freezone
841 atoms in group bath
velocity new_projectile set 0.0 0.0 -105.31640000
fix hold fixed setforce 0.0 0.0 0.0
fix integrate all nve
fix anchor anchored spring/self 100.0
fix_modify anchor energy yes
fix bathfix bath langevin 300.0 300.0 0.05 624188 zero yes tally yes
compute Tfree free_substrate temp
compute Tmobile mobile temp
timestep 0.000025
thermo 200
thermo_style custom step time atoms c_Tfree c_Tmobile pe ke etotal f_bathfix
thermo_modify flush yes
dump tr all custom 200 dumps/impact_487_62eV_safe.dump id type x y z xu yu zu vx vy vz fx fy fz
dump_modify tr sort id
run 8000
Hybrid pair style last /omp style zbl
Last active /omp style is pair_style zbl
Neighbor list info ...
  update: every = 1 steps, delay = 0 steps, check = yes
  max neighbors/atom: 2000, page size: 100000
  master list distance cutoff = 10
  ghost atom cutoff = 10
  binsize = 5, bins = 12 7 23
  6 neighbor lists, perpetual/occasional/extra = 6 0 0
  (1) pair eam, perpetual, skip from (5)
      attributes: half, newton on, omp
      pair build: skip/omp
      stencil: none
      bin: none
  (2) pair tersoff, perpetual, skip from (6)
      attributes: full, newton on, omp
      pair build: skip/omp
      stencil: none
      bin: none
  (3) pair morse, perpetual, skip from (5)
      attributes: half, newton on, omp
      pair build: skip/omp
      stencil: none
      bin: none
  (4) pair zbl, perpetual, skip from (5)
      attributes: half, newton on, omp
      pair build: skip/omp
      stencil: none
      bin: none
  (5) neighbor class addition, perpetual, half/full from (6)
      attributes: half, newton on, omp
      pair build: halffull/newton/tri/omp
      stencil: none
      bin: none
  (6) neighbor class addition, perpetual
      attributes: full, newton on, omp
      pair build: full/bin/atomonly/omp
      stencil: full/bin/3d
      bin: standard
Per MPI rank memory allocation (min/avg/max) = 25.05 | 25.05 | 25.05 Mbytes
   Step          Time         Atoms       c_Tfree       c_Tmobile        PotEng         KinEng         TotEng       f_bathfix   
         0   0                   4792   4061.4092      1579.9329     -30676.768      849.15653     -29827.612     -0            
       200   0.005               4792   3883.121       1378.962      -30568.557      741.14199     -29827.415     -0.19715289   
       400   0.01                4792   3542.6945      1018.7965     -30372.594      547.56611     -29825.028     -2.5829048    
       600   0.015               4792   3585.5276      791.84581     -30247.191      425.58836     -29821.603     -6.0087322    
       800   0.02                4792   3602.0942      847.15991     -30274.879      455.31768     -29819.562     -8.0490052    
      1000   0.025               4792   3724.9766      1085.3729     -30401.204      583.3485      -29817.856     -9.7553281    
      1200   0.03                4792   3782.783       1349.568      -30541.985      725.3438      -29816.641     -10.971178    
      1400   0.035               4792   3773.5024      1439.4413     -30589.887      773.64745     -29816.24      -11.371443    
      1600   0.04                4792   3780.5392      1227.3113     -30473.6        659.63523     -29813.965     -13.645676    
      1800   0.045               4792   3780.1796      906.58031     -30300.181      487.25399     -29812.927     -14.681812    
      2000   0.05                4792   3922.9548      786.19624     -30234.1        422.55193     -29811.548     -16.061908    
      2200   0.055               4792   4041.6329      952.991       -30322.351      512.19805     -29810.153     -17.457568    
      2400   0.06                4792   3913.4121      1272.7236     -30493.604      684.04269     -29809.561     -18.04924     
      2600   0.065               4792   4064.5995      1481.6048     -30605.385      796.30876     -29809.076     -18.533994    
      2800   0.07                4792   4049.0543      1409.2036     -30565.209      757.39574     -29807.813     -19.796657    
      3000   0.075               4792   3917.0769      1119.2935     -30408.002      601.5796      -29806.422     -21.187748    
      3200   0.08                4792   3860.7179      859.63005     -30268.159      462.01993     -29806.139     -21.472285    
      3400   0.085               4792   3649.0402      826.23876     -30250.322      444.07333     -29806.249     -21.362682    
      3600   0.09                4792   3640.0923      1061.3122     -30376.705      570.41676     -29806.289     -21.322693    
      3800   0.095               4792   3583.2071      1362.5893     -30538.617      732.34226     -29806.274     -21.337334    
      4000   0.1                 4792   3500.2431      1479.6263     -30601.04       795.24541     -29805.794     -21.81701     
      4200   0.105               4792   3357.1509      1309.1994     -30509.255      703.64714     -29805.608     -22.00364     
      4400   0.11                4792   3364.3868      1011.4301     -30348.613      543.60692     -29805.006     -22.604154    
      4600   0.115               4792   3373.8423      817.80756     -30244.491      439.54186     -29804.949     -22.660156    
      4800   0.12                4792   3480.5392      876.64212     -30275.738      471.1633      -29804.575     -23.033954    
      5000   0.125               4792   3842.9581      1142.7503     -30418.984      614.1868      -29804.797     -22.812487    
      5200   0.13                4792   3844.6146      1385.8862     -30549.506      744.8635      -29804.643     -22.96829     
      5400   0.135               4792   3694.1804      1396.8812     -30555.594      750.77293     -29804.821     -22.790597    
      5600   0.14                4792   3473.0757      1173.5436     -30435.298      630.73704     -29804.561     -23.049961    
      5800   0.145               4792   3351.2289      893.45892     -30283.839      480.20172     -29803.638     -23.972767    
      6000   0.15                4792   3485.7009      784.04136     -30225.429      421.39376     -29804.035     -23.576441    
      6200   0.155               4792   3570.4361      940.36136     -30308.71       505.41008     -29803.3       -24.311289    
      6400   0.16                4792   3661.1964      1260.0237     -30480.614      677.217       -29803.397     -24.214135    
      6600   0.165               4792   3969.673       1477.6451     -30596.644      794.18058     -29802.463     -25.148661    
      6800   0.17                4792   4002.6919      1386.8602     -30549.315      745.38701     -29803.928     -23.682328    
      7000   0.175               4792   3761.7754      1075.8763     -30381.98       578.24444     -29803.735     -23.874732    
      7200   0.18                4792   3437.4325      807.94333     -30237.497      434.2402      -29803.257     -24.354112    
      7400   0.185               4792   3353.1773      790.878       -30228.79       425.0682      -29803.722     -23.888791    
      7600   0.19                4792   3516.6759      1032.0647     -30358.485      554.69729     -29803.788     -23.824475    
      7800   0.195               4792   3683.3267      1326.3438     -30516.156      712.86165     -29803.294     -24.317289    
      8000   0.2                 4792   3763.1827      1448.7788     -30581.947      778.666       -29803.281     -24.330162    
Loop time of 88.3074 on 5 procs for 8000 steps with 4792 atoms

Performance: 0.196 ns/day, 122.649 hours/ns, 90.593 timesteps/s, 434.120 katom-step/s
397.8% CPU use with 1 MPI tasks x 5 OpenMP threads

MPI task timing breakdown:
Section |  min time  |  avg time  |  max time  |%varavg| %total
---------------------------------------------------------------
Pair    | 83.836     | 83.836     | 83.836     |   0.0 | 94.94
Neigh   | 0.23146    | 0.23146    | 0.23146    |   0.0 |  0.26
Comm    | 0.80499    | 0.80499    | 0.80499    |   0.0 |  0.91
Output  | 0.7443     | 0.7443     | 0.7443     |   0.0 |  0.84
Modify  | 2.528      | 2.528      | 2.528      |   0.0 |  2.86
Other   |            | 0.1624     |            |       |  0.18

Nlocal:           4792 ave        4792 max        4792 min
Histogram: 1 0 0 0 0 0 0 0 0 0
Nghost:           7757 ave        7757 max        7757 min
Histogram: 1 0 0 0 0 0 0 0 0 0
Neighs:              0 ave           0 max           0 min
Histogram: 1 0 0 0 0 0 0 0 0 0

Total # of neighbors = 0
Ave neighs/atom = 0
Neighbor list builds = 16
Dangerous builds = 0
undump tr
write_data structures/impact_487_62eV_safe.data
System init for write_data ...
Hybrid pair style last /omp style zbl
Last active /omp style is pair_style zbl
write_restart restart/state_after_hit_487_62eV_safe.restart
System init for write_restart ...
Hybrid pair style last /omp style zbl
Last active /omp style is pair_style zbl


Total wall time: 0:01:28
