LAMMPS (30 Sep 2026)
  using 5 OpenMP thread(s) per MPI task
package omp 5
using multi-threaded neighbor list subroutines
units metal
dimension 3
atom_style atomic
boundary p p m
read_data structures/start_after_hit_482.data
Reading data file ...
  triclinic box = (0 0 -10) to (37.285975 32.290601 103.82797) with tilt (-18.642987 0 0)
WARNING: Triclinic box skew is large. LAMMPS will run inefficiently. (src/domain.cpp:214)
  1 by 1 by 1 MPI processor grid
  reading atoms ...
  4787 atoms
  reading velocities ...
  4787 velocities
  read_data CPU = 0.033 seconds
create_atoms 4 single 11.6400763151 23.4057853628 42.000 units box
Created 1 atoms
  using box units in triclinic box = (0 0 -10) to (37.285975 32.290601 103.82797) with tilt (-18.642987 0 0)
  create_atoms CPU = 0.000 seconds
include potentials/potential_stage69.inc
# Stage69 collision-ready candidate potential; no physical run is implied.
# Baseline: Ag EAM + Ti/Si/C TSCBOP + calibrated Ag-interface Morse.
# ZBL is overlaid only in the 0.8-1.5 A short-range window.
pair_style hybrid/overlay eam tersoff morse 8.0 zbl 0.8 1.5
pair_coeff 4 4 eam potentials/Ag_u3.eam
Reading eam potential file potentials/Ag_u3.eam with DATE: 2007-06-11
pair_coeff * * tersoff potentials/TSCBOP.tersoff Ti Si C NULL
pair_coeff 1 4 morse 0.94814194 2.00000000 2.33708864 8.0
pair_coeff 2 4 morse 0.93944948 2.00000000 2.40407837 8.0
pair_coeff 3 4 morse 1.35077230 2.00000000 2.15255924 8.0
pair_coeff 1 4 zbl 22 47
pair_coeff 2 4 zbl 14 47
pair_coeff 3 4 zbl 6 47
pair_coeff 4 4 zbl 47 47
neighbor 2.0 bin
neigh_modify delay 0 every 1 check yes
region sink_region block INF INF INF INF 8.0 18.0 units box
region crater_region cylinder z 9.9573898076 24.2578814220 8.0 12.0 100.0 units box
group projectiles id 4306:4787
482 atoms in group projectiles
group new_projectile id 4788
1 atoms in group new_projectile
group all_projectiles union projectiles new_projectile
483 atoms in group all_projectiles
group fixed_part_01 id 2 3 9 90 2969 3032 81 82 2909 2910 2914 2975 170 250 251 255 256 257 351 356 2921 341 342 352 444 445 516 2924 2933 2992 2998 3003 436 511 517 596 603 604 2934 2939 3006 597 693 698 699 777 2948 3010 3018 3019 766 849 850 859 2953 2954 2955 2958 3022 3024 851 952 953 2963 24 3033 16 17 25 96 97 104 105 106 189 184 190 260 261 269 270 2915 2916 2983 2989 262 357 358 364 2925
90 atoms in group fixed_part_01
group fixed_part_02 id 2926 2993 453 454 523 530 537 626 2935 2999 524 610 611 617 618 708 715 792 2941 2942 778 783 784 785 875 876 882 2949 867 868 869 877 963 970 971 972 2964 23 964 119 120 127 2970 2971 111 112 113 121 203 285 2917 2976 2985 277 286 372 373 380 381 389 475 2984 374 466 470 545 550 2927 2928 2937 538 627 637 638 639 644 2936 3007 628 725 901 2943 2950 3011 3012 3020 883 884 892 893
90 atoms in group fixed_part_02
group fixed_part_03 id 984 985 2956 38 986 2965 3025 3035 39 44 2972 40 128 135 136 2911 2918 2977 2978 210 294 295 299 300 396 406 2986 2987 390 397 398 486 2929 2930 556 557 558 654 655 2938 645 646 656 728 818 2944 2951 3013 3014 729 805 806 807 902 912 913 914 922 2957 3021 43 903 991 2959 2966 3026 3027 60 53 54 61 146 150 151 2913 2973 2980 222 223 224 229 315 316 2912 2920 2979 2991 308 309 407
90 atoms in group fixed_part_03
group fixed_part_04 id 497 2922 2990 2995 408 562 563 573 574 575 2931 2932 3001 564 659 660 667 2945 3008 3009 742 743 750 819 826 827 828 2952 3015 3016 923 924 930 931 932 999 1000 2960 2967 3028 1001 71 75 76 80 163 2974 3036 3037 156 157 158 164 236 2919 2981 2982 237 325 326 327 334 340 431 432 2997 424 425 433 498 504 505 587 2923 3002 499 580 581 582 588 589 675 681 682 692 2940 3005 756 760 765
90 atoms in group fixed_part_04
group fixed_part_05 id 841 842 2946 2947 835 836 837 843 939 946 2962 3023 3031 1 74 1015 2961 2968 3030 4 5 12 91 3105 83 85 94 171 177 181 3110 175 252 254 258 3044 3049 343 346 449 515 518 520 605 607 3063 700 3074 3075 3082 767 769 775 852 863 949 856 954 960 3099 26 3101 98 100 107 3039 3100 3106 185 188 3038 3045 3046 368 459 2994 3050 3051 457 463 531 535 3000 3004 3052 527 619 716 3068 3069
90 atoms in group fixed_part_05
group fixed_part_06 id 710 779 780 786 3076 3083 870 872 965 974 3087 3093 32 35 36 122 3034 3102 114 117 123 206 287 3040 291 375 382 3047 3054 377 467 469 471 472 546 3053 539 540 629 3064 3065 3070 3071 632 721 726 793 802 3077 796 885 894 897 987 3088 3089 3095 989 3094 41 45 3103 129 137 141 3041 3107 298 304 399 3048 391 402 3055 3059 551 554 559 560 3058 3066 3072 647 658 736 740 3078 811 817 904
90 atoms in group fixed_part_06
group fixed_part_07 id 915 918 3090 3096 62 55 59 66 147 152 3108 148 225 226 231 317 3042 310 312 321 409 413 421 2996 3056 487 488 565 576 577 3060 568 668 672 3017 3073 747 820 830 933 3079 3084 823 925 926 3029 3091 3092 3097 1002 1004 72 73 77 3104 3109 166 247 2988 3043 328 331 335 338 434 426 428 500 3057 3061 3062 583 593 676 683 687 3067 679 757 761 844 3080 3081 838 943 947 951 3085 3086 1016
90 atoms in group fixed_part_07
group fixed_part_08 id 1020 1025 3098
3 atoms in group fixed_part_08
group fixed union fixed_part_01 fixed_part_02 fixed_part_03 fixed_part_04 fixed_part_05 fixed_part_06 fixed_part_07 fixed_part_08
633 atoms in group fixed
group sink region sink_region
958 atoms in group sink
group mobile subtract all fixed
4155 atoms in group mobile
group crater region crater_region
374 atoms in group crater
group freezone intersect mobile crater
374 atoms in group freezone
group free_substrate subtract freezone all_projectiles
190 atoms in group free_substrate
group anchored subtract mobile freezone
3781 atoms in group anchored
group bath subtract sink freezone
843 atoms in group bath
velocity new_projectile set 0.0 0.0 -105.31640000
fix hold fixed setforce 0.0 0.0 0.0
fix integrate all nve
fix anchor anchored spring/self 100.0
fix_modify anchor energy yes
fix bathfix bath langevin 300.0 300.0 0.05 624184 zero yes tally yes
compute Tfree free_substrate temp
compute Tmobile mobile temp
timestep 0.000025
thermo 200
thermo_style custom step time atoms c_Tfree c_Tmobile pe ke etotal f_bathfix
thermo_modify flush yes
dump tr all custom 200 dumps/impact_483_62eV_safe.dump id type x y z xu yu zu vx vy vz fx fy fz
dump_modify tr sort id
run 8000
Hybrid pair style last /omp style zbl
Last active /omp style is pair_style zbl
Neighbor list info ...
  update: every = 1 steps, delay = 0 steps, check = yes
  max neighbors/atom: 2000, page size: 100000
  master list distance cutoff = 10
  ghost atom cutoff = 10
  binsize = 5, bins = 12 7 23
  6 neighbor lists, perpetual/occasional/extra = 6 0 0
  (1) pair eam, perpetual, skip from (5)
      attributes: half, newton on, omp
      pair build: skip/omp
      stencil: none
      bin: none
  (2) pair tersoff, perpetual, skip from (6)
      attributes: full, newton on, omp
      pair build: skip/omp
      stencil: none
      bin: none
  (3) pair morse, perpetual, skip from (5)
      attributes: half, newton on, omp
      pair build: skip/omp
      stencil: none
      bin: none
  (4) pair zbl, perpetual, skip from (5)
      attributes: half, newton on, omp
      pair build: skip/omp
      stencil: none
      bin: none
  (5) neighbor class addition, perpetual, half/full from (6)
      attributes: half, newton on, omp
      pair build: halffull/newton/tri/omp
      stencil: none
      bin: none
  (6) neighbor class addition, perpetual
      attributes: full, newton on, omp
      pair build: full/bin/atomonly/omp
      stencil: full/bin/3d
      bin: standard
Per MPI rank memory allocation (min/avg/max) = 25.05 | 25.05 | 25.05 Mbytes
   Step          Time         Atoms       c_Tfree       c_Tmobile        PotEng         KinEng         TotEng       f_bathfix   
         0   0                   4788   3393.7205      1607.9338     -30670.803      863.37468     -29807.429     -0            
       200   0.005               4788   3257.3082      1389.0042     -30552.087      745.82113     -29806.266     -1.1621156    
       400   0.01                4788   3418.5061      1033.7306     -30358.44       555.05819     -29803.382     -4.0454849    
       600   0.015               4788   3205.9747      796.28728     -30227.913      427.56378     -29800.349     -7.0779382    
       800   0.02                4788   3194.2612      889.66374     -30275.876      477.70196     -29798.174     -9.2538759    
      1000   0.025               4788   3496.7539      1193.9539     -30438.323      641.08953     -29797.233     -10.195304    
      1200   0.03                4788   3799.9656      1492.8714     -30597.283      801.59228     -29795.691     -11.737607    
      1400   0.035               4788   3697.5645      1504.1636     -30602.081      807.65558     -29794.426     -13.002837    
      1600   0.04                4788   3281.7827      1242.6763     -30460.905      667.25088     -29793.654     -13.774591    
      1800   0.045               4788   3062.3385      903.86882     -30278.368      485.32933     -29793.039     -14.389577    
      2000   0.05                4788   3095.8049      771.85472     -30205.758      414.4448      -29791.313     -16.11483     
      2200   0.055               4788   3298.9544      948.30844     -30299.123      509.19103     -29789.932     -17.496155    
      2400   0.06                4788   3419.2682      1288.0481     -30480.835      691.6131      -29789.222     -18.206835    
      2600   0.065               4788   3293.03        1485.7097     -30586.664      797.74681     -29788.917     -18.511097    
      2800   0.07                4788   3350.2975      1414.4269     -30547.559      759.4718      -29788.087     -19.341297    
      3000   0.075               4788   3378.234       1130.2439     -30393.94       606.88066     -29787.059     -20.369427    
      3200   0.08                4788   3406.4553      880.44345     -30258.332      472.75115     -29785.581     -21.848265    
      3400   0.085               4788   3334.2524      850.67531     -30242.733      456.76725     -29785.965     -21.463375    
      3600   0.09                4788   3330.3057      1088.3692     -30370.325      584.39621     -29785.929     -21.499994    
      3800   0.095               4788   3345.9154      1397.5183     -30536.769      750.39279     -29786.376     -21.05261     
      4000   0.1                 4788   3385.7414      1534.2026     -30609.929      823.78494     -29786.144     -21.285784    
      4200   0.105               4788   3329.6562      1364.0039     -30518.221      732.39731     -29785.824     -21.606114    
      4400   0.11                4788   3272.0136      1052.1312     -30351.063      564.93832     -29786.124     -21.30561     
      4600   0.115               4788   3203.713       854.44406     -30244.71       458.79087     -29785.92      -21.509819    
      4800   0.12                4788   3223.7587      933.60799     -30287.533      501.29767     -29786.236     -21.19484     
      5000   0.125               4788   3381.6081      1209.7579     -30436.079      649.57545     -29786.503     -20.927655    
      5200   0.13                4788   3467.2945      1467.3882     -30573.592      787.90915     -29785.682     -21.749407    
      5400   0.135               4788   3612.6629      1490.358      -30585.99       800.24271     -29785.747     -21.684538    
      5600   0.14                4788   3591.4432      1248.3216     -30455.379      670.28212     -29785.097     -22.334727    
      5800   0.145               4788   3622.9802      941.63742     -30290.624      505.60905     -29785.015     -22.416353    
      6000   0.15                4788   3703.2472      830.99557     -30230.771      446.20028     -29784.571     -22.860203    
      6200   0.155               4788   3776.1918      1003.0063     -30323.065      538.56085     -29784.504     -22.927856    
      6400   0.16                4788   3602.4904      1310.7734     -30487.991      703.81539     -29784.176     -23.256911    
      6600   0.165               4788   3494.46        1499.388      -30589.032      805.09133     -29783.941     -23.492246    
      6800   0.17                4788   3414.0946      1403.322      -30537.973      753.50901     -29784.464     -22.970337    
      7000   0.175               4788   3428.784       1099.2784     -30374.87       590.25387     -29784.616     -22.817032    
      7200   0.18                4788   3504.019       827.29053     -30228.468      444.21087     -29784.257     -23.175964    
      7400   0.185               4788   4134.86        827.76264     -30228.306      444.46437     -29783.842     -23.591942    
      7600   0.19                4788   4354.3254      1074.377      -30361.114      576.88315     -29784.231     -23.203378    
      7800   0.195               4788   4344.491       1365.6862     -30517.415      733.3006      -29784.115     -23.320599    
      8000   0.2                 4788   4149.1786      1462.4082     -30570.074      785.2352      -29784.839     -22.597507    
Loop time of 87.2431 on 5 procs for 8000 steps with 4788 atoms

Performance: 0.198 ns/day, 121.171 hours/ns, 91.698 timesteps/s, 439.049 katom-step/s
398.6% CPU use with 1 MPI tasks x 5 OpenMP threads

MPI task timing breakdown:
Section |  min time  |  avg time  |  max time  |%varavg| %total
---------------------------------------------------------------
Pair    | 82.981     | 82.981     | 82.981     |   0.0 | 95.11
Neigh   | 0.22122    | 0.22122    | 0.22122    |   0.0 |  0.25
Comm    | 0.68033    | 0.68033    | 0.68033    |   0.0 |  0.78
Output  | 0.79564    | 0.79564    | 0.79564    |   0.0 |  0.91
Modify  | 2.4216     | 2.4216     | 2.4216     |   0.0 |  2.78
Other   |            | 0.1432     |            |       |  0.16

Nlocal:           4788 ave        4788 max        4788 min
Histogram: 1 0 0 0 0 0 0 0 0 0
Nghost:           7750 ave        7750 max        7750 min
Histogram: 1 0 0 0 0 0 0 0 0 0
Neighs:              0 ave           0 max           0 min
Histogram: 1 0 0 0 0 0 0 0 0 0

Total # of neighbors = 0
Ave neighs/atom = 0
Neighbor list builds = 16
Dangerous builds = 0
undump tr
write_data structures/impact_483_62eV_safe.data
System init for write_data ...
Hybrid pair style last /omp style zbl
Last active /omp style is pair_style zbl
write_restart restart/state_after_hit_483_62eV_safe.restart
System init for write_restart ...
Hybrid pair style last /omp style zbl
Last active /omp style is pair_style zbl


Total wall time: 0:01:27
