LAMMPS (30 Sep 2026)
  using 5 OpenMP thread(s) per MPI task
package omp 5
using multi-threaded neighbor list subroutines
units metal
dimension 3
atom_style atomic
boundary p p m
read_data structures/impact_485_62eV_safe.data
Reading data file ...
  triclinic box = (0 0 -10) to (37.285975 32.290601 103.82797) with tilt (-18.642987 0 0)
WARNING: Triclinic box skew is large. LAMMPS will run inefficiently. (src/domain.cpp:214)
  1 by 1 by 1 MPI processor grid
  reading atoms ...
  4790 atoms
  reading velocities ...
  4790 velocities
  read_data CPU = 0.032 seconds
create_atoms 4 single 11.0649076671 26.4130900226 42.000 units box
Created 1 atoms
  using box units in triclinic box = (0 0 -10) to (37.285975 32.290601 103.82797) with tilt (-18.642987 0 0)
  create_atoms CPU = 0.000 seconds
include potentials/potential_stage69.inc
# Stage69 collision-ready candidate potential; no physical run is implied.
# Baseline: Ag EAM + Ti/Si/C TSCBOP + calibrated Ag-interface Morse.
# ZBL is overlaid only in the 0.8-1.5 A short-range window.
pair_style hybrid/overlay eam tersoff morse 8.0 zbl 0.8 1.5
pair_coeff 4 4 eam potentials/Ag_u3.eam
Reading eam potential file potentials/Ag_u3.eam with DATE: 2007-06-11
pair_coeff * * tersoff potentials/TSCBOP.tersoff Ti Si C NULL
pair_coeff 1 4 morse 0.94814194 2.00000000 2.33708864 8.0
pair_coeff 2 4 morse 0.93944948 2.00000000 2.40407837 8.0
pair_coeff 3 4 morse 1.35077230 2.00000000 2.15255924 8.0
pair_coeff 1 4 zbl 22 47
pair_coeff 2 4 zbl 14 47
pair_coeff 3 4 zbl 6 47
pair_coeff 4 4 zbl 47 47
neighbor 2.0 bin
neigh_modify delay 0 every 1 check yes
region sink_region block INF INF INF INF 8.0 18.0 units box
region crater_region cylinder z 9.9573898076 24.2578814220 8.0 12.0 100.0 units box
group projectiles id 4306:4790
485 atoms in group projectiles
group new_projectile id 4791
1 atoms in group new_projectile
group all_projectiles union projectiles new_projectile
486 atoms in group all_projectiles
group fixed_part_01 id 2 3 9 90 2969 3032 81 82 2909 2910 2914 2975 170 250 251 255 256 257 351 356 2921 341 342 352 444 445 516 2924 2933 2992 2998 3003 436 511 517 596 603 604 2934 2939 3006 597 693 698 699 777 2948 3010 3018 3019 766 849 850 859 2953 2954 2955 2958 3022 3024 851 952 953 2963 24 3033 16 17 25 96 97 104 105 106 189 184 190 260 261 269 270 2915 2916 2983 2989 262 357 358 364 2925
90 atoms in group fixed_part_01
group fixed_part_02 id 2926 2993 453 454 523 530 537 626 2935 2999 524 610 611 617 618 708 715 792 2941 2942 778 783 784 785 875 876 882 2949 867 868 869 877 963 970 971 972 2964 23 964 119 120 127 2970 2971 111 112 113 121 203 285 2917 2976 2985 277 286 372 373 380 381 389 475 2984 374 466 470 545 550 2927 2928 2937 538 627 637 638 639 644 2936 3007 628 725 901 2943 2950 3011 3012 3020 883 884 892 893
90 atoms in group fixed_part_02
group fixed_part_03 id 984 985 2956 38 986 2965 3025 3035 39 44 2972 40 128 135 136 2911 2918 2977 2978 210 294 295 299 300 396 406 2986 2987 390 397 398 486 2929 2930 556 557 558 654 655 2938 645 646 656 728 818 2944 2951 3013 3014 729 805 806 807 902 912 913 914 922 2957 3021 43 903 991 2959 2966 3026 3027 60 53 54 61 146 150 151 2913 2973 2980 222 223 224 229 315 316 2912 2920 2979 2991 308 309 407
90 atoms in group fixed_part_03
group fixed_part_04 id 497 2922 2990 2995 408 562 563 573 574 575 2931 2932 3001 564 659 660 667 2945 3008 3009 742 743 750 819 826 827 828 2952 3015 3016 923 924 930 931 932 999 1000 2960 2967 3028 1001 71 75 76 80 163 2974 3036 3037 156 157 158 164 236 2919 2981 2982 237 325 326 327 334 340 431 432 2997 424 425 433 498 504 505 587 2923 3002 499 580 581 582 588 589 675 681 682 692 2940 3005 756 760 765
90 atoms in group fixed_part_04
group fixed_part_05 id 841 842 2946 2947 835 836 837 843 939 946 2962 3023 3031 1 74 1015 2961 2968 3030 4 5 12 91 3105 83 85 94 171 177 181 3110 175 252 254 258 3044 3049 343 346 449 515 518 520 605 607 3063 700 3074 3075 3082 767 769 775 852 863 949 856 954 960 3099 26 3101 98 100 107 3039 3100 3106 185 188 3038 3045 3046 368 459 2994 3050 3051 457 463 531 535 3000 3004 3052 527 619 716 3068 3069
90 atoms in group fixed_part_05
group fixed_part_06 id 710 779 780 786 3076 3083 870 872 965 974 3087 3093 32 35 36 122 3034 3102 114 117 123 206 287 3040 291 375 382 3047 3054 377 467 469 471 472 546 3053 539 540 629 3064 3065 3070 3071 632 721 726 793 802 3077 796 885 894 897 987 3088 3089 3095 989 3094 41 45 3103 129 137 141 3041 3107 298 304 399 3048 391 402 3055 3059 551 554 559 560 3058 3066 3072 647 658 736 740 3078 811 817 904
90 atoms in group fixed_part_06
group fixed_part_07 id 915 918 3090 3096 62 55 59 66 147 152 3108 148 225 226 231 317 3042 310 312 321 409 413 421 2996 3056 487 488 565 576 577 3060 568 668 672 3017 3073 747 820 830 933 3079 3084 823 925 926 3029 3091 3092 3097 1002 1004 72 73 77 3104 3109 166 247 2988 3043 328 331 335 338 434 426 428 500 3057 3061 3062 583 593 676 683 687 3067 679 757 761 844 3080 3081 838 943 947 951 3085 3086 1016
90 atoms in group fixed_part_07
group fixed_part_08 id 1020 1025 3098
3 atoms in group fixed_part_08
group fixed union fixed_part_01 fixed_part_02 fixed_part_03 fixed_part_04 fixed_part_05 fixed_part_06 fixed_part_07 fixed_part_08
633 atoms in group fixed
group sink region sink_region
956 atoms in group sink
group mobile subtract all fixed
4158 atoms in group mobile
group crater region crater_region
373 atoms in group crater
group freezone intersect mobile crater
373 atoms in group freezone
group free_substrate subtract freezone all_projectiles
191 atoms in group free_substrate
group anchored subtract mobile freezone
3785 atoms in group anchored
group bath subtract sink freezone
843 atoms in group bath
velocity new_projectile set 0.0 0.0 -105.31640000
fix hold fixed setforce 0.0 0.0 0.0
fix integrate all nve
fix anchor anchored spring/self 100.0
fix_modify anchor energy yes
fix bathfix bath langevin 300.0 300.0 0.05 624187 zero yes tally yes
compute Tfree free_substrate temp
compute Tmobile mobile temp
timestep 0.000025
thermo 200
thermo_style custom step time atoms c_Tfree c_Tmobile pe ke etotal f_bathfix
thermo_modify flush yes
dump tr all custom 200 dumps/impact_486_62eV_safe.dump id type x y z xu yu zu vx vy vz fx fy fz
dump_modify tr sort id
run 8000
Hybrid pair style last /omp style zbl
Last active /omp style is pair_style zbl
Neighbor list info ...
  update: every = 1 steps, delay = 0 steps, check = yes
  max neighbors/atom: 2000, page size: 100000
  master list distance cutoff = 10
  ghost atom cutoff = 10
  binsize = 5, bins = 12 7 23
  6 neighbor lists, perpetual/occasional/extra = 6 0 0
  (1) pair eam, perpetual, skip from (5)
      attributes: half, newton on, omp
      pair build: skip/omp
      stencil: none
      bin: none
  (2) pair tersoff, perpetual, skip from (6)
      attributes: full, newton on, omp
      pair build: skip/omp
      stencil: none
      bin: none
  (3) pair morse, perpetual, skip from (5)
      attributes: half, newton on, omp
      pair build: skip/omp
      stencil: none
      bin: none
  (4) pair zbl, perpetual, skip from (5)
      attributes: half, newton on, omp
      pair build: skip/omp
      stencil: none
      bin: none
  (5) neighbor class addition, perpetual, half/full from (6)
      attributes: half, newton on, omp
      pair build: halffull/newton/tri/omp
      stencil: none
      bin: none
  (6) neighbor class addition, perpetual
      attributes: full, newton on, omp
      pair build: full/bin/atomonly/omp
      stencil: full/bin/3d
      bin: standard
Per MPI rank memory allocation (min/avg/max) = 25.05 | 25.05 | 25.05 Mbytes
   Step          Time         Atoms       c_Tfree       c_Tmobile        PotEng         KinEng         TotEng       f_bathfix   
         0   0                   4791   3819.3189      1626.7213     -30698.405      874.09336     -29824.311     -0            
       200   0.005               4791   3571.6348      1426.1728     -30588.674      766.33175     -29822.342     -1.9693069    
       400   0.01                4791   3388.099       1079.7268     -30399.421      580.17438     -29819.247     -5.0642192    
       600   0.015               4791   3220.9555      854.32514     -30275.53       459.0583      -29816.471     -7.8393041    
       800   0.02                4791   3244.8467      934.00743     -30316.448      501.87434     -29814.573     -9.7379263    
      1000   0.025               4791   3356.8672      1192.0173     -30453.352      640.51195     -29812.841     -11.471079    
      1200   0.03                4791   3735.3053      1454.1922     -30592.524      781.38755     -29811.137     -13.174856    
      1400   0.035               4791   3869.7173      1490.6496     -30610.611      800.97732     -29809.634     -14.676607    
      1600   0.04                4791   3693.7208      1253.9178     -30482.235      673.77318     -29808.462     -15.848696    
      1800   0.045               4791   3987.1843      935.33822     -30310.625      502.58942     -29808.035     -16.274803    
      2000   0.05                4791   4061.4616      813.25146     -30243.239      436.988       -29806.251     -18.058462    
      2200   0.055               4791   3909.7543      983.50269     -30333.438      528.46985     -29804.969     -19.34097     
      2400   0.06                4791   4102.2047      1331.1182     -30519.426      715.25564     -29804.171     -20.139214    
      2600   0.065               4791   4183.5203      1538.1137     -30631.023      826.48144     -29804.541     -19.769384    
      2800   0.07                4791   3990.1339      1450.8694     -30583.035      779.60207     -29803.433     -20.876805    
      3000   0.075               4791   3697.3898      1134.0182     -30412.446      609.34701     -29803.099     -21.210069    
      3200   0.08                4791   3799.4399      867.75585     -30268.635      466.27509     -29802.36      -21.94944     
      3400   0.085               4791   3992.6582      834.37393     -30249.57       448.33783     -29801.232     -23.078277    
      3600   0.09                4791   3788.6918      1056.5977     -30367.584      567.7463      -29799.838     -24.472304    
      3800   0.095               4791   3540.2824      1347.4457     -30523.427      724.02895     -29799.398     -24.912823    
      4000   0.1                 4791   3497.267       1471.7039     -30590.681      790.79716     -29799.883     -24.427461    
      4200   0.105               4791   3525.8237      1308.6707     -30503.081      703.19382     -29799.887     -24.423312    
      4400   0.11                4791   3657.1405      1008.808      -30341.787      542.06728     -29799.72      -24.590864    
      4600   0.115               4791   3820.9747      816.49356     -30238.325      438.7301      -29799.595     -24.715479    
      4800   0.12                4791   3780.2085      887.25458     -30276.339      476.75243     -29799.586     -24.724765    
      5000   0.125               4791   3748.866       1162.6633     -30424.694      624.739       -29799.955     -24.356291    
      5200   0.13                4791   3678.2353      1416.657      -30561.815      761.21859     -29800.597     -23.71581     
      5400   0.135               4791   3751.8037      1451.3798     -30579.641      779.87634     -29799.764     -24.548952    
      5600   0.14                4791   3635.3554      1222.3665     -30456.217      656.81959     -29799.397     -24.91502     
      5800   0.145               4791   3526.3822      932.02017     -30300.636      500.80652     -29799.83      -24.481875    
      6000   0.15                4791   3623.0894      837.27648     -30250.004      449.89747     -29800.106     -24.204439    
      6200   0.155               4791   3832.2867      1022.7231     -30348.272      549.54434     -29798.728     -25.583123    
      6400   0.16                4791   3804.8705      1325.904      -30511.612      712.45385     -29799.158     -25.152438    
      6600   0.165               4791   3829.2355      1506.218      -30608.743      809.3428      -29799.401     -24.910491    
      6800   0.17                4791   3892.2992      1416.6516     -30559.858      761.21565     -29798.642     -25.668544    
      7000   0.175               4791   3900.5264      1117.8862     -30399.717      600.67871     -29799.038     -25.272229    
      7200   0.18                4791   4027.1282      852.82114     -30256.417      458.25015     -29798.167     -26.143679    
      7400   0.185               4791   4210.8263      834.16314     -30245.96       448.22457     -29797.735     -26.574464    
      7600   0.19                4791   4305.6854      1069.1287     -30372.204      574.47963     -29797.724     -26.585354    
      7800   0.195               4791   4187.3447      1361.3189     -30528.683      731.4835      -29797.2       -27.110321    
      8000   0.2                 4791   4089.7418      1464.926      -30584.758      787.15515     -29797.603     -26.707109    
Loop time of 88.5788 on 5 procs for 8000 steps with 4791 atoms

Performance: 0.195 ns/day, 123.026 hours/ns, 90.315 timesteps/s, 432.700 katom-step/s
399.5% CPU use with 1 MPI tasks x 5 OpenMP threads

MPI task timing breakdown:
Section |  min time  |  avg time  |  max time  |%varavg| %total
---------------------------------------------------------------
Pair    | 83.921     | 83.921     | 83.921     |   0.0 | 94.74
Neigh   | 0.318      | 0.318      | 0.318      |   0.0 |  0.36
Comm    | 0.74129    | 0.74129    | 0.74129    |   0.0 |  0.84
Output  | 0.79015    | 0.79015    | 0.79015    |   0.0 |  0.89
Modify  | 2.6909     | 2.6909     | 2.6909     |   0.0 |  3.04
Other   |            | 0.1176     |            |       |  0.13

Nlocal:           4791 ave        4791 max        4791 min
Histogram: 1 0 0 0 0 0 0 0 0 0
Nghost:           7757 ave        7757 max        7757 min
Histogram: 1 0 0 0 0 0 0 0 0 0
Neighs:              0 ave           0 max           0 min
Histogram: 1 0 0 0 0 0 0 0 0 0

Total # of neighbors = 0
Ave neighs/atom = 0
Neighbor list builds = 18
Dangerous builds = 0
undump tr
write_data structures/impact_486_62eV_safe.data
System init for write_data ...
Hybrid pair style last /omp style zbl
Last active /omp style is pair_style zbl
write_restart restart/state_after_hit_486_62eV_safe.restart
System init for write_restart ...
Hybrid pair style last /omp style zbl
Last active /omp style is pair_style zbl


Total wall time: 0:01:28
