LAMMPS (30 Sep 2026)
  using 5 OpenMP thread(s) per MPI task
package omp 5
using multi-threaded neighbor list subroutines
units metal
dimension 3
atom_style atomic
boundary p p m
read_data structures/impact_484_62eV_safe.data
Reading data file ...
  triclinic box = (0 0 -10) to (37.285975 32.290601 103.82797) with tilt (-18.642987 0 0)
WARNING: Triclinic box skew is large. LAMMPS will run inefficiently. (src/domain.cpp:214)
  1 by 1 by 1 MPI processor grid
  reading atoms ...
  4789 atoms
  reading velocities ...
  4789 velocities
  read_data CPU = 0.038 seconds
create_atoms 4 single 6.5902157282 25.7499038364 42.000 units box
Created 1 atoms
  using box units in triclinic box = (0 0 -10) to (37.285975 32.290601 103.82797) with tilt (-18.642987 0 0)
  create_atoms CPU = 0.000 seconds
include potentials/potential_stage69.inc
# Stage69 collision-ready candidate potential; no physical run is implied.
# Baseline: Ag EAM + Ti/Si/C TSCBOP + calibrated Ag-interface Morse.
# ZBL is overlaid only in the 0.8-1.5 A short-range window.
pair_style hybrid/overlay eam tersoff morse 8.0 zbl 0.8 1.5
pair_coeff 4 4 eam potentials/Ag_u3.eam
Reading eam potential file potentials/Ag_u3.eam with DATE: 2007-06-11
pair_coeff * * tersoff potentials/TSCBOP.tersoff Ti Si C NULL
pair_coeff 1 4 morse 0.94814194 2.00000000 2.33708864 8.0
pair_coeff 2 4 morse 0.93944948 2.00000000 2.40407837 8.0
pair_coeff 3 4 morse 1.35077230 2.00000000 2.15255924 8.0
pair_coeff 1 4 zbl 22 47
pair_coeff 2 4 zbl 14 47
pair_coeff 3 4 zbl 6 47
pair_coeff 4 4 zbl 47 47
neighbor 2.0 bin
neigh_modify delay 0 every 1 check yes
region sink_region block INF INF INF INF 8.0 18.0 units box
region crater_region cylinder z 9.9573898076 24.2578814220 8.0 12.0 100.0 units box
group projectiles id 4306:4789
484 atoms in group projectiles
group new_projectile id 4790
1 atoms in group new_projectile
group all_projectiles union projectiles new_projectile
485 atoms in group all_projectiles
group fixed_part_01 id 2 3 9 90 2969 3032 81 82 2909 2910 2914 2975 170 250 251 255 256 257 351 356 2921 341 342 352 444 445 516 2924 2933 2992 2998 3003 436 511 517 596 603 604 2934 2939 3006 597 693 698 699 777 2948 3010 3018 3019 766 849 850 859 2953 2954 2955 2958 3022 3024 851 952 953 2963 24 3033 16 17 25 96 97 104 105 106 189 184 190 260 261 269 270 2915 2916 2983 2989 262 357 358 364 2925
90 atoms in group fixed_part_01
group fixed_part_02 id 2926 2993 453 454 523 530 537 626 2935 2999 524 610 611 617 618 708 715 792 2941 2942 778 783 784 785 875 876 882 2949 867 868 869 877 963 970 971 972 2964 23 964 119 120 127 2970 2971 111 112 113 121 203 285 2917 2976 2985 277 286 372 373 380 381 389 475 2984 374 466 470 545 550 2927 2928 2937 538 627 637 638 639 644 2936 3007 628 725 901 2943 2950 3011 3012 3020 883 884 892 893
90 atoms in group fixed_part_02
group fixed_part_03 id 984 985 2956 38 986 2965 3025 3035 39 44 2972 40 128 135 136 2911 2918 2977 2978 210 294 295 299 300 396 406 2986 2987 390 397 398 486 2929 2930 556 557 558 654 655 2938 645 646 656 728 818 2944 2951 3013 3014 729 805 806 807 902 912 913 914 922 2957 3021 43 903 991 2959 2966 3026 3027 60 53 54 61 146 150 151 2913 2973 2980 222 223 224 229 315 316 2912 2920 2979 2991 308 309 407
90 atoms in group fixed_part_03
group fixed_part_04 id 497 2922 2990 2995 408 562 563 573 574 575 2931 2932 3001 564 659 660 667 2945 3008 3009 742 743 750 819 826 827 828 2952 3015 3016 923 924 930 931 932 999 1000 2960 2967 3028 1001 71 75 76 80 163 2974 3036 3037 156 157 158 164 236 2919 2981 2982 237 325 326 327 334 340 431 432 2997 424 425 433 498 504 505 587 2923 3002 499 580 581 582 588 589 675 681 682 692 2940 3005 756 760 765
90 atoms in group fixed_part_04
group fixed_part_05 id 841 842 2946 2947 835 836 837 843 939 946 2962 3023 3031 1 74 1015 2961 2968 3030 4 5 12 91 3105 83 85 94 171 177 181 3110 175 252 254 258 3044 3049 343 346 449 515 518 520 605 607 3063 700 3074 3075 3082 767 769 775 852 863 949 856 954 960 3099 26 3101 98 100 107 3039 3100 3106 185 188 3038 3045 3046 368 459 2994 3050 3051 457 463 531 535 3000 3004 3052 527 619 716 3068 3069
90 atoms in group fixed_part_05
group fixed_part_06 id 710 779 780 786 3076 3083 870 872 965 974 3087 3093 32 35 36 122 3034 3102 114 117 123 206 287 3040 291 375 382 3047 3054 377 467 469 471 472 546 3053 539 540 629 3064 3065 3070 3071 632 721 726 793 802 3077 796 885 894 897 987 3088 3089 3095 989 3094 41 45 3103 129 137 141 3041 3107 298 304 399 3048 391 402 3055 3059 551 554 559 560 3058 3066 3072 647 658 736 740 3078 811 817 904
90 atoms in group fixed_part_06
group fixed_part_07 id 915 918 3090 3096 62 55 59 66 147 152 3108 148 225 226 231 317 3042 310 312 321 409 413 421 2996 3056 487 488 565 576 577 3060 568 668 672 3017 3073 747 820 830 933 3079 3084 823 925 926 3029 3091 3092 3097 1002 1004 72 73 77 3104 3109 166 247 2988 3043 328 331 335 338 434 426 428 500 3057 3061 3062 583 593 676 683 687 3067 679 757 761 844 3080 3081 838 943 947 951 3085 3086 1016
90 atoms in group fixed_part_07
group fixed_part_08 id 1020 1025 3098
3 atoms in group fixed_part_08
group fixed union fixed_part_01 fixed_part_02 fixed_part_03 fixed_part_04 fixed_part_05 fixed_part_06 fixed_part_07 fixed_part_08
633 atoms in group fixed
group sink region sink_region
957 atoms in group sink
group mobile subtract all fixed
4157 atoms in group mobile
group crater region crater_region
372 atoms in group crater
group freezone intersect mobile crater
372 atoms in group freezone
group free_substrate subtract freezone all_projectiles
189 atoms in group free_substrate
group anchored subtract mobile freezone
3785 atoms in group anchored
group bath subtract sink freezone
844 atoms in group bath
velocity new_projectile set 0.0 0.0 -105.31640000
fix hold fixed setforce 0.0 0.0 0.0
fix integrate all nve
fix anchor anchored spring/self 100.0
fix_modify anchor energy yes
fix bathfix bath langevin 300.0 300.0 0.05 624186 zero yes tally yes
compute Tfree free_substrate temp
compute Tmobile mobile temp
timestep 0.000025
thermo 200
thermo_style custom step time atoms c_Tfree c_Tmobile pe ke etotal f_bathfix
thermo_modify flush yes
dump tr all custom 200 dumps/impact_485_62eV_safe.dump id type x y z xu yu zu vx vy vz fx fy fz
dump_modify tr sort id
run 8000
Hybrid pair style last /omp style zbl
Last active /omp style is pair_style zbl
Neighbor list info ...
  update: every = 1 steps, delay = 0 steps, check = yes
  max neighbors/atom: 2000, page size: 100000
  master list distance cutoff = 10
  ghost atom cutoff = 10
  binsize = 5, bins = 12 7 23
  6 neighbor lists, perpetual/occasional/extra = 6 0 0
  (1) pair eam, perpetual, skip from (5)
      attributes: half, newton on, omp
      pair build: skip/omp
      stencil: none
      bin: none
  (2) pair tersoff, perpetual, skip from (6)
      attributes: full, newton on, omp
      pair build: skip/omp
      stencil: none
      bin: none
  (3) pair morse, perpetual, skip from (5)
      attributes: half, newton on, omp
      pair build: skip/omp
      stencil: none
      bin: none
  (4) pair zbl, perpetual, skip from (5)
      attributes: half, newton on, omp
      pair build: skip/omp
      stencil: none
      bin: none
  (5) neighbor class addition, perpetual, half/full from (6)
      attributes: half, newton on, omp
      pair build: halffull/newton/tri/omp
      stencil: none
      bin: none
  (6) neighbor class addition, perpetual
      attributes: full, newton on, omp
      pair build: full/bin/atomonly/omp
      stencil: full/bin/3d
      bin: standard
Per MPI rank memory allocation (min/avg/max) = 25.05 | 25.05 | 25.05 Mbytes
   Step          Time         Atoms       c_Tfree       c_Tmobile        PotEng         KinEng         TotEng       f_bathfix   
         0   0                   4790   3778.7742      1567.1388     -30665.707      841.87504     -29823.832     -0            
       200   0.005               4790   3745.218       1380.4749     -30564.048      741.59824     -29822.449     -1.3820844    
       400   0.01                4790   3651.5762      1033.0995     -30373.707      554.98641     -29818.72      -5.1113339    
       600   0.015               4790   3585.7414      804.45816     -30247.101      432.15908     -29814.942     -8.8897468    
       800   0.02                4790   3502.6799      871.07873     -30281.038      467.94799     -29813.09      -10.741809    
      1000   0.025               4790   3272.7009      1122.3024     -30414.211      602.90662     -29811.305     -12.527485    
      1200   0.03                4790   3262.8028      1389.2998     -30555.909      746.33901     -29809.57      -14.262139    
      1400   0.035               4790   3362.38        1413.3343     -30567.523      759.25046     -29808.273     -15.558744    
      1600   0.04                4790   3476.9902      1190.7103     -30447.879      639.65572     -29808.223     -15.60844     
      1800   0.045               4790   3492.5864      882.73796     -30280.629      474.21139     -29806.418     -17.41292     
      2000   0.05                4790   3468.7735      767.21464     -30217.012      412.15166     -29804.86      -18.971544    
      2200   0.055               4790   3491.5412      951.36288     -30315.403      511.07705     -29804.326     -19.50616     
      2400   0.06                4790   3488.0618      1290.8557     -30497.055      693.45434     -29803.601     -20.231125    
      2600   0.065               4790   3481.2097      1492.6969     -30604.904      801.88447     -29803.019     -20.813438    
      2800   0.07                4790   3568.5256      1412.6017     -30561.961      758.85692     -29803.104     -20.729376    
      3000   0.075               4790   3359.7578      1100.5428     -30393.961      591.21728     -29802.744     -21.088876    
      3200   0.08                4790   3410.019       844.06666     -30255.763      453.43697     -29802.326     -21.507882    
      3400   0.085               4790   3565.5984      832.72725     -30248.994      447.34538     -29801.648     -22.185005    
      3600   0.09                4790   3630.885       1067.7995     -30375.463      573.62741     -29801.835     -21.998025    
      3800   0.095               4790   3620.2481      1368.5999     -30535.871      735.21893     -29800.652     -23.180918    
      4000   0.1                 4790   3589.129       1490.49       -30600.305      800.69893     -29799.606     -24.22668     
      4200   0.105               4790   3633.5059      1325.3422     -30511.787      711.98065     -29799.806     -24.027353    
      4400   0.11                4790   3778.7787      1033.9068     -30355.077      555.42008     -29799.657     -24.176175    
      4600   0.115               4790   4016.8775      859.02967     -30260.647      461.47517     -29799.172     -24.661864    
      4800   0.12                4790   4129.0837      941.06101     -30305.33       505.54283     -29799.787     -24.047512    
      5000   0.125               4790   4243.1774      1226.8185     -30458.664      659.05325     -29799.611     -24.224175    
      5200   0.13                4790   4192.5152      1482.8151     -30596.512      796.57593     -29799.936     -23.898405    
      5400   0.135               4790   4061.9645      1495.422      -30603.174      803.34843     -29799.825     -24.010709    
      5600   0.14                4790   3886.9243      1251.7837     -30472.168      672.46468     -29799.703     -24.133007    
      5800   0.145               4790   3702.7216      943.26995     -30306.22       506.72949     -29799.49      -24.344252    
      6000   0.15                4790   3730.9129      823.5942      -30241.339      442.43906     -29798.9       -24.933585    
      6200   0.155               4790   3592.6001      964.56851     -30317.611      518.17118     -29799.44      -24.39401     
      6400   0.16                4790   3614.7492      1256.0287     -30474.728      674.74512     -29799.983     -23.852413    
      6600   0.165               4790   3531.6953      1446.0142     -30577.011      776.80628     -29800.205     -23.629419    
      6800   0.17                4790   3578.3699      1373.7814     -30539.295      738.00249     -29801.293     -22.542208    
      7000   0.175               4790   3722.3444      1095.2994     -30389.115      588.4005      -29800.714     -23.120161    
      7200   0.18                4790   3875.4311      858.38293     -30261.756      461.12774     -29800.628     -23.204813    
      7400   0.185               4790   3919.4958      858.36139     -30262.274      461.11617     -29801.158     -22.675016    
      7600   0.19                4790   3963.254       1107.545      -30396.205      594.97888     -29801.226     -22.606083    
      7800   0.195               4790   4029.2422      1413.4712     -30561.297      759.32402     -29801.973     -21.860191    
      8000   0.2                 4790   3890.0994      1511.698      -30614.305      812.09198     -29802.213     -21.62083     
Loop time of 87.8855 on 5 procs for 8000 steps with 4790 atoms

Performance: 0.197 ns/day, 122.063 hours/ns, 91.028 timesteps/s, 436.022 katom-step/s
399.1% CPU use with 1 MPI tasks x 5 OpenMP threads

MPI task timing breakdown:
Section |  min time  |  avg time  |  max time  |%varavg| %total
---------------------------------------------------------------
Pair    | 83.632     | 83.632     | 83.632     |   0.0 | 95.16
Neigh   | 0.28973    | 0.28973    | 0.28973    |   0.0 |  0.33
Comm    | 0.71135    | 0.71135    | 0.71135    |   0.0 |  0.81
Output  | 0.71805    | 0.71805    | 0.71805    |   0.0 |  0.82
Modify  | 2.4182     | 2.4182     | 2.4182     |   0.0 |  2.75
Other   |            | 0.1162     |            |       |  0.13

Nlocal:           4790 ave        4790 max        4790 min
Histogram: 1 0 0 0 0 0 0 0 0 0
Nghost:           7750 ave        7750 max        7750 min
Histogram: 1 0 0 0 0 0 0 0 0 0
Neighs:              0 ave           0 max           0 min
Histogram: 1 0 0 0 0 0 0 0 0 0

Total # of neighbors = 0
Ave neighs/atom = 0
Neighbor list builds = 18
Dangerous builds = 0
undump tr
write_data structures/impact_485_62eV_safe.data
System init for write_data ...
Hybrid pair style last /omp style zbl
Last active /omp style is pair_style zbl
write_restart restart/state_after_hit_485_62eV_safe.restart
System init for write_restart ...
Hybrid pair style last /omp style zbl
Last active /omp style is pair_style zbl


Total wall time: 0:01:27
