32
Lattice="28.373244997441823 -5.228439678057898e-06 0.11265358847449992 5.6867270678791697e-07 3.0777657855652616 -3.8327478616707181e-07 -0.021172479839407045 -6.3738233562786805e-07 5.3325594490009696" Properties=species:S:1:pos:R:3 pbc="T T T"
Si 6.8533733799999998 1.5388818200000001 2.6934809899999999
Si 6.8427868600000004 -1.72e-06 5.3597663000000004
Ti -0.017598590000000001 1.5388904999999999 4.4324178500000002
Ti -0.0070119700000000002 7.9999999999999996e-06 1.7661396899999999
C 1.0865943600000001 1.53888782 0.88915774999999997
C 1.0760083199999999 4.78e-06 3.5554389400000002
Ti 2.3701711099999998 1.5388826799999999 2.6756839100000001
Ti 2.3595842999999999 -5.7999999999999995e-07 5.3419630900000001
C 3.6537520400000001 1.53887716 4.4622050900000003
C 3.6643388899999998 3.0777602800000001 1.7959262199999999
Ti 4.7579509599999996 1.53887453 0.91894469999999995
Ti 4.7473658700000003 3.0777571500000001 3.58522549
Ti 8.9487867899999998 1.53888885 4.4680181299999999
Ti 8.9593734099999995 6.3500000000000002e-06 1.8017399700000001
C 10.05297974 1.5388861700000001 0.92475803000000001
C 10.0423937 3.1300000000000001e-06 3.5910392199999999
Ti 11.3365565 1.53888103 2.7112841900000002
Ti 11.32596968 -2.2299999999999998e-06 5.3775633699999998
C 12.620137420000001 1.53887551 4.49780537
C 12.63072427 3.0777586299999999 1.83152651
Ti 13.72433635 1.53887288 0.95454497999999999
Ti 13.71375126 3.0777554899999999 3.6208257700000002
Ag 16.024318650000001 1.5388724499999999 0.96367687000000002
Ag 16.013732699999998 3.0777550300000001 3.6299564000000002
Ag 18.389191669999999 3.0777550200000001 0.084292290000000006
Ag 18.378605149999999 1.5388718100000001 2.7505722000000001
Ag 20.732891639999998 1.53887116 4.5374675399999997
Ag 20.743478169999999 3.0777543700000001 1.8711876199999999
Ag 23.097764659999999 3.07775372 3.6580829499999998
Ag 23.10835062 1.5388711500000001 0.99180341999999999
Ag 25.462637109999999 1.5388705 2.7786987600000002
Ag 25.473223640000001 3.0777537100000001 0.11241884000000001
