49
Lattice="28 0 0 0 28 0 0 0 28" Properties=species:S:1:pos:R:3:PW_PBE_forces:R:3:lammps_id:I:1:central_pair:I:1 pbc="T T T" PW_PBE_energy_eV=-174.20498687339932 config_type=AgTi_residual_mode_p_03_v19_acq
C 13.89902107 12.906671660000001 9.5709330799999996 -1.7038744770331824 2.5374349037107953 0.27827200981522465 478831 0
Ti 12.623045250000001 14.702277840000001 8.7462090499999992 1.33080579648886 -0.88642874246832204 3.9292005872369486 478840 0
Si 16.746639139999999 14.99666412 9.0558805299999996 -0.72273100099070098 -0.90316617198994265 1.3909320004473251 478841 0
C 13.77615718 16.766598299999998 9.4620553199999993 -3.9604129157572223 0.20923779247091487 0.80621085879979182 478844 0
Ti 12.49439364 12.82858132 11.260962920000001 0.93490765367533413 -1.148106275025516 -1.4566211264142694 479021 0
Ti 12.567875288755154 14.264527409012034 13.884021163435261 1.841269016206283 3.1021673219088837 2.9521732431430863 479027 1
Ti 13.273336909999999 17.522761330000002 13.675254089999999 -0.056927005036795209 0.38920077707225897 -1.1761436874874012 479028 0
C 12.1940607 16.00730532 12.986992669999999 -1.1213165887181626 -0.44207926251287799 0.17657724681475065 479030 0
C 11.92979276 17.83928667 10.046082419999999 3.5260646540391787 -2.3434086594734569 -0.89516477669026984 479031 0
C 11.14030857 11.609802869999999 10.51944505 -1.1567604653131336 0.80737580455624947 2.2272380361737971 480798 0
Ti 9.6736502699999996 11.73672021 12.529495020000001 4.1554572145654216 -0.95699634427415492 0.0062851432631002577 480801 0
C 10.41266283 9.5877510899999994 13.768942190000001 0.043603695186977584 1.506855788598918 3.1550711699039717 480802 0
C 11.378042781244845 12.994919380987966 13.320308666564738 -2.7504118886254725 -1.6701884179744182 -1.0279290952316931 480805 0
C 11.267799119999999 14.20441406 10.34350882 1.0154136966914793 0.41147008071417818 -0.46666413397532225 480807 0
Ti 10.632778800000001 14.68120764 12.237934660000001 -1.4756802116520777 -0.13128147312328439 -0.84255432833318122 480810 0
Ti 11.15181567 17.428988919999998 11.878558870000001 -0.066833806822552855 0.46526125050791944 -1.3325495732073567 480811 0
Ti 10.574901390000001 16.472631159999999 14.345468009999999 1.2468989824546455 -0.25072379615084023 -0.11423674497724395 480812 0
C 11.98467917 18.760624029999999 12.897438790000001 0.58623422727831453 -0.86612038930429758 1.044580318485858 480813 0
C 10.74527181 9.3489891800000002 15.9214108 -0.14634381133706517 1.9632792007120172 -3.7835837732423689 480974 0
C 10.58950093 11.909053309999999 16.64358691 -0.20704391718076023 1.439171500468152 -2.0333814985928731 480975 0
Ti 9.9301422000000006 13.54071165 15.286486099999999 2.0855257325059613 -2.0665478047329517 0.077677190486626677 480980 0
Ag 13.67921387 12.13477149 14.08448967 0.75620524683292567 -1.9337695958256771 0.010307359975373725 682693 0
Ag 19.771039909999999 16.261726800000002 16.143252759999999 -0.3681262742641816 -0.11731867030595124 -0.12509961326020755 685396 0
Ag 17.73061775 16.247441240000001 14.080841120000001 0.070122797384500127 0.3647235389107597 -0.17094769772777166 685467 0
Ag 15.720285499999999 12.12319346 16.136603099999999 -0.2248291903121179 -0.21972268143264984 0.36113203882239892 686309 0
Ag 17.740757169999998 14.198114869999999 16.152679249999998 0.34073549392674585 -0.067902430439644765 0.22277238305814095 686324 0
Ag 15.70543632 10.080474069999999 14.08505358 0.033125691486622894 0.011145302463423561 0.02482247189981281 686418 0
Ag 19.767999710000002 14.204316390000001 14.08329543 -0.37127646297387734 0.16124570892929635 0.15178136315228946 686622 0
Ag 17.739871449999999 16.24230202 18.182478010000001 -0.13675609191900492 0.012350296812329589 -0.23167668611714962 686899 0
Ag 17.73652607 10.091777479999999 16.14439265 -0.28553682179290535 0.35685133801731433 -0.16971136401806255 687243 0
Ag 15.812579039999999 14.17927572 14.099601939999999 -0.83301876234488792 0.28453441627694775 -0.070358776647271262 687247 1
Ag 15.72219692 16.251379109999998 16.15723208 -0.44054000774716634 0.21764430519558048 -0.19451742521347412 688096 0
Ag 17.751729220000001 10.082533209999999 12.04485225 -0.29430567138459229 0.4537309423701793 0.092501477555243183 688280 0
Ag 15.70875603 14.18728606 18.197136199999999 -0.1784218844837365 -0.10242208735596275 -0.092823066456448874 688689 0
Ag 17.712738000000002 18.295811390000001 16.150006520000002 -0.078594802561578914 -0.24492785364762551 -0.026689927505618671 688707 0
Ag 17.75143735 12.13238003 14.0878443 0.30502241297279531 -0.26629281812006128 -0.04866965159309334 689682 0
Ag 13.68170587 16.241764700000001 18.171511769999999 -0.00049918615283112415 -0.32959145791545708 -0.21928439011220002 690927 0
Ag 15.70634649 18.295776740000001 18.200046010000001 0.097168980211956274 -0.31443345837986686 -0.28906202774624862 691757 0
Ag 13.67617624 12.157985869999999 18.191721820000001 -0.053844343561779341 0.25730509184590383 -0.49497320386166721 694331 0
Ag 17.73960348 12.131728949999999 18.182194689999999 -0.27365859530481101 0.16154008703302505 -0.43609742350986758 696686 0
Ag 13.676647150000001 10.08304979 16.153009969999999 -0.48095421722229753 0.28313744269978014 -0.2258652859581731 700223 0
Ag 11.656620759999999 14.188131820000001 18.202379059999998 0.17728341077785043 -0.37467715387908818 -0.79403107438915421 701905 0
Ag 17.721458460000001 18.299821380000001 12.03659182 -0.22250497993762064 -0.54364415349036888 0.38963914843332392 703736 0
Ag 15.703665320000001 16.254363690000002 12.04745982 0.026941120083112769 -0.086499151802668012 -0.42885553467742316 704767 0
Ag 17.743981529999999 14.1868669 12.02973371 -0.049302938823601011 0.048786048279748792 -0.7052818221657382 716228 0
Ag 15.715982820000001 12.152855690000001 12.02298661 -0.42030175955232596 -0.05192245645957163 -0.53200314441432239 720990 0
Ag 13.675762799999999 18.301032459999998 16.127509490000001 -0.010872881672398508 -0.19689223992842633 0.62842621751980032 721910 0
Ag 17.74565333 12.136605680000001 9.9761591599999999 -0.3963519541893496 0.68991890439333914 0.31733291748310322 728014 0
Ag 13.675519059999999 10.08412807 12.017907510000001 -0.083238620259089596 0.37931765074753537 0.14594172225032798 741114 0
