52
Lattice="6.1150000000000002 0 0 -3.0574999999999988 5.2957453441418432 0 0 0 34.205876500000002" Properties=species:S:1:pos:R:3:PW_PBE_forces:R:3:lammps_id:I:1:central_pair:I:1 pbc="T T T" PW_PBE_energy_eV=-390.4887512514004 config_type=AgSi_COD9009647_pilot_k5x5_sigma0p20
Ti 0 0 10.388251500000001 1.2829487940041359e-05 1.1869880850199907e-05 0.1668147098957122 19101000 0
Ti 0 0 19.200001499999999 -9.1314623481205358e-05 -0.00011416434030211857 -0.027246052148397034 19101001 0
Ti 1.5287652899999999 0.88261540000000005 12.77623575 -0.00031170730232351989 0.00014357954298425322 -0.20292922143047812 19101002 0
Ti 0 1.7652308000000001 21.587985750000001 0.010046786239938543 0.0075171740578648203 -0.031393513629181732 19101003 0
Ti 1.5287500000000001 0.88264187999999999 16.81201725 -0.00047074360094748299 -0.00056072885921960446 0.023238835042328574 19101004 0
Ti -1.5290000000000001e-05 1.76525727 8.0002672500000003 0.00022042378161076396 -0.00014650447663847843 0.5267958683231142 19101005 0
Si 0 0 14.794126500000001 0.00012558487914050189 6.6328706257212997e-05 0.047078016798554771 19101006 0
Si 0 0 23.605876500000001 0.042554610578325422 0.021559198929565919 0.90495110751263619 19101007 1
C -1.5290000000000001e-05 1.76525727 11.6606682 0.00029094122627825879 -0.00014859785298092096 0.13683071358402868 19101008 0
C 1.5287500000000001 0.88264187999999999 20.4724182 -0.0024667117229781634 -0.0018352391218568616 0.085801486895035681 19101009 0
C 0 1.7652308000000001 17.927584800000002 0.0006320791215999389 0.00085769304103500989 -0.090231906394381015 19101010 0
C 1.5287652899999999 0.88261540000000005 9.1158348 -0.00022949493922723227 0.00013814558271125173 -0.89838639813349697 19101011 0
Ti -1.5287500000000001 2.6478726699999999 10.388251500000001 1.2616110040079712e-05 1.2269046225701957e-05 0.16681442377038114 19101012 0
Ti -1.5287500000000001 2.6478726699999999 19.200001499999999 -9.0850206257644657e-05 -0.00011457181040291094 -0.02724558895320257 19101013 0
Ti 1.5290000000000001e-05 3.5304880700000001 12.77623575 -0.00031190240683733766 0.00014456996958609635 -0.20292988144900301 19101014 0
Ti -1.5287500000000001 4.4131034700000003 21.587985750000001 0.010047248379515135 0.0075173743762648659 -0.031393111998626662 19101015 0
Ti 0 3.5305145499999999 16.81201725 -0.00047091960910530681 -0.00056113842910441452 0.023238622560842501 19101016 0
Ti -1.5287652899999999 4.4131299500000001 8.0002672500000003 0.00022052239122374558 -0.00014601581188457968 0.52679615398119506 19101017 0
Si -1.5287500000000001 2.6478726699999999 14.794126500000001 0.00012559818843640579 6.6175457261049685e-05 0.047078127010288275 19101018 0
Si -1.5287500000000001 2.6478726699999999 23.605876500000001 0.042554598780761621 0.021559235789789865 0.90495095706582063 19101019 0
C -1.5287652899999999 4.4131299500000001 11.6606682 0.00029092864814916523 -0.00014852719180410718 0.13683063659286757 19101020 0
C 0 3.5305145499999999 20.4724182 -0.0024666235339968132 -0.0018353257127880238 0.085801634291872098 19101021 0
C -1.5287500000000001 4.4131034700000003 17.927584800000002 0.00063230433327941165 0.00085814578686771871 -0.090231708143189301 19101022 0
C 1.5290000000000001e-05 3.5304880700000001 9.1158348 -0.00022910603869431316 0.00013908357248234088 -0.89838622816752478 19101023 0
Ti 3.0575000000000001 0 10.388251500000001 1.2837768124216577e-05 1.1862904597193546e-05 0.16681471709380982 19101024 0
Ti 3.0575000000000001 0 19.200001499999999 -9.1319934615289591e-05 -0.00011415698105489459 -0.027246039388528858 19101025 0
Ti 4.58626529 0.88261540000000005 12.77623575 -0.00031171481656469747 0.00014358595715447021 -0.20292936076388174 19101026 0
Ti 3.0575000000000001 1.7652308000000001 21.587985750000001 0.010046802501707289 0.0075171619512538722 -0.031393584315006849 19101027 0
Ti 4.5862499999999997 0.88264187999999999 16.81201725 -0.00047072770882064388 -0.00056073662941073636 0.023238942658994753 19101028 0
Ti 3.0574847100000002 1.76525727 8.0002672500000003 0.00022036837577218288 -0.00014651248337068171 0.52679623491061045 19101029 0
Si 3.0575000000000001 0 14.794126500000001 0.00012558792685071245 6.6328914349185795e-05 0.047078012116742923 19101030 0
Si 3.0575000000000001 0 23.605876500000001 0.042554622720110714 0.021559197971328176 0.90495112258208432 19101031 0
C 3.0574847100000002 1.76525727 11.6606682 0.00029094841651841207 -0.0001485970657921229 0.13683071972552407 19101032 0
C 4.5862499999999997 0.88264187999999999 20.4724182 -0.002466665146721456 -0.0018352172171070594 0.085801481922830325 19101033 0
C 3.0575000000000001 1.7652308000000001 17.927584800000002 0.00063208549408971392 0.00085771479875320733 -0.090231928293624142 19101034 0
C 4.58626529 0.88261540000000005 9.1158348 -0.00022944591843425329 0.00013814956873023146 -0.89838641072492409 19101035 0
Ti 1.5287500000000001 2.6478726699999999 10.388251500000001 1.2607299353934387e-05 1.2275253305428589e-05 0.16681442266619073 19101036 0
Ti 1.5287500000000001 2.6478726699999999 19.200001499999999 -9.0860635376087363e-05 -0.00011456575947834428 -0.027245577555174479 19101037 0
Ti 3.05751529 3.5304880700000001 12.77623575 -0.00031190438131050205 0.00014457994431894445 -0.20292989115161639 19101038 0
Ti 1.5287500000000001 4.4131034700000003 21.587985750000001 0.010047212100833793 0.0075173752493170494 -0.031393147640368782 19101039 0
Ti 3.0575000000000001 3.5305145499999999 16.81201725 -0.000470921229492681 -0.00056114829456862397 0.023238563447540175 19101040 0
Ti 1.5287347099999999 4.4131299500000001 8.0002672500000003 0.00022053676131527126 -0.00014608523978106361 0.52679623011054666 19101041 0
Si 1.5287500000000001 2.6478726699999999 14.794126500000001 0.00012559833250234419 6.6176497267644242e-05 0.047078143512995087 19101042 0
Si 1.5287500000000001 2.6478726699999999 23.605876500000001 0.042554616741339354 0.02155923441393115 0.90495097777593825 19101043 0
C 1.5287347099999999 4.4131299500000001 11.6606682 0.00029092862159469659 -0.00014852442911566298 0.13683063649782365 19101044 0
C 3.0575000000000001 3.5305145499999999 20.4724182 -0.0024665871146328858 -0.0018352988902618234 0.085801615721946389 19101045 0
C 1.5287500000000001 4.4131034700000003 17.927584800000002 0.00063234250119544846 0.0008581569686611257 -0.090231712151131724 19101046 0
C 3.05751529 3.5304880700000001 9.1158348 -0.0002291025478429306 0.00013911047691232911 -0.89838621275645147 19101047 0
Ag 0.81023750000000005 0.55605325999999999 26.205876499999999 -0.050113918567389698 -0.027248016403086394 -0.64043016067361092 19101048 1
Ag -0.7185125 3.20392593 26.205876499999999 -0.050117393859495464 -0.027249871731837013 -0.64042822996702764 19101049 0
Ag 3.8677375000000001 0.55605325999999999 26.205876499999999 -0.050112816913010734 -0.027250149759711132 -0.64043094947680734 19101050 0
Ag 2.3389875 3.20392593 26.205876499999999 -0.050118083349507098 -0.027251703101173287 -0.64042947429714903 19101051 0
