48
Lattice="6.1150000000000002 0 0 -3.0574999999999988 5.2957453441418432 0 0 0 17.6235" Properties=species:S:1:pos:R:3:PW_PBE_forces:R:3:local_new_id:I:1 pbc="T T T" PW_PBE_energy_eV=-389.81772378142352 config_type=Ti3SiC2_baseline_k6x6x2_v19
Ti 0 0 0 0 0 0 1
Ti 0 0 8.81175 0 0 0 2
Ti 1.5287652899999999 0.88261540000000005 2.3879842500000001 0.0074473315832123323 -0.0042938054870753821 -0.032977711161480648 3
Ti 0 1.7652308000000001 11.199734250000001 -0.0077399049121808965 0.004799940143028948 -0.033020710514347039 4
Ti 1.5287500000000001 0.88264187999999999 6.4237657500000003 0.0077399048971589961 -0.004799990852413236 0.033020714790784216 5
Ti -1.5290000000000001e-05 1.76525727 15.235515749999999 -0.0074473315427311549 0.0042938772159423402 0.032977717300514929 6
Si 0 0 4.405875 -0.0031939842452952403 0.001853645497422848 3.1849245824598328e-06 7
Si 0 0 13.217625 0.0031939842452952403 -0.001853645497422848 -3.1849245824598328e-06 8
C -1.5290000000000001e-05 1.76525727 1.2724167 -0.0041469885316751023 0.0023992091846165979 0.084022322011048506 9
C 1.5287500000000001 0.88264187999999999 10.084166700000001 0.0045136690425643397 -0.0030326200290299765 0.084001744301407014 10
C 0 1.7652308000000001 7.5393333 -0.0045136690134669304 0.0030325748335167223 -0.084001737833553997 11
C 1.5287652899999999 0.88261540000000005 16.351083299999999 0.0041469885081405426 -0.0023991454886518691 -0.084022312867968116 12
Ti -1.5287500000000001 2.6478726699999999 0 0 0 0 13
Ti -1.5287500000000001 2.6478726699999999 8.81175 0 0 0 14
Ti 1.5290000000000001e-05 3.5304880700000001 2.3879842500000001 0.0074473315425544629 -0.0042938772159295292 -0.03297771730098048 15
Ti -1.5287500000000001 4.4131034700000003 11.199734250000001 -0.0077399048969005804 0.0047999908525054816 -0.033020714791506582 16
Ti 0 3.5305145499999999 6.4237657500000003 0.0077399049126710955 -0.0047999401432920388 0.033020710515401196 17
Ti -1.5287652899999999 4.4131299500000001 15.235515749999999 -0.0074473315839997077 0.0042938054877593845 0.032977711161936478 18
Si -1.5287500000000001 2.6478726699999999 4.405875 -0.0031939842637216621 0.001853645967616764 3.1695739229176231e-06 19
Si -1.5287500000000001 2.6478726699999999 13.217625 0.0031939842637216621 -0.001853645967616764 -3.1695739229176231e-06 20
C -1.5287652899999999 4.4131299500000001 1.2724167 -0.0041469885090439293 0.0023991454884715654 0.084022312868349019 21
C 0 3.5305145499999999 10.084166700000001 0.0045136690137216051 -0.0030325748331669527 0.084001737833968249 22
C -1.5287500000000001 4.4131034700000003 7.5393333 -0.0045136690409415519 0.0030326200281737816 -0.084001744301983039 23
C 1.5290000000000001e-05 3.5304880700000001 16.351083299999999 0.0041469885321946363 -0.0023992091844299047 -0.084022322011096578 24
Ti 3.0575000000000001 0 0 0 0 0 25
Ti 3.0575000000000001 0 8.81175 0 0 0 26
Ti 4.58626529 0.88261540000000005 2.3879842500000001 0.0074473315839997077 -0.0042938054877593845 -0.032977711161936478 27
Ti 3.0575000000000001 1.7652308000000001 11.199734250000001 -0.0077399049126710955 0.0047999401432920388 -0.033020710515401196 28
Ti 4.5862499999999997 0.88264187999999999 6.4237657500000003 0.0077399048969005804 -0.0047999908525054816 0.033020714791506582 29
Ti 3.0574847100000002 1.76525727 15.235515749999999 -0.0074473315425544629 0.0042938772159295292 0.03297771730098048 30
Si 3.0575000000000001 0 4.405875 -0.0031939842450860213 0.0018536454973570094 3.1849246822967179e-06 31
Si 3.0575000000000001 0 13.217625 0.0031939842450860213 -0.0018536454973570094 -3.1849246822967179e-06 32
C 3.0574847100000002 1.76525727 1.2724167 -0.0041469885321946363 0.0023992091844299047 0.084022322011096578 33
C 4.5862499999999997 0.88264187999999999 10.084166700000001 0.0045136690409415519 -0.0030326200281737816 0.084001744301983039 34
C 3.0575000000000001 1.7652308000000001 7.5393333 -0.0045136690137216051 0.0030325748331669527 -0.084001737833968249 35
C 4.58626529 0.88261540000000005 16.351083299999999 0.0041469885090439293 -0.0023991454884715654 -0.084022312868349019 36
Ti 1.5287500000000001 2.6478726699999999 0 0 0 0 37
Ti 1.5287500000000001 2.6478726699999999 8.81175 0 0 0 38
Ti 3.05751529 3.5304880700000001 2.3879842500000001 0.0074473315427311549 -0.0042938772159423402 -0.032977717300514929 39
Ti 1.5287500000000001 4.4131034700000003 11.199734250000001 -0.0077399048971589961 0.004799990852413236 -0.033020714790784216 40
Ti 3.0575000000000001 3.5305145499999999 6.4237657500000003 0.0077399049121808965 -0.004799940143028948 0.033020710514347039 41
Ti 1.5287347099999999 4.4131299500000001 15.235515749999999 -0.0074473315832123323 0.0042938054870753821 0.032977711161480648 42
Si 1.5287500000000001 2.6478726699999999 4.405875 -0.0031939842638938169 0.001853645967518308 3.1695738690140892e-06 43
Si 1.5287500000000001 2.6478726699999999 13.217625 0.0031939842638938169 -0.001853645967518308 -3.1695738690140892e-06 44
C 1.5287347099999999 4.4131299500000001 1.2724167 -0.0041469885081405426 0.0023991454886518691 0.084022312867968116 45
C 3.0575000000000001 3.5305145499999999 10.084166700000001 0.0045136690134669304 -0.0030325748335167223 0.084001737833553997 46
C 1.5287500000000001 4.4131034700000003 7.5393333 -0.0045136690425643397 0.0030326200290299765 -0.084001744301407014 47
C 3.05751529 3.5304880700000001 16.351083299999999 0.0041469885316751023 -0.0023992091846165979 -0.084022322011048506 48
