32
Lattice="8.1799999999999997 0 0 0.040899999999999999 8.1799999999999997 0 0 0 8.1799999999999997" Properties=species:S:1:pos:R:3:PW_PBE_forces:R:3:local_new_id:I:1 pbc="T T T" PW_PBE_energy_eV=-91.443575990812093 config_type=Ag_shear_p005_k6x6x6_v19
Ag 0 0 0 0 0 0 1
Ag 0.010225 2.0449999999999999 2.0449999999999999 7.1916441674791967e-06 2.2742480731438012e-05 2.2912785438912701e-05 2
Ag 2.0449999999999999 0 2.0449999999999999 2.2522136662894962e-05 7.1384121636170181e-06 2.403801396349301e-05 3
Ag 2.0552250000000001 2.0449999999999999 0 2.2525378943000434e-05 2.3915941504916046e-05 0 4
Ag 0 0 4.0899999999999999 0 0 0 5
Ag 0.010225 2.0449999999999999 6.1349999999999998 7.1916441674791967e-06 2.2742480731438012e-05 -2.2912785438912701e-05 6
Ag 2.0449999999999999 0 6.1349999999999998 2.2522136662894962e-05 7.1384121636170181e-06 -2.403801396349301e-05 7
Ag 2.0552250000000001 2.0449999999999999 4.0899999999999999 -3.8957268123620296e-06 -4.7818163191760915e-06 0 8
Ag 0.020449999999999999 4.0899999999999999 0 0 0 0 9
Ag 0.030675000000000001 6.1349999999999998 2.0449999999999999 -7.1916441674791967e-06 -2.2742480731438012e-05 2.2912785438912704e-05 10
Ag 2.0654499999999998 4.0899999999999999 2.0449999999999999 -5.4944978453167304e-06 -6.7013760334322821e-06 -6.7069250256304108e-06 11
Ag 2.0756749999999999 6.1349999999999998 0 2.3655076806521094e-05 -2.4953059258681149e-05 0 12
Ag 0.020449999999999999 4.0899999999999999 4.0899999999999999 0 0 0 13
Ag 0.030675000000000001 6.1349999999999998 6.1349999999999998 -7.1916441674791967e-06 -2.2742480731438012e-05 -2.2912785438912701e-05 14
Ag 2.0654499999999998 4.0899999999999999 6.1349999999999998 -5.4944978453167304e-06 -6.7013760334322821e-06 6.7069250256304108e-06 15
Ag 2.0756749999999999 6.1349999999999998 4.0899999999999999 -7.679019556057898e-06 8.3403291210337759e-06 0 16
Ag 4.0899999999999999 0 0 0 0 0 17
Ag 4.100225 2.0449999999999999 2.0449999999999999 -6.812332641758203e-06 -5.1949044619113177e-06 -5.5704223034347517e-06 18
Ag 6.1349999999999998 0 2.0449999999999999 -2.2522136662894962e-05 -7.1384121636170189e-06 2.403801396349301e-05 19
Ag 6.1452249999999999 2.0449999999999999 0 -2.365507680652109e-05 2.4953059258681143e-05 0 20
Ag 4.0899999999999999 0 4.0899999999999999 0 0 0 21
Ag 4.100225 2.0449999999999999 6.1349999999999998 -6.812332641758203e-06 -5.1949044619113185e-06 5.5704223034347517e-06 22
Ag 6.1349999999999998 0 6.1349999999999998 -2.2522136662894962e-05 -7.1384121636170189e-06 -2.403801396349301e-05 23
Ag 6.1452249999999999 2.0449999999999999 4.0899999999999999 7.679019556057898e-06 -8.3403291210337759e-06 0 24
Ag 4.1104500000000002 4.0899999999999999 0 0 0 0 25
Ag 4.1206750000000003 6.1349999999999998 2.0449999999999999 6.812332641758203e-06 5.1949044619113177e-06 -5.5704223034347517e-06 26
Ag 6.1554500000000001 4.0899999999999999 2.0449999999999999 5.4944978453167304e-06 6.7013760334322821e-06 -6.7069250256304108e-06 27
Ag 6.1656750000000002 6.1349999999999998 0 -2.2525378943000438e-05 -2.3915941504916046e-05 0 28
Ag 4.1104500000000002 4.0899999999999999 4.0899999999999999 0 0 0 29
Ag 4.1206750000000003 6.1349999999999998 6.1349999999999998 6.812332641758203e-06 5.1949044619113185e-06 5.5704223034347517e-06 30
Ag 6.1554500000000001 4.0899999999999999 6.1349999999999998 5.4944978453167304e-06 6.7013760334322821e-06 6.7069250256304108e-06 31
Ag 6.1656750000000002 6.1349999999999998 4.0899999999999999 3.8957268123620296e-06 4.7818163191760915e-06 0 32
