LAMMPS (30 Sep 2026)
  using 5 OpenMP thread(s) per MPI task
package omp 5
using multi-threaded neighbor list subroutines
units metal
dimension 3
atom_style atomic
boundary p p m
read_data structures/state_current.data
Reading data file ...
  triclinic box = (0 0 -10) to (37.285975 32.290601 102.88073) with tilt (-18.642987 0 0)
WARNING: Triclinic box skew is large. LAMMPS will run inefficiently. (src/domain.cpp:214)
  1 by 1 by 1 MPI processor grid
  reading atoms ...
  4770 atoms
  reading velocities ...
  4770 velocities
  read_data CPU = 0.032 seconds
create_atoms 4 single 6.6810405777 20.9416452647 60.0 units box
Created 1 atoms
  using box units in triclinic box = (0 0 -10) to (37.285975 32.290601 102.88073) with tilt (-18.642987 0 0)
  create_atoms CPU = 0.000 seconds
include potentials/potential_stage69.inc
# Stage69 collision-ready candidate potential; no physical run is implied.
# Baseline: Ag EAM + Ti/Si/C TSCBOP + calibrated Ag-interface Morse.
# ZBL is overlaid only in the 0.8-1.5 A short-range window.
pair_style hybrid/overlay eam tersoff morse 8.0 zbl 0.8 1.5
pair_coeff 4 4 eam potentials/Ag_u3.eam
Reading eam potential file potentials/Ag_u3.eam with DATE: 2007-06-11
pair_coeff * * tersoff potentials/TSCBOP.tersoff Ti Si C NULL
pair_coeff 1 4 morse 0.94814194 2.00000000 2.33708864 8.0
pair_coeff 2 4 morse 0.93944948 2.00000000 2.40407837 8.0
pair_coeff 3 4 morse 1.35077230 2.00000000 2.15255924 8.0
pair_coeff 1 4 zbl 22 47
pair_coeff 2 4 zbl 14 47
pair_coeff 3 4 zbl 6 47
pair_coeff 4 4 zbl 47 47
neighbor 2.0 bin
neigh_modify delay 0 every 1 check yes
region sink_region block INF INF INF INF 8.0 18.0 units box
region crater_region cylinder z 9.9573898076 24.2578814220 8.0 12.0 100.0 units box
group projectiles id 4306:4770
465 atoms in group projectiles
group new_projectile id 4771
1 atoms in group new_projectile
group all_projectiles union projectiles new_projectile
466 atoms in group all_projectiles
group fixed_part_01 id 2 3 9 90 2969 3032 81 82 2909 2910 2914 2975 170 250 251 255 256 257 351 356 2921 341 342 352 444 445 516 2924 2933 2992 2998 3003 436 511 517 596 603 604 2934 2939 3006 597 693 698 699 777 2948 3010 3018 3019 766 849 850 859 2953 2954 2955 2958 3022 3024 851 952 953 2963 24 3033 16 17 25 96 97 104 105 106 189 184 190 260 261 269 270 2915 2916 2983 2989 262 357 358 364 2925
90 atoms in group fixed_part_01
group fixed_part_02 id 2926 2993 453 454 523 530 537 626 2935 2999 524 610 611 617 618 708 715 792 2941 2942 778 783 784 785 875 876 882 2949 867 868 869 877 963 970 971 972 2964 23 964 119 120 127 2970 2971 111 112 113 121 203 285 2917 2976 2985 277 286 372 373 380 381 389 475 2984 374 466 470 545 550 2927 2928 2937 538 627 637 638 639 644 2936 3007 628 725 901 2943 2950 3011 3012 3020 883 884 892 893
90 atoms in group fixed_part_02
group fixed_part_03 id 984 985 2956 38 986 2965 3025 3035 39 44 2972 40 128 135 136 2911 2918 2977 2978 210 294 295 299 300 396 406 2986 2987 390 397 398 486 2929 2930 556 557 558 654 655 2938 645 646 656 728 818 2944 2951 3013 3014 729 805 806 807 902 912 913 914 922 2957 3021 43 903 991 2959 2966 3026 3027 60 53 54 61 146 150 151 2913 2973 2980 222 223 224 229 315 316 2912 2920 2979 2991 308 309 407
90 atoms in group fixed_part_03
group fixed_part_04 id 497 2922 2990 2995 408 562 563 573 574 575 2931 2932 3001 564 659 660 667 2945 3008 3009 742 743 750 819 826 827 828 2952 3015 3016 923 924 930 931 932 999 1000 2960 2967 3028 1001 71 75 76 80 163 2974 3036 3037 156 157 158 164 236 2919 2981 2982 237 325 326 327 334 340 431 432 2997 424 425 433 498 504 505 587 2923 3002 499 580 581 582 588 589 675 681 682 692 2940 3005 756 760 765
90 atoms in group fixed_part_04
group fixed_part_05 id 841 842 2946 2947 835 836 837 843 939 946 2962 3023 3031 1 74 1015 2961 2968 3030 4 5 12 91 3105 83 85 94 171 177 181 3110 175 252 254 258 3044 3049 343 346 449 515 518 520 605 607 3063 700 3074 3075 3082 767 769 775 852 863 949 856 954 960 3099 26 3101 98 100 107 3039 3100 3106 185 188 3038 3045 3046 368 459 2994 3050 3051 457 463 531 535 3000 3004 3052 527 619 716 3068 3069
90 atoms in group fixed_part_05
group fixed_part_06 id 710 779 780 786 3076 3083 870 872 965 974 3087 3093 32 35 36 122 3034 3102 114 117 123 206 287 3040 291 375 382 3047 3054 377 467 469 471 472 546 3053 539 540 629 3064 3065 3070 3071 632 721 726 793 802 3077 796 885 894 897 987 3088 3089 3095 989 3094 41 45 3103 129 137 141 3041 3107 298 304 399 3048 391 402 3055 3059 551 554 559 560 3058 3066 3072 647 658 736 740 3078 811 817 904
90 atoms in group fixed_part_06
group fixed_part_07 id 915 918 3090 3096 62 55 59 66 147 152 3108 148 225 226 231 317 3042 310 312 321 409 413 421 2996 3056 487 488 565 576 577 3060 568 668 672 3017 3073 747 820 830 933 3079 3084 823 925 926 3029 3091 3092 3097 1002 1004 72 73 77 3104 3109 166 247 2988 3043 328 331 335 338 434 426 428 500 3057 3061 3062 583 593 676 683 687 3067 679 757 761 844 3080 3081 838 943 947 951 3085 3086 1016
90 atoms in group fixed_part_07
group fixed_part_08 id 1020 1025 3098
3 atoms in group fixed_part_08
group fixed union fixed_part_01 fixed_part_02 fixed_part_03 fixed_part_04 fixed_part_05 fixed_part_06 fixed_part_07 fixed_part_08
633 atoms in group fixed
group sink region sink_region
954 atoms in group sink
group mobile subtract all fixed
4138 atoms in group mobile
group crater region crater_region
384 atoms in group crater
group freezone intersect mobile crater
384 atoms in group freezone
group free_substrate subtract freezone all_projectiles
195 atoms in group free_substrate
group anchored subtract mobile freezone
3754 atoms in group anchored
group bath subtract sink freezone
842 atoms in group bath
velocity new_projectile set 0.0 0.0 -105.3164
fix hold fixed setforce 0.0 0.0 0.0
fix integrate all nve
fix anchor anchored spring/self 100.0
fix_modify anchor energy yes
fix bathfix bath langevin 300.0 300.0 0.05 624166 zero yes tally yes
compute Tfree free_substrate temp
compute Tmobile mobile temp
timestep 0.000025
thermo 200
thermo_style custom step time atoms c_Tfree c_Tmobile pe ke etotal f_bathfix
thermo_modify flush yes
dump tr all custom 100 dumps/impact_466_dt025.dump id type x y z xu yu zu vx vy vz fx fy fz
dump_modify tr sort id
run 8000
Hybrid pair style last /omp style zbl
Last active /omp style is pair_style zbl
Neighbor list info ...
  update: every = 1 steps, delay = 0 steps, check = yes
  max neighbors/atom: 2000, page size: 100000
  master list distance cutoff = 10
  ghost atom cutoff = 10
  binsize = 5, bins = 12 7 23
  6 neighbor lists, perpetual/occasional/extra = 6 0 0
  (1) pair eam, perpetual, skip from (5)
      attributes: half, newton on, omp
      pair build: skip/omp
      stencil: none
      bin: none
  (2) pair tersoff, perpetual, skip from (6)
      attributes: full, newton on, omp
      pair build: skip/omp
      stencil: none
      bin: none
  (3) pair morse, perpetual, skip from (5)
      attributes: half, newton on, omp
      pair build: skip/omp
      stencil: none
      bin: none
  (4) pair zbl, perpetual, skip from (5)
      attributes: half, newton on, omp
      pair build: skip/omp
      stencil: none
      bin: none
  (5) neighbor class addition, perpetual, half/full from (6)
      attributes: half, newton on, omp
      pair build: halffull/newton/tri/omp
      stencil: none
      bin: none
  (6) neighbor class addition, perpetual
      attributes: full, newton on, omp
      pair build: full/bin/atomonly/omp
      stencil: full/bin/3d
      bin: standard
Per MPI rank memory allocation (min/avg/max) = 24.67 | 24.67 | 24.67 Mbytes
   Step          Time         Atoms       c_Tfree       c_Tmobile        PotEng         KinEng         TotEng       f_bathfix   
         0   0                   4771   3068.4658      1726.919      -30578.29       923.4686      -29654.821     -0            
       200   0.005               4771   3028.2098      1510.3194     -30461.469      807.64212     -29653.827     -0.99371618   
       400   0.01                4771   3383.6         1170.1343     -30275.214      625.72839     -29649.486     -5.3348917    
       600   0.015               4771   3391.5072      939.70016     -30147.986      502.50393     -29645.482     -9.3380513    
       800   0.02                4771   3265.5976      1009.3019     -30183.389      539.72343     -29643.666     -11.153835    
      1000   0.025               4771   3144.7146      1259.4509     -30315.963      673.49041     -29642.472     -12.346877    
      1200   0.03                4771   3095.6704      1549.8641     -30469.769      828.7886      -29640.981     -13.838217    
      1400   0.035               4771   3234.1377      1624.9188     -30508.684      868.92405     -29639.76      -15.059944    
      1600   0.04                4771   3328.0693      1410.2007     -30393.123      754.10372     -29639.019     -15.800378    
      1800   0.045               4771   3604.7844      1078.5769     -30214.622      576.76814     -29637.853     -16.966227    
      2000   0.05                4771   3436.3476      938.09286     -30137.997      501.64443     -29636.353     -18.466401    
      2200   0.055               4771   3423.941       1117.8952     -30233.762      597.79359     -29635.968     -18.851905    
      2400   0.06                4771   3282.8497      1445.0562     -30409.065      772.74268     -29636.322     -18.498249    
      2600   0.065               4771   3091.2663      1628.7447     -30507.106      870.96996     -29636.136     -18.683935    
      2800   0.07                4771   3209.1531      1530.9235     -30454.797      818.66014     -29636.136     -18.683529    
      3000   0.075               4771   3203.5768      1216.2739     -30285.662      650.40151     -29635.26      -19.5586      
      3200   0.08                4771   3223.3513      984.83285     -30162.064      526.6386      -29635.426     -19.39289     
      3400   0.085               4771   3147.2396      984.8817      -30162.151      526.66472     -29635.486     -19.333135    
      3600   0.09                4771   3032.1028      1227.0338     -30291.455      656.15535     -29635.299     -19.520704    
      3800   0.095               4771   3069.7678      1533.2042     -30454.732      819.87972     -29634.852     -19.967559    
      4000   0.1                 4771   3110.4754      1634.829      -30508.395      874.22355     -29634.172     -20.648736    
      4200   0.105               4771   3293.1203      1437.4639     -30403.182      768.68271     -29634.5       -20.321031    
      4400   0.11                4771   3426.2848      1165.7507     -30257.152      623.38426     -29633.768     -21.052065    
      4600   0.115               4771   3486.6793      964.5417      -30149.183      515.78792     -29633.395     -21.425345    
      4800   0.12                4771   3656.4935      1016.0706     -30176.666      543.34294     -29633.323     -21.497819    
      5000   0.125               4771   3561.7746      1265.8514     -30310.58       676.91307     -29633.667     -21.154534    
      5200   0.13                4771   3466.3893      1496.5899     -30433.482      800.30028     -29633.182     -21.639604    
      5400   0.135               4771   3503.4723      1506.4383     -30438.309      805.56672     -29632.743     -22.079661    
      5600   0.14                4771   3498.5818      1273.5824     -30314.128      681.04722     -29633.081     -21.741152    
      5800   0.145               4771   3442.3528      987.55153     -30160.545      528.09241     -29632.452     -22.36916     
      6000   0.15                4771   3335.4113      889.92729     -30108.666      475.88792     -29632.778     -22.044169    
      6200   0.155               4771   3364.5108      1065.1097     -30202.973      569.56658     -29633.407     -21.41612     
      6400   0.16                4771   3392.8053      1364.0334     -30362.742      729.41582     -29633.327     -21.495857    
      6600   0.165               4771   3547.0444      1541.1428     -30456.826      824.1249      -29632.701     -22.122336    
      6800   0.17                4771   3225.0261      1426.7278     -30395.505      762.94156     -29632.564     -22.258991    
      7000   0.175               4771   2910.0898      1125.8984     -30233.525      602.07327     -29631.452     -23.371678    
      7200   0.18                4771   3049.3888      901.44673     -30112.924      482.04794     -29630.876     -23.946748    
      7400   0.185               4771   3182.5306      916.64251     -30121.628      490.17386     -29631.454     -23.369632    
      7600   0.19                4771   3105.8391      1167.9492     -30255.881      624.55991     -29631.321     -23.501767    
      7800   0.195               4771   3244.3818      1473.0567     -30418.856      787.7159      -29631.141     -23.682528    
      8000   0.2                 4771   3312.4531      1578.44       -30474.276      844.06958     -29630.207     -24.61664     
Loop time of 87.8698 on 5 procs for 8000 steps with 4771 atoms

Performance: 0.197 ns/day, 122.041 hours/ns, 91.044 timesteps/s, 434.370 katom-step/s
398.9% CPU use with 1 MPI tasks x 5 OpenMP threads

MPI task timing breakdown:
Section |  min time  |  avg time  |  max time  |%varavg| %total
---------------------------------------------------------------
Pair    | 82.537     | 82.537     | 82.537     |   0.0 | 93.93
Neigh   | 0.35952    | 0.35952    | 0.35952    |   0.0 |  0.41
Comm    | 0.7971     | 0.7971     | 0.7971     |   0.0 |  0.91
Output  | 1.4085     | 1.4085     | 1.4085     |   0.0 |  1.60
Modify  | 2.6364     | 2.6364     | 2.6364     |   0.0 |  3.00
Other   |            | 0.1308     |            |       |  0.15

Nlocal:           4771 ave        4771 max        4771 min
Histogram: 1 0 0 0 0 0 0 0 0 0
Nghost:           7710 ave        7710 max        7710 min
Histogram: 1 0 0 0 0 0 0 0 0 0
Neighs:              0 ave           0 max           0 min
Histogram: 1 0 0 0 0 0 0 0 0 0

Total # of neighbors = 0
Ave neighs/atom = 0
Neighbor list builds = 18
Dangerous builds = 0
undump tr
write_data structures/impact_466_dt025.data
System init for write_data ...
Hybrid pair style last /omp style zbl
Last active /omp style is pair_style zbl
write_restart restart/state_after_hit_466_dt025.restart
System init for write_restart ...
Hybrid pair style last /omp style zbl
Last active /omp style is pair_style zbl


Total wall time: 0:01:27
