48
Lattice="6.1150000000000002 0 0 -3.0574999999999988 5.2957453441418432 0 0 0 17.6235" Properties=species:S:1:pos:R:3:PW_PBE_forces:R:3:local_new_id:I:1 pbc="T T T" PW_PBE_energy_eV=-389.90104496566914 config_type=Ti3SiC2_baseline_k4x4x2_v19
Ti 0 0 0 0 0 0 1
Ti 0 0 8.81175 0 0 0 2
Ti 1.5287652899999999 0.88261540000000005 2.3879842500000001 -0.0059711712158196373 0.003451466462750785 -0.045767057160327473 3
Ti 0 1.7652308000000001 11.199734250000001 0.005677746669972018 -0.0029413452954696888 -0.045744887816186221 4
Ti 1.5287500000000001 0.88264187999999999 6.4237657500000003 -0.0056777464564760904 0.0029412933794355912 0.045744891412541094 5
Ti -1.5290000000000001e-05 1.76525727 15.235515749999999 0.0059711709103210482 -0.0034513909478691867 0.045767062535170676 6
Si 0 0 4.405875 -0.0027996422683039279 0.00162788438251799 -1.0392949150082347e-05 7
Si 0 0 13.217625 0.0027996422683039279 -0.00162788438251799 1.0392949150082347e-05 8
C -1.5290000000000001e-05 1.76525727 1.2724167 0.0059817830571234432 -0.0034493974695928927 0.093987931000493324 9
C 1.5287500000000001 0.88264187999999999 10.084166700000001 -0.0056169671611338854 0.0028115698956268616 0.093988722935234845 10
C 0 1.7652308000000001 7.5393333 0.0056169671732958027 -0.0028116152156070634 -0.093988716258064195 11
C 1.5287652899999999 0.88261540000000005 16.351083299999999 -0.005981783003569708 0.0034494611475331081 -0.093987921390055421 12
Ti -1.5287500000000001 2.6478726699999999 0 0 0 0 13
Ti -1.5287500000000001 2.6478726699999999 8.81175 0 0 0 14
Ti 1.5290000000000001e-05 3.5304880700000001 2.3879842500000001 -0.0059711709108565755 0.0034513909477676833 -0.045767062535461658 15
Ti -1.5287500000000001 4.4131034700000003 11.199734250000001 0.0056777464575984175 -0.0029412933797873177 -0.045744891412250112 16
Ti 0 3.5305145499999999 6.4237657500000003 -0.0056777466700666185 0.0029413452957874923 0.045744887816450974 17
Ti -1.5287652899999999 4.4131299500000001 15.235515749999999 0.0059711712152278199 -0.0034514664625072706 0.045767057160631702 18
Si -1.5287500000000001 2.6478726699999999 4.405875 -0.0027996422105941174 0.0016278841599876809 -1.0408995946535755e-05 19
Si -1.5287500000000001 2.6478726699999999 13.217625 0.0027996422105941174 -0.0016278841599876809 1.0408995946535755e-05 20
C -1.5287652899999999 4.4131299500000001 1.2724167 0.0059817830021827532 -0.0034494611475893366 0.093987921390407986 21
C 0 3.5305145499999999 10.084166700000001 -0.0056169671729865292 0.002811615216003887 0.093988716258243676 22
C -1.5287500000000001 4.4131034700000003 7.5393333 0.0056169671625962052 -0.0028115698963865491 -0.093988722935479926 23
C 1.5290000000000001e-05 3.5304880700000001 16.351083299999999 -0.005981783056712613 0.0034493974694829147 -0.093987931000492922 24
Ti 3.0575000000000001 0 0 0 0 0 25
Ti 3.0575000000000001 0 8.81175 0 0 0 26
Ti 4.58626529 0.88261540000000005 2.3879842500000001 -0.0059711712152278199 0.0034514664625072706 -0.045767057160631702 27
Ti 3.0575000000000001 1.7652308000000001 11.199734250000001 0.0056777466700666185 -0.0029413452957874923 -0.045744887816450974 28
Ti 4.5862499999999997 0.88264187999999999 6.4237657500000003 -0.0056777464575984175 0.0029412933797873177 0.045744891412250112 29
Ti 3.0574847100000002 1.76525727 15.235515749999999 0.0059711709108565755 -0.0034513909477676833 0.045767062535461658 30
Si 3.0575000000000001 0 4.405875 -0.0027996422679573557 0.0016278843826154972 -1.039294892223716e-05 31
Si 3.0575000000000001 0 13.217625 0.0027996422679573557 -0.0016278843826154972 1.039294892223716e-05 32
C 3.0574847100000002 1.76525727 1.2724167 0.005981783056712613 -0.0034493974694829147 0.093987931000492922 33
C 4.5862499999999997 0.88264187999999999 10.084166700000001 -0.0056169671625962052 0.0028115698963865491 0.093988722935479926 34
C 3.0575000000000001 1.7652308000000001 7.5393333 0.0056169671729865292 -0.002811615216003887 -0.093988716258243676 35
C 4.58626529 0.88261540000000005 16.351083299999999 -0.0059817830021827532 0.0034494611475893366 -0.093987921390407986 36
Ti 1.5287500000000001 2.6478726699999999 0 0 0 0 37
Ti 1.5287500000000001 2.6478726699999999 8.81175 0 0 0 38
Ti 3.05751529 3.5304880700000001 2.3879842500000001 -0.0059711709103210482 0.0034513909478691867 -0.045767062535170676 39
Ti 1.5287500000000001 4.4131034700000003 11.199734250000001 0.0056777464564760904 -0.0029412933794355912 -0.045744891412541094 40
Ti 3.0575000000000001 3.5305145499999999 6.4237657500000003 -0.005677746669972018 0.0029413452954696888 0.045744887816186221 41
Ti 1.5287347099999999 4.4131299500000001 15.235515749999999 0.0059711712158196373 -0.003451466462750785 0.045767057160327473 42
Si 1.5287500000000001 2.6478726699999999 4.405875 -0.0027996422105924217 0.0016278841599484226 -1.0408996125966133e-05 43
Si 1.5287500000000001 2.6478726699999999 13.217625 0.0027996422105924217 -0.0016278841599484226 1.0408996125966133e-05 44
C 1.5287347099999999 4.4131299500000001 1.2724167 0.005981783003569708 -0.0034494611475331081 0.093987921390055421 45
C 3.0575000000000001 3.5305145499999999 10.084166700000001 -0.0056169671732958027 0.0028116152156070634 0.093988716258064195 46
C 1.5287500000000001 4.4131034700000003 7.5393333 0.0056169671611338854 -0.0028115698956268616 -0.093988722935234845 47
C 3.05751529 3.5304880700000001 16.351083299999999 -0.0059817830571234432 0.0034493974695928927 -0.093987931000493324 48
