32
Lattice="28.373244997441823 -5.228439678057898e-06 0.11265358847449992 5.6867270678791697e-07 3.0777657855652616 -3.8327478616707181e-07 -0.021172479839407045 -6.3738233562786805e-07 5.3325594490009696" Properties=species:S:1:pos:R:3:PW_PBE_forces:R:3 pbc="T T T" PW_PBE_energy_eV=-212.00151021835651 config_type=Ti_gap_2p3_rank_recovery_v17_01
Si 6.8533733799999998 1.5388818200000001 2.6934809899999999 0.0023337585676488949 4.8681456147478381e-05 -0.0013474315031230715
Si 6.8427868600000004 -1.72e-06 5.3597663000000004 0.0023610625811985959 4.750598274979843e-05 -0.0013912455080365711
Ti -0.017598590000000001 1.5388904999999999 4.4324178500000002 1.9784948060738483 -1.7382773329901876e-05 -2.2389021467343144
Ti -0.0070119700000000002 7.9999999999999996e-06 1.7661396899999999 1.9785022573959441 -1.8188179389465556e-06 -2.2389404726282462
C 1.0865943600000001 1.53888782 0.88915774999999997 -2.8611590590180156 -5.9662012066261709e-06 1.8643847278605294
C 1.0760083199999999 4.78e-06 3.5554389400000002 -2.8611997967705736 -1.7650782515261151e-05 1.8643861254499814
Ti 2.3701711099999998 1.5388826799999999 2.6756839100000001 -0.013757427714969966 7.2325709384559818e-06 -0.080578287440892349
Ti 2.3595842999999999 -5.7999999999999995e-07 5.3419630900000001 -0.013763439096910433 1.3141071599755698e-05 -0.080575308952413452
C 3.6537520400000001 1.53887716 4.4622050900000003 2.8642746023916699 5.7104622456177714e-05 -1.6504004508595678
C 3.6643388899999998 3.0777602800000001 1.7959262199999999 2.8642706842329564 4.8798672472270268e-05 -1.650399958983612
Ti 4.7579509599999996 1.53887453 0.91894469999999995 -5.1775084659260555 3.0110731499407991e-05 2.333586035805435
Ti 4.7473658700000003 3.0777571500000001 3.58522549 -5.1775001701967875 3.8895142007451255e-05 2.3335772825190291
Ti 8.9487867899999998 1.53888885 4.4680181299999999 5.1280842474931241 -7.5125494706316187e-06 -2.3250555692608654
Ti 8.9593734099999995 6.3500000000000002e-06 1.8017399700000001 5.1280877666044598 2.5177586240993651e-06 -2.3250940329719239
C 10.05297974 1.5388861700000001 0.92475803000000001 -2.8592525984686863 2.9137316766147372e-05 1.627275362422288
C 10.0423937 3.1300000000000001e-06 3.5910392199999999 -2.859284305484957 -2.2831044095380091e-06 1.6272695503130941
Ti 11.3365565 1.53888103 2.7112841900000002 0.041678355055385495 2.0608295057514525e-06 0.12184294685419525
Ti 11.32596968 -2.2299999999999998e-06 5.3775633699999998 0.041669344469344095 1.076136552959573e-05 0.12185419065245993
C 12.620137420000001 1.53887551 4.49780537 2.6061213350578027 7.8338018297624864e-06 -1.8813682020965428
C 12.63072427 3.0777586299999999 1.83152651 2.6061265710848449 1.5370199375153956e-05 -1.8813810606983321
Ti 13.72433635 1.53887288 0.95454497999999999 -4.9179555834282569 2.6231387588277523e-05 2.4431459916125036
Ti 13.71375126 3.0777554899999999 3.6208257700000002 -4.9179708887128886 4.1135178326803755e-05 2.4431261715515049
Ag 16.024318650000001 1.5388724499999999 0.96367687000000002 2.5225096092031785 4.2506635600449772e-06 -0.19533269755847626
Ag 16.013732699999998 3.0777550300000001 3.6299564000000002 2.5225175102885027 5.0123632835758417e-08 -0.19533687677237027
Ag 18.389191669999999 3.0777550200000001 0.084292290000000006 -0.0086669254920460331 -2.2293364779206667e-07 0.15578538659240143
Ag 18.378605149999999 1.5388718100000001 2.7505722000000001 -0.0086665849487204544 -1.02688755739683e-06 0.15578371611282044
Ag 20.732891639999998 1.53887116 4.5374675399999997 -0.015130292529753224 -4.0485211651582155e-06 -0.021746098824109317
Ag 20.743478169999999 3.0777543700000001 1.8711876199999999 -0.015136277120501513 -5.7847764752006583e-06 -0.021746809403552413
Ag 23.097764659999999 3.07775372 3.6580829499999998 0.030879945252931772 -4.8851245470200673e-06 -0.026608212338776336
Ag 23.10835062 1.5388711500000001 0.99180341999999999 0.030885128470828992 -4.0614323716998368e-06 -0.026608935590965912
Ag 25.462637109999999 1.5388705 2.7786987600000002 0.67873140727348069 -2.450718224971311e-06 -0.12471436709721705
Ag 25.473223640000001 3.0777537100000001 0.11241884000000001 0.6787372686081915 1.4807684788566921e-08 -0.12472125229298617
