48
Lattice="28.140000000000001 0 0 0 28.140000000000001 0 0 0 28.140000000000001" Properties=species:S:1:pos:R:3:PW_PBE_forces:R:3:lammps_id:I:1:central_pair:I:1 pbc="T T T" PW_PBE_energy_eV=-255.33573526883785 config_type=AgC_residual_mode_m_06_v19_acq
Ti 14.77773371 12.05600926 19.115518059999999 -0.72624328014508643 -0.049378515401449115 -1.975320806884171 113766 0
Ti 19.828112170000001 14.16747384 12.332465689999999 -1.2569104032323786 -0.69202076654580569 1.8693819656508701 600768 0
Ti 15.14933662 14.09146 8.9903422299999995 -1.2026487830366022 -1.4699245677428998 1.8624327691374627 602398 0
Ti 16.707006719999999 11.35471852 12.383686190000001 0.91208477419467804 1.2332951003019368 -1.0794891126621871 602560 0
C 15.808347489999999 12.2813523 10.412757190000001 0.20763790874946561 -0.67263240310948702 0.75867790086653919 602563 0
C 15.245957300000001 10.246780879999999 13.1973631 5.2029160380897492 -2.6561789278675421 -0.19208986684917179 602564 0
C 15.09615209 17.798665679999999 11.056472449999999 0.60362614278921722 1.1452215990560435 1.5397540853949581 602568 0
Ti 16.22196177 17.830626290000001 12.744230180000001 -0.55058519282575846 1.8492634017853302 0.7887861655879802 602569 0
C 15.078564930000001 19.597324629999999 13.72647342 -1.6057886236911389 -4.3340869467871856 -2.1084165803709172 602577 0
Ti 16.764409740000001 12.976426760000001 14.38731587 -0.46658411781719766 0.13104470722704326 -0.066295876237744189 602709 0
Ti 16.301019149999998 9.8796257300000008 15.168303099999999 -0.81789794406741767 1.8129854210443355 -1.4318708400302831 602714 0
Si 16.289071119999999 11.75977571 16.924165590000001 -0.55337043211592551 -0.035288909898556528 0.14430656614319581 602717 0
Ti 19.603923399999999 12.8276298 14.906908530000001 -1.6295064290469849 0.75101758077061265 -1.1497340369311562 602720 0
Si 17.678577279999999 13.648193819999999 16.568189050000001 1.0431073619724451 0.52988388257509222 -0.057264328855679843 602722 0
Si 17.720841539999999 16.09981719 16.310877860000002 -0.001500877272049045 0.37094181592986741 -1.431942645639245 602726 0
Si 18.23918609 18.049040439999999 14.559151099999999 -0.54698039285305411 -1.761373061301349 0.84152077170730533 602728 0
Ti 14.7650284 10.24823364 11.01852302 1.2247908417171545 -3.2076507462176358 -1.4070102125614015 604584 0
C 13.17986737 8.6758332899999999 11.62428134 1.1343628035789306 0.37926779943519118 0.71868185623755165 604585 0
Ti 11.74276545 10.17736294 12.03503218 1.0641714873481853 -1.9642286670880162 0.053996910829928531 604586 0
C 13.195631990000001 11.179687960000001 11.24892195 -3.6452580718708352 -3.1990070170180318 1.2998187571054913 604587 0
Ti 14.358823640000001 8.5219883700000008 13.27154629 -3.4480172822235566 0.68736133137900257 -0.53171239611537557 604588 0
Ti 13.895220269999999 11.47862233 13.1940499 -0.28220021946954577 3.1489139440365728 -0.28799052491443622 604589 0
Ti 13.89476314 12.736905139999999 10.904804800000001 3.9605553562333817 4.8680835909150177 -0.63738998703791061 604590 0
C 12.766711519999999 10.07059819 13.826003630000001 -2.4487167905876976 -2.527867376629402 3.0382089207033256 604592 0
Si 9.9731049400000007 12.81272528 11.37092765 0.24059552390906122 -0.15379145449638693 1.38106656684637 604593 0
Si 9.9104925000000001 11.50366541 13.683733889999999 0.28133715631716633 0.99732712415947633 -0.57964984044462176 604594 0
C 13.36240624 13.479245990000001 9.2430265499999997 1.1232846306127418 0.57403546690364782 -2.613150913742992 604596 0
C 12.81786136 16.199133839999998 9.9045059799999997 -1.0346295960709424 -0.48698892450998532 0.85272674866390885 604598 0
Ti 11.95350169 14.266179279999999 10.374237279999999 -0.76987276108820457 2.3279688049312686 -0.19674706563315514 604599 0
Ti 14.02696413084403 15.963762840041834 11.531414143883941 -5.7097775843340859 3.8138241006024702 -4.7053458946969711 604600 0
Ti 11.43344149 17.433476670000001 10.56034947 2.0811006196443089 -0.86182776774523884 0.22304124381542936 604601 0
C 13.066467189999999 14.1368467 12.10746617 0.088091315382932731 0.41764525768403393 -0.096039128492699077 604602 0
C 12.78805257 17.510479719999999 12.49636784 -1.3768574840456786 1.5586615511946589 0.55715910537527336 604603 0
Si 9.8068985699999995 15.55673045 10.575952409999999 -1.188326245366528 -0.15535129885516455 1.5930049521242204 604605 0
Ti 13.89404094 19.214804900000001 11.80016927 1.8039508112436495 -1.4683401955273478 0.25002459738482197 604608 0
Ti 11.2580215 18.925486240000001 12.55015014 0.6221914178415725 -1.0697758935870127 1.0697335815008575 604611 0
Ti 12.266348539999999 10.47500164 17.74830506 0.47360733197023563 1.0757417913398022 -0.76553842059356614 604794 0
Ti 11.800335179999999 8.6634569199999998 15.229030440000001 1.5771423051012694 2.7165160632100038 -1.1210757617610523 604795 0
Ti 12.16895326 11.738342400000001 15.12525415 -0.76553415336025088 -0.16553680514317154 0.76604779418136437 604796 0
Si 10.142390369999999 12.97278704 16.233870270000001 0.18850585856076565 0.97317575534386247 -0.42129007190143258 604803 0
C 13.47588002 12.93679245 14.26673336 -0.077603926986270402 1.8700356797293791 1.80567867070759 604804 1
Ti 13.941323150000001 17.725990459999998 14.28329593 -0.03247645765768932 3.9319413715023077 -0.2967868226147139 604805 0
Ti 12.291049299999999 13.6369851 17.68575294 1.2002716916946479 0.38561966577142542 -1.8397920762883926 604806 0
C 13.504690610000001 14.90550135 16.603743649999998 -1.48533830859395 -1.1563962652180333 0.16090757925185134 604810 0
Si 10.251690180000001 15.684724729999999 15.668430320000001 0.71951542882931863 -1.688960446132578 0.18060248595104234 604813 0
Si 9.7030737200000008 16.94008547 12.67728352 0.52456515720799102 -0.82766003478873706 -1.031558939868636 606503 0
Ag 14.11040925 15.463241500000001 13.72951918 0.38151349025687908 -4.4163508151943125 4.4512709364709222 688433 1
Ag 16.166574019999999 15.463978969999999 11.65879226 4.9816763658905225 -2.5264328500051301 -0.17446809466937821 751743 0
