52
Lattice="6.1150000000000002 0 0 -3.0574999999999988 5.2957453441418432 0 0 0 44.205876500000002" Properties=species:S:1:pos:R:3:PW_PBE_forces:R:3:lammps_id:I:1:central_pair:I:1 pbc="T T F" PW_PBE_energy_eV=-390.44470430382353 config_type=AgSi_parent_26A_dipoleOFF_k6x6x1_sigma0p10_v19
Ti 0 0 15.388251500000001 0.00083051745234196989 -0.00037156233351371917 0.16019468231663769 19101000 0
Ti 0 0 24.200001499999999 0.00097655738056060513 -0.0012690966046158081 -0.015390785042071101 19101001 0
Ti 1.5287652899999999 0.88261540000000005 17.776235750000001 5.2935730118590932e-05 -1.2045724394494775e-05 -0.25659039994005511 19101002 0
Ti 0 1.7652308000000001 26.587985750000001 0.0094110355200733038 0.0083965637563331273 -0.073092714782842474 19101003 0
Ti 1.5287500000000001 0.88264187999999999 21.81201725 0.00031570495827721071 -0.0013116131599348391 0.013782303124848135 19101004 0
Ti -1.5290000000000001e-05 1.76525727 13.00026725 0.00062799749157954198 -0.0006478085810809126 0.55074444079720175 19101005 0
Si 0 0 19.794126500000001 0.00092377044649692935 -0.00029610938919387707 0.073541872278641479 19101006 0
Si 0 0 28.605876500000001 0.040916281550125583 0.020655167970295308 0.94801709889780994 19101007 1
C -1.5290000000000001e-05 1.76525727 16.6606682 -0.0013436484142471141 0.00091158218913205071 0.17216387717816248 19101008 0
C 1.5287500000000001 0.88264187999999999 25.4724182 -0.0017266305727780026 -0.0022415312344839567 0.083169564096936349 19101009 0
C 0 1.7652308000000001 22.927584800000002 -0.00093583308799638444 0.0023617874275895911 -0.10001643977908754 19101010 0
C 1.5287652899999999 0.88261540000000005 14.1158348 -0.00077524468575047942 0.00053991290068951508 -0.89831335625938702 19101011 0
Ti -1.5287500000000001 2.6478726699999999 15.388251500000001 0.00083047086155935113 -0.00037233085055880805 0.16019353595204433 19101012 0
Ti -1.5287500000000001 2.6478726699999999 24.200001499999999 0.00097685593518451468 -0.001269237777061071 -0.015390913103608874 19101013 0
Ti 1.5290000000000001e-05 3.5304880700000001 17.776235750000001 5.3172093453209837e-05 -1.2517135682368548e-05 -0.25659056591104362 19101014 0
Ti -1.5287500000000001 4.4131034700000003 26.587985750000001 0.0094111545669471955 0.0083978201096507974 -0.073091817629716851 19101015 0
Ti 0 3.5305145499999999 21.81201725 0.00031489105552446597 -0.0013105053592904101 0.013781375996779349 19101016 0
Ti -1.5287652899999999 4.4131299500000001 13.00026725 0.00062986657397347734 -0.00064717847663269771 0.55074522949673455 19101017 0
Si -1.5287500000000001 2.6478726699999999 19.794126500000001 0.00092432322138934295 -0.00029662250265808662 0.073541884576971597 19101018 0
Si -1.5287500000000001 2.6478726699999999 28.605876500000001 0.040916291442368628 0.020654822236857558 0.94801812041003075 19101019 0
C -1.5287652899999999 4.4131299500000001 16.6606682 -0.0013439619516083204 0.00091181594227992158 0.17216367756188508 19101020 0
C 0 3.5305145499999999 25.4724182 -0.0017270286281940346 -0.0022408107178897032 0.083169573623129364 19101021 0
C -1.5287500000000001 4.4131034700000003 22.927584800000002 -0.00093632149519906475 0.0023630939618543311 -0.10001567066768931 19101022 0
C 1.5290000000000001e-05 3.5304880700000001 14.1158348 -0.0007779924408132928 0.00054072883686186917 -0.89831393815354288 19101023 0
Ti 3.0575000000000001 0 15.388251500000001 0.00083052573967110326 -0.00037155577200939963 0.16019467919796357 19101024 0
Ti 3.0575000000000001 0 24.200001499999999 0.00097638315700215362 -0.0012690487867863284 -0.015390663380167244 19101025 0
Ti 4.58626529 0.88261540000000005 17.776235750000001 5.29564209229246e-05 -1.2079386878922074e-05 -0.25659043611321014 19101026 0
Ti 3.0575000000000001 1.7652308000000001 26.587985750000001 0.0094110407941631127 0.0083967894720718503 -0.073092587703184886 19101027 0
Ti 4.5862499999999997 0.88264187999999999 21.81201725 0.00031568720658013049 -0.0013115765466945866 0.013782334993461355 19101028 0
Ti 3.0574847100000002 1.76525727 13.00026725 0.00062797042808768557 -0.00064778706962695875 0.55074445969944186 19101029 0
Si 3.0575000000000001 0 19.794126500000001 0.00092375112907122018 -0.00029609218272813777 0.073541866130053368 19101030 0
Si 3.0575000000000001 0 28.605876500000001 0.04091619168489348 0.020655080817746467 0.94801712316284359 19101031 0
C 3.0574847100000002 1.76525727 16.6606682 -0.0013436211955614342 0.00091157530547699285 0.17216393113299888 19101032 0
C 4.5862499999999997 0.88264187999999999 25.4724182 -0.0017263541547543285 -0.0022414007994032924 0.083169421757437648 19101033 0
C 3.0575000000000001 1.7652308000000001 22.927584800000002 -0.000935735095151809 0.0023617177964358328 -0.10001629297998954 19101034 0
C 4.58626529 0.88261540000000005 14.1158348 -0.0007752621591547911 0.00054002723400336746 -0.89831337577193815 19101035 0
Ti 1.5287500000000001 2.6478726699999999 15.388251500000001 0.00083047692217404906 -0.00037230465335405272 0.16019354703882555 19101036 0
Ti 1.5287500000000001 2.6478726699999999 24.200001499999999 0.00097687265871218565 -0.0012690858213891462 -0.01539118755629885 19101037 0
Ti 3.05751529 3.5304880700000001 17.776235750000001 5.316186352557923e-05 -1.2518231488427701e-05 -0.25659050685624984 19101038 0
Ti 1.5287500000000001 4.4131034700000003 26.587985750000001 0.0094110930875245819 0.0083977632300931727 -0.073091955508124321 19101039 0
Ti 3.0575000000000001 3.5305145499999999 21.81201725 0.00031500830651798767 -0.0013106012625083013 0.013781311742213925 19101040 0
Ti 1.5287347099999999 4.4131299500000001 13.00026725 0.00062990956052638714 -0.00064724719608668551 0.55074513228225674 19101041 0
Si 1.5287500000000001 2.6478726699999999 19.794126500000001 0.00092433728822695902 -0.00029662662926851195 0.073541866921710691 19101042 0
Si 1.5287500000000001 2.6478726699999999 28.605876500000001 0.040916394855088231 0.020654923651467288 0.94801809893660061 19101043 0
C 1.5287347099999999 4.4131299500000001 16.6606682 -0.0013439430915014421 0.00091180582941065053 0.17216362653946712 19101044 0
C 3.0575000000000001 3.5305145499999999 25.4724182 -0.0017269206353844736 -0.0022407822335697254 0.083169588862639657 19101045 0
C 1.5287500000000001 4.4131034700000003 22.927584800000002 -0.0009365128826211421 0.0023630453788747179 -0.10001587957840408 19101046 0
C 3.05751529 3.5304880700000001 14.1158348 -0.00077797947540434148 0.00054073905663178914 -0.89831392666759213 19101047 0
Ag 0.81023750000000005 0.55605325999999999 31.205876499999999 -0.048564328748973234 -0.02601026316177479 -0.65909144088550375 19101048 1
Ag -0.7185125 3.20392593 31.205876499999999 -0.048564836388019027 -0.026011365396794647 -0.6590968141742537 19101049 0
Ag 3.8677375000000001 0.55605325999999999 31.205876499999999 -0.048564495301956521 -0.026010250496663844 -0.65909322000134074 19101050 0
Ag 2.3389875 3.20392593 31.205876499999999 -0.048564667259906484 -0.026011199828512334 -0.65909726314602346 19101051 0
