51
Lattice="27.86 0.0 0.0 0.0 27.86 0.0 0.0 0.0 27.86" Properties=species:S:1:pos:R:3:lammps_id:I:1:lammps_type:I:1:central_pair:I:1:PW_PBE_forces:R:3:magmoms:R:1:forces:R:3 source_config_type=AgSi_registry_strain_acq_v14_01_periodic_PW_PBE_energy_force_v14_train source_dataset_path=research/mace-v12-transfer/periodic_interface_v4/mace_periodic_v14_interface_energy/data/train.extxyz source_dataset_sha256=3323cdbd3081fc8d91673662c5f83c8da93ba3b4d7a23428f6b70d0e7a4c9faf source_frame_geometry_sha256=4a5540c7fd824a01df8fcb6155e62c7ff045ec36d637ac5f405247c9b5dbe4e5 proposal_mode=transverse_Ag proposal_sign=1 proposal_displacement_A="-0.14643386214098034 0.03251344365760658 0.0" candidate_role=proposed_training_acquisition_geometry_unassigned config_type=AgSi_transverse_Ag_p_acq_v17_01 proposal_only_no_DFT_label=T PW_PBE_energy_eV=-208.78624205991574 source_method="GPAW 26.7.0 PW-PBE 500 eV Gamma single point" free_energy=-209.71697823574613 energy=-208.78624205991574 dipole="-0.5272466781685551 -0.28944200271218723 2.4031883338208653" magmom=0.0 pbc="T T T"
C       18.59997229      12.48568832      11.10844207   365143        3        0      -2.25069190      -0.57664156      -0.55233248       0.00000000      -2.25069190      -0.57664156      -0.55233248
Ti      17.68639525      11.50950205      17.41787882   365320        1        0      -4.04951808      -0.31621568      -2.56588865       0.00000000      -4.04951808      -0.31621568      -2.56588865
C       16.41880913      11.23745333       9.78030353   366772        3        0       1.23112233       1.37052758       1.33468227       0.00000000       1.23112233       1.37052758       1.33468227
C       16.47896696      14.68517760       9.59220696   366778        3        0      -1.06881924       0.67393635       0.35042177       0.00000000      -1.06881924       0.67393635       0.35042177
Si      13.03247546      10.81256428      11.54588199   366929        2        0       0.81003683       0.94694461      -0.58082680       0.00000000       0.81003683       0.94694461      -0.58082680
C       16.85595198      10.57457416      13.54804023   366931        3        0      -1.52994776       1.18212696       1.23400309       0.00000000      -1.52994776       1.18212696       1.23400309
Si      13.24756583      10.09299501      13.89543918   366933        2        0       0.31765055       0.71519014       1.34363703       0.00000000       0.31765055       0.71519014       1.34363703
Si      13.57862136      12.84027175      14.30526025   366934        2        1      -1.28959812      -0.60914049       0.22191249       0.00000000      -1.28959812      -0.60914049       0.22191249
Ti      15.29981075      11.23489767      15.30672895   366935        1        0       2.22988104      -2.34029624       0.57538616       0.00000000       2.22988104      -2.34029624       0.57538616
Si      14.07452393      13.07440001      11.84527460   366936        2        0      -0.36560316      -0.18178258      -0.83293880       0.00000000      -0.36560316      -0.18178258      -0.83293880
C       16.32293638       9.78228197      16.33324608   367109        3        0      -0.10065380       1.81552196       2.85624767       0.00000000      -0.10065380       1.81552196       2.85624767
Si      13.15366079      10.13595433      16.63871231   367110        2        0      -0.14202639       0.11459745      -0.51658883       0.00000000      -0.14202639       0.11459745      -0.51658883
C       16.48100250      12.76445334      16.24568078   367111        3        0       0.10655972       0.05378884       1.02352232       0.00000000       0.10655972       0.05378884       1.02352232
Ti      15.25461263       9.99188169      18.18059921   367112        1        0       0.99178237       0.42954650      -2.95936849       0.00000000       0.99178237       0.42954650      -2.95936849
Ti      15.21048961      12.94153364      18.03487212   367113        1        0       0.04294212       0.77836260       0.46492637       0.00000000       0.04294212       0.77836260       0.46492637
Si      13.17741765      13.14324215      19.70608455   367115        2        0      -0.25569054       0.45888647      -1.09517849       0.00000000      -0.25569054       0.45888647      -1.09517849
Ti      15.40588122      14.54471635      15.86904406   367117        1        0       1.01487163       0.22434296       2.21539217       0.00000000       1.01487163       0.22434296       2.21539217
Si      12.78455653      15.18854922      16.36834406   367118        2        0       0.80831607       0.24903949       0.23658158       0.00000000       0.80831607       0.24903949       0.23658158
Si      12.95712017      18.30295279      16.70442317   367120        2        0      -0.29082889      -1.32754387      -0.14565833       0.00000000      -0.29082889      -1.32754387      -0.14565833
Ti      14.51271213      16.54892641      18.01865841   367121        1        0       0.10376529      -2.25941816      -0.31895937       0.00000000       0.10376529      -2.25941816      -0.31895937
C       15.68829271      14.87916034      18.37964165   367122        3        0      -1.36812740       0.12977393      -1.76178096       0.00000000      -1.36812740       0.12977393      -1.76178096
C        9.90649004      12.77431746      10.77224184   368645        3        0       1.31825282       0.72388743      -0.24751544       0.00000000       1.31825282       0.72388743      -0.24751544
Ti      11.05639828       9.10291227      15.13117419   368823        1        0      -0.01589052       2.49092858       1.66321402       0.00000000      -0.01589052       2.49092858       1.66321402
Ti      11.06514563      10.57972820      12.94209330   368827        1        0      -2.38126727       0.39962042      -0.95742705       0.00000000      -2.38126727       0.39962042      -0.95742705
C        9.58869661      11.96959291      13.50714254   368829        3        0       0.86431167       0.25385750       0.36283934       0.00000000       0.86431167       0.25385750       0.36283934
Ti       8.41925107      13.28695754      14.63229457   368832        1        0       0.47026742       0.31304276       0.04171560       0.00000000       0.47026742       0.31304276       0.04171560
Ti      10.95041350      12.38211774      15.00689863   368833        1        0       0.10692259      -1.05633113       1.89615038       0.00000000       0.10692259      -1.05633113       1.89615038
C        9.56136862      16.94432396      11.26681068   368838        3        0       1.51834645      -0.90117682      -0.89879293       0.00000000       1.51834645      -0.90117682      -0.89879293
C        8.74996730      15.07383077      14.18303296   368841        3        0       1.33708975       0.38315066       0.96200958       0.00000000       1.33708975       0.38315066       0.96200958
Ti      10.21724449      15.52569843      15.45789755   368844        1        0      -1.28388666      -1.69591485      -0.27037094       0.00000000      -1.28388666      -1.69591485      -0.27037094
C       10.10142178      10.76686600      15.98766623   369024        3        0       2.15898841      -0.97375230      -2.04983423       0.00000000       2.15898841      -0.97375230      -2.04983423
C        9.73645404      13.62008341      16.26033390   369026        3        0       1.19356197       0.67643847      -0.09142263       0.00000000       1.19356197       0.67643847      -0.09142263
Ti      11.11186787      13.46402473      17.97657710   369031        1        0      -0.09581766       0.94823980      -1.95881881       0.00000000      -0.09581766       0.94823980      -1.95881881
Ti      11.68602437      16.29832535      18.34290273   369042        1        0       0.80562464      -0.13967204      -0.79036345       0.00000000       0.80562464      -0.13967204      -0.79036345
Ag      13.94554470      15.18484042      13.71795822   683609        4        1      -0.49234541       0.97856161      -0.52111006       0.00000000      -0.49234541       0.97856161      -0.52111006
Ag      15.97894673      13.15302274      13.71829332   685172        4        0       1.69326518      -0.19911313      -1.92368724       0.00000000       1.69326518      -0.19911313      -1.92368724
Ag      11.94210993      17.22977196      13.71397964   696217        4        0      -0.04920841       0.03184878       0.25655525       0.00000000      -0.04920841       0.03184878       0.25655525
Ag      11.93975632      17.22911810       9.63054985   700029        4        0      -0.38907220      -0.08839250       0.48640913       0.00000000      -0.38907220      -0.08839250       0.48640913
Ag      15.98923707      17.22930622      13.71503183   701518        4        0       0.05453405      -0.09562813       0.20524477       0.00000000       0.05453405      -0.09562813       0.20524477
Ag      15.97072098      17.22327271       9.63473704   703887        4        0       0.18208483      -1.09634511       0.46952117       0.00000000       0.18208483      -1.09634511       0.46952117
Ag       9.91085103      15.18471297       9.63702147   707313        4        0      -0.05001218       0.10527271       1.52676916       0.00000000      -0.05001218       0.10527271       1.52676916
Ag      13.97411593      15.17568376       9.63909963   710704        4        0       1.06964146      -0.41146646       0.35764500       0.00000000       1.06964146      -0.41146646       0.35764500
Ag      17.98464208      17.23151194      11.67442682   714846        4        0      -0.51923310      -0.30148113      -0.05025047       0.00000000      -0.51923310      -0.30148113      -0.05025047
Ag      11.93233933      19.26558604      11.68116928   729574        4        0       0.02426392      -0.46633563       0.08775353       0.00000000       0.02426392      -0.46633563       0.08775353
Ag      11.95257986      15.17807424      11.67845050   730721        4        0      -0.45428776      -0.15214640       0.08562573       0.00000000      -0.45428776      -0.15214640       0.08562573
Ag      11.94137103      13.15718830       9.61141820   735549        4        0      -0.68198930      -0.40501060       0.98060869       0.00000000      -0.68198930      -0.40501060       0.98060869
Ag      13.96872677      17.22003051      11.67590227   737082        4        0       0.18667292       0.29708682      -0.00416384       0.00000000       0.18667292       0.29708682      -0.00416384
Ag      15.98557660      19.27875197      15.76315800   737200        4        0      -0.35424489      -0.72460829      -0.04093323       0.00000000      -0.35424489      -0.72460829      -0.04093323
Ag      13.95870658      19.29018338      13.71347117   744883        4        0      -0.08958795      -0.42031478       0.20616294       0.00000000      -0.08958795      -0.42031478       0.20616294
Ag      17.99776150      15.19634718      13.70696502   752169        4        0      -0.44443540       0.11248515       0.04274410       0.00000000      -0.44443540       0.11248515       0.04274410
Ag      17.99785026      17.23556597      15.76426284   755982        4        0      -0.63369355      -0.11622969      -0.35525293       0.00000000      -0.63369355      -0.11622969      -0.35525293
