52
Lattice="6.115 0.0 0.0 -3.0574999999999988 5.295745344141843 0.0 0.0 0.0 44.2058765" Properties=species:S:1:pos:R:3:spacegroup_kinds:I:1:lammps_id:I:1:central_pair:I:1 config_type=AgSi_cod9009647_slab_v19_dev_proposal dataset_role=CIF_DERIVED_DEVELOPMENT_PROPOSAL source_method="COD9009647 uploaded CIF; Kisi et al1998 DOI10.1016/S0022-3697(98)00226-1" new_ids_not_historical=T pbc="T T T"
Ti       0.00000000       0.00000000      15.38825150        0 19101000        0
Ti       0.00000000       0.00000000      24.20000150        0 19101001        0
Ti       1.52876529       0.88261540      17.77623575        1 19101002        0
Ti       0.00000000       1.76523080      26.58798575        1 19101003        0
Ti       1.52875000       0.88264188      21.81201725        1 19101004        0
Ti      -0.00001529       1.76525727      13.00026725        1 19101005        0
Si       0.00000000       0.00000000      19.79412650        2 19101006        0
Si       0.00000000       0.00000000      28.60587650        2 19101007        1
C       -0.00001529       1.76525727      16.66066820        3 19101008        0
C        1.52875000       0.88264188      25.47241820        3 19101009        0
C        0.00000000       1.76523080      22.92758480        3 19101010        0
C        1.52876529       0.88261540      14.11583480        3 19101011        0
Ti      -1.52875000       2.64787267      15.38825150        0 19101012        0
Ti      -1.52875000       2.64787267      24.20000150        0 19101013        0
Ti       0.00001529       3.53048807      17.77623575        1 19101014        0
Ti      -1.52875000       4.41310347      26.58798575        1 19101015        0
Ti       0.00000000       3.53051455      21.81201725        1 19101016        0
Ti      -1.52876529       4.41312995      13.00026725        1 19101017        0
Si      -1.52875000       2.64787267      19.79412650        2 19101018        0
Si      -1.52875000       2.64787267      28.60587650        2 19101019        0
C       -1.52876529       4.41312995      16.66066820        3 19101020        0
C        0.00000000       3.53051455      25.47241820        3 19101021        0
C       -1.52875000       4.41310347      22.92758480        3 19101022        0
C        0.00001529       3.53048807      14.11583480        3 19101023        0
Ti       3.05750000       0.00000000      15.38825150        0 19101024        0
Ti       3.05750000       0.00000000      24.20000150        0 19101025        0
Ti       4.58626529       0.88261540      17.77623575        1 19101026        0
Ti       3.05750000       1.76523080      26.58798575        1 19101027        0
Ti       4.58625000       0.88264188      21.81201725        1 19101028        0
Ti       3.05748471       1.76525727      13.00026725        1 19101029        0
Si       3.05750000       0.00000000      19.79412650        2 19101030        0
Si       3.05750000       0.00000000      28.60587650        2 19101031        0
C        3.05748471       1.76525727      16.66066820        3 19101032        0
C        4.58625000       0.88264188      25.47241820        3 19101033        0
C        3.05750000       1.76523080      22.92758480        3 19101034        0
C        4.58626529       0.88261540      14.11583480        3 19101035        0
Ti       1.52875000       2.64787267      15.38825150        0 19101036        0
Ti       1.52875000       2.64787267      24.20000150        0 19101037        0
Ti       3.05751529       3.53048807      17.77623575        1 19101038        0
Ti       1.52875000       4.41310347      26.58798575        1 19101039        0
Ti       3.05750000       3.53051455      21.81201725        1 19101040        0
Ti       1.52873471       4.41312995      13.00026725        1 19101041        0
Si       1.52875000       2.64787267      19.79412650        2 19101042        0
Si       1.52875000       2.64787267      28.60587650        2 19101043        0
C        1.52873471       4.41312995      16.66066820        3 19101044        0
C        3.05750000       3.53051455      25.47241820        3 19101045        0
C        1.52875000       4.41310347      22.92758480        3 19101046        0
C        3.05751529       3.53048807      14.11583480        3 19101047        0
Ag       0.81023750       0.55605326      31.20587650        0 19101048        1
Ag      -0.71851250       3.20392593      31.20587650        0 19101049        0
Ag       3.86773750       0.55605326      31.20587650        0 19101050        0
Ag       2.33898750       3.20392593      31.20587650        0 19101051        0
