52
Lattice="6.1150000000000002 0 0 -3.0574999999999988 5.2957453441418432 0 0 0 34.205876500000002" Properties=species:S:1:pos:R:3:PW_PBE_forces:R:3:lammps_id:I:1:central_pair:I:1 pbc="T T T" PW_PBE_energy_eV=-390.45337820156237 config_type=AgSi_COD9009647_pilot_k8x8
Ti 0 0 10.388251500000001 -0.00033766288744420132 0.00020501845195093849 0.15855997403205704 19101000 0
Ti 0 0 19.200001499999999 -0.00095340101948683813 -3.9942884802391908e-05 -0.012197404752739786 19101001 0
Ti 1.5287652899999999 0.88261540000000005 12.77623575 -4.0950614516677051e-06 -3.1348359261449195e-05 -0.25840310255513876 19101002 0
Ti 0 1.7652308000000001 21.587985750000001 0.0099187789423528325 0.0077133847754944848 -0.070939639134468976 19101003 0
Ti 1.5287500000000001 0.88264187999999999 16.81201725 -0.00035923782391577056 -0.0009055132413613397 0.01216420338896803 19101004 0
Ti -1.5290000000000001e-05 1.76525727 8.0002672500000003 -0.00027055951293178762 9.5205010616315451e-05 0.5510777039820185 19101005 0
Si 0 0 14.794126500000001 -0.00028805275414048889 0.00033181495258959129 0.074907912970162319 19101006 0
Si 0 0 23.605876500000001 0.041458690330458341 0.020496164142795845 0.94533699692952355 19101007 1
C -1.5290000000000001e-05 1.76525727 11.6606682 0.00074416491139233114 -0.00034432946835056741 0.17537943750750581 19101008 0
C 1.5287500000000001 0.88264187999999999 20.4724182 -0.0022648127804626873 -0.0017891663799080111 0.080110482597327878 19101009 0
C 0 1.7652308000000001 17.927584800000002 0.0014580341689049607 0.00079518701645735006 -0.10283778792091285 19101010 0
C 1.5287652899999999 0.88261540000000005 9.1158348 0.00013335279916228495 1.4603322307725209e-05 -0.89468932948937241 19101011 0
Ti -1.5287500000000001 2.6478726699999999 10.388251500000001 -0.0003376549068755265 0.00020505533951764717 0.15855994239811452 19101012 0
Ti -1.5287500000000001 2.6478726699999999 19.200001499999999 -0.00095335491453658482 -3.9950062477101084e-05 -0.012197461942891926 19101013 0
Ti 1.5290000000000001e-05 3.5304880700000001 12.77623575 -3.9790158977997091e-06 -3.1309442845883066e-05 -0.25840309660124144 19101014 0
Ti -1.5287500000000001 4.4131034700000003 21.587985750000001 0.0099188338282100476 0.0077134490463973597 -0.070939637547179343 19101015 0
Ti 0 3.5305145499999999 16.81201725 -0.00035924585270102991 -0.00090540004081704072 0.012164317408150086 19101016 0
Ti -1.5287652899999999 4.4131299500000001 8.0002672500000003 -0.00027063322153763545 9.5072048599470382e-05 0.55107825505622587 19101017 0
Si -1.5287500000000001 2.6478726699999999 14.794126500000001 -0.00028813666125120324 0.00033181122587622045 0.074907852818096546 19101018 0
Si -1.5287500000000001 2.6478726699999999 23.605876500000001 0.041458555832081974 0.0204958581924569 0.94533715594820367 19101019 0
C -1.5287652899999999 4.4131299500000001 11.6606682 0.00074420609200556763 -0.00034439925266729156 0.17537952593265504 19101020 0
C 0 3.5305145499999999 20.4724182 -0.0022647602047144821 -0.0017892994856504524 0.080110521537871487 19101021 0
C -1.5287500000000001 4.4131034700000003 17.927584800000002 0.0014582400359955817 0.00079534362771521672 -0.10283771919679385 19101022 0
C 1.5290000000000001e-05 3.5304880700000001 9.1158348 0.00013326911804554346 1.4695446661798972e-05 -0.89468923851802407 19101023 0
Ti 3.0575000000000001 0 10.388251500000001 -0.00033766310540614067 0.0002050186562894579 0.15855997545482081 19101024 0
Ti 3.0575000000000001 0 19.200001499999999 -0.00095340170525325704 -3.994247954070553e-05 -0.012197403327461285 19101025 0
Ti 4.58626529 0.88261540000000005 12.77623575 -4.0945554345174538e-06 -3.1347908899112802e-05 -0.25840309437908443 19101026 0
Ti 3.0575000000000001 1.7652308000000001 21.587985750000001 0.0099187835503471242 0.0077133828768171089 -0.070939623910106525 19101027 0
Ti 4.5862499999999997 0.88264187999999999 16.81201725 -0.00035923670167774583 -0.00090551392496669692 0.012164206929402789 19101028 0
Ti 3.0574847100000002 1.76525727 8.0002672500000003 -0.00027055899691330989 9.5202405410003502e-05 0.55107769377540949 19101029 0
Si 3.0575000000000001 0 14.794126500000001 -0.00028805185864708702 0.000331815339478836 0.074907912748781197 19101030 0
Si 3.0575000000000001 0 23.605876500000001 0.041458691445324422 0.020496167277877217 0.94533699425588535 19101031 0
C 3.0574847100000002 1.76525727 11.6606682 0.00074416603445185575 -0.00034432932087971103 0.17537943764715214 19101032 0
C 4.5862499999999997 0.88264187999999999 20.4724182 -0.0022648201075221482 -0.0017891672862467914 0.080110483593433007 19101033 0
C 3.0575000000000001 1.7652308000000001 17.927584800000002 0.0014580379655884719 0.00079518729195233691 -0.10283778805105075 19101034 0
C 4.58626529 0.88261540000000005 9.1158348 0.00013335351662296206 1.4605262004627785e-05 -0.89468932846972926 19101035 0
Ti 1.5287500000000001 2.6478726699999999 10.388251500000001 -0.00033765499925039044 0.00020505462294601159 0.15855994138310642 19101036 0
Ti 1.5287500000000001 2.6478726699999999 19.200001499999999 -0.00095335113484114917 -3.9947510961917195e-05 -0.012197465888451071 19101037 0
Ti 3.05751529 3.5304880700000001 12.77623575 -3.9788093230479547e-06 -3.130896831316391e-05 -0.25840309302451453 19101038 0
Ti 1.5287500000000001 4.4131034700000003 21.587985750000001 0.0099188410536623708 0.0077134543732274227 -0.070939656245737587 19101039 0
Ti 3.0575000000000001 3.5305145499999999 16.81201725 -0.00035924541815162927 -0.00090540102874266093 0.012164321509349936 19101040 0
Ti 1.5287347099999999 4.4131299500000001 8.0002672500000003 -0.00027063626883129825 9.5072111621076111e-05 0.55107823769412312 19101041 0
Si 1.5287500000000001 2.6478726699999999 14.794126500000001 -0.0002881359250236245 0.0003318117472690716 0.074907851999059472 19101042 0
Si 1.5287500000000001 2.6478726699999999 23.605876500000001 0.041458560841695732 0.020495858903591176 0.94533715431862453 19101043 0
C 1.5287347099999999 4.4131299500000001 11.6606682 0.00074420635847337617 -0.00034439842079315091 0.17537952600457921 19101044 0
C 3.0575000000000001 3.5305145499999999 20.4724182 -0.00226476269600301 -0.0017893041211392276 0.080110523174535112 19101045 0
C 1.5287500000000001 4.4131034700000003 17.927584800000002 0.0014582405730954933 0.00079534591240414511 -0.10283772076074386 19101046 0
C 3.05751529 3.5304880700000001 9.1158348 0.00013327199725626776 1.4695599227491682e-05 -0.89468923681176771 19101047 0
Ag 0.81023750000000005 0.55605325999999999 26.205876499999999 -0.048739930693582595 -0.026133695216394366 -0.65827027030161822 19101048 1
Ag -0.7185125 3.20392593 26.205876499999999 -0.048740059599833095 -0.026133644741056714 -0.65827038045254094 19101049 0
Ag 3.8677375000000001 0.55605325999999999 26.205876499999999 -0.04873992838980086 -0.026133684521001812 -0.65827023575701948 19101050 0
Ag 2.3389875 3.20392593 26.205876499999999 -0.048740033228364496 -0.026133613405918691 -0.65827033121888812 19101051 0
