LAMMPS (30 Sep 2026)
  using 5 OpenMP thread(s) per MPI task
package omp 5
using multi-threaded neighbor list subroutines
units metal
dimension 3
atom_style atomic
boundary p p f
read_data structures/state_current.data
Reading data file ...
  triclinic box = (0 0 -10) to (37.285975 32.290601 100) with tilt (-18.642987 0 0)
WARNING: Triclinic box skew is large. LAMMPS will run inefficiently. (src/domain.cpp:214)
  1 by 1 by 1 MPI processor grid
  reading atoms ...
  4443 atoms
  reading velocities ...
  4443 velocities
  read_data CPU = 0.032 seconds
create_atoms 4 single 2.7716751374 25.6003668526 60.0 units box
Created 1 atoms
  using box units in triclinic box = (0 0 -10) to (37.285975 32.290601 100) with tilt (-18.642987 0 0)
  create_atoms CPU = 0.000 seconds
include potentials/potential_stage69.inc
# Stage69 collision-ready candidate potential; no physical run is implied.
# Baseline: Ag EAM + Ti/Si/C TSCBOP + calibrated Ag-interface Morse.
# ZBL is overlaid only in the 0.8-1.5 A short-range window.
pair_style hybrid/overlay eam tersoff morse 8.0 zbl 0.8 1.5
pair_coeff 4 4 eam potentials/Ag_u3.eam
Reading eam potential file potentials/Ag_u3.eam with DATE: 2007-06-11
pair_coeff * * tersoff potentials/TSCBOP.tersoff Ti Si C NULL
pair_coeff 1 4 morse 0.94814194 2.00000000 2.33708864 8.0
pair_coeff 2 4 morse 0.93944948 2.00000000 2.40407837 8.0
pair_coeff 3 4 morse 1.35077230 2.00000000 2.15255924 8.0
pair_coeff 1 4 zbl 22 47
pair_coeff 2 4 zbl 14 47
pair_coeff 3 4 zbl 6 47
pair_coeff 4 4 zbl 47 47
neighbor 2.0 bin
neigh_modify delay 0 every 1 check yes
region sink_region block INF INF INF INF 8.0 18.0 units box
region crater_region cylinder z 9.9573898076 24.2578814220 8.0 12.0 100.0 units box
group projectiles id 4306:4443
138 atoms in group projectiles
group new_projectile id 4444
1 atoms in group new_projectile
group all_projectiles union projectiles new_projectile
139 atoms in group all_projectiles
group fixed_part_01 id 2 3 9 90 2969 3032 81 82 2909 2910 2914 2975 170 250 251 255 256 257 351 356 2921 341 342 352 444 445 516 2924 2933 2992 2998 3003 436 511 517 596 603 604 2934 2939 3006 597 693 698 699 777 2948 3010 3018 3019 766 849 850 859 2953 2954 2955 2958 3022 3024 851 952 953 2963 24 3033 16 17 25 96 97 104 105 106 189 184 190 260 261 269 270 2915 2916 2983 2989 262 357 358 364 2925
90 atoms in group fixed_part_01
group fixed_part_02 id 2926 2993 453 454 523 530 537 626 2935 2999 524 610 611 617 618 708 715 792 2941 2942 778 783 784 785 875 876 882 2949 867 868 869 877 963 970 971 972 2964 23 964 119 120 127 2970 2971 111 112 113 121 203 285 2917 2976 2985 277 286 372 373 380 381 389 475 2984 374 466 470 545 550 2927 2928 2937 538 627 637 638 639 644 2936 3007 628 725 901 2943 2950 3011 3012 3020 883 884 892 893
90 atoms in group fixed_part_02
group fixed_part_03 id 984 985 2956 38 986 2965 3025 3035 39 44 2972 40 128 135 136 2911 2918 2977 2978 210 294 295 299 300 396 406 2986 2987 390 397 398 486 2929 2930 556 557 558 654 655 2938 645 646 656 728 818 2944 2951 3013 3014 729 805 806 807 902 912 913 914 922 2957 3021 43 903 991 2959 2966 3026 3027 60 53 54 61 146 150 151 2913 2973 2980 222 223 224 229 315 316 2912 2920 2979 2991 308 309 407
90 atoms in group fixed_part_03
group fixed_part_04 id 497 2922 2990 2995 408 562 563 573 574 575 2931 2932 3001 564 659 660 667 2945 3008 3009 742 743 750 819 826 827 828 2952 3015 3016 923 924 930 931 932 999 1000 2960 2967 3028 1001 71 75 76 80 163 2974 3036 3037 156 157 158 164 236 2919 2981 2982 237 325 326 327 334 340 431 432 2997 424 425 433 498 504 505 587 2923 3002 499 580 581 582 588 589 675 681 682 692 2940 3005 756 760 765
90 atoms in group fixed_part_04
group fixed_part_05 id 841 842 2946 2947 835 836 837 843 939 946 2962 3023 3031 1 74 1015 2961 2968 3030 4 5 12 91 3105 83 85 94 171 177 181 3110 175 252 254 258 3044 3049 343 346 449 515 518 520 605 607 3063 700 3074 3075 3082 767 769 775 852 863 949 856 954 960 3099 26 3101 98 100 107 3039 3100 3106 185 188 3038 3045 3046 368 459 2994 3050 3051 457 463 531 535 3000 3004 3052 527 619 716 3068 3069
90 atoms in group fixed_part_05
group fixed_part_06 id 710 779 780 786 3076 3083 870 872 965 974 3087 3093 32 35 36 122 3034 3102 114 117 123 206 287 3040 291 375 382 3047 3054 377 467 469 471 472 546 3053 539 540 629 3064 3065 3070 3071 632 721 726 793 802 3077 796 885 894 897 987 3088 3089 3095 989 3094 41 45 3103 129 137 141 3041 3107 298 304 399 3048 391 402 3055 3059 551 554 559 560 3058 3066 3072 647 658 736 740 3078 811 817 904
90 atoms in group fixed_part_06
group fixed_part_07 id 915 918 3090 3096 62 55 59 66 147 152 3108 148 225 226 231 317 3042 310 312 321 409 413 421 2996 3056 487 488 565 576 577 3060 568 668 672 3017 3073 747 820 830 933 3079 3084 823 925 926 3029 3091 3092 3097 1002 1004 72 73 77 3104 3109 166 247 2988 3043 328 331 335 338 434 426 428 500 3057 3061 3062 583 593 676 683 687 3067 679 757 761 844 3080 3081 838 943 947 951 3085 3086 1016
90 atoms in group fixed_part_07
group fixed_part_08 id 1020 1025 3098
3 atoms in group fixed_part_08
group fixed union fixed_part_01 fixed_part_02 fixed_part_03 fixed_part_04 fixed_part_05 fixed_part_06 fixed_part_07 fixed_part_08
633 atoms in group fixed
group sink region sink_region
925 atoms in group sink
group mobile subtract all fixed
3811 atoms in group mobile
group crater region crater_region
438 atoms in group crater
group freezone intersect mobile crater
438 atoms in group freezone
group free_substrate subtract freezone all_projectiles
323 atoms in group free_substrate
group anchored subtract mobile freezone
3373 atoms in group anchored
group bath subtract sink freezone
816 atoms in group bath
velocity new_projectile set 0.0 0.0 -105.3164
fix hold fixed setforce 0.0 0.0 0.0
fix integrate all nve
fix anchor anchored spring/self 100.0
fix_modify anchor energy yes
fix bathfix bath langevin 300.0 300.0 0.05 623839 zero yes tally yes
compute Tfree free_substrate temp
compute Tmobile mobile temp
timestep 0.00005
thermo 200
thermo_style custom step time atoms c_Tfree c_Tmobile pe ke etotal f_bathfix
thermo_modify flush yes
dump tr all custom 4000 dumps/impact_139_62eV.dump id type x y z vx vy vz fx fy fz
dump_modify tr sort id
run 4000
Hybrid pair style last /omp style zbl
Last active /omp style is pair_style zbl
Neighbor list info ...
  update: every = 1 steps, delay = 0 steps, check = yes
  max neighbors/atom: 2000, page size: 100000
  master list distance cutoff = 10
  ghost atom cutoff = 10
  binsize = 5, bins = 12 7 22
  6 neighbor lists, perpetual/occasional/extra = 6 0 0
  (1) pair eam, perpetual, skip from (5)
      attributes: half, newton on, omp
      pair build: skip/omp
      stencil: none
      bin: none
  (2) pair tersoff, perpetual, skip from (6)
      attributes: full, newton on, omp
      pair build: skip/omp
      stencil: none
      bin: none
  (3) pair morse, perpetual, skip from (5)
      attributes: half, newton on, omp
      pair build: skip/omp
      stencil: none
      bin: none
  (4) pair zbl, perpetual, skip from (5)
      attributes: half, newton on, omp
      pair build: skip/omp
      stencil: none
      bin: none
  (5) neighbor class addition, perpetual, half/full from (6)
      attributes: half, newton on, omp
      pair build: halffull/newton/tri/omp
      stencil: none
      bin: none
  (6) neighbor class addition, perpetual
      attributes: full, newton on, omp
      pair build: full/bin/atomonly/omp
      stencil: full/bin/3d
      bin: standard
Per MPI rank memory allocation (min/avg/max) = 23.49 | 23.49 | 23.49 Mbytes
   Step          Time         Atoms       c_Tfree       c_Tmobile        PotEng         KinEng         TotEng       f_bathfix   
         0   0                   4444   4322.4735      1156.4494     -28377.943      569.52953     -27808.414     -0            
       200   0.01                4444   4315.8994      961.42677     -28277.61       473.48456     -27804.125     -4.2890807    
       400   0.02                4444   4134.6228      966.58922     -28274.017      476.02697     -27797.99      -10.42355     
       600   0.03                4444   4222.461       1082.475      -28328.679      533.09852     -27795.58      -12.832912    
       800   0.04                4444   4287.6882      1059.1585     -28313.475      521.61559     -27791.859     -16.551668    
      1000   0.05                4444   4235.7641      947.92505     -28255.651      466.83522     -27788.816     -19.594928    
      1200   0.06                4444   4664.7506      1122.6129     -28339.812      552.86569     -27786.946     -21.466677    
      1400   0.07                4444   4733.699       1097.0122     -28327.192      540.25782     -27786.935     -21.47934     
      1600   0.08                4444   4545.7705      997.72476     -28277.1        491.36064     -27785.739     -22.675367    
      1800   0.09                4444   4465.5263      1026.7164     -28290.433      505.63849     -27784.795     -23.618084    
      2000   0.1                 4444   4461.4491      1121.0161     -28337.231      552.07928     -27785.152     -23.262375    
      2200   0.11                4444   4279.9581      1002.0846     -28277.934      493.50775     -27784.426     -23.986502    
      2400   0.12                4444   4149.1123      963.50862     -28257.947      474.50983     -27783.437     -24.977214    
      2600   0.13                4444   4414.6154      1012.2291     -28282.292      498.50375     -27783.788     -24.62715     
      2800   0.14                4444   5300.4759      1041.7753     -28296.423      513.05468     -27783.369     -25.049508    
      3000   0.15                4444   4662.1141      933.24959     -28243.77       459.60784     -27784.162     -24.256803    
      3200   0.16                4444   4969.539       1004.7413     -28278.92       494.81615     -27784.104     -24.318799    
      3400   0.17                4444   5087.4824      1020.5358     -28285.816      502.59466     -27783.221     -25.199948    
      3600   0.18                4444   4907.7317      945.02413     -28249.362      465.40657     -27783.955     -24.464998    
      3800   0.19                4444   4987.1357      939.56366     -28246.556      462.71739     -27783.839     -24.583504    
      4000   0.2                 4444   4917.637       1019.7481     -28287.448      502.20672     -27785.241     -23.181975    
Loop time of 36.8896 on 5 procs for 4000 steps with 4444 atoms

Performance: 0.468 ns/day, 51.236 hours/ns, 108.432 timesteps/s, 481.870 katom-step/s
399.9% CPU use with 1 MPI tasks x 5 OpenMP threads

MPI task timing breakdown:
Section |  min time  |  avg time  |  max time  |%varavg| %total
---------------------------------------------------------------
Pair    | 34.918     | 34.918     | 34.918     |   0.0 | 94.65
Neigh   | 0.23348    | 0.23348    | 0.23348    |   0.0 |  0.63
Comm    | 0.42077    | 0.42077    | 0.42077    |   0.0 |  1.14
Output  | 0.011353   | 0.011353   | 0.011353   |   0.0 |  0.03
Modify  | 1.2411     | 1.2411     | 1.2411     |   0.0 |  3.36
Other   |            | 0.06512    |            |       |  0.18

Nlocal:           4444 ave        4444 max        4444 min
Histogram: 1 0 0 0 0 0 0 0 0 0
Nghost:           7248 ave        7248 max        7248 min
Histogram: 1 0 0 0 0 0 0 0 0 0
Neighs:              0 ave           0 max           0 min
Histogram: 1 0 0 0 0 0 0 0 0 0

Total # of neighbors = 0
Ave neighs/atom = 0
Neighbor list builds = 19
Dangerous builds = 0
undump tr
write_data structures/state_current.data
System init for write_data ...
Hybrid pair style last /omp style zbl
Last active /omp style is pair_style zbl
write_restart restart/state_current.restart
System init for write_restart ...
Hybrid pair style last /omp style zbl
Last active /omp style is pair_style zbl


Total wall time: 0:00:36
