LAMMPS (30 Sep 2026)
  using 5 OpenMP thread(s) per MPI task
package omp 5
using multi-threaded neighbor list subroutines
units metal
dimension 3
atom_style atomic
boundary p p m
read_data structures/state_current.data
Reading data file ...
  triclinic box = (0 0 -10) to (37.285975 32.290601 102.21577) with tilt (-18.642987 0 0)
WARNING: Triclinic box skew is large. LAMMPS will run inefficiently. (src/domain.cpp:214)
  1 by 1 by 1 MPI processor grid
  reading atoms ...
  4729 atoms
  reading velocities ...
  4729 velocities
  read_data CPU = 0.034 seconds
create_atoms 4 single 7.5201736103 25.5022678312 60.0 units box
Created 1 atoms
  using box units in triclinic box = (0 0 -10) to (37.285975 32.290601 102.21577) with tilt (-18.642987 0 0)
  create_atoms CPU = 0.000 seconds
include potentials/potential_stage69.inc
# Stage69 collision-ready candidate potential; no physical run is implied.
# Baseline: Ag EAM + Ti/Si/C TSCBOP + calibrated Ag-interface Morse.
# ZBL is overlaid only in the 0.8-1.5 A short-range window.
pair_style hybrid/overlay eam tersoff morse 8.0 zbl 0.8 1.5
pair_coeff 4 4 eam potentials/Ag_u3.eam
Reading eam potential file potentials/Ag_u3.eam with DATE: 2007-06-11
pair_coeff * * tersoff potentials/TSCBOP.tersoff Ti Si C NULL
pair_coeff 1 4 morse 0.94814194 2.00000000 2.33708864 8.0
pair_coeff 2 4 morse 0.93944948 2.00000000 2.40407837 8.0
pair_coeff 3 4 morse 1.35077230 2.00000000 2.15255924 8.0
pair_coeff 1 4 zbl 22 47
pair_coeff 2 4 zbl 14 47
pair_coeff 3 4 zbl 6 47
pair_coeff 4 4 zbl 47 47
neighbor 2.0 bin
neigh_modify delay 0 every 1 check yes
region sink_region block INF INF INF INF 8.0 18.0 units box
region crater_region cylinder z 9.9573898076 24.2578814220 8.0 12.0 100.0 units box
group projectiles id 4306:4729
424 atoms in group projectiles
group new_projectile id 4730
1 atoms in group new_projectile
group all_projectiles union projectiles new_projectile
425 atoms in group all_projectiles
group fixed_part_01 id 2 3 9 90 2969 3032 81 82 2909 2910 2914 2975 170 250 251 255 256 257 351 356 2921 341 342 352 444 445 516 2924 2933 2992 2998 3003 436 511 517 596 603 604 2934 2939 3006 597 693 698 699 777 2948 3010 3018 3019 766 849 850 859 2953 2954 2955 2958 3022 3024 851 952 953 2963 24 3033 16 17 25 96 97 104 105 106 189 184 190 260 261 269 270 2915 2916 2983 2989 262 357 358 364 2925
90 atoms in group fixed_part_01
group fixed_part_02 id 2926 2993 453 454 523 530 537 626 2935 2999 524 610 611 617 618 708 715 792 2941 2942 778 783 784 785 875 876 882 2949 867 868 869 877 963 970 971 972 2964 23 964 119 120 127 2970 2971 111 112 113 121 203 285 2917 2976 2985 277 286 372 373 380 381 389 475 2984 374 466 470 545 550 2927 2928 2937 538 627 637 638 639 644 2936 3007 628 725 901 2943 2950 3011 3012 3020 883 884 892 893
90 atoms in group fixed_part_02
group fixed_part_03 id 984 985 2956 38 986 2965 3025 3035 39 44 2972 40 128 135 136 2911 2918 2977 2978 210 294 295 299 300 396 406 2986 2987 390 397 398 486 2929 2930 556 557 558 654 655 2938 645 646 656 728 818 2944 2951 3013 3014 729 805 806 807 902 912 913 914 922 2957 3021 43 903 991 2959 2966 3026 3027 60 53 54 61 146 150 151 2913 2973 2980 222 223 224 229 315 316 2912 2920 2979 2991 308 309 407
90 atoms in group fixed_part_03
group fixed_part_04 id 497 2922 2990 2995 408 562 563 573 574 575 2931 2932 3001 564 659 660 667 2945 3008 3009 742 743 750 819 826 827 828 2952 3015 3016 923 924 930 931 932 999 1000 2960 2967 3028 1001 71 75 76 80 163 2974 3036 3037 156 157 158 164 236 2919 2981 2982 237 325 326 327 334 340 431 432 2997 424 425 433 498 504 505 587 2923 3002 499 580 581 582 588 589 675 681 682 692 2940 3005 756 760 765
90 atoms in group fixed_part_04
group fixed_part_05 id 841 842 2946 2947 835 836 837 843 939 946 2962 3023 3031 1 74 1015 2961 2968 3030 4 5 12 91 3105 83 85 94 171 177 181 3110 175 252 254 258 3044 3049 343 346 449 515 518 520 605 607 3063 700 3074 3075 3082 767 769 775 852 863 949 856 954 960 3099 26 3101 98 100 107 3039 3100 3106 185 188 3038 3045 3046 368 459 2994 3050 3051 457 463 531 535 3000 3004 3052 527 619 716 3068 3069
90 atoms in group fixed_part_05
group fixed_part_06 id 710 779 780 786 3076 3083 870 872 965 974 3087 3093 32 35 36 122 3034 3102 114 117 123 206 287 3040 291 375 382 3047 3054 377 467 469 471 472 546 3053 539 540 629 3064 3065 3070 3071 632 721 726 793 802 3077 796 885 894 897 987 3088 3089 3095 989 3094 41 45 3103 129 137 141 3041 3107 298 304 399 3048 391 402 3055 3059 551 554 559 560 3058 3066 3072 647 658 736 740 3078 811 817 904
90 atoms in group fixed_part_06
group fixed_part_07 id 915 918 3090 3096 62 55 59 66 147 152 3108 148 225 226 231 317 3042 310 312 321 409 413 421 2996 3056 487 488 565 576 577 3060 568 668 672 3017 3073 747 820 830 933 3079 3084 823 925 926 3029 3091 3092 3097 1002 1004 72 73 77 3104 3109 166 247 2988 3043 328 331 335 338 434 426 428 500 3057 3061 3062 583 593 676 683 687 3067 679 757 761 844 3080 3081 838 943 947 951 3085 3086 1016
90 atoms in group fixed_part_07
group fixed_part_08 id 1020 1025 3098
3 atoms in group fixed_part_08
group fixed union fixed_part_01 fixed_part_02 fixed_part_03 fixed_part_04 fixed_part_05 fixed_part_06 fixed_part_07 fixed_part_08
633 atoms in group fixed
group sink region sink_region
952 atoms in group sink
group mobile subtract all fixed
4097 atoms in group mobile
group crater region crater_region
395 atoms in group crater
group freezone intersect mobile crater
395 atoms in group freezone
group free_substrate subtract freezone all_projectiles
206 atoms in group free_substrate
group anchored subtract mobile freezone
3702 atoms in group anchored
group bath subtract sink freezone
839 atoms in group bath
velocity new_projectile set 0.0 0.0 -105.3164
fix hold fixed setforce 0.0 0.0 0.0
fix integrate all nve
fix anchor anchored spring/self 100.0
fix_modify anchor energy yes
fix bathfix bath langevin 300.0 300.0 0.05 624125 zero yes tally yes
compute Tfree free_substrate temp
compute Tmobile mobile temp
timestep 0.00005
thermo 200
thermo_style custom step time atoms c_Tfree c_Tmobile pe ke etotal f_bathfix
thermo_modify flush yes
dump tr all custom 4000 dumps/impact_425_62eV.dump id type x y z vx vy vz fx fy fz
dump_modify tr sort id
run 4000
Hybrid pair style last /omp style zbl
Last active /omp style is pair_style zbl
Neighbor list info ...
  update: every = 1 steps, delay = 0 steps, check = yes
  max neighbors/atom: 2000, page size: 100000
  master list distance cutoff = 10
  ghost atom cutoff = 10
  binsize = 5, bins = 12 7 23
  6 neighbor lists, perpetual/occasional/extra = 6 0 0
  (1) pair eam, perpetual, skip from (5)
      attributes: half, newton on, omp
      pair build: skip/omp
      stencil: none
      bin: none
  (2) pair tersoff, perpetual, skip from (6)
      attributes: full, newton on, omp
      pair build: skip/omp
      stencil: none
      bin: none
  (3) pair morse, perpetual, skip from (5)
      attributes: half, newton on, omp
      pair build: skip/omp
      stencil: none
      bin: none
  (4) pair zbl, perpetual, skip from (5)
      attributes: half, newton on, omp
      pair build: skip/omp
      stencil: none
      bin: none
  (5) neighbor class addition, perpetual, half/full from (6)
      attributes: half, newton on, omp
      pair build: halffull/newton/tri/omp
      stencil: none
      bin: none
  (6) neighbor class addition, perpetual
      attributes: full, newton on, omp
      pair build: full/bin/atomonly/omp
      stencil: full/bin/3d
      bin: standard
Per MPI rank memory allocation (min/avg/max) = 24.28 | 24.28 | 24.28 Mbytes
   Step          Time         Atoms       c_Tfree       c_Tmobile        PotEng         KinEng         TotEng       f_bathfix   
         0   0                   4730   4386.296       1703.5409     -30355.19       901.93898     -29453.251     -0            
       200   0.01                4730   4503.2407      1183.5268     -30074.78       626.61775     -29448.163     -5.08746      
       400   0.02                4730   4550.6071      1065.4077     -30007.604      564.07962     -29443.525     -9.7244252    
       600   0.03                4730   4338.0739      1572.8956     -30272.056      832.76886     -29439.287     -13.96357     
       800   0.04                4730   4369.2013      1385.2519     -30170.898      733.42098     -29437.477     -15.773489    
      1000   0.05                4730   4085.9243      985.97218     -29956.293      522.02253     -29434.271     -18.97702     
      1200   0.06                4730   3809.1188      1434.2751     -30192.68       759.37629     -29433.304     -19.947079    
      1400   0.07                4730   4449.6071      1553.0476     -30255.568      822.26036     -29433.308     -19.944289    
      1600   0.08                4730   4232.8066      1036.5976     -29981.297      548.82612     -29432.471     -20.779552    
      1800   0.09                4730   4046.1763      1208.2004     -30070.467      639.68118     -29430.786     -22.465793    
      2000   0.1                 4730   4326.7509      1608.8798     -30281.514      851.82068     -29429.693     -23.559512    
      2200   0.11                4730   4225.1433      1164.6581     -30045.348      616.62773     -29428.72      -24.53074     
      2400   0.12                4730   4070.2251      1043.882      -29982.023      552.68284     -29429.34      -23.90916     
      2600   0.13                4730   4658.5421      1563.1603     -30257.124      827.61451     -29429.51      -23.741111    
      2800   0.14                4730   4364.9146      1339.5316     -30138.363      709.21442     -29429.148     -24.101694    
      3000   0.15                4730   4422.8425      975.21626     -29945.449      516.32782     -29429.121     -24.128336    
      3200   0.16                4730   4272.4548      1416.3107     -30178.923      749.86508     -29429.058     -24.191511    
      3400   0.17                4730   4303.3876      1478.2075     -30211.714      782.63633     -29429.077     -24.172422    
      3600   0.18                4730   4112.5932      979.8573      -29949.805      518.78501     -29431.02      -22.227766    
      3800   0.19                4730   4072.0267      1214.4428     -30073.413      642.9862      -29430.427     -22.821843    
      4000   0.2                 4730   4549.9154      1618.6392     -30287.596      856.98781     -29430.608     -22.642743    
Loop time of 42.0903 on 5 procs for 4000 steps with 4730 atoms

Performance: 0.411 ns/day, 58.459 hours/ns, 95.034 timesteps/s, 449.509 katom-step/s
399.9% CPU use with 1 MPI tasks x 5 OpenMP threads

MPI task timing breakdown:
Section |  min time  |  avg time  |  max time  |%varavg| %total
---------------------------------------------------------------
Pair    | 40.005     | 40.005     | 40.005     |   0.0 | 95.05
Neigh   | 0.268      | 0.268      | 0.268      |   0.0 |  0.64
Comm    | 0.42714    | 0.42714    | 0.42714    |   0.0 |  1.01
Output  | 0.011731   | 0.011731   | 0.011731   |   0.0 |  0.03
Modify  | 1.3191     | 1.3191     | 1.3191     |   0.0 |  3.13
Other   |            | 0.05942    |            |       |  0.14

Nlocal:           4730 ave        4730 max        4730 min
Histogram: 1 0 0 0 0 0 0 0 0 0
Nghost:           7676 ave        7676 max        7676 min
Histogram: 1 0 0 0 0 0 0 0 0 0
Neighs:              0 ave           0 max           0 min
Histogram: 1 0 0 0 0 0 0 0 0 0

Total # of neighbors = 0
Ave neighs/atom = 0
Neighbor list builds = 18
Dangerous builds = 0
undump tr
write_data structures/state_current.data
System init for write_data ...
Hybrid pair style last /omp style zbl
Last active /omp style is pair_style zbl
write_restart restart/state_current.restart
System init for write_restart ...
Hybrid pair style last /omp style zbl
Last active /omp style is pair_style zbl


Total wall time: 0:00:42
