LAMMPS (30 Sep 2026)
  using 5 OpenMP thread(s) per MPI task
package omp 5
using multi-threaded neighbor list subroutines
units metal
dimension 3
atom_style atomic
boundary p p f
read_data structures/state_current.data
Reading data file ...
  triclinic box = (0 0 -10) to (37.285975 32.290601 100) with tilt (-18.642987 0 0)
WARNING: Triclinic box skew is large. LAMMPS will run inefficiently. (src/domain.cpp:214)
  1 by 1 by 1 MPI processor grid
  reading atoms ...
  4619 atoms
  reading velocities ...
  4619 velocities
  read_data CPU = 0.029 seconds
create_atoms 4 single 6.3579275763 28.1551855648 60.0 units box
Created 1 atoms
  using box units in triclinic box = (0 0 -10) to (37.285975 32.290601 100) with tilt (-18.642987 0 0)
  create_atoms CPU = 0.000 seconds
include potentials/potential_stage69.inc
# Stage69 collision-ready candidate potential; no physical run is implied.
# Baseline: Ag EAM + Ti/Si/C TSCBOP + calibrated Ag-interface Morse.
# ZBL is overlaid only in the 0.8-1.5 A short-range window.
pair_style hybrid/overlay eam tersoff morse 8.0 zbl 0.8 1.5
pair_coeff 4 4 eam potentials/Ag_u3.eam
Reading eam potential file potentials/Ag_u3.eam with DATE: 2007-06-11
pair_coeff * * tersoff potentials/TSCBOP.tersoff Ti Si C NULL
pair_coeff 1 4 morse 0.94814194 2.00000000 2.33708864 8.0
pair_coeff 2 4 morse 0.93944948 2.00000000 2.40407837 8.0
pair_coeff 3 4 morse 1.35077230 2.00000000 2.15255924 8.0
pair_coeff 1 4 zbl 22 47
pair_coeff 2 4 zbl 14 47
pair_coeff 3 4 zbl 6 47
pair_coeff 4 4 zbl 47 47
neighbor 2.0 bin
neigh_modify delay 0 every 1 check yes
region sink_region block INF INF INF INF 8.0 18.0 units box
region crater_region cylinder z 9.9573898076 24.2578814220 8.0 12.0 100.0 units box
group projectiles id 4306:4619
314 atoms in group projectiles
group new_projectile id 4620
1 atoms in group new_projectile
group all_projectiles union projectiles new_projectile
315 atoms in group all_projectiles
group fixed_part_01 id 2 3 9 90 2969 3032 81 82 2909 2910 2914 2975 170 250 251 255 256 257 351 356 2921 341 342 352 444 445 516 2924 2933 2992 2998 3003 436 511 517 596 603 604 2934 2939 3006 597 693 698 699 777 2948 3010 3018 3019 766 849 850 859 2953 2954 2955 2958 3022 3024 851 952 953 2963 24 3033 16 17 25 96 97 104 105 106 189 184 190 260 261 269 270 2915 2916 2983 2989 262 357 358 364 2925
90 atoms in group fixed_part_01
group fixed_part_02 id 2926 2993 453 454 523 530 537 626 2935 2999 524 610 611 617 618 708 715 792 2941 2942 778 783 784 785 875 876 882 2949 867 868 869 877 963 970 971 972 2964 23 964 119 120 127 2970 2971 111 112 113 121 203 285 2917 2976 2985 277 286 372 373 380 381 389 475 2984 374 466 470 545 550 2927 2928 2937 538 627 637 638 639 644 2936 3007 628 725 901 2943 2950 3011 3012 3020 883 884 892 893
90 atoms in group fixed_part_02
group fixed_part_03 id 984 985 2956 38 986 2965 3025 3035 39 44 2972 40 128 135 136 2911 2918 2977 2978 210 294 295 299 300 396 406 2986 2987 390 397 398 486 2929 2930 556 557 558 654 655 2938 645 646 656 728 818 2944 2951 3013 3014 729 805 806 807 902 912 913 914 922 2957 3021 43 903 991 2959 2966 3026 3027 60 53 54 61 146 150 151 2913 2973 2980 222 223 224 229 315 316 2912 2920 2979 2991 308 309 407
90 atoms in group fixed_part_03
group fixed_part_04 id 497 2922 2990 2995 408 562 563 573 574 575 2931 2932 3001 564 659 660 667 2945 3008 3009 742 743 750 819 826 827 828 2952 3015 3016 923 924 930 931 932 999 1000 2960 2967 3028 1001 71 75 76 80 163 2974 3036 3037 156 157 158 164 236 2919 2981 2982 237 325 326 327 334 340 431 432 2997 424 425 433 498 504 505 587 2923 3002 499 580 581 582 588 589 675 681 682 692 2940 3005 756 760 765
90 atoms in group fixed_part_04
group fixed_part_05 id 841 842 2946 2947 835 836 837 843 939 946 2962 3023 3031 1 74 1015 2961 2968 3030 4 5 12 91 3105 83 85 94 171 177 181 3110 175 252 254 258 3044 3049 343 346 449 515 518 520 605 607 3063 700 3074 3075 3082 767 769 775 852 863 949 856 954 960 3099 26 3101 98 100 107 3039 3100 3106 185 188 3038 3045 3046 368 459 2994 3050 3051 457 463 531 535 3000 3004 3052 527 619 716 3068 3069
90 atoms in group fixed_part_05
group fixed_part_06 id 710 779 780 786 3076 3083 870 872 965 974 3087 3093 32 35 36 122 3034 3102 114 117 123 206 287 3040 291 375 382 3047 3054 377 467 469 471 472 546 3053 539 540 629 3064 3065 3070 3071 632 721 726 793 802 3077 796 885 894 897 987 3088 3089 3095 989 3094 41 45 3103 129 137 141 3041 3107 298 304 399 3048 391 402 3055 3059 551 554 559 560 3058 3066 3072 647 658 736 740 3078 811 817 904
90 atoms in group fixed_part_06
group fixed_part_07 id 915 918 3090 3096 62 55 59 66 147 152 3108 148 225 226 231 317 3042 310 312 321 409 413 421 2996 3056 487 488 565 576 577 3060 568 668 672 3017 3073 747 820 830 933 3079 3084 823 925 926 3029 3091 3092 3097 1002 1004 72 73 77 3104 3109 166 247 2988 3043 328 331 335 338 434 426 428 500 3057 3061 3062 583 593 676 683 687 3067 679 757 761 844 3080 3081 838 943 947 951 3085 3086 1016
90 atoms in group fixed_part_07
group fixed_part_08 id 1020 1025 3098
3 atoms in group fixed_part_08
group fixed union fixed_part_01 fixed_part_02 fixed_part_03 fixed_part_04 fixed_part_05 fixed_part_06 fixed_part_07 fixed_part_08
633 atoms in group fixed
group sink region sink_region
944 atoms in group sink
group mobile subtract all fixed
3987 atoms in group mobile
group crater region crater_region
419 atoms in group crater
group freezone intersect mobile crater
419 atoms in group freezone
group free_substrate subtract freezone all_projectiles
239 atoms in group free_substrate
group anchored subtract mobile freezone
3568 atoms in group anchored
group bath subtract sink freezone
830 atoms in group bath
velocity new_projectile set 0.0 0.0 -105.3164
fix hold fixed setforce 0.0 0.0 0.0
fix integrate all nve
fix anchor anchored spring/self 100.0
fix_modify anchor energy yes
fix bathfix bath langevin 300.0 300.0 0.05 624015 zero yes tally yes
compute Tfree free_substrate temp
compute Tmobile mobile temp
timestep 0.00005
thermo 200
thermo_style custom step time atoms c_Tfree c_Tmobile pe ke etotal f_bathfix
thermo_modify flush yes
dump tr all custom 4000 dumps/impact_315_62eV.dump id type x y z vx vy vz fx fy fz
dump_modify tr sort id
run 4000
Hybrid pair style last /omp style zbl
Last active /omp style is pair_style zbl
Neighbor list info ...
  update: every = 1 steps, delay = 0 steps, check = yes
  max neighbors/atom: 2000, page size: 100000
  master list distance cutoff = 10
  ghost atom cutoff = 10
  binsize = 5, bins = 12 7 22
  6 neighbor lists, perpetual/occasional/extra = 6 0 0
  (1) pair eam, perpetual, skip from (5)
      attributes: half, newton on, omp
      pair build: skip/omp
      stencil: none
      bin: none
  (2) pair tersoff, perpetual, skip from (6)
      attributes: full, newton on, omp
      pair build: skip/omp
      stencil: none
      bin: none
  (3) pair morse, perpetual, skip from (5)
      attributes: half, newton on, omp
      pair build: skip/omp
      stencil: none
      bin: none
  (4) pair zbl, perpetual, skip from (5)
      attributes: half, newton on, omp
      pair build: skip/omp
      stencil: none
      bin: none
  (5) neighbor class addition, perpetual, half/full from (6)
      attributes: half, newton on, omp
      pair build: halffull/newton/tri/omp
      stencil: none
      bin: none
  (6) neighbor class addition, perpetual
      attributes: full, newton on, omp
      pair build: full/bin/atomonly/omp
      stencil: full/bin/3d
      bin: standard
Per MPI rank memory allocation (min/avg/max) = 23.89 | 23.89 | 23.89 Mbytes
   Step          Time         Atoms       c_Tfree       c_Tmobile        PotEng         KinEng         TotEng       f_bathfix   
         0   0                   4620   4140.2339      1458.5042     -29847.094      751.46648     -29095.628     -0            
       200   0.01                4620   3688.0966      1000.7462     -29607.296      515.61541     -29091.68      -3.9441287    
       400   0.02                4620   4060.8418      953.9592      -29577.293      491.50929     -29085.784     -9.8417859    
       600   0.03                4620   4027.5514      1321.7944     -29764.268      681.02938     -29083.239     -12.388402    
       800   0.04                4620   3943.0878      1161.7332     -29680.14       598.56088     -29081.579     -14.049259    
      1000   0.05                4620   4199.9202      888.11246     -29536.537      457.58301     -29078.954     -16.674674    
      1200   0.06                4620   3842.1349      1254.7501     -29724.039      646.48608     -29077.553     -18.075785    
      1400   0.07                4620   4118.8025      1296.798      -29744.7        668.15043     -29076.55      -19.079361    
      1600   0.08                4620   3927.7821      960.78702     -29570.086      495.0272      -29075.059     -20.569359    
      1800   0.09                4620   3951.8848      1105.2307     -29644.173      569.44906     -29074.724     -20.905826    
      2000   0.1                 4620   4087.0947      1362.8511     -29778.206      702.18305     -29076.023     -19.606536    
      2200   0.11                4620   3861.6277      1049.2938     -29615.982      540.62865     -29075.353     -20.276198    
      2400   0.12                4620   3901.4119      1004.2632     -29592.697      517.42745     -29075.27      -20.360298    
      2600   0.13                4620   4044.6694      1336.0845     -29764.294      688.39205     -29075.902     -19.728317    
      2800   0.14                4620   4053.3187      1194.0361     -29690.61       615.20433     -29075.405     -20.225829    
      3000   0.15                4620   4194.5759      956.68628     -29568.282      492.91437     -29075.368     -20.264094    
      3200   0.16                4620   4231.4852      1197.0485     -29692.267      616.7564      -29075.51      -20.122653    
      3400   0.17                4620   4289.965       1283.0564     -29736.739      661.07036     -29075.668     -19.964593    
      3600   0.18                4620   4097.1025      898.8617      -29540.588      463.12136     -29077.467     -18.165763    
      3800   0.19                4620   3835.4849      1032.5884     -29609.333      532.02149     -29077.312     -18.320465    
      4000   0.2                 4620   4022.391       1298.9886     -29745.693      669.2791      -29076.414     -19.218365    
Loop time of 39.4024 on 5 procs for 4000 steps with 4620 atoms

Performance: 0.439 ns/day, 54.726 hours/ns, 101.517 timesteps/s, 469.007 katom-step/s
398.2% CPU use with 1 MPI tasks x 5 OpenMP threads

MPI task timing breakdown:
Section |  min time  |  avg time  |  max time  |%varavg| %total
---------------------------------------------------------------
Pair    | 37.37      | 37.37      | 37.37      |   0.0 | 94.84
Neigh   | 0.30165    | 0.30165    | 0.30165    |   0.0 |  0.77
Comm    | 0.44275    | 0.44275    | 0.44275    |   0.0 |  1.12
Output  | 0.014415   | 0.014415   | 0.014415   |   0.0 |  0.04
Modify  | 1.2281     | 1.2281     | 1.2281     |   0.0 |  3.12
Other   |            | 0.04587    |            |       |  0.12

Nlocal:           4620 ave        4620 max        4620 min
Histogram: 1 0 0 0 0 0 0 0 0 0
Nghost:           7485 ave        7485 max        7485 min
Histogram: 1 0 0 0 0 0 0 0 0 0
Neighs:              0 ave           0 max           0 min
Histogram: 1 0 0 0 0 0 0 0 0 0

Total # of neighbors = 0
Ave neighs/atom = 0
Neighbor list builds = 20
Dangerous builds = 0
undump tr
write_data structures/state_current.data
System init for write_data ...
Hybrid pair style last /omp style zbl
Last active /omp style is pair_style zbl
write_restart restart/state_current.restart
System init for write_restart ...
Hybrid pair style last /omp style zbl
Last active /omp style is pair_style zbl


Total wall time: 0:00:39
