48
Lattice="28.139999999999997 0.0 0.0 0.0 28.139999999999997 0.0 0.0 0.0 28.139999999999997" Properties=species:S:1:pos:R:3:lammps_id:I:1:lammps_type:I:1:central_pair:I:1:PW_PBE_forces:R:3:magmoms:R:1:forces:R:3 source_config_type=AgC_registry_strain_acq_v14_01_periodic_PW_PBE_energy_force_v14_train source_dataset_path=research/mace-v12-transfer/periodic_interface_v4/mace_periodic_v14_interface_energy/data/train.extxyz source_dataset_sha256=3323cdbd3081fc8d91673662c5f83c8da93ba3b4d7a23428f6b70d0e7a4c9faf source_frame_geometry_sha256=72d649542158aade39a3cf50dc73759ad25df8a7ff7b2b117f1aa0c6ffc513a3 proposal_mode=framework_neighbor proposal_sign=1 proposal_displacement_A="0.014502790475521044 0.037037308305145115 -0.004231650024844296" candidate_role=proposed_training_acquisition_geometry_unassigned config_type=AgC_framework_neighbor_p_acq_v17_01 proposal_only_no_DFT_label=T PW_PBE_energy_eV=-257.5994118847394 source_method="GPAW 26.7.0 PW-PBE 500 eV Gamma single point" free_energy=-258.7565058623172 energy=-257.5994118847394 dipole="1.4410781314702108 -1.3196057668849823 0.21756225799399986" magmom=0.0 pbc="T T T"
Ti      14.77773371      12.05600926      19.11551806   113766        1        0      -0.72505904      -0.04839807      -1.97901445       0.00000000      -0.72505904      -0.04839807      -1.97901445
Ti      19.82811217      14.16747384      12.33246569   600768        1        0      -1.35402770      -0.66394950       1.82187621       0.00000000      -1.35402770      -0.66394950       1.82187621
Ti      15.14933662      14.09146000       8.99034223   602398        1        0      -1.16991156      -1.42398084       1.86191815       0.00000000      -1.16991156      -1.42398084       1.86191815
Ti      16.70700672      11.35471852      12.38368619   602560        1        0       0.91249117       1.33172608      -1.11526263       0.00000000       0.91249117       1.33172608      -1.11526263
C       15.80834749      12.28135230      10.41275719   602563        3        0       0.25650874      -0.57775030       0.74072292       0.00000000       0.25650874      -0.57775030       0.74072292
C       15.24595730      10.24678088      13.19736310   602564        3        0       5.06311645      -2.52187762      -0.17229909       0.00000000       5.06311645      -2.52187762      -0.17229909
C       15.09615209      17.79866568      11.05647245   602568        3        0       0.53429671       0.98469898       1.63591063       0.00000000       0.53429671       0.98469898       1.63591063
Ti      16.22196177      17.83062629      12.74423018   602569        1        0      -0.67001258       0.80205440       0.35133041       0.00000000      -0.67001258       0.80205440       0.35133041
C       15.07856493      19.59732463      13.72647342   602577        3        0      -1.66833184      -4.40759577      -2.03704887       0.00000000      -1.66833184      -4.40759577      -2.03704887
Ti      16.76440974      12.97642676      14.38731587   602709        1        0      -0.43989643       0.13270068      -0.10768627       0.00000000      -0.43989643       0.13270068      -0.10768627
Ti      16.30101915       9.87962573      15.16830310   602714        1        0      -0.79361029       1.78065925      -1.41107253       0.00000000      -0.79361029       1.78065925      -1.41107253
Si      16.28907112      11.75977571      16.92416559   602717        2        0      -0.58120725      -0.03412154       0.12859799       0.00000000      -0.58120725      -0.03412154       0.12859799
Ti      19.60392340      12.82762980      14.90690853   602720        1        0      -1.59320092       0.73780985      -1.11824837       0.00000000      -1.59320092       0.73780985      -1.11824837
Si      17.67857728      13.64819382      16.56818905   602722        2        0       1.04745869       0.55021398      -0.04122362       0.00000000       1.04745869       0.55021398      -0.04122362
Si      17.72084154      16.09981719      16.31087786   602726        2        0      -0.01358771       0.35052075      -1.43164189       0.00000000      -0.01358771       0.35052075      -1.43164189
Si      18.23918609      18.04904044      14.55915110   602728        2        0      -0.55020856      -1.74321199       0.84733166       0.00000000      -0.55020856      -1.74321199       0.84733166
Ti      14.76502840      10.24823364      11.01852302   604584        1        0       1.25073236      -3.26067959      -1.40071743       0.00000000       1.25073236      -3.26067959      -1.40071743
C       13.17986737       8.67583329      11.62428134   604585        3        0       1.13602275       0.34035394       0.71124352       0.00000000       1.13602275       0.34035394       0.71124352
Ti      11.74276545      10.17736294      12.03503218   604586        1        0       1.03581445      -1.94025093       0.04690467       0.00000000       1.03581445      -1.94025093       0.04690467
C       13.19563199      11.17968796      11.24892195   604587        3        0      -3.57747752      -3.16094646       1.41845981       0.00000000      -3.57747752      -3.16094646       1.41845981
Ti      14.35882364       8.52198837      13.27154629   604588        1        0      -3.47075339       0.73019086      -0.55293280       0.00000000      -3.47075339       0.73019086      -0.55293280
Ti      13.89522027      11.47862233      13.19404990   604589        1        0      -0.70630101       3.57651995       0.50187183       0.00000000      -0.70630101       3.57651995       0.50187183
Ti      13.89476314      12.73690514      10.90480480   604590        1        0       3.94476532       4.77138173      -0.70552343       0.00000000       3.94476532       4.77138173      -0.70552343
C       12.76671152      10.07059819      13.82600363   604592        3        0      -2.31741467      -2.32501556       3.01488164       0.00000000      -2.31741467      -2.32501556       3.01488164
Si       9.97310494      12.81272528      11.37092765   604593        2        0       0.25822053      -0.16368946       1.36751249       0.00000000       0.25822053      -0.16368946       1.36751249
Si       9.91049250      11.50366541      13.68373389   604594        2        0       0.33624145       0.98546997      -0.51482999       0.00000000       0.33624145       0.98546997      -0.51482999
C       13.36240624      13.47924599       9.24302655   604596        3        0       1.10993617       0.54271970      -2.58814849       0.00000000       1.10993617       0.54271970      -2.58814849
C       12.81786136      16.19913384       9.90450598   604598        3        0      -0.75983244      -0.57912483       1.14094004       0.00000000      -0.75983244      -0.57912483       1.14094004
Ti      11.95350169      14.26617928      10.37423728   604599        1        0      -0.63776684       2.52872069      -0.09905340       0.00000000      -0.63776684       2.52872069      -0.09905340
Ti      14.07288981      15.96040749      11.56987937   604600        1        0      -3.01623084       3.65359010      -3.55217941       0.00000000      -3.01623084       3.65359010      -3.55217941
Ti      11.43344149      17.43347667      10.56034947   604601        1        0       2.09981515      -0.89828684       0.25175540       0.00000000       2.09981515      -0.89828684       0.25175540
C       13.06646719      14.13684670      12.10746617   604602        3        0       0.04302000       0.28134345       0.21033559       0.00000000       0.04302000       0.28134345       0.21033559
C       12.78805257      17.51047972      12.49636784   604603        3        0      -1.14682338       1.39590959       0.69039262       0.00000000      -1.14682338       1.39590959       0.69039262
Si       9.80689857      15.55673045      10.57595241   604605        2        0      -1.17204605      -0.16734321       1.56002748       0.00000000      -1.17204605      -0.16734321       1.56002748
Ti      13.89404094      19.21480490      11.80016927   604608        1        0       1.81761875      -1.43486389       0.27679662       0.00000000       1.81761875      -1.43486389       0.27679662
Ti      11.25802150      18.92548624      12.55015014   604611        1        0       0.66177020      -1.08360961       1.05270086       0.00000000       0.66177020      -1.08360961       1.05270086
Ti      12.26634854      10.47500164      17.74830506   604794        1        0       0.47561046       1.12479794      -0.89278246       0.00000000       0.47561046       1.12479794      -0.89278246
Ti      11.80033518       8.66345692      15.22903044   604795        1        0       1.54654525       2.73950762      -1.06421378       0.00000000       1.54654525       2.73950762      -1.06421378
Ti      12.16895326      11.73834240      15.12525415   604796        1        0      -0.29783156       0.34629905       0.45863095       0.00000000      -0.29783156       0.34629905       0.45863095
Si      10.14239037      12.97278704      16.23387027   604803        2        0       0.27493819       0.93608000      -0.47605052       0.00000000       0.27493819       0.93608000      -0.47605052
C       13.54543734      13.10929548      14.22906463   604804        3        1      -0.19251712       0.48145155       1.15570606       0.00000000      -0.19251712       0.48145155       1.15570606
Ti      13.94132315      17.72599046      14.28329593   604805        1        0       0.26133942       1.62515679      -1.17582924       0.00000000       0.26133942       1.62515679      -1.17582924
Ti      12.29104930      13.63698510      17.68575294   604806        1        0       1.10458225       0.30488170      -1.78302548       0.00000000       1.10458225       0.30488170      -1.78302548
C       13.50469061      14.90550135      16.60374365   604810        3        0      -1.37667652      -1.28711603       0.11393332       0.00000000      -1.37667652      -1.28711603       0.11393332
Si      10.25169018      15.68472473      15.66843032   604813        2        0       0.69440491      -1.68845446       0.19689063       0.00000000       0.69440491      -1.68845446       0.19689063
Si       9.70307372      16.94008547      12.67728352   606503        2        0       0.53353497      -0.83753019      -1.04018307       0.00000000       0.53353497      -0.83753019      -1.04018307
Ag      14.36040925      15.11324150      13.72951918   688433        4        1       0.28426012      -1.67853494       3.62576696       0.00000000       0.28426012      -1.67853494       3.62576696
Ag      16.41657402      15.11397897      11.65879226   751743        4        0       1.56758757      -1.10552979       0.08314123       0.00000000       1.56758757      -1.10552979       0.08314123
