52
Lattice="6.1150000000000002 0 0 -3.0574999999999988 5.2957453441418432 0 0 0 34.205876500000002" Properties=species:S:1:pos:R:3:PW_PBE_forces:R:3:lammps_id:I:1:central_pair:I:1 pbc="T T T" PW_PBE_energy_eV=-390.50908844293997 config_type=AgSi_COD9009647_pilot_k5x5_sigma0p05
Ti 0 0 10.388251500000001 5.3165519035744089e-05 2.1567645490260281e-05 0.15638179253309292 19101000 0
Ti 0 0 19.200001499999999 -0.00023287845790347973 -0.00027351242104108612 -0.036027101130738919 19101001 0
Ti 1.5287652899999999 0.88261540000000005 12.77623575 -0.00031791049559865226 9.7025098950949268e-05 -0.32932371646343367 19101002 0
Ti 0 1.7652308000000001 21.587985750000001 0.010954495511683459 0.0082544911217418381 -0.086705062687436871 19101003 0
Ti 1.5287500000000001 0.88264187999999999 16.81201725 -0.0018632662949500986 -0.0012341384862933403 0.072052786960478246 19101004 0
Ti -1.5290000000000001e-05 1.76525727 8.0002672500000003 0.0002030037815591195 -0.00010109469542348787 0.56879200429531762 19101005 0
Si 0 0 14.794126500000001 0.00044979448610938581 0.00021219347422049732 0.080983040097812764 19101006 0
Si 0 0 23.605876500000001 0.041923679050630901 0.020755265410663519 0.95776393339466648 19101007 1
C -1.5290000000000001e-05 1.76525727 11.6606682 0.00043695163552069438 -7.6680160044107637e-05 0.19899835464248072 19101008 0
C 1.5287500000000001 0.88264187999999999 20.4724182 -0.0030818356373158574 -0.0023157148220199334 0.094378669928109796 19101009 0
C 0 1.7652308000000001 17.927584800000002 0.001781088055506182 0.001396657890787391 -0.12019909348951983 19101010 0
C 1.5287652899999999 0.88261540000000005 9.1158348 -0.00047458457297260882 0.00019121691918239225 -0.8934422537248905 19101011 0
Ti -1.5287500000000001 2.6478726699999999 10.388251500000001 5.3279489345704029e-05 2.1836734057530014e-05 0.15638175535276738 19101012 0
Ti -1.5287500000000001 2.6478726699999999 19.200001499999999 -0.00023254800439457141 -0.00027328690764284735 -0.036027127556499339 19101013 0
Ti 1.5290000000000001e-05 3.5304880700000001 12.77623575 -0.00031784228221281321 9.7173052498370478e-05 -0.32932401002686751 19101014 0
Ti -1.5287500000000001 4.4131034700000003 21.587985750000001 0.01095497045799107 0.0082543140710989622 -0.086704833551080052 19101015 0
Ti 0 3.5305145499999999 16.81201725 -0.001862910803623475 -0.0012340754676724076 0.072052553591269011 19101016 0
Ti -1.5287652899999999 4.4131299500000001 8.0002672500000003 0.000202676999930361 -0.00010137880405825314 0.56879230685439475 19101017 0
Si -1.5287500000000001 2.6478726699999999 14.794126500000001 0.00044983957190211302 0.00021211978400202908 0.080983036106713049 19101018 0
Si -1.5287500000000001 2.6478726699999999 23.605876500000001 0.041923596534337207 0.020755281967897901 0.9577639806762358 19101019 0
C -1.5287652899999999 4.4131299500000001 11.6606682 0.00043680414013860471 -7.6829510073102278e-05 0.1989983428025863 19101020 0
C 0 3.5305145499999999 20.4724182 -0.0030809739058875888 -0.0023148668645749187 0.09437922255996628 19101021 0
C -1.5287500000000001 4.4131034700000003 17.927584800000002 0.0017816110141229704 0.0013968432328404434 -0.12019943791730371 19101022 0
C 1.5290000000000001e-05 3.5304880700000001 9.1158348 -0.00047457501058660497 0.00019106445571345291 -0.89344230270596636 19101023 0
Ti 3.0575000000000001 0 10.388251500000001 5.3165090864931522e-05 2.157256548815875e-05 0.15638179137225447 19101024 0
Ti 3.0575000000000001 0 19.200001499999999 -0.00023289878472114499 -0.00027350617804650166 -0.0360270935700929 19101025 0
Ti 4.58626529 0.88261540000000005 12.77623575 -0.00031790916876191504 9.7020507815075542e-05 -0.32932372018543299 19101026 0
Ti 3.0575000000000001 1.7652308000000001 21.587985750000001 0.010954497785652951 0.0082544948090573656 -0.08670511285594884 19101027 0
Ti 4.5862499999999997 0.88264187999999999 16.81201725 -0.0018632677925747808 -0.0012341378216409041 0.072052817008958644 19101028 0
Ti 3.0574847100000002 1.76525727 8.0002672500000003 0.00020299991160229521 -0.00010110258322774536 0.56879182454223576 19101029 0
Si 3.0575000000000001 0 14.794126500000001 0.00044978948249527857 0.00021219856561862323 0.080983033915491859 19101030 0
Si 3.0575000000000001 0 23.605876500000001 0.041923666334767004 0.02075526144898876 0.95776393805262872 19101031 0
C 3.0574847100000002 1.76525727 11.6606682 0.00043695090202242737 -7.6678192453156818e-05 0.19899835361481127 19101032 0
C 4.5862499999999997 0.88264187999999999 20.4724182 -0.0030818174976974888 -0.0023157015660861032 0.09437865855771134 19101033 0
C 3.0575000000000001 1.7652308000000001 17.927584800000002 0.0017810793455843564 0.0013966665685854742 -0.12019909634293603 19101034 0
C 4.58626529 0.88261540000000005 9.1158348 -0.0004745881126991603 0.00019123514063699773 -0.89344224529882266 19101035 0
Ti 1.5287500000000001 2.6478726699999999 10.388251500000001 5.3283984042642088e-05 2.1832607477766776e-05 0.15638176064696097 19101036 0
Ti 1.5287500000000001 2.6478726699999999 19.200001499999999 -0.00023254447922783965 -0.00027330483076936225 -0.036027145623967173 19101037 0
Ti 3.05751529 3.5304880700000001 12.77623575 -0.00031784497418078982 9.7173265707325513e-05 -0.32932397396129459 19101038 0
Ti 1.5287500000000001 4.4131034700000003 21.587985750000001 0.010954944826796769 0.0082543145325126611 -0.086704857971386773 19101039 0
Ti 3.0575000000000001 3.5305145499999999 16.81201725 -0.0018629203920641402 -0.0012340743585269604 0.072052512384670725 19101040 0
Ti 1.5287347099999999 4.4131299500000001 8.0002672500000003 0.000202639327285846 -0.00010136660773882353 0.56879249312422397 19101041 0
Si 1.5287500000000001 2.6478726699999999 14.794126500000001 0.00044984859781807437 0.0002121178247427242 0.080983038963905227 19101042 0
Si 1.5287500000000001 2.6478726699999999 23.605876500000001 0.041923589153609324 0.020755276314515826 0.95776399004454804 19101043 0
C 1.5287347099999999 4.4131299500000001 11.6606682 0.00043680795955579701 -7.6829607336792585e-05 0.19899834232702593 19101044 0
C 3.0575000000000001 3.5305145499999999 20.4724182 -0.0030809442715414954 -0.0023148555178451637 0.094379214370187384 19101045 0
C 1.5287500000000001 4.4131034700000003 17.927584800000002 0.0017816251304403415 0.0013968398372861169 -0.12019943502663827 19101046 0
C 3.05751529 3.5304880700000001 9.1158348 -0.00047454252371990333 0.00019106599150584114 -0.89344230461144625 19101047 0
Ag 0.81023750000000005 0.55605325999999999 26.205876499999999 -0.049049447156828241 -0.026311439361672607 -0.66347690491753497 19101048 1
Ag -0.7185125 3.20392593 26.205876499999999 -0.049049716212034314 -0.026310812359104187 -0.66348075227562853 19101049 0
Ag 3.8677375000000001 0.55605325999999999 26.205876499999999 -0.049049519381290832 -0.026311278202338136 -0.66347645924232346 19101050 0
Ag 2.3389875 3.20392593 26.205876499999999 -0.049049819698129285 -0.026310663021911769 -0.66348165788595981 19101051 0
