48
Lattice="6.1150000000000002 0 0 -3.0574999999999988 5.2957453441418432 0 0 0 17.6235" Properties=species:S:1:pos:R:3:PW_PBE_forces:R:3:local_new_id:I:1 pbc="T T T" PW_PBE_energy_eV=-389.80244363465238 config_type=Ti3SiC2_baseline_k6x6x4_v19
Ti 0 0 0 0 0 0 1
Ti 0 0 8.81175 0 0 0 2
Ti 1.5287652899999999 0.88261540000000005 2.3879842500000001 0.0059039885666685278 -0.0034049813381165964 -0.037522187007265118 3
Ti 0 1.7652308000000001 11.199734250000001 -0.0061933202716120631 0.0039047874660345081 -0.037320614521922355 4
Ti 1.5287500000000001 0.88264187999999999 6.4237657500000003 0.0061933202258426367 -0.0039048380313829157 0.03732061876314216 5
Ti -1.5290000000000001e-05 1.76525727 15.235515749999999 -0.0059039885136558581 0.003405052657774381 0.037522193331993955 6
Si 0 0 4.405875 -0.0023980602402333211 0.001393860649850703 1.5476324764720117e-05 7
Si 0 0 13.217625 0.0023980602402333211 -0.001393860649850703 -1.5476324764720117e-05 8
C -1.5290000000000001e-05 1.76525727 1.2724167 -0.0035343374449182717 0.0020461377727125328 0.085173965805714805 9
C 1.5287500000000001 0.88264187999999999 10.084166700000001 0.0038971853272487538 -0.0026758315742877689 0.08510964700816033 10
C 0 1.7652308000000001 7.5393333 -0.0038971853134701162 0.0026757863809779591 -0.085109640574165576 11
C 1.5287652899999999 0.88261540000000005 16.351083299999999 0.0035343374297954122 -0.0020460740847616718 -0.085173956694896177 12
Ti -1.5287500000000001 2.6478726699999999 0 0 0 0 13
Ti -1.5287500000000001 2.6478726699999999 8.81175 0 0 0 14
Ti 1.5290000000000001e-05 3.5304880700000001 2.3879842500000001 0.0059039885128726695 -0.0034050526574188234 -0.037522193332169551 15
Ti -1.5287500000000001 4.4131034700000003 11.199734250000001 -0.0061933202249419023 0.0039048380311882034 -0.03732061876304725 16
Ti 0 3.5305145499999999 6.4237657500000003 0.0061933202719988978 -0.0039047874656211842 0.037320614522290851 17
Ti -1.5287652899999999 4.4131299500000001 15.235515749999999 -0.0059039885664977599 0.0034049813384407954 0.037522187007514127 18
Si -1.5287500000000001 2.6478726699999999 4.405875 -0.0023980602540389561 0.0013938611820501717 1.5460941657886091e-05 19
Si -1.5287500000000001 2.6478726699999999 13.217625 0.0023980602540389561 -0.0013938611820501717 -1.5460941657886091e-05 20
C -1.5287652899999999 4.4131299500000001 1.2724167 -0.0035343374304694056 0.0020460740845056023 0.085173956694870809 21
C 0 3.5305145499999999 10.084166700000001 0.0038971853139908056 -0.0026757863804742527 0.085109640574186185 22
C -1.5287500000000001 4.4131034700000003 7.5393333 -0.0038971853256804944 0.0026758315738185088 -0.085109647008346584 23
C 1.5290000000000001e-05 3.5304880700000001 16.351083299999999 0.0035343374450970207 -0.0020461377724726392 -0.085173965805487112 24
Ti 3.0575000000000001 0 0 0 0 0 25
Ti 3.0575000000000001 0 8.81175 0 0 0 26
Ti 4.58626529 0.88261540000000005 2.3879842500000001 0.0059039885664977599 -0.0034049813384407954 -0.037522187007514127 27
Ti 3.0575000000000001 1.7652308000000001 11.199734250000001 -0.0061933202719988978 0.0039047874656211842 -0.037320614522290851 28
Ti 4.5862499999999997 0.88264187999999999 6.4237657500000003 0.0061933202249419023 -0.0039048380311882034 0.03732061876304725 29
Ti 3.0574847100000002 1.76525727 15.235515749999999 -0.0059039885128726695 0.0034050526574188234 0.037522193332169551 30
Si 3.0575000000000001 0 4.405875 -0.0023980602399624675 0.001393860649876275 1.5476324922867155e-05 31
Si 3.0575000000000001 0 13.217625 0.0023980602399624675 -0.001393860649876275 -1.5476324922867155e-05 32
C 3.0574847100000002 1.76525727 1.2724167 -0.0035343374450970207 0.0020461377724726392 0.085173965805487112 33
C 4.5862499999999997 0.88264187999999999 10.084166700000001 0.0038971853256804944 -0.0026758315738185088 0.085109647008346584 34
C 3.0575000000000001 1.7652308000000001 7.5393333 -0.0038971853139908056 0.0026757863804742527 -0.085109640574186185 35
C 4.58626529 0.88261540000000005 16.351083299999999 0.0035343374304694056 -0.0020460740845056023 -0.085173956694870809 36
Ti 1.5287500000000001 2.6478726699999999 0 0 0 0 37
Ti 1.5287500000000001 2.6478726699999999 8.81175 0 0 0 38
Ti 3.05751529 3.5304880700000001 2.3879842500000001 0.0059039885136558581 -0.003405052657774381 -0.037522193331993955 39
Ti 1.5287500000000001 4.4131034700000003 11.199734250000001 -0.0061933202258426367 0.0039048380313829157 -0.03732061876314216 40
Ti 3.0575000000000001 3.5305145499999999 6.4237657500000003 0.0061933202716120631 -0.0039047874660345081 0.037320614521922355 41
Ti 1.5287347099999999 4.4131299500000001 15.235515749999999 -0.0059039885666685278 0.0034049813381165964 0.037522187007265118 42
Si 1.5287500000000001 2.6478726699999999 4.405875 -0.0023980602542984335 0.0013938611821043185 1.5460941621573073e-05 43
Si 1.5287500000000001 2.6478726699999999 13.217625 0.0023980602542984335 -0.0013938611821043185 -1.5460941621573073e-05 44
C 1.5287347099999999 4.4131299500000001 1.2724167 -0.0035343374297954122 0.0020460740847616718 0.085173956694896177 45
C 3.0575000000000001 3.5305145499999999 10.084166700000001 0.0038971853134701162 -0.0026757863809779591 0.085109640574165576 46
C 1.5287500000000001 4.4131034700000003 7.5393333 -0.0038971853272487538 0.0026758315742877689 -0.08510964700816033 47
C 3.05751529 3.5304880700000001 16.351083299999999 0.0035343374449182717 -0.0020461377727125328 -0.085173965805714805 48
