48
Lattice="6.1150000000000002 0 0 -3.0574999999999988 5.2957453441418432 0 0 0 17.6235" Properties=species:S:1:pos:R:3:PW_PBE_forces:R:3:local_new_id:I:1 pbc="T T T" PW_PBE_energy_eV=-389.80755705460786 config_type=Ti3SiC2_baseline_k8x8x4_v19
Ti 0 0 0 0 0 0 1
Ti 0 0 8.81175 0 0 0 2
Ti 1.5287652899999999 0.88261540000000005 2.3879842500000001 -0.0033136071718319242 0.0019170073441948442 -0.05022968965051345 3
Ti 0 1.7652308000000001 11.199734250000001 0.0030242457253110817 -0.0014161239974730181 -0.050350091837461926 4
Ti 1.5287500000000001 0.88264187999999999 6.4237657500000003 -0.0030242457922592778 0.0014160743095516031 0.050350095879472374 5
Ti -1.5290000000000001e-05 1.76525727 15.235515749999999 0.0033136071710179716 -0.0019169366254424261 0.050229696069148143 6
Si 0 0 4.405875 0.0015188136439731124 -0.00086696291367457923 -4.2166495393299085e-05 7
Si 0 0 13.217625 -0.0015188136439731124 0.00086696291367457923 4.2166495393299085e-05 8
C -1.5290000000000001e-05 1.76525727 1.2724167 0.00177674723968212 -0.0010200389534647419 0.090302631537218847 9
C 1.5287500000000001 0.88264187999999999 10.084166700000001 -0.0014125090152831174 0.00038934165944174971 0.090260716014675155 10
C 0 1.7652308000000001 7.5393333 0.0014125090720375775 -0.00038938661456791129 -0.090260709645379744 11
C 1.5287652899999999 0.88261540000000005 16.351083299999999 -0.0017767472323690151 0.0010201024254883873 -0.090302622375721647 12
Ti -1.5287500000000001 2.6478726699999999 0 0 0 0 13
Ti -1.5287500000000001 2.6478726699999999 8.81175 0 0 0 14
Ti 1.5290000000000001e-05 3.5304880700000001 2.3879842500000001 -0.0033136071712408246 0.0019169366256062436 -0.050229696069760743 15
Ti -1.5287500000000001 4.4131034700000003 11.199734250000001 0.0030242457929975097 -0.0014160743095638589 -0.050350095879128365 16
Ti 0 3.5305145499999999 6.4237657500000003 -0.0030242457245176426 0.0014161239975707611 0.050350091837878821 17
Ti -1.5287652899999999 4.4131299500000001 15.235515749999999 0.003313607171547917 -0.0019170073436409231 0.050229689650925169 18
Si -1.5287500000000001 2.6478726699999999 4.405875 0.0015188136128059637 -0.00086696279314584575 -4.2181704883345589e-05 19
Si -1.5287500000000001 2.6478726699999999 13.217625 -0.0015188136128059637 0.00086696279314584575 4.2181704883345589e-05 20
C -1.5287652899999999 4.4131299500000001 1.2724167 0.0017767472315457851 -0.001020102425546239 0.09030262237572316 21
C 0 3.5305145499999999 10.084166700000001 -0.0014125090712268377 0.00038938661499156513 0.090260709645455434 22
C -1.5287500000000001 4.4131034700000003 7.5393333 0.0014125090168435413 -0.00038934165980957544 -0.090260716014902043 23
C 1.5290000000000001e-05 3.5304880700000001 16.351083299999999 -0.0017767472390069052 0.0010200389538399914 -0.090302631537031788 24
Ti 3.0575000000000001 0 0 0 0 0 25
Ti 3.0575000000000001 0 8.81175 0 0 0 26
Ti 4.58626529 0.88261540000000005 2.3879842500000001 -0.003313607171547917 0.0019170073436409231 -0.050229689650925169 27
Ti 3.0575000000000001 1.7652308000000001 11.199734250000001 0.0030242457245176426 -0.0014161239975707611 -0.050350091837878821 28
Ti 4.5862499999999997 0.88264187999999999 6.4237657500000003 -0.0030242457929975097 0.0014160743095638589 0.050350095879128365 29
Ti 3.0574847100000002 1.76525727 15.235515749999999 0.0033136071712408246 -0.0019169366256062436 0.050229696069760743 30
Si 3.0575000000000001 0 4.405875 0.0015188136440877687 -0.00086696291349521283 -4.2166495208790054e-05 31
Si 3.0575000000000001 0 13.217625 -0.0015188136440877687 0.00086696291349521283 4.2166495208790054e-05 32
C 3.0574847100000002 1.76525727 1.2724167 0.0017767472390069052 -0.0010200389538399914 0.090302631537031788 33
C 4.5862499999999997 0.88264187999999999 10.084166700000001 -0.0014125090168435413 0.00038934165980957544 0.090260716014902043 34
C 3.0575000000000001 1.7652308000000001 7.5393333 0.0014125090712268377 -0.00038938661499156513 -0.090260709645455434 35
C 4.58626529 0.88261540000000005 16.351083299999999 -0.0017767472315457851 0.001020102425546239 -0.09030262237572316 36
Ti 1.5287500000000001 2.6478726699999999 0 0 0 0 37
Ti 1.5287500000000001 2.6478726699999999 8.81175 0 0 0 38
Ti 3.05751529 3.5304880700000001 2.3879842500000001 -0.0033136071710179716 0.0019169366254424261 -0.050229696069148143 39
Ti 1.5287500000000001 4.4131034700000003 11.199734250000001 0.0030242457922592778 -0.0014160743095516031 -0.050350095879472374 40
Ti 3.0575000000000001 3.5305145499999999 6.4237657500000003 -0.0030242457253110817 0.0014161239974730181 0.050350091837461926 41
Ti 1.5287347099999999 4.4131299500000001 15.235515749999999 0.0033136071718319242 -0.0019170073441948442 0.05022968965051345 42
Si 1.5287500000000001 2.6478726699999999 4.405875 0.0015188136127730013 -0.00086696279331427342 -4.2181704973443542e-05 43
Si 1.5287500000000001 2.6478726699999999 13.217625 -0.0015188136127730013 0.00086696279331427342 4.2181704973443542e-05 44
C 1.5287347099999999 4.4131299500000001 1.2724167 0.0017767472323690151 -0.0010201024254883873 0.090302622375721647 45
C 3.0575000000000001 3.5305145499999999 10.084166700000001 -0.0014125090720375775 0.00038938661456791129 0.090260709645379744 46
C 1.5287500000000001 4.4131034700000003 7.5393333 0.0014125090152831174 -0.00038934165944174971 -0.090260716014675155 47
C 3.05751529 3.5304880700000001 16.351083299999999 -0.00177674723968212 0.0010200389534647419 -0.090302631537218847 48
