48
Lattice="28.0 0.0 0.0 0.0 28.0 0.0 0.0 0.0 28.0" Properties=species:S:1:pos:R:3:lammps_id:I:1:lammps_type:I:1:central_pair:I:1:REF_forces:R:3:PW_PBE_forces:R:3:magmoms:R:1:forces:R:3 config_type=AgC_d2p0_periodic_PW_PBE training_label_policy=forces_only_LCAO_energy_excluded PW_PBE_energy_eV=-259.15835431517127 free_energy=-260.2964203050216 energy=-259.15835431517127 dipole="1.4359984335202336 -1.302159912532018 0.19704257115275786" magmom=0.0 pbc="T T T"
Ti      14.70421265      11.99602911      19.02041598   113766        1        0      -0.80249684      -0.04994561      -1.96903902      -0.73725511      -0.06466317      -1.93146305       0.00000000      -0.73725511      -0.06466317      -1.93146305
Ti      19.72946485      14.09698890      12.27111014   600768        1        0      -1.45395277      -0.63148483       1.80147293      -1.40859905      -0.61850907       1.77262655       0.00000000      -1.40859905      -0.61850907       1.77262655
Ti      15.07396679      14.02135323       8.94561416   602398        1        0      -0.87650803      -1.15303404       1.69258617      -0.98404312      -1.24731211       1.72621096       0.00000000      -0.98404312      -1.24731211       1.72621096
Ti      16.62929910      11.29786275      12.28481694   602560        1        0       1.05520111       1.67206230      -0.88964878       0.91287209       1.60463468      -0.90110271       0.00000000       0.91287209       1.60463468      -0.90110271
C       15.72969900      12.22025104      10.36095243   602563        3        0       0.61142604      -0.57730554       0.70189382       0.55622193      -0.61205597       0.74145650       0.00000000       0.55622193      -0.61205597       0.74145650
C       15.17669210      10.20026769      13.15152436   602564        3        0       5.19705335      -2.25441538      -0.24541737       5.09933670      -2.22392931      -0.26734131       0.00000000       5.09933670      -2.22392931      -0.26734131
C       15.01908631      17.68667141      11.01228795   602568        3        0       0.63450504       1.02394612       1.25238884       0.56573985       1.02463231       1.36570188       0.00000000       0.56573985       1.02463231       1.36570188
Ti      16.11448967      17.76311691      12.69635565   602569        1        0      -0.07970137       0.64282848       0.52373063      -0.17898733       0.65268185       0.48363120       0.00000000      -0.17898733       0.65268185       0.48363120
C       15.00354719      19.49982550      13.65818251   602577        3        0      -1.72183549      -4.31859474      -2.08746755      -1.72444685      -4.37232935      -2.09043362       0.00000000      -1.72444685      -4.37232935      -2.09043362
Ti      16.66547951      12.91999110      14.39568336   602709        1        0      -0.54855832      -0.21426792      -0.99006467      -0.52789795      -0.20557144      -0.91920922       0.00000000      -0.52789795      -0.20557144      -0.91920922
Ti      16.21991955       9.83047336      15.09283891   602714        1        0      -0.77596135       1.74839874      -1.32392903      -0.77245186       1.76315833      -1.32546291       0.00000000      -0.77245186       1.76315833      -1.32546291
Si      16.19906282      11.72691730      16.84655127   602717        2        0      -0.74851585      -0.34606683       0.27149249      -0.68524378      -0.25071172       0.21755159       0.00000000      -0.68524378      -0.25071172       0.21755159
Ti      19.50639144      12.76381075      14.83274481   602720        1        0      -1.58413477       0.72319613      -1.13777353      -1.51689409       0.70616053      -1.10682188       0.00000000      -1.51689409       0.70616053      -1.10682188
Si      17.59062416      13.58029236      16.48576025   602722        2        0       1.45150688       0.86659772       0.58652001       1.33132089       0.83760293       0.49115967       0.00000000       1.33132089       0.83760293       0.49115967
Si      17.63267815      16.01971860      16.22972921   602726        2        0      -0.03591764       0.42538327      -1.42608690      -0.02788234       0.37073895      -1.43816652       0.00000000      -0.02788234       0.37073895      -1.43816652
Si      18.14844387      17.95924422      14.48671751   602728        2        0      -0.48690370      -1.72892063       0.82444400      -0.50930964      -1.74874317       0.85875647       0.00000000      -0.50930964      -1.74874317       0.85875647
Ti      14.69157055      10.19724740      10.96370450   604584        1        0       1.53937429      -3.59869324      -1.76760875       1.42306274      -3.40065099      -1.61107472       0.00000000       1.42306274      -3.40065099      -1.61107472
C       13.11429589       8.63266994      11.56644909   604585        3        0       0.94351804       0.07895291       0.58146757       0.98892191       0.18574601       0.64533225       0.00000000       0.98892191       0.18574601       0.64533225
Ti      11.65349978      10.09302321      11.98742137   604586        1        0       1.53664585      -1.59276021      -0.12817865       1.66803594      -1.55892421      -0.14111898       0.00000000       1.66803594      -1.55892421      -0.14111898
C       13.13979285      11.11718839      11.16941206   604587        3        0      -4.07468548      -2.63618050       1.53303479      -3.96248591      -2.65171945       1.56005510       0.00000000      -3.96248591      -2.65171945       1.56005510
Ti      14.28738671       8.47959042      13.20551870   604588        1        0      -3.40586447       0.48729733      -0.35201678      -3.42382142       0.60982199      -0.41187257       0.00000000      -3.42382142       0.60982199      -0.41187257
Ti      13.81107131      11.42356511      13.12787750   604589        1        0      -0.46459448       4.26092772       0.25697498      -0.49832490       4.08154455       0.28434060       0.00000000      -0.49832490       4.08154455       0.28434060
Ti      13.83486296      12.70685820      10.84009666   604590        1        0       4.09375923       3.37567680      -0.03870085       3.95829122       3.28745154      -0.12489521       0.00000000       3.95829122       3.28745154      -0.12489521
C       12.73392275      10.02554673      13.76644647   604592        3        0      -2.77181909      -2.78338915       3.24210006      -2.73091023      -2.72199773       3.14903234       0.00000000      -2.73091023      -2.72199773       3.14903234
Si       9.92348750      12.74898038      11.31435587   604593        2        0       0.19286773      -0.22439400       1.27089205       0.20847227      -0.21202511       1.27611278       0.00000000       0.20847227      -0.21202511       1.27611278
Si       9.89304472      11.38372228      13.60459646   604594        2        0       0.15820854       1.03254276      -0.41956378       0.19279528       1.05254670      -0.42981308       0.00000000       0.19279528       1.05254670      -0.42981308
C       13.29592661      13.41218506       9.19704134   604596        3        0       0.82879842       0.59021003      -3.31928837       0.91360612       0.65555813      -3.18658707       0.00000000       0.91360612       0.65555813      -3.18658707
C       12.75409091      16.11854113       9.85522983   604598        3        0      -0.56496655      -0.69849012       0.92929009      -0.64883626      -0.68500900       1.02538459       0.00000000      -0.64883626      -0.68500900       1.02538459
Ti      11.89403153      14.19520326      10.32262416   604599        1        0      -0.94939788       2.58905732      -0.04667910      -0.81682112       2.50088519      -0.01619555       0.00000000      -0.81682112       2.50088519      -0.01619555
Ti      13.99002587      15.88789818      11.51308169   604600        1        0      -1.66756267       2.62561704      -1.69247931      -1.68721432       2.60397247      -1.60047584       0.00000000      -1.68721432       2.60397247      -1.60047584
Ti      11.37655870      17.34674296      10.50781042   604601        1        0       2.00114083      -0.71057617       0.05144080       1.99369952      -0.72278166       0.17016843       0.00000000       1.99369952      -0.72278166       0.17016843
C       13.05169693      14.06274742      12.05531177   604602        3        0      -0.20056295       0.51395968       0.78922405      -0.13175100       0.57821525       0.77519294       0.00000000      -0.13175100       0.57821525       0.77519294
C       12.73083688      17.44324369      12.40804017   604603        3        0      -1.33718694       0.89128941       0.85351812      -1.31045563       0.96107295       0.79313667       0.00000000      -1.31045563       0.96107295       0.79313667
Si       9.75810803      15.47933378      10.52333573   604605        2        0      -1.38272350      -0.26045594       1.50104438      -1.30369251      -0.24525196       1.53876754       0.00000000      -1.30369251      -0.24525196       1.53876754
Ti      13.82491636      19.11920886      11.74146196   604608        1        0       1.81320397      -0.98927955      -0.05851615       1.86767493      -1.06270080       0.02214042       0.00000000       1.86767493      -1.06270080       0.02214042
Ti      11.20201144      18.83132959      12.48771158   604611        1        0       0.40227768      -0.71098312       1.22139426       0.47046668      -0.82524996       1.11365578       0.00000000       0.47046668      -0.82524996       1.11365578
Ti      12.20532193      10.42288720      17.66000503   604794        1        0       0.48797104       1.16361205      -0.94588226       0.45495127       1.12921983      -0.92106474       0.00000000       0.45495127       1.12921983      -0.92106474
Ti      11.74162704       8.62035514      15.15326412   604795        1        0       1.49749412       2.70408328      -0.98537186       1.50652266       2.72825704      -1.01064453       0.00000000       1.50652266       2.72825704      -1.01064453
Ti      12.10728202      11.67814678      15.04999314   604796        1        0      -0.34960515       0.42377709       0.72819233      -0.27717686       0.41277317       0.59461235       0.00000000      -0.27717686       0.41277317       0.59461235
Si      10.07867620      12.90234182      16.16506260   604803        2        0       0.19834170       0.87618361      -0.46189809       0.24494669       0.87063574      -0.49638837       0.00000000       0.24494669       0.87063574      -0.49638837
C       13.53907096      13.12646420      14.15645966   604804        3        1      -0.78327983      -1.08041318       1.10596436      -0.68301806      -0.86896478       1.06199861       0.00000000      -0.68301806      -0.86896478       1.06199861
Ti      13.85080071      17.62213886      14.17289370   604805        1        0       0.24835923       1.26606757      -0.64381854       0.26739737       1.30774676      -0.77086210       0.00000000       0.26739737       1.30774676      -0.77086210
Ti      12.20322713      13.58204009      17.56905296   604806        1        0       1.04998779       0.15295101      -1.58415826       1.03714623       0.22002049      -1.60492571       0.00000000       1.03714623       0.22002049      -1.60492571
C       13.41127052      14.82936034      16.48807003   604810        3        0      -1.16596538      -1.19122511      -0.17570485      -1.18624102      -1.23544724      -0.14067363       0.00000000      -1.18624102      -1.23544724      -0.14067363
Si      10.20068675      15.60669127      15.59047793   604813        2        0       0.73111931      -1.66546489       0.19704353       0.70901327      -1.67730840       0.20250989       0.00000000       0.70901327      -1.67730840       0.20250989
Si       9.65479972      16.85580644      12.61421246   606503        2        0       0.42986856      -0.87649256      -0.90941063       0.47348375      -0.86432362      -0.97617821       0.00000000       0.47348375      -0.86432362      -0.97617821
Ag      14.46092904      14.87353580      13.84354034   688433        4        1       0.47714019       0.82783699       1.48928156       0.31036806       0.64683073       1.40419667       0.00000000       0.31036806       0.64683073       1.40419667
Ag      16.53600026      14.96202636      11.77289621   751743        4        0       0.64983413      -0.74714627       0.14387883       0.59402292      -0.70776173       0.14994970       0.00000000       0.59402292      -0.70776173       0.14994970
