32
Lattice="8.1799999999999997 0 0 0 8.1799999999999997 0 0 0 8.1799999999999997" Properties=species:S:1:pos:R:3:PW_PBE_forces:R:3:local_new_id:I:1 pbc="T T T" PW_PBE_energy_eV=-91.446232882639521 config_type=Ag_baseline_k6x6x6_v19
Ag 0 0 0 -1.3846138331590711e-26 -1.4603349021599579e-26 -1.3846138331590711e-26 1
Ag 0 2.0449999999999999 2.0449999999999999 0 2.021059544985568e-05 2.0210595449855684e-05 2
Ag 2.0449999999999999 0 2.0449999999999999 2.021059544985568e-05 0 2.0210595449855687e-05 3
Ag 2.0449999999999999 2.0449999999999999 0 2.021059544985568e-05 2.0210595449855687e-05 0 4
Ag 0 0 4.0899999999999999 0 0 -1.0384603748693034e-26 5
Ag 0 2.0449999999999999 6.1349999999999998 0 2.021059544985568e-05 -2.0210595449855677e-05 6
Ag 2.0449999999999999 0 6.1349999999999998 2.021059544985568e-05 0 -2.0210595449855684e-05 7
Ag 2.0449999999999999 2.0449999999999999 4.0899999999999999 1.7115110416940149e-05 1.7115110416940159e-05 -2.1267668477323333e-23 8
Ag 0 4.0899999999999999 0 0 -1.0384603748693034e-26 0 9
Ag 0 6.1349999999999998 2.0449999999999999 0 -2.021059544985568e-05 2.0210595449855677e-05 10
Ag 2.0449999999999999 4.0899999999999999 2.0449999999999999 1.7115110416940153e-05 -2.1267668477323333e-23 1.7115110416940153e-05 11
Ag 2.0449999999999999 6.1349999999999998 0 2.0210595449855684e-05 -2.021059544985568e-05 0 12
Ag 0 4.0899999999999999 4.0899999999999999 0 0 0 13
Ag 0 6.1349999999999998 6.1349999999999998 0 -2.021059544985568e-05 -2.0210595449855677e-05 14
Ag 2.0449999999999999 4.0899999999999999 6.1349999999999998 1.7115110416940149e-05 7.0892228257744438e-24 -1.7115110416940153e-05 15
Ag 2.0449999999999999 6.1349999999999998 4.0899999999999999 1.7115110416940153e-05 -1.7115110416940153e-05 -7.0892228257744438e-24 16
Ag 4.0899999999999999 0 0 -1.0384603748693034e-26 0 0 17
Ag 4.0899999999999999 2.0449999999999999 2.0449999999999999 -2.1267668477323333e-23 1.7115110416940159e-05 1.7115110416940149e-05 18
Ag 6.1349999999999998 0 2.0449999999999999 -2.021059544985569e-05 0 2.021059544985569e-05 19
Ag 6.1349999999999998 2.0449999999999999 0 -2.021059544985569e-05 2.0210595449855694e-05 0 20
Ag 4.0899999999999999 0 4.0899999999999999 0 -8.6538364572441941e-28 0 21
Ag 4.0899999999999999 2.0449999999999999 6.1349999999999998 7.0892228257744438e-24 1.7115110416940153e-05 -1.7115110416940153e-05 22
Ag 6.1349999999999998 0 6.1349999999999998 -2.021059544985569e-05 0 -2.021059544985569e-05 23
Ag 6.1349999999999998 2.0449999999999999 4.0899999999999999 -1.7115110416940153e-05 1.7115110416940149e-05 -1.4178445651548888e-23 24
Ag 4.0899999999999999 4.0899999999999999 0 0 0 0 25
Ag 4.0899999999999999 6.1349999999999998 2.0449999999999999 1.4178445651548888e-23 -1.7115110416940159e-05 1.7115110416940159e-05 26
Ag 6.1349999999999998 4.0899999999999999 2.0449999999999999 -1.7115110416940149e-05 1.4178445651548888e-23 1.7115110416940153e-05 27
Ag 6.1349999999999998 6.1349999999999998 0 -2.021059544985569e-05 -2.0210595449855701e-05 0 28
Ag 4.0899999999999999 4.0899999999999999 4.0899999999999999 -6.9230691657953553e-27 -8.6538364572441945e-27 -6.9230691657953553e-27 29
Ag 4.0899999999999999 6.1349999999999998 6.1349999999999998 1.4178445651548888e-23 -1.7115110416940153e-05 -1.7115110416940153e-05 30
Ag 6.1349999999999998 4.0899999999999999 6.1349999999999998 -1.7115110416940149e-05 -1.4178445651548888e-23 -1.7115110416940149e-05 31
Ag 6.1349999999999998 6.1349999999999998 4.0899999999999999 -1.7115110416940149e-05 -1.7115110416940153e-05 -1.4178445651548888e-23 32
