51
Lattice="27.86 0.0 0.0 0.0 27.86 0.0 0.0 0.0 27.86" Properties=species:S:1:pos:R:3:lammps_id:I:1:lammps_type:I:1:central_pair:I:1:PW_PBE_forces:R:3:magmoms:R:1:forces:R:3 source_config_type=AgSi_registry_strain_acq_v14_01_periodic_PW_PBE_energy_force_v14_train source_dataset_path=research/mace-v12-transfer/periodic_interface_v4/mace_periodic_v14_interface_energy/data/train.extxyz source_dataset_sha256=3323cdbd3081fc8d91673662c5f83c8da93ba3b4d7a23428f6b70d0e7a4c9faf source_frame_geometry_sha256=4a5540c7fd824a01df8fcb6155e62c7ff045ec36d637ac5f405247c9b5dbe4e5 proposal_mode=framework_neighbor proposal_sign=1 proposal_displacement_A="-0.03241019800115845 0.004590769355366923 0.022989212736662573" candidate_role=proposed_training_acquisition_geometry_unassigned config_type=AgSi_framework_neighbor_p_acq_v17_01 proposal_only_no_DFT_label=T PW_PBE_energy_eV=-208.7196366048405 source_method="GPAW 26.7.0 PW-PBE 500 eV Gamma single point" free_energy=-209.6589038913396 energy=-208.7196366048405 dipole="-0.5088974972930491 -0.3184054724120239 2.4096726722771167" magmom=0.0 pbc="T T T"
C       18.59997229      12.48568832      11.10844207   365143        3        0      -2.24216790      -0.56081762      -0.49880632       0.00000000      -2.24216790      -0.56081762      -0.49880632
Ti      17.68639525      11.50950205      17.41787882   365320        1        0      -4.04385053      -0.31757563      -2.56375052       0.00000000      -4.04385053      -0.31757563      -2.56375052
C       16.41880913      11.23745333       9.78030353   366772        3        0       1.21390114       1.34478765       1.33413544       0.00000000       1.21390114       1.34478765       1.33413544
C       16.47896696      14.68517760       9.59220696   366778        3        0      -1.11665405       0.75404639       0.28367989       0.00000000      -1.11665405       0.75404639       0.28367989
Si      13.03247546      10.81256428      11.54588199   366929        2        0       0.82928411       0.95881494      -0.59283463       0.00000000       0.82928411       0.95881494      -0.59283463
C       16.85595198      10.57457416      13.54804023   366931        3        0      -1.50111377       1.22265663       1.21124857       0.00000000      -1.50111377       1.22265663       1.21124857
Si      13.24756583      10.09299501      13.89543918   366933        2        0       0.32867451       0.72048690       1.34088743       0.00000000       0.32867451       0.72048690       1.34088743
Si      13.54621116      12.84486252      14.32824946   366934        2        1      -0.73754184      -0.55018143       0.13470404       0.00000000      -0.73754184      -0.55018143       0.13470404
Ti      15.29981075      11.23489767      15.30672895   366935        1        0       2.14912254      -2.18433306       0.47766689       0.00000000       2.14912254      -2.18433306       0.47766689
Si      14.07452393      13.07440001      11.84527460   366936        2        0      -0.25059531      -0.22993712      -0.62821120       0.00000000      -0.25059531      -0.22993712      -0.62821120
C       16.32293638       9.78228197      16.33324608   367109        3        0      -0.09774668       1.82773131       2.85008629       0.00000000      -0.09774668       1.82773131       2.85008629
Si      13.15366079      10.13595433      16.63871231   367110        2        0      -0.14413118       0.13157545      -0.51975287       0.00000000      -0.14413118       0.13157545      -0.51975287
C       16.48100250      12.76445334      16.24568078   367111        3        0       0.13694246       0.02310646       1.01185409       0.00000000       0.13694246       0.02310646       1.01185409
Ti      15.25461263       9.99188169      18.18059921   367112        1        0       0.98840831       0.43587215      -2.96213977       0.00000000       0.98840831       0.43587215      -2.96213977
Ti      15.21048961      12.94153364      18.03487212   367113        1        0       0.03208597       0.78825056       0.47179038       0.00000000       0.03208597       0.78825056       0.47179038
Si      13.17741765      13.14324215      19.70608455   367115        2        0      -0.25299228       0.46079551      -1.09470454       0.00000000      -0.25299228       0.46079551      -1.09470454
Ti      15.40588122      14.54471635      15.86904406   367117        1        0       1.12298021       0.01408085       2.29912781       0.00000000       1.12298021       0.01408085       2.29912781
Si      12.78455653      15.18854922      16.36834406   367118        2        0       0.81066621       0.24341511       0.20383321       0.00000000       0.81066621       0.24341511       0.20383321
Si      12.95712017      18.30295279      16.70442317   367120        2        0      -0.32002849      -1.42145893      -0.12678652       0.00000000      -0.32002849      -1.42145893      -0.12678652
Ti      14.51271213      16.54892641      18.01865841   367121        1        0       0.08406731      -2.27906725      -0.30561452       0.00000000       0.08406731      -2.27906725      -0.30561452
C       15.68829271      14.87916034      18.37964165   367122        3        0      -1.37247593       0.12759243      -1.76085974       0.00000000      -1.37247593       0.12759243      -1.76085974
C        9.90649004      12.77431746      10.77224184   368645        3        0       1.37891936       0.70469712      -0.20537015       0.00000000       1.37891936       0.70469712      -0.20537015
Ti      11.05639828       9.10291227      15.13117419   368823        1        0      -0.01365045       2.49751390       1.66690575       0.00000000      -0.01365045       2.49751390       1.66690575
Ti      11.06514563      10.57972820      12.94209330   368827        1        0      -2.40429927       0.42614249      -0.95448040       0.00000000      -2.40429927       0.42614249      -0.95448040
C        9.58869661      11.96959291      13.50714254   368829        3        0       0.85906152       0.25998458       0.32744664       0.00000000       0.85906152       0.25998458       0.32744664
Ti       8.41925107      13.28695754      14.63229457   368832        1        0       0.46976125       0.31704404       0.04345391       0.00000000       0.46976125       0.31704404       0.04345391
Ti      10.95041350      12.38211774      15.00689863   368833        1        0       0.01116955      -1.06951571       1.90306151       0.00000000       0.01116955      -1.06951571       1.90306151
C        9.56136862      16.94432396      11.26681068   368838        3        0       1.47731878      -0.95681263      -0.87005972       0.00000000       1.47731878      -0.95681263      -0.87005972
C        8.74996730      15.07383077      14.18303296   368841        3        0       1.33409997       0.38526159       0.94594066       0.00000000       1.33409997       0.38526159       0.94594066
Ti      10.21724449      15.52569843      15.45789755   368844        1        0      -1.25981901      -1.67899231      -0.30016905       0.00000000      -1.25981901      -1.67899231      -0.30016905
C       10.10142178      10.76686600      15.98766623   369024        3        0       2.15638813      -1.00674667      -2.03507203       0.00000000       2.15638813      -1.00674667      -2.03507203
C        9.73645404      13.62008341      16.26033390   369026        3        0       1.19032883       0.70084903      -0.08050173       0.00000000       1.19032883       0.70084903      -0.08050173
Ti      11.11186787      13.46402473      17.97657710   369031        1        0      -0.08968264       0.94575420      -1.98389125       0.00000000      -0.08968264       0.94575420      -1.98389125
Ti      11.68602437      16.29832535      18.34290273   369042        1        0       0.79878999      -0.11867369      -0.76336854       0.00000000       0.79878999      -0.11867369      -0.76336854
Ag      14.09197856      15.15232698      13.71795822   683609        4        1      -0.49030668       1.01996046      -0.87054818       0.00000000      -0.49030668       1.01996046      -0.87054818
Ag      16.12538059      13.12050930      13.71829332   685172        4        0       1.09209214      -0.27416763      -1.63781469       0.00000000       1.09209214      -0.27416763      -1.63781469
Ag      12.08854379      17.19725852      13.71397964   696217        4        0      -0.07827974       0.02276966       0.35357962       0.00000000      -0.07827974       0.02276966       0.35357962
Ag      12.08619018      17.19660466       9.63054985   700029        4        0      -0.35530539      -0.09341544       0.44900719       0.00000000      -0.35530539      -0.09341544       0.44900719
Ag      16.13567093      17.19679278      13.71503183   701518        4        0       0.04607132      -0.10152833       0.22018806       0.00000000       0.04607132      -0.10152833       0.22018806
Ag      16.11715484      17.19075927       9.63473704   703887        4        0       0.17346426      -1.10818602       0.48245563       0.00000000       0.17346426      -1.10818602       0.48245563
Ag      10.05728489      15.15219953       9.63702147   707313        4        0      -0.17786158       0.08407980       1.59090275       0.00000000      -0.17786158       0.08407980       1.59090275
Ag      14.12054979      15.14317032       9.63909963   710704        4        0       1.13308713      -0.46822173       0.32561371       0.00000000       1.13308713      -0.46822173       0.32561371
Ag      18.13107594      17.19899850      11.67442682   714846        4        0      -0.51013841      -0.27788967      -0.02420743       0.00000000      -0.51013841      -0.27788967      -0.02420743
Ag      12.07877319      19.23307260      11.68116928   729574        4        0       0.04151852      -0.45885112       0.09818074       0.00000000       0.04151852      -0.45885112       0.09818074
Ag      12.09901372      15.14556080      11.67845050   730721        4        0      -0.44800435      -0.15223021       0.05145204       0.00000000      -0.44800435      -0.15223021       0.05145204
Ag      12.08780489      13.12467486       9.61141820   735549        4        0      -0.69341676      -0.34955559       0.94998715       0.00000000      -0.69341676      -0.34955559       0.94998715
Ag      14.11516063      17.18751707      11.67590227   737082        4        0       0.17443170       0.31328221       0.00274476       0.00000000       0.17443170       0.31328221       0.00274476
Ag      16.13201046      19.24623853      15.76315800   737200        4        0      -0.30402176      -0.68854905      -0.08258243       0.00000000      -0.30402176      -0.68854905      -0.08258243
Ag      14.10514044      19.25766994      13.71347117   744883        4        0      -0.07979450      -0.42297614       0.19972773       0.00000000      -0.07979450      -0.42297614       0.19972773
Ag      18.14419536      15.16383374      13.70696502   752169        4        0      -0.43749024       0.13274161       0.01503838       0.00000000      -0.43749024       0.13274161       0.01503838
Ag      18.14428412      17.20305253      15.76426284   755982        4        0      -0.61764554      -0.08938857      -0.38351154       0.00000000      -0.61764554      -0.08938857      -0.38351154
