51
Lattice="28.0 0.0 0.0 0.0 28.0 0.0 0.0 0.0 28.0" Properties=species:S:1:pos:R:3:lammps_id:I:1:lammps_type:I:1:central_pair:I:1:REF_forces:R:3:PW_PBE_forces:R:3:magmoms:R:1:forces:R:3 config_type=AgSi_d2p2_periodic_PW_PBE training_label_policy=forces_only_LCAO_energy_excluded PW_PBE_energy_eV=-206.96630897705558 free_energy=-207.93232012109286 energy=-206.96630897705558 dipole="-0.5157948788542868 -0.2968403692043386 2.343155264126723" magmom=0.0 pbc="T T T"
C       18.69343949      12.54843047      11.16426339   365143        3        0      -2.23897694      -0.41266852      -0.29317917      -2.19925495      -0.43668203      -0.31004941       0.00000000      -2.19925495      -0.43668203      -0.31004941
Ti      17.77527161      11.56733874      17.50540585   365320        1        0      -4.17986217      -0.33409450      -2.58770518      -4.19008848      -0.33748830      -2.61202270       0.00000000      -4.19008848      -0.33748830      -2.61202270
C       16.50131571      11.29392294       9.82945078   366772        3        0       1.13258215       1.33978116       1.34980987       1.14353744       1.28772152       1.29849824       0.00000000       1.14353744       1.28772152       1.29849824
C       16.56177584      14.75897246       9.64040901   366778        3        0      -0.77181035       0.78699248       0.11531657      -0.90739599       0.85705451       0.07827466       0.00000000      -0.90739599       0.85705451       0.07827466
Si      13.06792779      10.84352028      11.57948201   366929        2        0       0.75194828       1.00595891      -0.46393593       0.75294223       1.03301354      -0.33561478       0.00000000       0.75294223       1.03301354      -0.33561478
C       16.90853430      10.60971273      13.62762261   366931        3        0      -1.47801202       1.34752308       1.18314701      -1.47986146       1.37632258       1.17028648       0.00000000      -1.47986146       1.37632258       1.17028648
Si      13.29299928      10.09088002      13.97440872   366933        2        0       0.15026183       0.82900088       1.03779246       0.08435914       0.86875525       1.02542098       0.00000000       0.08435914       0.86875525       1.02542098
Si      13.67548619      13.00710047      14.34473368   366934        2        1      -1.38530400      -2.79017645       1.38592679      -1.23461714      -2.48161116       1.22649595       0.00000000      -1.23461714      -2.48161116       1.22649595
Ti      15.36087474      11.30986335      15.32968892   366935        1        0       2.25200789      -2.10610486       0.85557555       2.26990336      -2.03948635       0.83470116       0.00000000       2.26990336      -2.03948635       0.83470116
Si      14.12319488      13.12695146      11.90081949   366936        2        0      -0.25040998      -0.89599942      -1.17450776      -0.28088720      -0.84553143      -1.03870330       0.00000000      -0.28088720      -0.84553143      -1.03870330
C       16.40496119       9.83143917      16.41532269   367109        3        0      -0.29656225       2.00467185       2.74452373      -0.34146952       2.04387182       2.74033980       0.00000000      -0.34146952       2.04387182       2.74033980
Si      13.21435913      10.17655112      16.69028210   367110        2        0      -0.07047399       0.12387228      -0.48389767      -0.03878546       0.11891109      -0.56350584       0.00000000      -0.03878546       0.11891109      -0.56350584
C       16.53339143      12.79840769      16.35358160   367111        3        0       0.15155878       0.18848865       0.90612050       0.07123907       0.17557161       0.96560029       0.00000000       0.07123907       0.17557161       0.96560029
Ti      15.33126897      10.04209215      18.27195901   367112        1        0       1.00157148       0.54251988      -3.17210380       1.00910424       0.51150385      -3.19176866       0.00000000       1.00910424       0.51150385      -3.19176866
Ti      15.30176319      13.03108330      18.14132801   367113        1        0      -0.10523805       0.56568694       0.46995503      -0.03415064       0.68365906       0.41331660       0.00000000      -0.03415064       0.68365906       0.41331660
Si      13.24363583      13.20928859      19.80511010   367115        2        0      -0.25191254       0.45582346      -1.11752267      -0.25299017       0.46070294      -1.13849103       0.00000000      -0.25299017       0.46070294      -1.13849103
Ti      15.44240477      14.64299255      15.95068572   367117        1        0       1.45172505      -0.58238122       1.90440370       1.40618804      -0.66514953       1.89514854       0.00000000       1.40618804      -0.66514953       1.89514854
Si      12.84812044      15.22784025      16.43301567   367118        2        0       0.65586859       0.27978504       0.36222124       0.64027058       0.29551736       0.40343396       0.00000000       0.64027058       0.29551736       0.40343396
Si      13.02223133      18.39492743      16.78836500   367120        2        0      -0.32553390      -1.58355314       0.04141347      -0.32413891      -1.62764700       0.05125482       0.00000000      -0.32413891      -1.62764700       0.05125482
Ti      14.58564033      16.63208684      18.10920443   367121        1        0      -0.05868104      -2.36275183      -0.36265443      -0.06215643      -2.36799510      -0.34124858       0.00000000      -0.06215643      -2.36799510      -0.34124858
C       15.76712835      14.95392999      18.47200166   367122        3        0      -1.30633877       0.37864849      -1.71534684      -1.40288419       0.33363629      -1.78088264       0.00000000      -1.40288419       0.33363629      -1.78088264
C        9.95627140      12.83851001      10.82637371   368645        3        0       1.37146633       0.47519593      -0.08754928       1.36808895       0.49087078      -0.09269523       0.00000000       1.36808895       0.49087078      -0.09269523
Ti      11.11195807       9.14865555      15.20721024   368823        1        0      -0.07217812       2.46704913       1.60770732      -0.04736921       2.51724452       1.61102028       0.00000000      -0.04736921       2.51724452       1.61102028
Ti      11.07723836      10.64868816      13.00866724   368827        1        0      -2.00749411       0.22531074      -0.97968269      -1.99176751       0.25399731      -0.90532937       0.00000000      -1.99176751       0.25399731      -0.90532937
C        9.65866396      12.02107833      13.56598470   368829        3        0       0.76087063       0.60866818       0.69130031       0.83713882       0.59351266       0.72990635       0.00000000       0.83713882       0.59351266       0.72990635
Ti       8.46155886      13.35372617      14.70582369   368832        1        0       0.95821008       0.31396361       0.06099774       1.05467408       0.37598023       0.06096212       0.00000000       1.05467408       0.37598023       0.06096212
Ti      11.06251923      12.46190745      15.09991626   368833        1        0      -0.44766420      -1.23788344       1.75895010      -0.58267070      -1.25223640       1.71773603       0.00000000      -0.58267070      -1.25223640       1.71773603
C        9.60941570      17.02947132      11.32342782   368838        3        0       1.41802681      -0.82946546      -0.63124275       1.37497081      -0.84419073      -0.61975816       0.00000000       1.37497081      -0.84419073      -0.61975816
C        8.79393698      15.14957866      14.25430448   368841        3        0       1.30881270       0.28500047       0.93754035       1.34802205       0.19714478       1.03156496       0.00000000       1.34802205       0.19714478       1.03156496
Ti      10.26858743      15.60371702      15.53557543   368844        1        0      -1.19309688      -1.73403855      -0.31235021      -1.27342631      -1.78066563      -0.32533041       0.00000000      -1.27342631      -1.78066563      -0.32533041
C       10.15218269      10.82097085      16.06800626   369024        3        0       2.27961802      -0.74131396      -2.15395036       2.32586154      -0.76753627      -2.18360455       0.00000000       2.32586154      -0.76753627      -2.18360455
C        9.78538094      13.68852604      16.34204412   369026        3        0       1.18539167       0.65901265      -0.19934819       1.23503442       0.67272852      -0.25162881       0.00000000       1.23503442       0.67272852      -0.25162881
Ti      11.16770640      13.53168315      18.06691166   369031        1        0       0.00274424       0.96588880      -1.97711552      -0.04154772       1.00933951      -2.01209628       0.00000000      -0.04154772       1.00933951      -2.01209628
Ti      11.74474811      16.38022648      18.43507812   369042        1        0       0.85862942      -0.11267802      -0.89146626       0.89651174      -0.14666960      -0.88687642       0.00000000       0.89651174      -0.14666960      -0.88687642
Ag      14.32451381      14.99289953      13.65526632   683609        4        1       0.31086356       4.10986406      -1.86583206       0.24167322       3.62802858      -1.73695240       0.00000000       0.24167322       3.62802858      -1.73695240
Ag      16.39037606      13.05279264      13.61544690   685172        4        0       0.96080188      -0.35552230      -1.08792704       0.82664452      -0.38721116      -0.98351348       0.00000000       0.82664452      -0.38721116      -0.98351348
Ag      12.33361930      17.16238168      13.61544690   696217        4        0      -0.11227715      -0.05679880       0.32812842      -0.08016551      -0.05914785       0.28915633       0.00000000      -0.08016551      -0.05914785       0.28915633
Ag      12.33361930      17.16238168       9.50585786   700029        4        0      -0.30575040      -0.07283364       0.44121495      -0.27023744      -0.10727717       0.42901076       0.00000000      -0.27023744      -0.10727717       0.42901076
Ag      16.39037606      17.16238168      13.61544690   701518        4        0       0.01848891      -0.20998086       0.23890697       0.01419456      -0.18852477       0.22732629       0.00000000       0.01419456      -0.18852477       0.22732629
Ag      16.39037606      17.16238168       9.50585786   703887        4        0       0.15519974      -1.09907331       0.64348447       0.13229776      -1.14168789       0.60465546       0.00000000       0.13229776      -1.14168789       0.60465546
Ag      10.30524092      15.10758716       9.50585786   707313        4        0      -0.10711195      -0.02780674       1.52976245      -0.14533065      -0.04201562       1.50884179       0.00000000      -0.14533065      -0.04201562       1.50884179
Ag      14.36199768      15.10758716       9.50585786   710704        4        0       0.81759882      -0.38801692       0.36052973       0.92283151      -0.38490306       0.39136725       0.00000000       0.92283151      -0.38490306       0.39136725
Ag      18.41875444      17.16238168      11.56065238   714846        4        0      -0.64697235      -0.35463118       0.03838859      -0.58628392      -0.32549368       0.03320107       0.00000000      -0.58628392      -0.32549368       0.03320107
Ag      12.33361930      19.21717620      11.56065238   729574        4        0       0.04633436      -0.56169454       0.12583202       0.04996951      -0.52721278       0.14965167       0.00000000       0.04996951      -0.52721278       0.14965167
Ag      12.33361930      15.10758716      11.56065238   730721        4        0      -0.49203199      -0.08294135      -0.02587619      -0.44594014      -0.08370457      -0.02570264       0.00000000      -0.44594014      -0.08370457      -0.02570264
Ag      12.33361930      13.05279264       9.50585786   735549        4        0      -0.55167344      -0.17113663       0.90888135      -0.56755640      -0.14221476       0.89415898       0.00000000      -0.56755640      -0.14221476       0.89415898
Ag      14.36199768      17.16238168      11.56065238   737082        4        0       0.16999248       0.18542887       0.10397777       0.14721513       0.19993092       0.11083119       0.00000000       0.14721513       0.19993092       0.11083119
Ag      16.39037606      19.21717620      15.67024142   737200        4        0      -0.25058002      -0.72911598      -0.15768919      -0.26217131      -0.67252032      -0.13311829       0.00000000      -0.26217131      -0.67252032      -0.13311829
Ag      14.36199768      19.21717620      13.61544690   744883        4        0      -0.02404797      -0.40839131       0.14866548      -0.03735776      -0.41634703       0.13527459       0.00000000      -0.03735776      -0.41634703       0.13527459
Ag      18.41875444      15.10758716      13.61544690   752169        4        0      -0.45139818       0.16383497      -0.10047040      -0.43580854       0.15402490      -0.09822296       0.00000000      -0.43580854       0.15402490      -0.09822296
Ag      18.41875444      17.16238168      15.67024142   755982        4        0      -0.71464576      -0.09480979      -0.46666329      -0.63504654      -0.07219895      -0.45292277       0.00000000      -0.63504654      -0.07219895      -0.45292277
