49
Lattice="28.0 0.0 0.0 0.0 28.0 0.0 0.0 0.0 28.0" Properties=species:S:1:pos:R:3:lammps_id:I:1:lammps_type:I:1:central_pair:I:1:PW_PBE_forces:R:3:magmoms:R:1:forces:R:3 source_config_type=AgTi_registry_probe_v13_01_periodic_PW_PBE_energy_force_v14_train source_dataset_path=research/mace-v12-transfer/periodic_interface_v4/mace_periodic_v14_interface_energy/data/train.extxyz source_dataset_sha256=3323cdbd3081fc8d91673662c5f83c8da93ba3b4d7a23428f6b70d0e7a4c9faf source_frame_geometry_sha256=18dc1be733a506b748386175293d2f094e720e3e1c9dc96e259623088c005b7c proposal_mode=framework_neighbor proposal_sign=-1 proposal_displacement_A="-0.03395962258497193 0.01621292764976134 0.013560420749735916" candidate_role=proposed_training_acquisition_geometry_unassigned config_type=AgTi_framework_neighbor_m_acq_v17_01 proposal_only_no_DFT_label=T PW_PBE_energy_eV=-176.68229450106995 source_method="GPAW 26.7.0 PW-PBE 500 eV Gamma single point" free_energy=-177.3250271279098 energy=-176.68229450106995 dipole="0.4457146459551408 0.3368328793907469 0.22464617941527495" magmom=0.0 pbc="T T T"
C       13.89902107      12.90667166       9.57093308   478831        3        0      -1.51734582       2.35554251       0.39031912       0.00000000      -1.51734582       2.35554251       0.39031912
Ti      12.62304525      14.70227784       8.74620905   478840        1        0       1.33969079      -0.81907677       4.01907892       0.00000000       1.33969079      -0.81907677       4.01907892
Si      16.74663914      14.99666412       9.05588053   478841        2        0      -0.91477368      -0.91406913       1.30809709       0.00000000      -0.91477368      -0.91406913       1.30809709
C       13.77615718      16.76659830       9.46205532   478844        3        0      -3.91678373       0.12162906       0.88688577       0.00000000      -3.91678373       0.12162906       0.88688577
Ti      12.49439364      12.82858132      11.26096292   479021        1        0       0.57087406      -1.03804089      -1.59139438       0.00000000       0.57087406      -1.03804089      -1.59139438
Ti      12.71256800      14.26436974      13.91127136   479027        1        1      -0.48271548       3.54127483       1.40343165       0.00000000      -0.48271548       3.54127483       1.40343165
Ti      13.27333691      17.52276133      13.67525409   479028        1        0       0.10395689       0.29041256      -1.34819531       0.00000000       0.10395689       0.29041256      -1.34819531
C       12.19406070      16.00730532      12.98699267   479030        3        0      -0.93371787      -1.04393803       0.43016279       0.00000000      -0.93371787      -1.04393803       0.43016279
C       11.92979276      17.83928667      10.04608242   479031        3        0       3.47980752      -2.30193844      -0.89782232       0.00000000       3.47980752      -2.30193844      -0.89782232
C       11.14030857      11.60980287      10.51944505   480798        3        0      -1.11796315       0.60916677       2.24506207       0.00000000      -1.11796315       0.60916677       2.24506207
Ti       9.67365027      11.73672021      12.52949502   480801        1        0       4.25996362      -0.90787440      -0.00474284       0.00000000       4.25996362      -0.90787440      -0.00474284
C       10.41266283       9.58775109      13.76894219   480802        3        0       0.21169656       1.41289087       2.95026908       0.00000000       0.21169656       1.41289087       2.95026908
C       11.34811906      12.99570560      13.31832051   480805        3        0      -1.86864808      -0.39096615      -0.56394079       0.00000000      -1.86864808      -0.39096615      -0.56394079
C       11.26779912      14.20441406      10.34350882   480807        3        0       0.97438886       0.50535999      -0.45266298       0.00000000       0.97438886       0.50535999      -0.45266298
Ti      10.63277880      14.68120764      12.23793466   480810        1        0      -0.87092604      -0.24648951      -0.43304581       0.00000000      -0.87092604      -0.24648951      -0.43304581
Ti      11.15181567      17.42898892      11.87855887   480811        1        0      -0.01681881       0.45315926      -1.31267150       0.00000000      -0.01681881       0.45315926      -1.31267150
Ti      10.57490139      16.47263116      14.34546801   480812        1        0       1.39607951      -0.15800478       0.09462218       0.00000000       1.39607951      -0.15800478       0.09462218
C       11.98467917      18.76062403      12.89743879   480813        3        0       0.51125731      -0.79446977       0.96193533       0.00000000       0.51125731      -0.79446977       0.96193533
C       10.74527181       9.34898918      15.92141080   480974        3        0       0.40722136       1.85109167      -3.66283581       0.00000000       0.40722136       1.85109167      -3.66283581
C       10.58950093      11.90905331      16.64358691   480975        3        0      -0.06285734       1.72860690      -1.57366958       0.00000000      -0.06285734       1.72860690      -1.57366958
Ti       9.93014220      13.54071165      15.28648610   480980        1        0       2.21702185      -2.06260689       0.02138659       0.00000000       2.21702185      -2.06260689       0.02138659
Ag      13.17921387      11.93477149      14.08448967   682693        4        0       0.23620341      -2.76396815       0.37801257       0.00000000       0.23620341      -2.76396815       0.37801257
Ag      19.27103991      16.06172680      16.14325276   685396        4        0      -0.38149432      -0.14829816      -0.15892324       0.00000000      -0.38149432      -0.14829816      -0.15892324
Ag      17.23061775      16.04744124      14.08084112   685467        4        0       0.07059841       0.39635839      -0.17806540       0.00000000       0.07059841       0.39635839      -0.17806540
Ag      15.22028550      11.92319346      16.13660310   686309        4        0      -0.13052255      -0.16031387       0.35431179       0.00000000      -0.13052255      -0.16031387       0.35431179
Ag      17.24075717      13.99811487      16.15267925   686324        4        0       0.36697497      -0.10151900       0.23959134       0.00000000       0.36697497      -0.10151900       0.23959134
Ag      15.20543632       9.88047407      14.08505358   686418        4        0       0.07443993       0.07038675       0.02262568       0.00000000       0.07443993       0.07038675       0.02262568
Ag      19.26799971      14.00431639      14.08329543   686622        4        0      -0.38849567       0.18675321       0.17212836       0.00000000      -0.38849567       0.18675321       0.17212836
Ag      17.23987145      16.04230202      18.18247801   686899        4        0      -0.12132890      -0.00582621      -0.18385476       0.00000000      -0.12132890      -0.00582621      -0.18385476
Ag      17.23652607       9.89177748      16.14439265   687243        4        0      -0.28600479       0.32777678      -0.16628398       0.00000000      -0.28600479       0.32777678      -0.16628398
Ag      15.31257904      13.97927572      14.09960194   687247        4        1       0.14118682       0.18996330      -0.03545107       0.00000000       0.14118682       0.18996330      -0.03545107
Ag      15.22219692      16.05137911      16.15723208   688096        4        0      -0.48387780       0.18487110      -0.21216183       0.00000000      -0.48387780       0.18487110      -0.21216183
Ag      17.25172922       9.88253321      12.04485225   688280        4        0      -0.27104316       0.45238406       0.09972894       0.00000000      -0.27104316       0.45238406       0.09972894
Ag      15.20875603      13.98728606      18.19713620   688689        4        0      -0.15142303      -0.12123273      -0.08463571       0.00000000      -0.15142303      -0.12123273      -0.08463571
Ag      17.21273800      18.09581139      16.15000652   688707        4        0      -0.11919850      -0.23690350      -0.05905987       0.00000000      -0.11919850      -0.23690350      -0.05905987
Ag      17.25143735      11.93238003      14.08784430   689682        4        0       0.29852570      -0.29587160      -0.03033893       0.00000000       0.29852570      -0.29587160      -0.03033893
Ag      13.18170587      16.04176470      18.17151177   690927        4        0       0.00347631      -0.31904052      -0.22168834       0.00000000       0.00347631      -0.31904052      -0.22168834
Ag      15.20634649      18.09577674      18.20004601   691757        4        0       0.07308938      -0.32905379      -0.29776390       0.00000000       0.07308938      -0.32905379      -0.29776390
Ag      13.17617624      11.95798587      18.19172182   694331        4        0      -0.21041835       0.24092730      -0.60617694       0.00000000      -0.21041835       0.24092730      -0.60617694
Ag      17.23960348      11.93172895      18.18219469   696686        4        0      -0.29787415       0.14363478      -0.42885533       0.00000000      -0.29787415       0.14363478      -0.42885533
Ag      13.17664715       9.88304979      16.15300997   700223        4        0      -1.00926805       0.17134053      -0.30290195       0.00000000      -1.00926805       0.17134053      -0.30290195
Ag      11.15662076      13.98813182      18.20237906   701905        4        0       0.16697856      -0.47201687      -0.89268673       0.00000000       0.16697856      -0.47201687      -0.89268673
Ag      17.22145846      18.09982138      12.03659182   703736        4        0      -0.30659479      -0.55922156       0.33366831       0.00000000      -0.30659479      -0.55922156       0.33366831
Ag      15.20366532      16.05436369      12.04745982   704767        4        0      -0.05087692      -0.08576543      -0.54727769       0.00000000      -0.05087692      -0.08576543      -0.54727769
Ag      17.24398153      13.98686690      12.02973371   716228        4        0       0.09297342       0.10112310      -0.84677990       0.00000000       0.09297342       0.10112310      -0.84677990
Ag      15.21598282      11.95285569      12.02298661   720990        4        0      -0.15009877      -0.06456558      -0.58843791       0.00000000      -0.15009877      -0.06456558      -0.58843791
Ag      13.17576280      18.10103246      16.12750949   721910        4        0      -0.24087806      -0.17075737       0.89210690       0.00000000      -0.24087806      -0.17075737       0.89210690
Ag      17.24565333      11.93660568       9.97615916   728014        4        0      -0.34667659       0.70703180       0.33355121       0.00000000      -0.34667659       0.70703180       0.33355121
Ag      13.17551906       9.88412807      12.01790751   741114        4        0      -0.34243357       0.46547338       0.14948795       0.00000000      -0.34243357       0.46547338       0.14948795
