LAMMPS (30 Sep 2026)
OMP_NUM_THREADS environment is not set. Defaulting to 1 thread.
  using 1 OpenMP thread(s) per MPI task
package omp 5
set 5 OpenMP thread(s) per MPI task
using multi-threaded neighbor list subroutines
units metal
dimension 3
atom_style atomic
boundary p p f
read_data structures/impact_40_62eV.data
Reading data file ...
  triclinic box = (0 0 -10) to (37.285975 32.290601 100) with tilt (-18.642987 0 0)
WARNING: Triclinic box skew is large. LAMMPS will run inefficiently. (src/domain.cpp:214)
  1 by 1 by 1 MPI processor grid
  reading atoms ...
  4345 atoms
  reading velocities ...
  4345 velocities
  read_data CPU = 0.031 seconds
include potentials/potential_stage69.inc
# Stage69 collision-ready candidate potential; no physical run is implied.
# Baseline: Ag EAM + Ti/Si/C TSCBOP + calibrated Ag-interface Morse.
# ZBL is overlaid only in the 0.8-1.5 A short-range window.
pair_style hybrid/overlay eam tersoff morse 8.0 zbl 0.8 1.5
pair_coeff 4 4 eam potentials/Ag_u3.eam
Reading eam potential file potentials/Ag_u3.eam with DATE: 2007-06-11
pair_coeff * * tersoff potentials/TSCBOP.tersoff Ti Si C NULL
pair_coeff 1 4 morse 0.94814194 2.00000000 2.33708864 8.0
pair_coeff 2 4 morse 0.93944948 2.00000000 2.40407837 8.0
pair_coeff 3 4 morse 1.35077230 2.00000000 2.15255924 8.0
pair_coeff 1 4 zbl 22 47
pair_coeff 2 4 zbl 14 47
pair_coeff 3 4 zbl 6 47
pair_coeff 4 4 zbl 47 47
neighbor 2.0 bin
neigh_modify delay 0 every 1 check yes
region sink_region block INF INF INF INF 8.0 18.0 units box
region crater_region cylinder z 9.9573898076 24.2578814220 8.0 12.0 55.0 units box
group projectiles id 4306:4345
40 atoms in group projectiles
group TSC type 1 2 3
2908 atoms in group TSC
group Ag type 4
1437 atoms in group Ag
group fixed_part_01 id 2 3 9 90 2969 3032 81 82 2909 2910 2914 2975 170 250 251 255 256 257 351 356 2921 341 342 352 444 445 516 2924 2933 2992 2998 3003 436 511 517 596 603 604 2934 2939 3006 597 693 698 699 777 2948 3010 3018 3019 766 849 850 859 2953 2954 2955 2958 3022 3024 851 952 953 2963 24 3033 16 17 25 96 97 104 105 106 189 184 190 260 261 269 270 2915 2916 2983 2989 262 357 358 364 2925
90 atoms in group fixed_part_01
group fixed_part_02 id 2926 2993 453 454 523 530 537 626 2935 2999 524 610 611 617 618 708 715 792 2941 2942 778 783 784 785 875 876 882 2949 867 868 869 877 963 970 971 972 2964 23 964 119 120 127 2970 2971 111 112 113 121 203 285 2917 2976 2985 277 286 372 373 380 381 389 475 2984 374 466 470 545 550 2927 2928 2937 538 627 637 638 639 644 2936 3007 628 725 901 2943 2950 3011 3012 3020 883 884 892 893
90 atoms in group fixed_part_02
group fixed_part_03 id 984 985 2956 38 986 2965 3025 3035 39 44 2972 40 128 135 136 2911 2918 2977 2978 210 294 295 299 300 396 406 2986 2987 390 397 398 486 2929 2930 556 557 558 654 655 2938 645 646 656 728 818 2944 2951 3013 3014 729 805 806 807 902 912 913 914 922 2957 3021 43 903 991 2959 2966 3026 3027 60 53 54 61 146 150 151 2913 2973 2980 222 223 224 229 315 316 2912 2920 2979 2991 308 309 407
90 atoms in group fixed_part_03
group fixed_part_04 id 497 2922 2990 2995 408 562 563 573 574 575 2931 2932 3001 564 659 660 667 2945 3008 3009 742 743 750 819 826 827 828 2952 3015 3016 923 924 930 931 932 999 1000 2960 2967 3028 1001 71 75 76 80 163 2974 3036 3037 156 157 158 164 236 2919 2981 2982 237 325 326 327 334 340 431 432 2997 424 425 433 498 504 505 587 2923 3002 499 580 581 582 588 589 675 681 682 692 2940 3005 756 760 765
90 atoms in group fixed_part_04
group fixed_part_05 id 841 842 2946 2947 835 836 837 843 939 946 2962 3023 3031 1 74 1015 2961 2968 3030 4 5 12 91 3105 83 85 94 171 177 181 3110 175 252 254 258 3044 3049 343 346 449 515 518 520 605 607 3063 700 3074 3075 3082 767 769 775 852 863 949 856 954 960 3099 26 3101 98 100 107 3039 3100 3106 185 188 3038 3045 3046 368 459 2994 3050 3051 457 463 531 535 3000 3004 3052 527 619 716 3068 3069
90 atoms in group fixed_part_05
group fixed_part_06 id 710 779 780 786 3076 3083 870 872 965 974 3087 3093 32 35 36 122 3034 3102 114 117 123 206 287 3040 291 375 382 3047 3054 377 467 469 471 472 546 3053 539 540 629 3064 3065 3070 3071 632 721 726 793 802 3077 796 885 894 897 987 3088 3089 3095 989 3094 41 45 3103 129 137 141 3041 3107 298 304 399 3048 391 402 3055 3059 551 554 559 560 3058 3066 3072 647 658 736 740 3078 811 817 904
90 atoms in group fixed_part_06
group fixed_part_07 id 915 918 3090 3096 62 55 59 66 147 152 3108 148 225 226 231 317 3042 310 312 321 409 413 421 2996 3056 487 488 565 576 577 3060 568 668 672 3017 3073 747 820 830 933 3079 3084 823 925 926 3029 3091 3092 3097 1002 1004 72 73 77 3104 3109 166 247 2988 3043 328 331 335 338 434 426 428 500 3057 3061 3062 583 593 676 683 687 3067 679 757 761 844 3080 3081 838 943 947 951 3085 3086 1016
90 atoms in group fixed_part_07
group fixed_part_08 id 1020 1025 3098
3 atoms in group fixed_part_08
group fixed union fixed_part_01 fixed_part_02 fixed_part_03 fixed_part_04 fixed_part_05 fixed_part_06 fixed_part_07 fixed_part_08
633 atoms in group fixed
group fixed union fixed_part_01 fixed_part_02 fixed_part_03 fixed_part_04 fixed_part_05 fixed_part_06 fixed_part_07 fixed_part_08
633 atoms in group fixed
group mobile subtract all fixed
3712 atoms in group mobile
group crater region crater_region
452 atoms in group crater
group freezone intersect mobile crater
452 atoms in group freezone
group free_substrate subtract freezone projectiles
414 atoms in group free_substrate
group anchored subtract mobile freezone
3260 atoms in group anchored
group sink region sink_region
882 atoms in group sink
group bath subtract sink freezone
794 atoms in group bath
fix hold fixed setforce 0.0 0.0 0.0
fix integrate all nve
fix anchor anchored spring/self 100.0
fix_modify anchor energy yes
fix bathfix bath langevin 300.0 300.0 0.05 631040 zero yes tally yes
compute Tfree free_substrate temp
compute TSC TSC temp
compute Ag Ag temp
timestep 0.00005
thermo 200
thermo_style custom step time atoms c_Tfree c_TSC c_Ag pe ke etotal f_bathfix
thermo_modify flush yes
dump tr all custom 1000 dumps/cool_after_40_0p5ps.dump id type x y z vx vy vz fx fy fz
dump_modify tr sort id
run 10000
Hybrid pair style last /omp style zbl
Last active /omp style is pair_style zbl
Neighbor list info ...
  update: every = 1 steps, delay = 0 steps, check = yes
  max neighbors/atom: 2000, page size: 100000
  master list distance cutoff = 10
  ghost atom cutoff = 10
  binsize = 5, bins = 12 7 22
  6 neighbor lists, perpetual/occasional/extra = 6 0 0
  (1) pair eam, perpetual, skip from (5)
      attributes: half, newton on, omp
      pair build: skip/omp
      stencil: none
      bin: none
  (2) pair tersoff, perpetual, skip from (6)
      attributes: full, newton on, omp
      pair build: skip/omp
      stencil: none
      bin: none
  (3) pair morse, perpetual, skip from (5)
      attributes: half, newton on, omp
      pair build: skip/omp
      stencil: none
      bin: none
  (4) pair zbl, perpetual, skip from (5)
      attributes: half, newton on, omp
      pair build: skip/omp
      stencil: none
      bin: none
  (5) neighbor class addition, perpetual, half/full from (6)
      attributes: half, newton on, omp
      pair build: halffull/newton/tri/omp
      stencil: none
      bin: none
  (6) neighbor class addition, perpetual
      attributes: full, newton on, omp
      pair build: full/bin/atomonly/omp
      stencil: full/bin/3d
      bin: standard
Per MPI rank memory allocation (min/avg/max) = 23.49 | 23.49 | 23.49 Mbytes
   Step          Time         Atoms       c_Tfree         c_TSC           c_Ag          PotEng         KinEng         TotEng       f_bathfix   
         0   0                   4345   3399.9345      425.31271      608.61877     -27137.424      272.78552     -26864.638     -0            
       200   0.01                4345   3277.9377      359.84427      512.87947     -27091.409      230.41425     -26860.995     -3.6432193    
       400   0.02                4345   3265.9741      396.13689      522.95532     -27100.683      245.92179     -26854.761     -9.8772236    
       600   0.03                4345   3152.6577      356.21629      602.01102     -27098.375      245.59539     -26852.779     -11.856742    
       800   0.04                4345   3077.383       387.81262      532.42024     -27095.745      244.55073     -26851.194     -13.442095    
      1000   0.05                4345   3090.2222      370.95841      490.41205     -27078.879      230.42014     -26848.459     -16.178109    
      1200   0.06                4345   3064.0011      387.18207      570.66659     -27098.241      251.41298     -26846.828     -17.808977    
      1400   0.07                4345   3056.6716      365.03931      560.12577     -27087.075      241.13608     -26845.939     -18.696466    
      1600   0.08                4345   2999.9337      373.89101      530.80008     -27083.388      239.01882     -26844.369     -20.265511    
      1800   0.09                4345   3057.0743      375.24166      558.93756     -27088.492      244.74915     -26843.743     -20.892947    
      2000   0.1                 4345   2785.8485      363.50854      538.8016      -27080.305      236.60274     -26843.702     -20.933249    
      2200   0.11                4345   2781.9497      347.03711      507.86961     -27067.173      224.67192     -26842.501     -22.133446    
      2400   0.12                4345   2800.8917      369.58442      529.97012     -27078.869      237.24652     -26841.623     -23.011884    
      2600   0.13                4345   2782.8792      342.82037      527.23643     -27067.575      226.68227     -26840.892     -23.743899    
      2800   0.14                4345   2924.2375      362.4136       539.04394     -27077.507      236.23629     -26841.271     -23.367875    
      3000   0.15                4345   3035.6686      362.53885      596.07907     -27086.817      246.87007     -26839.947     -24.690309    
      3200   0.16                4345   2963.11        372.34923      576.34437     -27086.769      246.8933      -26839.876     -24.762151    
      3400   0.17                4345   2650.8926      339.299        526.48006     -27064.751      225.21868     -26839.532     -25.104646    
      3600   0.18                4345   2711.9638      359.86867      527.78501     -27072.682      233.19015     -26839.492     -25.144712    
      3800   0.19                4345   2777.0395      368.82257      508.39535     -27072.787      232.9556      -26839.832     -24.803341    
      4000   0.2                 4345   2649.4118      348.76741      516.81467     -27067.326      226.98246     -26840.343     -24.292902    
      4200   0.21                4345   2725.8157      355.80118      531.23899     -27073.351      232.30287     -26841.048     -23.588179    
      4400   0.22                4345   2660.208       359.17902      498.43148     -27068.218      227.48248     -26840.736     -23.901691    
      4600   0.23                4345   2577.2004      349.89864      498.4609      -27063.885      224.00075     -26839.884     -24.752629    
      4800   0.24                4345   2686.4821      351.51444      538.77229     -27073.172      232.0904      -26841.082     -23.555518    
      5000   0.25                4345   2690.1604      344.58658      557.4201      -27074.348      232.94856     -26841.4       -23.235488    
      5200   0.26                4345   2654.1241      340.60694      556.8982      -27072.646      231.3563      -26841.289     -23.34646     
      5400   0.27                4345   2733.5228      345.42836      570.25559     -27077.576      235.64735     -26841.928     -22.707288    
      5600   0.28                4345   2894.7865      356.39807      582.10795     -27083.502      241.96933     -26841.532     -23.104284    
      5800   0.29                4345   2924.9589      359.02411      583.33007     -27084.263      243.18294     -26841.08      -23.55514     
      6000   0.3                 4345   2772.2543      344.72785      583.50773     -27079.165      237.84396     -26841.321     -23.314197    
      6200   0.31                4345   2803.6457      347.88648      560.04698     -27074.892      234.67612     -26840.216     -24.421561    
      6400   0.32                4345   2814.14        357.32809      565.78172     -27078.403      239.28836     -26839.115     -25.523124    
      6600   0.33                4345   2592.5609      336.00051      542.51507     -27067.089      226.95563     -26840.133     -24.504359    
      6800   0.34                4345   2711.0761      371.89375      502.88148     -27072.758      233.08615     -26839.671     -24.965232    
      7000   0.35                4345   2747.55        374.72799      506.65962     -27075.772      234.85243     -26840.92      -23.716527    
      7200   0.36                4345   2751.6383      370.03618      525.3291      -27077.851      236.55482     -26841.297     -23.340346    
      7400   0.37                4345   2765.1026      366.10934      535.16303     -27078.873      236.90463     -26841.969     -22.669182    
      7600   0.38                4345   2787.9681      359.75965      551.9424      -27079.857      237.63322     -26842.224     -22.413051    
      7800   0.39                4345   2835.3948      363.73592      584.18361     -27086.725      245.11188     -26841.613     -23.023438    
      8000   0.4                 4345   2815.3855      360.24458      579.50839     -27084.915      242.93217     -26841.983     -22.653459    
      8200   0.41                4345   2829.8642      362.23213      586.07894     -27086.482      244.89862     -26841.584     -23.052312    
      8400   0.42                4345   2779.1279      361.19436      565.59438     -27080.428      240.70637     -26839.722     -24.914232    
      8600   0.43                4345   2729.6266      367.00947      537.64714     -27078.514      237.70395     -26840.81      -23.825112    
      8800   0.44                4345   2792.3502      376.93579      547.74459     -27084.1        243.30813     -26840.792     -23.843974    
      9000   0.45                4345   2731.4382      373.67962      533.03513     -27080.486      239.35425     -26841.132     -23.504145    
      9200   0.46                4345   2742.3124      367.30795      547.89289     -27081.548      239.7179      -26841.83      -22.806734    
      9400   0.47                4345   2678.988       358.84682      587.32839     -27085.704      243.85848     -26841.846     -22.790944    
      9600   0.48                4345   2872.1136      374.67365      579.53387     -27090.5        248.35875     -26842.141     -22.495505    
      9800   0.49                4345   2765.5121      361.33462      569.52173     -27083.555      241.48806     -26842.066     -22.57044     
     10000   0.5                 4345   2961.286       383.45206      585.69685     -27095.168      252.80128     -26842.366     -22.270729    
Loop time of 90.4401 on 5 procs for 10000 steps with 4345 atoms

Performance: 0.478 ns/day, 50.245 hours/ns, 110.570 timesteps/s, 480.428 katom-step/s
399.5% CPU use with 1 MPI tasks x 5 OpenMP threads

MPI task timing breakdown:
Section |  min time  |  avg time  |  max time  |%varavg| %total
---------------------------------------------------------------
Pair    | 85.888     | 85.888     | 85.888     |   0.0 | 94.97
Neigh   | 0.26991    | 0.26991    | 0.26991    |   0.0 |  0.30
Comm    | 0.99172    | 0.99172    | 0.99172    |   0.0 |  1.10
Output  | 0.14672    | 0.14672    | 0.14672    |   0.0 |  0.16
Modify  | 3.0397     | 3.0397     | 3.0397     |   0.0 |  3.36
Other   |            | 0.1043     |            |       |  0.12

Nlocal:           4345 ave        4345 max        4345 min
Histogram: 1 0 0 0 0 0 0 0 0 0
Nghost:           7166 ave        7166 max        7166 min
Histogram: 1 0 0 0 0 0 0 0 0 0
Neighs:              0 ave           0 max           0 min
Histogram: 1 0 0 0 0 0 0 0 0 0

Total # of neighbors = 0
Ave neighs/atom = 0
Neighbor list builds = 28
Dangerous builds = 0
undump tr
write_data structures/cooled_after40_0p5ps.data
System init for write_data ...
Hybrid pair style last /omp style zbl
Last active /omp style is pair_style zbl
write_restart restart/cooled_after40_0p5ps.restart
System init for write_restart ...
Hybrid pair style last /omp style zbl
Last active /omp style is pair_style zbl
Total wall time: 0:01:30
