LAMMPS (30 Sep 2026)
OMP_NUM_THREADS environment is not set. Defaulting to 1 thread.
  using 1 OpenMP thread(s) per MPI task
package omp 5
set 5 OpenMP thread(s) per MPI task
using multi-threaded neighbor list subroutines
units metal
dimension 3
atom_style atomic
boundary p p f
read_data structures/impact_50_62eV.data
Reading data file ...
  triclinic box = (0 0 -10) to (37.285975 32.290601 100) with tilt (-18.642987 0 0)
WARNING: Triclinic box skew is large. LAMMPS will run inefficiently. (src/domain.cpp:214)
  1 by 1 by 1 MPI processor grid
  reading atoms ...
  4355 atoms
  reading velocities ...
  4355 velocities
  read_data CPU = 0.031 seconds
include potentials/potential_stage69.inc
# Stage69 collision-ready candidate potential; no physical run is implied.
# Baseline: Ag EAM + Ti/Si/C TSCBOP + calibrated Ag-interface Morse.
# ZBL is overlaid only in the 0.8-1.5 A short-range window.
pair_style hybrid/overlay eam tersoff morse 8.0 zbl 0.8 1.5
pair_coeff 4 4 eam potentials/Ag_u3.eam
Reading eam potential file potentials/Ag_u3.eam with DATE: 2007-06-11
pair_coeff * * tersoff potentials/TSCBOP.tersoff Ti Si C NULL
pair_coeff 1 4 morse 0.94814194 2.00000000 2.33708864 8.0
pair_coeff 2 4 morse 0.93944948 2.00000000 2.40407837 8.0
pair_coeff 3 4 morse 1.35077230 2.00000000 2.15255924 8.0
pair_coeff 1 4 zbl 22 47
pair_coeff 2 4 zbl 14 47
pair_coeff 3 4 zbl 6 47
pair_coeff 4 4 zbl 47 47
neighbor 2.0 bin
neigh_modify delay 0 every 1 check yes
region sink_region block INF INF INF INF 8.0 18.0 units box
region crater_region cylinder z 9.9573898076 24.2578814220 8.0 12.0 55.0 units box
group projectiles id 4306:4355
50 atoms in group projectiles
group TSC type 1 2 3
2908 atoms in group TSC
group Ag type 4
1447 atoms in group Ag
group fixed_part_01 id 2 3 9 90 2969 3032 81 82 2909 2910 2914 2975 170 250 251 255 256 257 351 356 2921 341 342 352 444 445 516 2924 2933 2992 2998 3003 436 511 517 596 603 604 2934 2939 3006 597 693 698 699 777 2948 3010 3018 3019 766 849 850 859 2953 2954 2955 2958 3022 3024 851 952 953 2963 24 3033 16 17 25 96 97 104 105 106 189 184 190 260 261 269 270 2915 2916 2983 2989 262 357 358 364 2925
90 atoms in group fixed_part_01
group fixed_part_02 id 2926 2993 453 454 523 530 537 626 2935 2999 524 610 611 617 618 708 715 792 2941 2942 778 783 784 785 875 876 882 2949 867 868 869 877 963 970 971 972 2964 23 964 119 120 127 2970 2971 111 112 113 121 203 285 2917 2976 2985 277 286 372 373 380 381 389 475 2984 374 466 470 545 550 2927 2928 2937 538 627 637 638 639 644 2936 3007 628 725 901 2943 2950 3011 3012 3020 883 884 892 893
90 atoms in group fixed_part_02
group fixed_part_03 id 984 985 2956 38 986 2965 3025 3035 39 44 2972 40 128 135 136 2911 2918 2977 2978 210 294 295 299 300 396 406 2986 2987 390 397 398 486 2929 2930 556 557 558 654 655 2938 645 646 656 728 818 2944 2951 3013 3014 729 805 806 807 902 912 913 914 922 2957 3021 43 903 991 2959 2966 3026 3027 60 53 54 61 146 150 151 2913 2973 2980 222 223 224 229 315 316 2912 2920 2979 2991 308 309 407
90 atoms in group fixed_part_03
group fixed_part_04 id 497 2922 2990 2995 408 562 563 573 574 575 2931 2932 3001 564 659 660 667 2945 3008 3009 742 743 750 819 826 827 828 2952 3015 3016 923 924 930 931 932 999 1000 2960 2967 3028 1001 71 75 76 80 163 2974 3036 3037 156 157 158 164 236 2919 2981 2982 237 325 326 327 334 340 431 432 2997 424 425 433 498 504 505 587 2923 3002 499 580 581 582 588 589 675 681 682 692 2940 3005 756 760 765
90 atoms in group fixed_part_04
group fixed_part_05 id 841 842 2946 2947 835 836 837 843 939 946 2962 3023 3031 1 74 1015 2961 2968 3030 4 5 12 91 3105 83 85 94 171 177 181 3110 175 252 254 258 3044 3049 343 346 449 515 518 520 605 607 3063 700 3074 3075 3082 767 769 775 852 863 949 856 954 960 3099 26 3101 98 100 107 3039 3100 3106 185 188 3038 3045 3046 368 459 2994 3050 3051 457 463 531 535 3000 3004 3052 527 619 716 3068 3069
90 atoms in group fixed_part_05
group fixed_part_06 id 710 779 780 786 3076 3083 870 872 965 974 3087 3093 32 35 36 122 3034 3102 114 117 123 206 287 3040 291 375 382 3047 3054 377 467 469 471 472 546 3053 539 540 629 3064 3065 3070 3071 632 721 726 793 802 3077 796 885 894 897 987 3088 3089 3095 989 3094 41 45 3103 129 137 141 3041 3107 298 304 399 3048 391 402 3055 3059 551 554 559 560 3058 3066 3072 647 658 736 740 3078 811 817 904
90 atoms in group fixed_part_06
group fixed_part_07 id 915 918 3090 3096 62 55 59 66 147 152 3108 148 225 226 231 317 3042 310 312 321 409 413 421 2996 3056 487 488 565 576 577 3060 568 668 672 3017 3073 747 820 830 933 3079 3084 823 925 926 3029 3091 3092 3097 1002 1004 72 73 77 3104 3109 166 247 2988 3043 328 331 335 338 434 426 428 500 3057 3061 3062 583 593 676 683 687 3067 679 757 761 844 3080 3081 838 943 947 951 3085 3086 1016
90 atoms in group fixed_part_07
group fixed_part_08 id 1020 1025 3098
3 atoms in group fixed_part_08
group fixed union fixed_part_01 fixed_part_02 fixed_part_03 fixed_part_04 fixed_part_05 fixed_part_06 fixed_part_07 fixed_part_08
633 atoms in group fixed
group fixed union fixed_part_01 fixed_part_02 fixed_part_03 fixed_part_04 fixed_part_05 fixed_part_06 fixed_part_07 fixed_part_08
633 atoms in group fixed
group mobile subtract all fixed
3722 atoms in group mobile
group crater region crater_region
453 atoms in group crater
group freezone intersect mobile crater
453 atoms in group freezone
group free_substrate subtract freezone projectiles
406 atoms in group free_substrate
group anchored subtract mobile freezone
3269 atoms in group anchored
group sink region sink_region
878 atoms in group sink
group bath subtract sink freezone
791 atoms in group bath
fix hold fixed setforce 0.0 0.0 0.0
fix integrate all nve
fix anchor anchored spring/self 100.0
fix_modify anchor energy yes
fix bathfix bath langevin 300.0 300.0 0.05 631050 zero yes tally yes
compute Tfree free_substrate temp
compute TSC TSC temp
compute Ag Ag temp
timestep 0.00005
thermo 200
thermo_style custom step time atoms c_Tfree c_TSC c_Ag pe ke etotal f_bathfix
thermo_modify flush yes
dump tr all custom 1000 dumps/cool_after_50_0p5ps.dump id type x y z vx vy vz fx fy fz
dump_modify tr sort id
run 10000
Hybrid pair style last /omp style zbl
Last active /omp style is pair_style zbl
Neighbor list info ...
  update: every = 1 steps, delay = 0 steps, check = yes
  max neighbors/atom: 2000, page size: 100000
  master list distance cutoff = 10
  ghost atom cutoff = 10
  binsize = 5, bins = 12 7 22
  6 neighbor lists, perpetual/occasional/extra = 6 0 0
  (1) pair eam, perpetual, skip from (5)
      attributes: half, newton on, omp
      pair build: skip/omp
      stencil: none
      bin: none
  (2) pair tersoff, perpetual, skip from (6)
      attributes: full, newton on, omp
      pair build: skip/omp
      stencil: none
      bin: none
  (3) pair morse, perpetual, skip from (5)
      attributes: half, newton on, omp
      pair build: skip/omp
      stencil: none
      bin: none
  (4) pair zbl, perpetual, skip from (5)
      attributes: half, newton on, omp
      pair build: skip/omp
      stencil: none
      bin: none
  (5) neighbor class addition, perpetual, half/full from (6)
      attributes: half, newton on, omp
      pair build: halffull/newton/tri/omp
      stencil: none
      bin: none
  (6) neighbor class addition, perpetual
      attributes: full, newton on, omp
      pair build: full/bin/atomonly/omp
      stencil: full/bin/3d
      bin: standard
Per MPI rank memory allocation (min/avg/max) = 23.48 | 23.48 | 23.48 Mbytes
   Step          Time         Atoms       c_Tfree         c_TSC           c_Ag          PotEng         KinEng         TotEng       f_bathfix   
         0   0                   4355   4049.8541      449.62355      908.49193     -27223.808      338.75659     -26885.051     -0            
       200   0.01                4355   4053.9853      406.00619      745.06555     -27171.983      291.82091     -26880.162     -4.8876032    
       400   0.02                4355   3908.6787      491.46799      633.32637     -27179.45       303.04878     -26876.401     -8.6488697    
       600   0.03                4355   3832.1792      441.21554      739.63443     -27176.977      304.03601     -26872.941     -12.109061    
       800   0.04                4355   3917.049       472.22449      722.48457     -27182.948      312.48243     -26870.466     -14.582608    
      1000   0.05                4355   4065.6152      433.87541      741.29921     -27169.53       301.58906     -26867.941     -17.107481    
      1200   0.06                4355   4222.2192      489.9717       810.52814     -27202.919      335.60735     -26867.312     -17.736805    
      1400   0.07                4355   4138.9481      467.04333      787.62875     -27189.153      322.71167     -26866.441     -18.608732    
      1600   0.08                4355   3912.8751      454.80701      791.45381     -27183.684      318.8287      -26864.855     -20.194373    
      1800   0.09                4355   3965.1381      433.88555      827.92913     -27182.287      317.78488     -26864.502     -20.547069    
      2000   0.1                 4355   3970.9311      448.55218      843.06306     -27190.421      326.12469     -26864.296     -20.753924    
      2200   0.11                4355   4016.7262      461.4836       801.00653     -27186.157      323.12299     -26863.034     -22.015789    
      2400   0.12                4355   3659.5557      437.59107      777.52176     -27171.725      309.75561     -26861.969     -23.081057    
      2600   0.13                4355   3582.125       452.11633      737.64501     -27170.148      307.76024     -26862.388     -22.660999    
      2800   0.14                4355   3728.314       475.55119      719.91235     -27173.959      313.25169     -26860.708     -24.341998    
      3000   0.15                4355   3744.4607      482.60589      715.66461     -27175.353      315.10862     -26860.245     -24.805007    
      3200   0.16                4355   3591.1249      456.49535      752.72159     -27172.955      312.22366     -26860.731     -24.318593    
      3400   0.17                4355   3709.875       465.06501      756.42571     -27176.819      316.13613     -26860.682     -24.367259    
      3600   0.18                4355   3590.439       462.12149      703.29157     -27166.486      305.09877     -26861.387     -23.662146    
      3800   0.19                4355   3543.6094      455.71126      679.03724     -27158.85       298.15668     -26860.694     -24.356007    
      4000   0.2                 4355   3633.8035      472.02227      708.40529     -27170.608      309.77488     -26860.833     -24.216568    
      4200   0.21                4355   3328.3624      419.22866      685.97108     -27147.011      285.74401     -26861.267     -23.781327    
      4400   0.22                4355   3535.8343      464.90781      680.96555     -27163.625      301.97279     -26861.652     -23.396728    
      4600   0.23                4355   3575.6947      462.4182       688.81665     -27164.331      302.50475     -26861.826     -23.221924    
      4800   0.24                4355   3642.8065      465.1846       678.35528     -27163.2        301.58891     -26861.611     -23.436477    
      5000   0.25                4355   3790.8113      476.52137      675.13157     -27167.042      305.24626     -26861.796     -23.25219     
      5200   0.26                4355   3652.8969      467.76127      703.92045     -27168.38       307.33551     -26861.045     -24.004901    
      5400   0.27                4355   3604.5803      455.50256      676.39968     -27157.894      297.58527     -26860.309     -24.740867    
      5600   0.28                4355   3507.0602      448.77024      668.21343     -27154.543      293.52545     -26861.017     -24.02952     
      5800   0.29                4355   3561.5096      444.77921      742.09605     -27167.122      305.8352      -26861.287     -23.761031    
      6000   0.3                 4355   3464.2146      442.06159      726.92983     -27162.953      301.9793      -26860.973     -24.074078    
      6200   0.31                4355   3522.0103      459.34907      680.21676     -27161.139      299.74409     -26861.395     -23.652149    
      6400   0.32                4355   3538.2633      476.75048      712.16413     -27172.753      312.25412     -26860.499     -24.548666    
      6600   0.33                4355   3293.2717      438.51306      653.24065     -27149.325      286.87266     -26862.453     -22.59374     
      6800   0.34                4355   3368.0401      440.50236      642.97059     -27147.937      285.70058     -26862.236     -22.811505    
      7000   0.35                4355   3450.5117      451.37132      677.89449     -27158.398      296.31232     -26862.085     -22.962029    
      7200   0.36                4355   3627.8791      471.40532      681.81286     -27167.714      304.57266     -26863.142     -21.905303    
      7400   0.37                4355   3556.2234      473.58627      663.93856     -27164.401      302.05129     -26862.35      -22.695167    
      7600   0.38                4355   3443.7536      459.41277      655.38132     -27158.963      295.12603     -26863.837     -21.208311    
      7800   0.39                4355   3413.7281      457.12522      681.6845      -27162.726      299.18279     -26863.543     -21.502969    
      8000   0.4                 4355   3483.8564      468.66277      674.9624      -27165.568      302.2617      -26863.307     -21.740006    
      8200   0.41                4355   3455.5465      454.88687      657.16047     -27157.03       293.75792     -26863.272     -21.773864    
      8400   0.42                4355   3326.0913      447.39728      681.31018     -27158.765      295.45746     -26863.307     -21.738506    
      8600   0.43                4355   3399.0546      465.37299      649.31117     -27158.356      296.23106     -26862.125     -22.9211      
      8800   0.44                4355   3229.3688      469.08873      605.83406     -27152.471      289.50097     -26862.97      -22.074227    
      9000   0.45                4355   3155.4556      446.54778      649.75177     -27152.379      289.23967     -26863.14      -21.905664    
      9200   0.46                4355   3138.9966      455.89694      658.25729     -27157.215      294.34247     -26862.873     -22.178656    
      9400   0.47                4355   3157.6902      432.12997      628.26956     -27143.431      279.8068      -26863.624     -21.426161    
      9600   0.48                4355   3215.9718      462.72206      659.92497     -27161.769      297.21878     -26864.551     -20.500831    
      9800   0.49                4355   3250.4565      450.3028       652.03274     -27155.719      291.07699     -26864.642     -20.408006    
     10000   0.5                 4355   3245.343       461.76462      641.37399     -27159.465      293.39164     -26866.073     -18.977525    
Loop time of 93.4931 on 5 procs for 10000 steps with 4355 atoms

Performance: 0.462 ns/day, 51.941 hours/ns, 106.960 timesteps/s, 465.810 katom-step/s
399.2% CPU use with 1 MPI tasks x 5 OpenMP threads

MPI task timing breakdown:
Section |  min time  |  avg time  |  max time  |%varavg| %total
---------------------------------------------------------------
Pair    | 88.872     | 88.872     | 88.872     |   0.0 | 95.06
Neigh   | 0.31436    | 0.31436    | 0.31436    |   0.0 |  0.34
Comm    | 1.0038     | 1.0038     | 1.0038     |   0.0 |  1.07
Output  | 0.10359    | 0.10359    | 0.10359    |   0.0 |  0.11
Modify  | 3.022      | 3.022      | 3.022      |   0.0 |  3.23
Other   |            | 0.1778     |            |       |  0.19

Nlocal:           4355 ave        4355 max        4355 min
Histogram: 1 0 0 0 0 0 0 0 0 0
Nghost:           7169 ave        7169 max        7169 min
Histogram: 1 0 0 0 0 0 0 0 0 0
Neighs:              0 ave           0 max           0 min
Histogram: 1 0 0 0 0 0 0 0 0 0

Total # of neighbors = 0
Ave neighs/atom = 0
Neighbor list builds = 27
Dangerous builds = 0
undump tr
write_data structures/cooled_after50_0p5ps.data
System init for write_data ...
Hybrid pair style last /omp style zbl
Last active /omp style is pair_style zbl
write_restart restart/cooled_after50_0p5ps.restart
System init for write_restart ...
Hybrid pair style last /omp style zbl
Last active /omp style is pair_style zbl
Total wall time: 0:01:33
