49
Lattice="28.0 0.0 0.0 0.0 28.0 0.0 0.0 0.0 28.0" Properties=species:S:1:pos:R:3:lammps_id:I:1:lammps_type:I:1:central_pair:I:1:PW_PBE_forces:R:3:magmoms:R:1:forces:R:3 config_type=AgTi_residual_shell_v15_01 source_config_type=AgTi_2p70_periodic_PW_PBE_energy_force_holdout source_structure_sha256=28d3ddc63332361c014b42bfb54c87eb06d0945ede734b965229ceea46c5f60e validation_target_distance_A=2.6 validation_source_distance_A=2.6999999924868017 central_pair_elements=Ag-Ti dataset_role=v15_acquisition_candidate geometry_family=AgTi_residual_targeted_local_perturbation correlation_note="Targeted local perturbation of an existing small-cell motif; not an independent morphology or thermal snapshot." source_label=AgTi_registry_probe_v13_01 targeted_lammps_ids="479027 687247 480810 480812" PW_PBE_energy_eV=-177.00434328332136 source_method="GPAW 26.7.0 PW-PBE 500 eV Gamma single point" free_energy=-177.65293750680226 energy=-177.00434328332136 dipole="0.44718061962065914 0.3260995555371284 0.29491051065556056" magmom=0.0 pbc="T T T"
C       13.89902107      12.90667166       9.57093308   478831        3        0      -1.48647484       2.38728814       0.38036237       0.00000000      -1.48647484       2.38728814       0.38036237
Ti      12.65145195      14.68125315       8.80907176   478840        1        0       1.39345082      -0.75061201       3.43558664       0.00000000       1.39345082      -0.75061201       3.43558664
Si      16.74663914      14.99666412       9.05588053   478841        2        0      -0.88680711      -0.92181047       1.30643177       0.00000000      -0.88680711      -0.92181047       1.30643177
C       13.77615718      16.76659830       9.46205532   478844        3        0      -4.37039355       0.54206073       1.11578424       0.00000000      -4.37039355       0.54206073       1.11578424
Ti      12.52073841      12.81804059      11.21367253   479021        1        0       0.31787573      -1.11792494      -1.24045197       0.00000000       0.31787573      -1.11792494      -1.24045197
Ti      12.79391184      14.20967401      13.89668174   479027        1        1      -1.37404459       4.24842045       0.51706256       0.00000000      -1.37404459       4.24842045       0.51706256
Ti      13.28277547      17.52458865      13.66155274   479028        1        0      -0.38531254       0.29184065      -1.15581378       0.00000000      -0.38531254       0.29184065      -1.15581378
C       12.15175400      15.99909223      12.96465198   479030        3        0       0.14594546      -1.23669340       1.03009985       0.00000000       0.14594546      -1.23669340       1.03009985
C       11.98853479      17.80917003      10.01132533   479031        3        0       3.81254020      -2.69918283      -0.67844798       0.00000000       3.81254020      -2.69918283      -0.67844798
C       11.11451254      11.62627022      10.48467063   480798        3        0      -0.96999598       0.69897937       2.27446438       0.00000000      -0.96999598       0.69897937       2.27446438
Ti       9.67354144      11.70899895      12.55025572   480801        1        0       4.24832316      -0.89256852       0.13078558       0.00000000       4.24832316      -0.89256852       0.13078558
C       10.41266283       9.58775109      13.76894219   480802        3        0       0.18442438       1.49343046       2.87126263       0.00000000       0.18442438       1.49343046       2.87126263
C       11.34229479      12.94440917      13.35443360   480805        3        0      -1.74007710       0.19837254      -0.70142588       0.00000000      -1.74007710       0.19837254      -0.70142588
C       11.28374990      14.20773200      10.31327606   480807        3        0       0.94672443       0.33910081      -0.24819197       0.00000000       0.94672443       0.33910081      -0.24819197
Ti      10.66223566      14.68803236      12.20706253   480810        1        0      -0.70753123      -0.84767912      -0.25787350       0.00000000      -0.70753123      -0.84767912      -0.25787350
Ti      11.15486925      17.41711765      11.90352167   480811        1        0      -0.12631656       0.73480877      -2.43529833       0.00000000      -0.12631656       0.73480877      -2.43529833
Ti      10.58201147      16.46215107      14.28072625   480812        1        0       1.12117898      -0.08997168       0.59816974       0.00000000       1.12117898      -0.08997168       0.59816974
C       11.96210142      18.77118885      12.88507762   480813        3        0       0.86115308      -0.88342197       1.32206866       0.00000000       0.86115308      -0.88342197       1.32206866
C       10.74527181       9.34898918      15.92141080   480974        3        0       0.40392118       1.94839335      -3.55598724       0.00000000       0.40392118       1.94839335      -3.55598724
C       10.62622570      11.85220159      16.64461392   480975        3        0      -0.17138897       1.56221185      -1.61569020       0.00000000      -0.17138897       1.56221185      -1.61569020
Ti       9.93269127      13.47667665      15.31060751   480980        1        0       2.40791660      -2.15974508      -0.02234163       0.00000000       2.40791660      -2.15974508      -0.02234163
Ag      13.15635032      11.92681631      14.15096508   682693        4        0       0.36879318      -3.36432071       0.38910505       0.00000000       0.36879318      -3.36432071       0.38910505
Ag      19.27103991      16.06172680      16.14325276   685396        4        0      -0.33065918      -0.15921488      -0.07922391       0.00000000      -0.33065918      -0.15921488      -0.07922391
Ag      17.26700927      16.04206165      14.13636119   685467        4        0      -0.02080903       0.45454619      -0.48655015       0.00000000      -0.02080903       0.45454619      -0.48655015
Ag      15.21476112      11.91528697      16.16910796   686309        4        0      -0.11154933      -0.22639901       0.22290404       0.00000000      -0.11154933      -0.22639901       0.22290404
Ag      17.21392936      13.97398654      16.13597887   686324        4        0       0.60522057      -0.01888425       0.42612652       0.00000000       0.60522057      -0.01888425       0.42612652
Ag      15.25984795       9.84522751      14.06702254   686418        4        0      -0.11176164       0.19730975       0.11176542       0.00000000      -0.11176164       0.19730975       0.11176542
Ag      19.28086435      13.99972927      14.11166018   686622        4        0      -0.39035681       0.18667713       0.10935495       0.00000000      -0.39035681       0.18667713       0.10935495
Ag      17.23987145      16.04230202      18.18247801   686899        4        0      -0.08264806       0.05793895      -0.23362695       0.00000000      -0.08264806       0.05793895      -0.23362695
Ag      17.23652607       9.89177748      16.14439265   687243        4        0      -0.27238017       0.35825931      -0.19145327       0.00000000      -0.27238017       0.35825931      -0.19145327
Ag      15.37371093      13.95678829      14.11127121   687247        4        1      -0.18386617       0.40984144      -0.17079284       0.00000000      -0.18386617       0.40984144      -0.17079284
Ag      15.21209897      16.06715970      16.10901688   688096        4        0      -0.54605570       0.18260539      -0.07752833       0.00000000      -0.54605570       0.18260539      -0.07752833
Ag      17.25172922       9.88253321      12.04485225   688280        4        0      -0.21223314       0.42380526       0.05616298       0.00000000      -0.21223314       0.42380526       0.05616298
Ag      15.28470047      14.01780436      18.19582085   688689        4        0      -0.40714290      -0.17618127      -0.01896463       0.00000000      -0.40714290      -0.17618127      -0.01896463
Ag      17.21273800      18.09581139      16.15000652   688707        4        0      -0.10903358      -0.19175234      -0.02920476       0.00000000      -0.10903358      -0.19175234      -0.02920476
Ag      17.22920221      11.97852300      14.04843188   689682        4        0       0.50455537      -0.62638019       0.07830459       0.00000000       0.50455537      -0.62638019       0.07830459
Ag      13.18170587      16.04176470      18.17151177   690927        4        0       0.05598023      -0.33635528      -0.25198362       0.00000000       0.05598023      -0.33635528      -0.25198362
Ag      15.20634649      18.09577674      18.20004601   691757        4        0       0.12717276      -0.35764368      -0.25520035       0.00000000       0.12717276      -0.35764368      -0.25520035
Ag      13.17617624      11.95798587      18.19172182   694331        4        0      -0.18897370       0.29354887      -0.60045136       0.00000000      -0.18897370       0.29354887      -0.60045136
Ag      17.23960348      11.93172895      18.18219469   696686        4        0      -0.25083886       0.10218757      -0.38959501       0.00000000      -0.25083886       0.10218757      -0.38959501
Ag      13.17664715       9.88304979      16.15300997   700223        4        0      -0.96067924       0.12251891      -0.28443119       0.00000000      -0.96067924       0.12251891      -0.28443119
Ag      11.15662076      13.98813182      18.20237906   701905        4        0       0.18724358      -0.44774246      -0.85617643       0.00000000       0.18724358      -0.44774246      -0.85617643
Ag      17.22145846      18.09982138      12.03659182   703736        4        0      -0.33193038      -0.62305298       0.37307122       0.00000000      -0.33193038      -0.62305298       0.37307122
Ag      15.15062621      16.06754654      12.04374819   704767        4        0       0.08033919      -0.13890862      -0.44248341       0.00000000       0.08033919      -0.13890862      -0.44248341
Ag      17.23079361      14.02746892      12.01255758   716228        4        0       0.13484459       0.15388431      -0.89673721       0.00000000       0.13484459       0.15388431      -0.89673721
Ag      15.24024594      11.95276850      12.02649924   720990        4        0      -0.34973100      -0.07712214      -0.56711472       0.00000000      -0.34973100      -0.07712214      -0.56711472
Ag      13.20991379      18.16115910      16.18286910   721910        4        0      -0.21746629      -0.26580778       0.44674376       0.00000000      -0.21746629      -0.26580778       0.44674376
Ag      17.24565333      11.93660568       9.97615916   728014        4        0      -0.32762257       0.71841820       0.32662999       0.00000000      -0.32762257       0.71841820       0.32662999
Ag      13.17551906       9.88412807      12.01790751   741114        4        0      -0.28047063       0.49746519       0.22035591       0.00000000      -0.28047063       0.49746519       0.22035591
