32
Lattice="8.2341737642017243 0 0 0 8.2341737642017243 0 0 0 8.2341737642017243" Properties=species:S:1:pos:R:3:PW_PBE_forces:R:3:local_new_id:I:1 pbc="T T T" PW_PBE_energy_eV=-91.616576176084806 config_type=Ag_volume_p02_k8x8x8_v19
Ag 0 0 0 -1.0633834238661666e-23 -1.4178445651548888e-23 -1.0633834238661666e-23 1
Ag 0 2.0585434399999998 2.0585434399999998 -7.0892228257744438e-24 -3.8722641116986119e-05 -3.8722641116986119e-05 2
Ag 2.0585434399999998 0 2.0585434399999998 -3.8722641116986119e-05 -1.1963063518494375e-23 -3.8722641116986119e-05 3
Ag 2.0585434399999998 2.0585434399999998 0 -3.8722641116986119e-05 -3.8722641116986119e-05 -2.259689775715604e-23 4
Ag 0 0 4.1170868799999996 3.5446114128872219e-24 7.0892228257744438e-24 0 5
Ag 0 2.0585434399999998 6.1756303199999998 0 -3.8722641116986119e-05 3.8722641116986119e-05 6
Ag 2.0585434399999998 0 6.1756303199999998 -3.8722641116986112e-05 3.5446114128872219e-24 3.8722641116986119e-05 7
Ag 2.0585434399999998 2.0585434399999998 4.1170868799999996 -1.0468967900185878e-05 -1.0468967900185878e-05 -1.4178445651548888e-23 8
Ag 0 4.1170868799999996 0 -3.5446114128872219e-24 0 3.5446114128872219e-24 9
Ag 0 6.1756303199999998 2.0585434399999998 -1.772305706443611e-24 3.8722641116986119e-05 -3.8722641116986119e-05 10
Ag 2.0585434399999998 4.1170868799999996 2.0585434399999998 -1.0468967900185881e-05 -1.4178445651548888e-23 -1.0468967900185881e-05 11
Ag 2.0585434399999998 6.1756303199999998 0 -3.8722641116986119e-05 3.8722641116986119e-05 0 12
Ag 0 4.1170868799999996 4.1170868799999996 3.5446114128872219e-24 1.4178445651548888e-23 -3.5446114128872219e-24 13
Ag 0 6.1756303199999998 6.1756303199999998 -8.8615285322180551e-24 3.8722641116986119e-05 3.8722641116986119e-05 14
Ag 2.0585434399999998 4.1170868799999996 6.1756303199999998 -1.0468967900185881e-05 -2.1267668477323333e-23 1.0468967900185878e-05 15
Ag 2.0585434399999998 6.1756303199999998 4.1170868799999996 -1.0468967900185881e-05 1.0468967900185878e-05 -2.1267668477323333e-23 16
Ag 4.1170868799999996 0 0 0 -7.0892228257744438e-24 -3.5446114128872219e-24 17
Ag 4.1170868799999996 2.0585434399999998 2.0585434399999998 1.4178445651548888e-23 -1.0468967900185885e-05 -1.0468967900185883e-05 18
Ag 6.1756303199999998 0 2.0585434399999998 3.8722641116986112e-05 0 -3.8722641116986112e-05 19
Ag 6.1756303199999998 2.0585434399999998 0 3.8722641116986112e-05 -3.8722641116986112e-05 0 20
Ag 4.1170868799999996 0 4.1170868799999996 -1.772305706443611e-23 3.5446114128872219e-24 7.0892228257744438e-24 21
Ag 4.1170868799999996 2.0585434399999998 6.1756303199999998 7.0892228257744438e-24 -1.0468967900185885e-05 1.0468967900185883e-05 22
Ag 6.1756303199999998 0 6.1756303199999998 3.8722641116986112e-05 -7.0892228257744438e-24 3.8722641116986119e-05 23
Ag 6.1756303199999998 2.0585434399999998 4.1170868799999996 1.0468967900185883e-05 -1.0468967900185885e-05 -8.8615285322180548e-25 24
Ag 4.1170868799999996 4.1170868799999996 0 2.1267668477323333e-23 1.772305706443611e-23 3.5446114128872219e-24 25
Ag 4.1170868799999996 6.1756303199999998 2.0585434399999998 3.0129197009541392e-23 1.0468967900185883e-05 -1.0468967900185885e-05 26
Ag 6.1756303199999998 4.1170868799999996 2.0585434399999998 1.0468967900185883e-05 3.1458426289374099e-23 -1.0468967900185885e-05 27
Ag 6.1756303199999998 6.1756303199999998 0 3.8722641116986112e-05 3.8722641116986119e-05 -7.0892228257744438e-24 28
Ag 4.1170868799999996 4.1170868799999996 4.1170868799999996 0 -3.5446114128872219e-24 0 29
Ag 4.1170868799999996 6.1756303199999998 6.1756303199999998 -5.3169171193308332e-24 1.0468967900185883e-05 1.0468967900185885e-05 30
Ag 6.1756303199999998 4.1170868799999996 6.1756303199999998 1.0468967900185883e-05 2.4812279890210556e-23 1.0468967900185883e-05 31
Ag 6.1756303199999998 6.1756303199999998 4.1170868799999996 1.0468967900185881e-05 1.0468967900185885e-05 -3.5446114128872219e-24 32
