49
Lattice="28.0 0.0 0.0 0.0 28.0 0.0 0.0 0.0 28.0" Properties=species:S:1:pos:R:3:lammps_id:I:1:lammps_type:I:1:central_pair:I:1 config_type=AgTi_wide_distance_p0p35 dataset_role=unlabeled_training_acquisition_proposal parent_config_type=AgTi_registry_probe_v13_01_periodic_PW_PBE_energy_force_v14_train parent_file_sha256=3323cdbd3081fc8d91673662c5f83c8da93ba3b4d7a23428f6b70d0e7a4c9faf parent_geometry_sha256=b78ee569d0bafe0cbb68dc693ce5a47df03eff043b70e2ea8ca96c5bca7e8964 sampling_axis=distance sampling_offset_A=0.35 not_validated_training_data=T geometry_screening_decision=GEOMETRY_PASS_A_REVIEW requires_A_review=T geometry_review_flags=none pbc="T T T"
C       13.89902107      12.90667166       9.57093308   478831        3        0
Ti      12.62304525      14.70227784       8.74620905   478840        1        0
Si      16.74663914      14.99666412       9.05588053   478841        2        0
C       13.77615718      16.76659830       9.46205532   478844        3        0
Ti      12.49439364      12.82858132      11.26096292   479021        1        0
Ti      12.74652762      14.24815681      13.89771094   479027        1        1
Ti      13.27333691      17.52276133      13.67525409   479028        1        0
C       12.19406070      16.00730532      12.98699267   479030        3        0
C       11.92979276      17.83928667      10.04608242   479031        3        0
C       11.14030857      11.60980287      10.51944505   480798        3        0
Ti       9.67365027      11.73672021      12.52949502   480801        1        0
C       10.41266283       9.58775109      13.76894219   480802        3        0
C       11.34811906      12.99570560      13.31832051   480805        3        0
C       11.26779912      14.20441406      10.34350882   480807        3        0
Ti      10.63277880      14.68120764      12.23793466   480810        1        0
Ti      11.15181567      17.42898892      11.87855887   480811        1        0
Ti      10.57490139      16.47263116      14.34546801   480812        1        0
C       11.98467917      18.76062403      12.89743879   480813        3        0
C       10.74527181       9.34898918      15.92141080   480974        3        0
C       10.58950093      11.90905331      16.64358691   480975        3        0
Ti       9.93014220      13.54071165      15.28648610   480980        1        0
Ag      13.52624729      11.89840795      14.11179346   682693        4        0
Ag      19.61807333      16.02536326      16.17055655   685396        4        0
Ag      17.57765117      16.01107770      14.10814491   685467        4        0
Ag      15.56731892      11.88682992      16.16390689   686309        4        0
Ag      17.58779059      13.96175133      16.17998304   686324        4        0
Ag      15.55246974       9.84411053      14.11235737   686418        4        0
Ag      19.61503313      13.96795285      14.11059922   686622        4        0
Ag      17.58690487      16.00593848      18.20978180   686899        4        0
Ag      17.58355949       9.85541394      16.17169644   687243        4        0
Ag      15.65961246      13.94291218      14.12690573   687247        4        1
Ag      15.56923034      16.01501557      16.18453587   688096        4        0
Ag      17.59876264       9.84616967      12.07215604   688280        4        0
Ag      15.55578945      13.95092252      18.22443999   688689        4        0
Ag      17.55977142      18.05944785      16.17731031   688707        4        0
Ag      17.59847077      11.89601649      14.11514809   689682        4        0
Ag      13.52873929      16.00540116      18.19881556   690927        4        0
Ag      15.55337991      18.05941320      18.22734980   691757        4        0
Ag      13.52320966      11.92162233      18.21902561   694331        4        0
Ag      17.58663690      11.89536541      18.20949848   696686        4        0
Ag      13.52368057       9.84668625      16.18031376   700223        4        0
Ag      11.50365418      13.95176828      18.22968285   701905        4        0
Ag      17.56849188      18.06345784      12.06389561   703736        4        0
Ag      15.55069874      16.01800015      12.07476361   704767        4        0
Ag      17.59101495      13.95050336      12.05703750   716228        4        0
Ag      15.56301624      11.91649215      12.05029040   720990        4        0
Ag      13.52279622      18.06466892      16.15481328   721910        4        0
Ag      17.59268675      11.90024214      10.00346295   728014        4        0
Ag      13.52255248       9.84776453      12.04521130   741114        4        0
