48
Lattice="28.139999999999997 0.0 0.0 0.0 28.139999999999997 0.0 0.0 0.0 28.139999999999997" Properties=species:S:1:pos:R:3:lammps_id:I:1:lammps_type:I:1:central_pair:I:1:PW_PBE_forces:R:3:magmoms:R:1:forces:R:3 source_config_type=AgC_registry_strain_acq_v14_01_periodic_PW_PBE_energy_force_v14_train source_dataset_path=research/mace-v12-transfer/periodic_interface_v4/mace_periodic_v14_interface_energy/data/train.extxyz source_dataset_sha256=3323cdbd3081fc8d91673662c5f83c8da93ba3b4d7a23428f6b70d0e7a4c9faf source_frame_geometry_sha256=72d649542158aade39a3cf50dc73759ad25df8a7ff7b2b117f1aa0c6ffc513a3 proposal_mode=framework_neighbor proposal_sign=-1 proposal_displacement_A="-0.014502790475521044 -0.037037308305145115 0.004231650024844296" candidate_role=proposed_training_acquisition_geometry_unassigned config_type=AgC_framework_neighbor_m_acq_v17_01 proposal_only_no_DFT_label=T PW_PBE_energy_eV=-257.556940991308 source_method="GPAW 26.7.0 PW-PBE 500 eV Gamma single point" free_energy=-258.7141313598061 energy=-257.556940991308 dipole="1.4455005806164374 -1.323964539617757 0.21447739068066404" magmom=0.0 pbc="T T T"
Ti      14.77773371      12.05600926      19.11551806   113766        1        0      -0.72439121      -0.04727592      -1.97843373       0.00000000      -0.72439121      -0.04727592      -1.97843373
Ti      19.82811217      14.16747384      12.33246569   600768        1        0      -1.35349539      -0.66338384       1.82147703       0.00000000      -1.35349539      -0.66338384       1.82147703
Ti      15.14933662      14.09146000       8.99034223   602398        1        0      -1.18044232      -1.42621043       1.86444448       0.00000000      -1.18044232      -1.42621043       1.86444448
Ti      16.70700672      11.35471852      12.38368619   602560        1        0       0.91410182       1.31469482      -1.10537649       0.00000000       0.91410182       1.31469482      -1.10537649
C       15.80834749      12.28135230      10.41275719   602563        3        0       0.26189866      -0.58132828       0.74191960       0.00000000       0.26189866      -0.58132828       0.74191960
C       15.24595730      10.24678088      13.19736310   602564        3        0       5.12903537      -2.58263433      -0.17509754       0.00000000       5.12903537      -2.58263433      -0.17509754
C       15.09615209      17.79866568      11.05647245   602568        3        0       0.53325209       0.98099726       1.63241030       0.00000000       0.53325209       0.98099726       1.63241030
Ti      16.22196177      17.83062629      12.74423018   602569        1        0      -0.65800422       0.81667649       0.35809012       0.00000000      -0.65800422       0.81667649       0.35809012
C       15.07856493      19.59732463      13.72647342   602577        3        0      -1.67008507      -4.40558134      -2.04401764       0.00000000      -1.67008507      -4.40558134      -2.04401764
Ti      16.76440974      12.97642676      14.38731587   602709        1        0      -0.40787815       0.13230041      -0.10053690       0.00000000      -0.40787815       0.13230041      -0.10053690
Ti      16.30101915       9.87962573      15.16830310   602714        1        0      -0.80746808       1.78762257      -1.41951049       0.00000000      -0.80746808       1.78762257      -1.41951049
Si      16.28907112      11.75977571      16.92416559   602717        2        0      -0.57220762      -0.03306522       0.13765448       0.00000000      -0.57220762      -0.03306522       0.13765448
Ti      19.60392340      12.82762980      14.90690853   602720        1        0      -1.59987812       0.73665819      -1.11988749       0.00000000      -1.59987812       0.73665819      -1.11988749
Si      17.67857728      13.64819382      16.56818905   602722        2        0       1.04111219       0.54569145      -0.04050386       0.00000000       1.04111219       0.54569145      -0.04050386
Si      17.72084154      16.09981719      16.31087786   602726        2        0      -0.01596654       0.35321487      -1.43319996       0.00000000      -0.01596654       0.35321487      -1.43319996
Si      18.23918609      18.04904044      14.55915110   602728        2        0      -0.55071512      -1.74416630       0.84996157       0.00000000      -0.55071512      -1.74416630       0.84996157
Ti      14.76502840      10.24823364      11.01852302   604584        1        0       1.23405811      -3.24937159      -1.39492412       0.00000000       1.23405811      -3.24937159      -1.39492412
C       13.17986737       8.67583329      11.62428134   604585        3        0       1.13626402       0.35568355       0.71472806       0.00000000       1.13626402       0.35568355       0.71472806
Ti      11.74276545      10.17736294      12.03503218   604586        1        0       1.04321804      -1.94985230       0.04959907       0.00000000       1.04321804      -1.94985230       0.04959907
C       13.19563199      11.17968796      11.24892195   604587        3        0      -3.59726064      -3.16984174       1.35898661       0.00000000      -3.59726064      -3.16984174       1.35898661
Ti      14.35882364       8.52198837      13.27154629   604588        1        0      -3.45905934       0.71287794      -0.54376963       0.00000000      -3.45905934       0.71287794      -0.54376963
Ti      13.89522027      11.47862233      13.19404990   604589        1        0      -0.50384333       3.30490724       0.12676510       0.00000000      -0.50384333       3.30490724       0.12676510
Ti      13.89476314      12.73690514      10.90480480   604590        1        0       3.92481536       4.78833494      -0.70811484       0.00000000       3.92481536       4.78833494      -0.70811484
C       12.76671152      10.07059819      13.82600363   604592        3        0      -2.36960759      -2.39979588       3.02855640       0.00000000      -2.36960759      -2.39979588       3.02855640
Si       9.97310494      12.81272528      11.37092765   604593        2        0       0.25997628      -0.15811327       1.37237994       0.00000000       0.25997628      -0.15811327       1.37237994
Si       9.91049250      11.50366541      13.68373389   604594        2        0       0.31682353       0.99053636      -0.53970540       0.00000000       0.31682353       0.99053636      -0.53970540
C       13.36240624      13.47924599       9.24302655   604596        3        0       1.11448434       0.54921677      -2.59803531       0.00000000       1.11448434       0.54921677      -2.59803531
C       12.81786136      16.19913384       9.90450598   604598        3        0      -0.76465263      -0.55892948       1.14478828       0.00000000      -0.76465263      -0.55892948       1.14478828
Ti      11.95350169      14.26617928      10.37423728   604599        1        0      -0.64123159       2.50150339      -0.08535509       0.00000000      -0.64123159       2.50150339      -0.08535509
Ti      14.07288981      15.96040749      11.56987937   604600        1        0      -3.03240959       3.61531473      -3.54068162       0.00000000      -3.03240959       3.61531473      -3.54068162
Ti      11.43344149      17.43347667      10.56034947   604601        1        0       2.10607242      -0.90279750       0.23949982       0.00000000       2.10607242      -0.90279750       0.23949982
C       13.06646719      14.13684670      12.10746617   604602        3        0       0.06826297       0.36436399       0.05717873       0.00000000       0.06826297       0.36436399       0.05717873
C       12.78805257      17.51047972      12.49636784   604603        3        0      -1.15576536       1.39924366       0.68857723       0.00000000      -1.15576536       1.39924366       0.68857723
Si       9.80689857      15.55673045      10.57595241   604605        2        0      -1.17142123      -0.15801584       1.56779371       0.00000000      -1.17142123      -0.15801584       1.56779371
Ti      13.89404094      19.21480490      11.80016927   604608        1        0       1.82105731      -1.43311588       0.28153324       0.00000000       1.82105731      -1.43311588       0.28153324
Ti      11.25802150      18.92548624      12.55015014   604611        1        0       0.66840611      -1.08980311       1.05407221       0.00000000       0.66840611      -1.08980311       1.05407221
Ti      12.26634854      10.47500164      17.74830506   604794        1        0       0.47468928       1.10520527      -0.84701326       0.00000000       0.47468928       1.10520527      -0.84701326
Ti      11.80033518       8.66345692      15.22903044   604795        1        0       1.55742215       2.72812508      -1.07999618       0.00000000       1.55742215       2.72812508      -1.07999618
Ti      12.16895326      11.73834240      15.12525415   604796        1        0      -0.42380169       0.20442654       0.52979577       0.00000000      -0.42380169       0.20442654       0.52979577
Si      10.14239037      12.97278704      16.23387027   604803        2        0       0.24695315       0.95098215      -0.45723115       0.00000000       0.24695315       0.95098215      -0.45723115
C       13.51643176      13.03522086      14.23752793   604804        3        1      -0.16990750       1.11606791       1.53646103       0.00000000      -0.16990750       1.11606791       1.53646103
Ti      13.94132315      17.72599046      14.28329593   604805        1        0       0.26502111       1.62309247      -1.16452854       0.00000000       0.26502111       1.62309247      -1.16452854
Ti      12.29104930      13.63698510      17.68575294   604806        1        0       1.13566669       0.34525406      -1.79866573       0.00000000       1.13566669       0.34525406      -1.79866573
C       13.50469061      14.90550135      16.60374365   604810        3        0      -1.39215666      -1.25847994       0.16353253       0.00000000      -1.39215666      -1.25847994       0.16353253
Si      10.25169018      15.68472473      15.66843032   604813        2        0       0.70048167      -1.69067745       0.19856862       0.00000000       0.70048167      -1.69067745       0.19856862
Si       9.70307372      16.94008547      12.67728352   606503        2        0       0.53135368      -0.83548700      -1.04051326       0.00000000       0.53135368      -0.83548700      -1.04051326
Ag      14.36040925      15.11324150      13.72951918   688433        4        1       0.19242549      -1.87059848       3.61170116       0.00000000       0.19242549      -1.87059848       3.61170116
Ag      16.41657402      15.11397897      11.65879226   751743        4        0       1.56352631      -1.11214822       0.09056137       0.00000000       1.56352631      -1.11214822       0.09056137
