51
Lattice="28.0 0.0 0.0 0.0 28.0 0.0 0.0 0.0 28.0" Properties=species:S:1:pos:R:3:lammps_id:I:1:lammps_type:I:1:central_pair:I:1:REF_forces:R:3:PW_PBE_forces:R:3:magmoms:R:1:forces:R:3 config_type=AgSi_d2p8_periodic_PW_PBE training_label_policy=forces_only_LCAO_energy_excluded PW_PBE_energy_eV=-207.4892339444743 free_energy=-208.4550001460335 energy=-207.4892339444743 dipole="-0.5396834466575832 -0.3378925450536285 2.3424180192785933" magmom=0.0 pbc="T T T"
C       18.69343949      12.54843047      11.16426339   365143        3        0      -2.22813587      -0.41961936      -0.30128188      -2.18385430      -0.44638263      -0.32197204       0.00000000      -2.18385430      -0.44638263      -0.32197204
Ti      17.77527161      11.56733874      17.50540585   365320        1        0      -4.18222847      -0.35754175      -2.58471818      -4.18880805      -0.36012242      -2.60611975       0.00000000      -4.18880805      -0.36012242      -2.60611975
C       16.50131571      11.29392294       9.82945078   366772        3        0       1.11829089       1.34741493       1.36368041       1.13715083       1.28647563       1.30195319       0.00000000       1.13715083       1.28647563       1.30195319
C       16.56177584      14.75897246       9.64040901   366778        3        0      -0.76634167       0.79414883       0.11392968      -0.90304196       0.86590766       0.07790367       0.00000000      -0.90304196       0.86590766       0.07790367
Si      13.06792779      10.84352028      11.57948201   366929        2        0       0.76125210       1.03386458      -0.51610445       0.75874239       1.04910383      -0.39473299       0.00000000       0.75874239       1.04910383      -0.39473299
C       16.90853430      10.60971273      13.62762261   366931        3        0      -1.43928555       1.33305092       1.15263153      -1.45238069       1.35701027       1.13691646       0.00000000      -1.45238069       1.35701027       1.13691646
Si      13.29299928      10.09088002      13.97440872   366933        2        0       0.28037083       0.76010114       1.10433050       0.20401573       0.82295681       1.09242717       0.00000000       0.20401573       0.82295681       1.09242717
Si      13.58698243      12.73630969      14.43875195   366934        2        1      -0.76317386       0.66560183      -0.54996005      -0.70351401       0.62467866      -0.56725327       0.00000000      -0.70351401       0.62467866      -0.56725327
Ti      15.36087474      11.30986335      15.32968892   366935        1        0       2.88065526      -2.48648141       1.06323974       2.86751065      -2.42870226       1.04145150       0.00000000       2.86751065      -2.42870226       1.04145150
Si      14.12319488      13.12695146      11.90081949   366936        2        0      -0.18247286      -0.45557525      -0.29646699      -0.22030896      -0.45310859      -0.22946858       0.00000000      -0.22030896      -0.45310859      -0.22946858
C       16.40496119       9.83143917      16.41532269   367109        3        0      -0.22136550       1.93224183       2.81407019      -0.26986431       1.97586519       2.80595621       0.00000000      -0.26986431       1.97586519       2.80595621
Si      13.21435913      10.17655112      16.69028210   367110        2        0      -0.10332665       0.19687696      -0.47781035      -0.06899911       0.18975194      -0.55691693       0.00000000      -0.06899911       0.18975194      -0.55691693
C       16.53339143      12.79840769      16.35358160   367111        3        0       0.12916727       0.28419663       0.86955883       0.04712444       0.26389638       0.92195931       0.00000000       0.04712444       0.26389638       0.92195931
Ti      15.33126897      10.04209215      18.27195901   367112        1        0       1.02812996       0.55477252      -3.18083553       1.03287190       0.51852186      -3.19647400       0.00000000       1.03287190       0.51852186      -3.19647400
Ti      15.30176319      13.03108330      18.14132801   367113        1        0      -0.09481572       0.53714376       0.46719477      -0.02414930       0.65632357       0.41045010       0.00000000      -0.02414930       0.65632357       0.41045010
Si      13.24363583      13.20928859      19.80511010   367115        2        0      -0.25905200       0.45316709      -1.13029522      -0.25878655       0.45739145      -1.14826674       0.00000000      -0.25878655       0.45739145      -1.14826674
Ti      15.44240477      14.64299255      15.95068572   367117        1        0       1.07924037      -0.62576761       1.35882694       1.05719923      -0.71548604       1.38444130       0.00000000       1.05719923      -0.71548604       1.38444130
Si      12.84812044      15.22784025      16.43301567   367118        2        0       0.64891005       0.32001881       0.27393615       0.63180229       0.33188822       0.31708376       0.00000000       0.63180229       0.33188822       0.31708376
Si      13.02223133      18.39492743      16.78836500   367120        2        0      -0.31892920      -1.60278447       0.04897035      -0.31755322      -1.63832157       0.06313217       0.00000000      -0.31755322      -1.63832157       0.06313217
Ti      14.58564033      16.63208684      18.10920443   367121        1        0      -0.02645559      -2.33490254      -0.34637492      -0.03202515      -2.33844048      -0.32091865       0.00000000      -0.03202515      -2.33844048      -0.32091865
C       15.76712835      14.95392999      18.47200166   367122        3        0      -1.31481784       0.39052061      -1.78760866      -1.40891971       0.34678201      -1.84025846       0.00000000      -1.40891971       0.34678201      -1.84025846
C        9.95627140      12.83851001      10.82637371   368645        3        0       1.35652504       0.48284789      -0.09272565       1.35549967       0.49284434      -0.09772548       0.00000000       1.35549967       0.49284434      -0.09772548
Ti      11.11195807       9.14865555      15.20721024   368823        1        0      -0.09211669       2.48946367       1.64446373      -0.06568343       2.51458463       1.64556490       0.00000000      -0.06568343       2.51458463       1.64556490
Ti      11.07723836      10.64868816      13.00866724   368827        1        0      -1.91115286       0.42960202      -0.89161763      -1.89708275       0.45246627      -0.82759333       0.00000000      -1.89708275       0.45246627      -0.82759333
C        9.65866396      12.02107833      13.56598470   368829        3        0       0.72638638       0.57889494       0.64558888       0.80485436       0.56684594       0.68721594       0.00000000       0.80485436       0.56684594       0.68721594
Ti       8.46155886      13.35372617      14.70582369   368832        1        0       0.95621557       0.32079739       0.05906168       1.05359498       0.38089276       0.06022145       0.00000000       1.05359498       0.38089276       0.06022145
Ti      11.06251923      12.46190745      15.09991626   368833        1        0      -0.84568777      -1.16344667       1.79317481      -0.97550945      -1.19611978       1.76082291       0.00000000      -0.97550945      -1.19611978       1.76082291
C        9.60941570      17.02947132      11.32342782   368838        3        0       1.40812367      -0.83432286      -0.63285601       1.36936800      -0.84444221      -0.62230356       0.00000000       1.36936800      -0.84444221      -0.62230356
C        8.79393698      15.14957866      14.25430448   368841        3        0       1.30966493       0.28311703       0.94134120       1.34669402       0.19528489       1.03603238       0.00000000       1.34669402       0.19528489       1.03603238
Ti      10.26858743      15.60371702      15.53557543   368844        1        0      -1.19580051      -1.72837026      -0.31191030      -1.27467277      -1.77787693      -0.32665101       0.00000000      -1.27467277      -1.77787693      -0.32665101
C       10.15218269      10.82097085      16.06800626   369024        3        0       2.27576594      -0.87663709      -2.14073831       2.31084729      -0.89422460      -2.17137799       0.00000000       2.31084729      -0.89422460      -2.17137799
C        9.78538094      13.68852604      16.34204412   369026        3        0       1.18411691       0.72465425      -0.12942035       1.23220956       0.73501220      -0.18795423       0.00000000       1.23220956       0.73501220      -0.18795423
Ti      11.16770640      13.53168315      18.06691166   369031        1        0      -0.03911169       0.95680220      -1.95752121      -0.08407829       0.99962202      -1.99478426       0.00000000      -0.08407829       0.99962202      -1.99478426
Ti      11.74474811      16.38022648      18.43507812   369042        1        0       0.89444715      -0.14952903      -0.91866301       0.92562176      -0.17632151      -0.90574020       0.00000000       0.92562176      -0.17632151      -0.90574020
Ag      14.41301757      15.26369031      13.56124805   683609        4        1      -0.35596709      -0.43342825      -0.26267378      -0.34485399      -0.47711786      -0.26931719       0.00000000      -0.34485399      -0.47711786      -0.26931719
Ag      16.39037606      13.05279264      13.61544690   685172        4        0       0.62803564      -0.11165193      -1.07405586       0.54299749      -0.15962454      -0.97252080       0.00000000       0.54299749      -0.15962454      -0.97252080
Ag      12.33361930      17.16238168      13.61544690   696217        4        0      -0.27884012       0.04788637       0.35072702      -0.21820889       0.02473105       0.31532562       0.00000000      -0.21820889       0.02473105       0.31532562
Ag      12.33361930      17.16238168       9.50585786   700029        4        0      -0.30938230      -0.07823758       0.45376933      -0.27504015      -0.10647856       0.42819412       0.00000000      -0.27504015      -0.10647856       0.42819412
Ag      16.39037606      17.16238168      13.61544690   701518        4        0       0.34567272       0.06483854       0.28697102       0.30428414       0.04699866       0.27156335       0.00000000       0.30428414       0.04699866       0.27156335
Ag      16.39037606      17.16238168       9.50585786   703887        4        0       0.15652153      -1.10398405       0.64557197       0.13482241      -1.14453404       0.59571913       0.00000000       0.13482241      -1.14453404       0.59571913
Ag      10.30524092      15.10758716       9.50585786   707313        4        0      -0.11258422      -0.02535036       1.53530701      -0.15044356      -0.04085109       1.51027226       0.00000000      -0.15044356      -0.04085109       1.51027226
Ag      14.36199768      15.10758716       9.50585786   710704        4        0       0.81101633      -0.38164815       0.34099471       0.91946791      -0.37953796       0.37562051       0.00000000       0.91946791      -0.37953796       0.37562051
Ag      18.41875444      17.16238168      11.56065238   714846        4        0      -0.63466069      -0.35132802       0.04530749      -0.56590433      -0.31848333       0.03732562       0.00000000      -0.56590433      -0.31848333       0.03732562
Ag      12.33361930      19.21717620      11.56065238   729574        4        0       0.04462950      -0.56175345       0.13193541       0.04556819      -0.51442164       0.14668035       0.00000000       0.04556819      -0.51442164       0.14668035
Ag      12.33361930      15.10758716      11.56065238   730721        4        0      -0.48067469      -0.13481637       0.00138489      -0.43079595      -0.12649049      -0.00326071       0.00000000      -0.43079595      -0.12649049      -0.00326071
Ag      12.33361930      13.05279264       9.50585786   735549        4        0      -0.54159149      -0.17651027       0.89967924      -0.56125517      -0.15017789       0.88618524       0.00000000      -0.56125517      -0.15017789       0.88618524
Ag      14.36199768      17.16238168      11.56065238   737082        4        0       0.16974384       0.49158705      -0.23839373       0.14221952       0.47544477      -0.20048068       0.00000000       0.14221952       0.47544477      -0.20048068
Ag      16.39037606      19.21717620      15.67024142   737200        4        0      -0.23494508      -0.72479566      -0.15901056      -0.24629324      -0.66003479      -0.12997703       0.00000000      -0.24629324      -0.66003479      -0.12997703
Ag      14.36199768      19.21717620      13.61544690   744883        4        0      -0.02704508      -0.39969752       0.15613104      -0.04180807      -0.40053286       0.14278939       0.00000000      -0.04180807      -0.40053286       0.14278939
Ag      18.41875444      15.10758716      13.61544690   752169        4        0      -0.45554526       0.17430499      -0.09658281      -0.44787669       0.16232784      -0.09683393       0.00000000      -0.44787669       0.16232784      -0.09683393
Ag      18.41875444      17.16238168      15.67024142   755982        4        0      -0.70006178      -0.08076519      -0.47362304      -0.61311662      -0.05264012      -0.45490734       0.00000000      -0.61311662      -0.05264012      -0.45490734
