32
Lattice="8.1250990169424178 0 0 0 8.1250990169424178 0 0 0 8.1250990169424178" Properties=species:S:1:pos:R:3:PW_PBE_forces:R:3:local_new_id:I:1 pbc="T T T" PW_PBE_energy_eV=-91.032018277814558 config_type=Ag_volume_m02_k8x8x8_v19
Ag 0 0 0 -7.0892228257744438e-24 -7.0892228257744438e-24 -7.0892228257744438e-24 1
Ag 0 2.0312747500000001 2.0312747500000001 1.6172289571297951e-23 -4.194656510830729e-07 -4.1946565108307279e-07 2
Ag 2.0312747500000001 0 2.0312747500000001 -4.194656510830729e-07 3.0129197009541392e-23 -4.194656510830729e-07 3
Ag 2.0312747500000001 2.0312747500000001 0 -4.1946565108307295e-07 -4.194656510830729e-07 3.0129197009541392e-23 4
Ag 0 0 4.0625495100000002 0 0 0 5
Ag 0 2.0312747500000001 6.0938242599999999 -1.4843060291465241e-23 -4.194656510830729e-07 4.194656510830729e-07 6
Ag 2.0312747500000001 0 6.0938242599999999 -4.1946565108307295e-07 2.7470738449875973e-23 4.194656510830729e-07 7
Ag 2.0312747500000001 2.0312747500000001 4.0625495100000002 4.8983827218931216e-07 4.8983827218931226e-07 3.5446114128872221e-23 8
Ag 0 4.0625495100000002 0 -4.4307642661090276e-24 0 0 9
Ag 0 6.0938242599999999 2.0312747500000001 -3.8990725541759443e-23 4.1946565108307279e-07 -4.194656510830729e-07 10
Ag 2.0312747500000001 4.0625495100000002 2.0312747500000001 4.8983827218931248e-07 3.5446114128872221e-23 4.8983827218931216e-07 11
Ag 2.0312747500000001 6.0938242599999999 0 -4.194656510830729e-07 4.1946565108307279e-07 1.4178445651548888e-23 12
Ag 0 4.0625495100000002 4.0625495100000002 0 0 0 13
Ag 0 6.0938242599999999 6.0938242599999999 -5.3169171193308328e-23 4.1946565108307306e-07 4.1946565108307279e-07 14
Ag 2.0312747500000001 4.0625495100000002 6.0938242599999999 4.8983827218931248e-07 7.0892228257744438e-24 -4.8983827218931226e-07 15
Ag 2.0312747500000001 6.0938242599999999 4.0625495100000002 4.8983827218931237e-07 -4.8983827218931226e-07 2.1267668477323333e-23 16
Ag 4.0625495100000002 0 0 7.0892228257744438e-24 7.0892228257744438e-24 -7.0892228257744438e-24 17
Ag 4.0625495100000002 2.0312747500000001 2.0312747500000001 3.5446114128872221e-23 4.8983827218931216e-07 4.8983827218931226e-07 18
Ag 6.0938242599999999 0 2.0312747500000001 4.1946565108307269e-07 -1.4178445651548888e-23 -4.1946565108307269e-07 19
Ag 6.0938242599999999 2.0312747500000001 0 4.1946565108307263e-07 -4.194656510830729e-07 -1.4178445651548888e-23 20
Ag 4.0625495100000002 0 4.0625495100000002 0 0 0 21
Ag 4.0625495100000002 2.0312747500000001 6.0938242599999999 -3.5446114128872221e-23 4.8983827218931226e-07 -4.8983827218931237e-07 22
Ag 6.0938242599999999 0 6.0938242599999999 4.1946565108307311e-07 -2.8356891303097775e-23 4.1946565108307279e-07 23
Ag 6.0938242599999999 2.0312747500000001 4.0625495100000002 -4.8983827218931237e-07 4.8983827218931216e-07 -2.1267668477323333e-23 24
Ag 4.0625495100000002 4.0625495100000002 0 2.8356891303097775e-23 0 0 25
Ag 4.0625495100000002 6.0938242599999999 2.0312747500000001 1.0633834238661666e-23 -4.8983827218931237e-07 4.8983827218931216e-07 26
Ag 6.0938242599999999 4.0625495100000002 2.0312747500000001 -4.8983827218931226e-07 -4.9624559780421111e-23 4.8983827218931216e-07 27
Ag 6.0938242599999999 6.0938242599999999 0 4.1946565108307311e-07 4.1946565108307279e-07 -2.8356891303097775e-23 28
Ag 4.0625495100000002 4.0625495100000002 4.0625495100000002 0 0 0 29
Ag 4.0625495100000002 6.0938242599999999 6.0938242599999999 -6.5575311138413613e-23 -4.8983827218931237e-07 -4.8983827218931216e-07 30
Ag 6.0938242599999999 4.0625495100000002 6.0938242599999999 -4.8983827218931226e-07 -7.0892228257744441e-23 -4.8983827218931216e-07 31
Ag 6.0938242599999999 6.0938242599999999 4.0625495100000002 -4.8983827218931226e-07 -4.8983827218931216e-07 -3.8990725541759443e-23 32
