52
Lattice="6.1150000000000002 0 0 -3.0574999999999988 5.2957453441418432 0 0 0 34.205876500000002" Properties=species:S:1:pos:R:3:PW_PBE_forces:R:3:lammps_id:I:1:central_pair:I:1 pbc="T T T" PW_PBE_energy_eV=-390.47813437414635 config_type=AgSi_COD9009647_pilot_k4x4
Ti 0 0 10.388251500000001 -0.0039850068346383195 0.0023190730526649645 0.15765382043198306 19101000 0
Ti 0 0 19.200001499999999 -0.0033315851460636097 0.0014168880760516752 -0.0074106357550935741 19101001 0
Ti 1.5287652899999999 0.88261540000000005 12.77623575 -0.0043371784890730682 0.0024461368353487188 -0.26144848434938134 19101002 0
Ti 0 1.7652308000000001 21.587985750000001 0.0093698003075171569 0.0068031131939633527 -0.054714245147427377 19101003 0
Ti 1.5287500000000001 0.88264187999999999 16.81201725 -0.00031164692271105129 -0.00088875778445878038 0.0028130059922974707 19101004 0
Ti -1.5290000000000001e-05 1.76525727 8.0002672500000003 -0.0031469578115965249 0.0017956712429714218 0.55558690172141767 19101005 0
Si 0 0 14.794126500000001 -0.004061644520321343 0.0025754792288462496 0.078702899969754297 19101006 0
Si 0 0 23.605876500000001 0.041978510152697684 0.021379630615736923 0.93030700293750113 19101007 1
C -1.5290000000000001e-05 1.76525727 11.6606682 0.0085110216326820063 -0.0048376670347047629 0.17992160772063054 19101008 0
C 1.5287500000000001 0.88264187999999999 20.4724182 -0.0014159237546192702 -0.0022497335572878741 0.075420121651185654 19101009 0
C 0 1.7652308000000001 17.927584800000002 0.0060095220254781723 -0.0019402619980121852 -0.1029965376172276 19101010 0
C 1.5287652899999999 0.88261540000000005 9.1158348 0.0042764953603350968 -0.0024559132607131248 -0.89553090696012638 19101011 0
Ti -1.5287500000000001 2.6478726699999999 10.388251500000001 -0.003985024411306411 0.0023194688706503789 0.15765361675024334 19101012 0
Ti -1.5287500000000001 2.6478726699999999 19.200001499999999 -0.0033317003906026006 0.0014171546594960202 -0.0074105578470013552 19101013 0
Ti 1.5290000000000001e-05 3.5304880700000001 12.77623575 -0.0043372040064644287 0.0024463919170331703 -0.26144812217746105 19101014 0
Ti -1.5287500000000001 4.4131034700000003 21.587985750000001 0.0093698802572041388 0.0068031511327186055 -0.054714270416457482 19101015 0
Ti 0 3.5305145499999999 16.81201725 -0.00031164894260114095 -0.00088856926563880096 0.0028129146063321738 19101016 0
Ti -1.5287652899999999 4.4131299500000001 8.0002672500000003 -0.003147055974413321 0.0017955303219165063 0.55558726923070789 19101017 0
Si -1.5287500000000001 2.6478726699999999 14.794126500000001 -0.0040616469790815939 0.0025755248245105545 0.078702908700048868 19101018 0
Si -1.5287500000000001 2.6478726699999999 23.605876500000001 0.041978530659528418 0.021379694994555394 0.9303070635371351 19101019 0
C -1.5287652899999999 4.4131299500000001 11.6606682 0.0085110735745070314 -0.0048380414172648888 0.17992164062624413 19101020 0
C 0 3.5305145499999999 20.4724182 -0.0014157289980461804 -0.00224956185713135 0.075420071687568743 19101021 0
C -1.5287500000000001 4.4131034700000003 17.927584800000002 0.0060094567234295973 -0.0019402665354474359 -0.10299658962276211 19101022 0
C 1.5290000000000001e-05 3.5304880700000001 9.1158348 0.0042765151837074805 -0.0024560758373057181 -0.89553080524223561 19101023 0
Ti 3.0575000000000001 0 10.388251500000001 -0.0039850071833049351 0.0023190756668717235 0.15765382143917306 19101024 0
Ti 3.0575000000000001 0 19.200001499999999 -0.0033315886192416639 0.001416891175688026 -0.0074106327161535257 19101025 0
Ti 4.58626529 0.88261540000000005 12.77623575 -0.0043371868651704785 0.002446137493884234 -0.26144848073023458 19101026 0
Ti 3.0575000000000001 1.7652308000000001 21.587985750000001 0.0093698197747345679 0.0068031173920929198 -0.054714242957542306 19101027 0
Ti 4.5862499999999997 0.88264187999999999 16.81201725 -0.0003116463560772907 -0.00088875332492820765 0.0028130084596204056 19101028 0
Ti 3.0574847100000002 1.76525727 8.0002672500000003 -0.0031469346156106459 0.0017956987569059263 0.55558684592719754 19101029 0
Si 3.0575000000000001 0 14.794126500000001 -0.0040616450427926045 0.0025754798909309097 0.078702899361581327 19101030 0
Si 3.0575000000000001 0 23.605876500000001 0.041978512065904389 0.021379629334804452 0.93030700266334354 19101031 0
C 3.0574847100000002 1.76525727 11.6606682 0.0085110250688503319 -0.0048376672523947669 0.17992160944857835 19101032 0
C 4.5862499999999997 0.88264187999999999 20.4724182 -0.0014159271240714649 -0.0022497345633645436 0.075420120534657797 19101033 0
C 3.0575000000000001 1.7652308000000001 17.927584800000002 0.0060095296403576389 -0.0019402653635663077 -0.10299653457335706 19101034 0
C 4.58626529 0.88261540000000005 9.1158348 0.0042764860558460599 -0.0024559060832015922 -0.89553090241889166 19101035 0
Ti 1.5287500000000001 2.6478726699999999 10.388251500000001 -0.0039850230446463013 0.0023194688743965438 0.15765362188000634 19101036 0
Ti 1.5287500000000001 2.6478726699999999 19.200001499999999 -0.0033316994930546167 0.0014171540540148222 -0.0074105595826133956 19101037 0
Ti 3.05751529 3.5304880700000001 12.77623575 -0.004337196786131421 0.0024463897157944534 -0.26144812298118075 19101038 0
Ti 1.5287500000000001 4.4131034700000003 21.587985750000001 0.0093698717812915264 0.0068031606120610372 -0.054714295796474584 19101039 0
Ti 3.0575000000000001 3.5305145499999999 16.81201725 -0.00031164763869293797 -0.0008885735173678039 0.0028129117246055977 19101040 0
Ti 1.5287347099999999 4.4131299500000001 8.0002672500000003 -0.0031470959545628315 0.0017955344736595071 0.55558728580824313 19101041 0
Si 1.5287500000000001 2.6478726699999999 14.794126500000001 -0.0040616465144547396 0.002575524064910279 0.078702909004458407 19101042 0
Si 1.5287500000000001 2.6478726699999999 23.605876500000001 0.041978531725718082 0.021379698070356445 0.93030706792996776 19101043 0
C 1.5287347099999999 4.4131299500000001 11.6606682 0.0085110727713030455 -0.0048380396528924681 0.17992164037353248 19101044 0
C 3.0575000000000001 3.5305145499999999 20.4724182 -0.0014157258215414098 -0.002249561316414113 0.075420073314176148 19101045 0
C 1.5287500000000001 4.4131034700000003 17.927584800000002 0.0060094491486840053 -0.0019402639612571364 -0.10299659226450433 19101046 0
C 3.05751529 3.5304880700000001 9.1158348 0.0042765240959878898 -0.0024560826925305386 -0.89553080804693952 19101047 0
Ag 0.81023750000000005 0.55605325999999999 26.205876499999999 -0.048926440391100938 -0.02603187501334818 -0.65825399393939954 19101048 1
Ag -0.7185125 3.20392593 26.205876499999999 -0.048926171702551403 -0.026032559529247736 -0.65825199395150791 19101049 0
Ag 3.8677375000000001 0.55605325999999999 26.205876499999999 -0.048926393793284659 -0.026031843174083615 -0.65825348185182175 19101050 0
Ag 2.3389875 3.20392593 26.205876499999999 -0.04892622764638143 -0.026032574390721503 -0.65825244006106776 19101051 0
