51
Lattice="27.86 0.0 0.0 0.0 27.86 0.0 0.0 0.0 27.86" Properties=species:S:1:pos:R:3:lammps_id:I:1:lammps_type:I:1:central_pair:I:1:PW_PBE_forces:R:3:magmoms:R:1:forces:R:3 config_type=AgSi_residual_shell_v15_01 dataset_role=v15_acquisition_candidate geometry_family=AgSi_residual_targeted_local_perturbation correlation_note="Targeted local perturbation of an existing small-cell motif; not an independent morphology or thermal snapshot." source_label=AgSi_registry_strain_acq_v14_01 targeted_lammps_ids="366934 683609 685172 710704 366778" PW_PBE_energy_eV=-208.5784241289574 source_method="GPAW 26.7.0 PW-PBE 500 eV Gamma single point" free_energy=-209.4950172094716 energy=-208.5784241289574 dipole="-0.44515344365714193 -0.3430985827039001 2.3376317188500044" magmom=0.0 pbc="T T T"
C       18.48059254      12.49964617      11.14930846   365143        3        0      -2.34031413      -0.67847087      -0.49775473       0.00000000      -2.34031413      -0.67847087      -0.49775473
Ti      17.69365761      11.48516750      17.38185691   365320        1        0      -4.43273762      -0.25009536      -2.53364288       0.00000000      -4.43273762      -0.25009536      -2.53364288
C       16.39616639      11.22374157       9.80206962   366772        3        0       1.23039264       1.34970893       1.45115746       0.00000000       1.23039264       1.34970893       1.45115746
C       16.46964044      14.74663815       9.57691458   366778        3        0      -1.15303807       0.88212895       0.26017909       0.00000000      -1.15303807       0.88212895       0.26017909
Si      13.08838066      10.83860117      11.51541662   366929        2        0       0.77613565       0.95384308      -0.60110651       0.00000000       0.77613565       0.95384308      -0.60110651
C       16.89510605      10.57369767      13.57116909   366931        3        0      -1.53216567       1.29857451       1.10026677       0.00000000      -1.53216567       1.29857451       1.10026677
Si      13.22210840      10.11793249      13.88009429   366933        2        0       0.68963142       0.63579192       1.54103220       0.00000000       0.68963142       0.63579192       1.54103220
Si      13.60922753      12.84143978      14.35117305   366934        2        1      -1.37163780      -0.24668060      -0.00718454       0.00000000      -1.37163780      -0.24668060      -0.00718454
Ti      15.23932459      11.24062217      15.29552225   366935        1        0       2.79938181      -2.31702134       0.79126352       0.00000000       2.79938181      -2.31702134       0.79126352
Si      14.03097547      13.13293343      11.83503212   366936        2        0      -0.33975984      -0.28121829      -0.64342563       0.00000000      -0.33975984      -0.28121829      -0.64342563
C       16.31521600       9.79922698      16.32837575   367109        3        0       0.00634304       1.88100014       2.77975014       0.00000000       0.00634304       1.88100014       2.77975014
Si      13.12870194      10.15722502      16.65627150   367110        2        0      -0.12751440       0.12192960      -0.48518677       0.00000000      -0.12751440       0.12192960      -0.48518677
C       16.41475022      12.78434157      16.26393649   367111        3        0       0.41930608      -0.35645944       0.87307720       0.00000000       0.41930608      -0.35645944       0.87307720
Ti      15.25461263       9.99188169      18.18059921   367112        1        0       0.93299452       0.43209861      -2.93527235       0.00000000       0.93299452       0.43209861      -2.93527235
Ti      15.14859219      12.93268012      18.02427355   367113        1        0       0.30247323       0.89781723       0.57728154       0.00000000       0.30247323       0.89781723       0.57728154
Si      13.17741765      13.14324215      19.70608455   367115        2        0      -0.42039096       0.49673647      -1.04079095       0.00000000      -0.42039096       0.49673647      -1.04079095
Ti      15.36293005      14.51336324      15.87001479   367117        1        0       1.31063250      -0.01289874       2.25368144       0.00000000       1.31063250      -0.01289874       2.25368144
Si      12.79012245      15.24930691      16.37245548   367118        2        0       0.72444710       0.13323799       0.10177450       0.00000000       0.72444710       0.13323799       0.10177450
Si      12.93694103      18.33919793      16.74395531   367120        2        0      -0.27842273      -1.46521229      -0.07037612       0.00000000      -0.27842273      -1.46521229      -0.07037612
Ti      14.51271213      16.54892641      18.01865841   367121        1        0       0.10652345      -2.25907126      -0.32433425       0.00000000       0.10652345      -2.25907126      -0.32433425
C       15.68829271      14.87916034      18.37964165   367122        3        0      -1.55061819      -0.01553872      -1.69896819       0.00000000      -1.55061819      -0.01553872      -1.69896819
C        9.90649004      12.77431746      10.77224184   368645        3        0       1.36272885       0.73142430      -0.21982811       0.00000000       1.36272885       0.73142430      -0.21982811
Ti      11.05639828       9.10291227      15.13117419   368823        1        0      -0.10935829       2.81230366       1.58487729       0.00000000      -0.10935829       2.81230366       1.58487729
Ti      11.11535422      10.57014960      12.89730377   368827        1        0      -2.90305956       0.65510042      -0.94843591       0.00000000      -2.90305956       0.65510042      -0.94843591
C        9.58460319      11.94848604      13.51046496   368829        3        0       1.11771754       0.18988786       0.41424944       0.00000000       1.11771754       0.18988786       0.41424944
Ti       8.41925107      13.28695754      14.63229457   368832        1        0       0.24372212       0.14968701      -0.09668794       0.00000000       0.24372212       0.14968701      -0.09668794
Ti      10.94428429      12.39110525      15.02771907   368833        1        0       0.14040028      -1.40256427       1.50716367       0.00000000       0.14040028      -1.40256427       1.50716367
C        9.56136862      16.94432396      11.26681068   368838        3        0       1.45587494      -1.01581227      -0.89445350       0.00000000       1.45587494      -1.01581227      -0.89445350
C        8.74996730      15.07383077      14.18303296   368841        3        0       1.42728876       0.27660904       0.98073175       0.00000000       1.42728876       0.27660904       0.98073175
Ti      10.23479840      15.47447540      15.45915712   368844        1        0      -1.35498015      -1.24595685      -0.39414628       0.00000000      -1.35498015      -1.24595685      -0.39414628
C       10.06829300      10.79320507      15.99913353   369024        3        0       2.21684671      -1.12525713      -2.08164848       0.00000000       2.21684671      -1.12525713      -2.08164848
C        9.69833984      13.59625588      16.26139027   369026        3        0       1.32747289       0.82173155       0.08754699       0.00000000       1.32747289       0.82173155       0.08754699
Ti      11.08342290      13.50293454      17.95164117   369031        1        0       0.01508659       0.80831508      -1.82894958       0.00000000       0.01508659       0.80831508      -1.82894958
Ti      11.68602437      16.29832535      18.34290273   369042        1        0       0.69587504      -0.00382833      -0.62486481       0.00000000       0.69587504      -0.00382833      -0.62486481
Ag      14.18390998      15.13506143      13.70757539   683609        4        1      -0.79542616       1.36373876      -1.26177415       0.00000000      -0.79542616       1.36373876      -1.26177415
Ag      16.07312814      13.09906573      13.63361188   685172        4        0       1.46058608      -0.44414177      -1.48646917       0.00000000       1.46058608      -0.44414177      -1.48646917
Ag      12.12658244      17.17725269      13.67955503   696217        4        0      -0.14479203      -0.00001246       0.51234354       0.00000000      -0.14479203      -0.00001246       0.51234354
Ag      12.13266135      17.20478789       9.62017575   700029        4        0      -0.35123975      -0.07909233       0.40986436       0.00000000      -0.35123975      -0.07909233       0.40986436
Ag      16.15897830      17.21999452      13.71753954   701518        4        0      -0.01459527      -0.06199580       0.23003920       0.00000000      -0.01459527      -0.06199580       0.23003920
Ag      16.08106236      17.18902838       9.56070496   703887        4        0       0.17805741      -1.18131124       0.58906836       0.00000000       0.17805741      -1.18131124       0.58906836
Ag      10.04579901      15.19054567       9.67672747   707313        4        0      -0.09531293       0.02350707       1.60841840       0.00000000      -0.09531293       0.02350707       1.60841840
Ag      14.09423645      15.10865820       9.64088266   710704        4        0       1.22470992      -0.35708452       0.36517455       0.00000000       1.22470992      -0.35708452       0.36517455
Ag      18.11418915      17.19028948      11.68257809   714846        4        0      -0.54466990      -0.30357484      -0.11155284       0.00000000      -0.54466990      -0.30357484      -0.11155284
Ag      12.07877319      19.23307260      11.68116928   729574        4        0      -0.02885086      -0.38438928       0.06422208       0.00000000      -0.02885086      -0.38438928       0.06422208
Ag      12.11255332      15.18119097      11.67901526   730721        4        0      -0.41577231      -0.26764567       0.00249569       0.00000000      -0.41577231      -0.26764567       0.00249569
Ag      12.11409047      13.07320457       9.54162439   735549        4        0      -0.78152608      -0.19288478       1.03218590       0.00000000      -0.78152608      -0.19288478       1.03218590
Ag      14.12631249      17.27488120      11.69548545   737082        4        0       0.30983812       0.01073434      -0.21684407       0.00000000       0.30983812       0.01073434      -0.21684407
Ag      16.13201046      19.24623853      15.76315800   737200        4        0      -0.32546411      -0.66470342      -0.07392583       0.00000000      -0.32546411      -0.66470342      -0.07392583
Ag      14.10564436      19.26135147      13.68969354   744883        4        0      -0.02159566      -0.30184459       0.32138374       0.00000000      -0.02159566      -0.30184459       0.32138374
Ag      18.13397893      15.17706645      13.74222944   752169        4        0      -0.46206050       0.05253153      -0.02799946       0.00000000      -0.46206050       0.05253153      -0.02799946
Ag      18.14428412      17.20305253      15.76426284   755982        4        0      -0.57770894      -0.05875819      -0.33664474       0.00000000      -0.57770894      -0.05875819      -0.33664474
