ITEM: TIMESTEP
0
ITEM: NUMBER OF ATOMS
4460
ITEM: BOX BOUNDS xy xz yz pp pp ff
-1.8642987430510001e+01 3.7285974861020001e+01 -1.8642987430510001e+01
0.0000000000000000e+00 3.2290601434510997e+01 0.0000000000000000e+00
-1.0000000000000000e+01 1.0000000000000000e+02 0.0000000000000000e+00
ITEM: ATOMS id type x y z vx vy vz fx fy fz
1 2 18.5461 32.2699 3.94166 0 0 0 0 0 0
2 1 0.0316457 1.74732 2.06017 0 0 0 0 0 0
3 3 1.1639 0.795549 0.610904 0 0 0 0 0 0
4 1 0.188269 1.85961 5.55948 0 0 0 0 0 0
5 1 -1.41434 2.75991 7.84307 0 0 0 0 0 0
6 1 0.0264127 0.205095 17.492 -3.80469 -0.0337283 0.386686 4.49625 -4.01529 -5.71629
7 1 1.75757 1.01693 15.0324 -0.163511 -0.775796 -2.59619 -3.12336 -14.9342 6.50409
8 3 0.56137 1.98778 16.5879 3.5623 2.77882 -3.38702 2.57124 7.26048 -7.73212
9 2 -1.48356 2.59233 3.85583 0 0 0 0 0 0
10 1 -0.752007 4.45182 10.7304 2.43688 -2.55859 -1.22872 16.8126 -7.12997 15.8577
11 3 -1.54867 5.6563 9.2715 0.900756 1.33412 0.867784 -7.50225 -7.63363 -6.89384
12 3 0.274166 3.76233 7.18554 0 0 0 0 0 0
13 1 -1.36754 2.77359 17.046 -1.84082 -2.20577 0.484987 -3.48368 -11.4718 -4.67223
14 2 -0.103046 5.60284 12.8523 1.16829 -0.302897 0.901246 12.9643 -6.63419 -12.2929
15 3 -1.60688 4.62017 16.169 3.04053 1.17444 0.398412 4.47423 7.21435 2.48018
16 1 -3.10716 7.17569 2.22916 0 0 0 0 0 0
17 3 -1.72972 6.28201 0.783527 0 0 0 0 0 0
18 1 -1.46613 7.04859 10.6714 -2.04567 -5.03929 1.66026 -1.82048 5.02242 9.32599
19 1 -2.57966 5.36508 17.5577 6.09069 -2.41017 0.344756 -2.56086 7.53606 -2.59237
20 2 -1.60474 8.01291 13.0453 0.647959 -7.96265 1.64695 -6.864 10.2204 -5.23045
21 1 -1.57041 6.3374 15.001 0.30343 0.851459 -4.16927 -13.3009 -12.2512 -16.2618
22 3 -3.19244 6.9206 16.5172 1.63591 -1.91636 -8.89923 -6.34504 -8.88517 6.89631
23 2 32.404 8.40592 3.98447 0 0 0 0 0 0
24 1 -4.51214 9.87322 1.90885 0 0 0 0 0 0
25 3 -3.10065 8.8433 0.797443 0 0 0 0 0 0
26 1 -4.73977 9.96332 5.93089 0 0 0 0 0 0
27 1 31.0566 10.4566 8.41084 0.0215141 -1.38149 -0.31959 -17.5208 5.48516 -1.86081
28 3 -4.83837 9.43073 9.15543 -7.61126 -1.00291 0.454467 -1.41033 2.79054 -8.70972
29 1 -4.72756 10.9119 10.5402 -2.48948 -2.05719 3.24025 -14.289 -7.03358 -5.67277
30 1 29.5459 13.0176 8.29288 -1.98457 1.82422 -0.261421 -15.3208 -3.24144 -17.3128
31 3 -6.337 12.0361 9.50041 -3.1236 -2.54107 -13.9391 4.29352 -2.56229 -3.75465
32 3 -4.78769 11.4643 7.35678 0 0 0 0 0 0
33 1 -6.08419 11.1406 17.0765 -3.63724 4.10942 0.62368 -12.2526 -7.93977 12.9797
34 3 -6.32887 12.9543 16.1095 2.04427 -3.96346 -2.52166 -7.04997 4.90284 -6.55168
35 1 -7.46816 15.3411 5.85453 0 0 0 0 0 0
36 3 -6.25912 14.3866 7.299 0 0 0 0 0 0
37 1 -7.7174 13.4179 17.2921 2.08936 -0.104973 0.617887 -0.222659 2.53384 14.1857
38 2 28.0911 15.8469 3.85373 0 0 0 0 0 0
39 1 -9.40118 17.7369 2.14695 0 0 0 0 0 0
40 3 -7.923 16.9077 0.797968 0 0 0 0 0 0
41 1 -9.22138 17.7239 5.50015 0 0 0 0 0 0
42 2 -8.04997 18.9897 13.0496 0.67929 2.32292 -4.233 9.02678 1.51226 9.43621
43 2 26.2268 18.7913 4.18862 0 0 0 0 0 0
44 3 -9.27699 19.6887 0.608713 0 0 0 0 0 0
45 1 -10.8751 20.6301 6.07086 0 0 0 0 0 0
46 1 -9.50041 19.9681 11.192 -2.76232 -1.08051 -5.65991 2.8172 -9.57315 2.90708
47 1 -12.282 21.7955 8.53682 -0.188916 2.54894 2.04979 -4.1193 10.8565 -0.0637206
48 3 -11.0657 20.9229 10.0317 -5.4011 8.41814 7.97931 -5.6283 6.43047 -7.68016
49 1 -10.7366 19.1569 17.6917 -0.894386 -0.716698 -1.07211 12.7454 6.70846 -10.805
50 2 -8.92485 21.5427 13.0496 0.218732 1.18191 -3.2701 -6.72085 -12.3224 2.56223
51 1 -9.52141 19.575 15.0381 1.31772 3.0653 -2.65965 14.5395 -17.9263 12.7508
52 3 -10.9044 20.6799 16.4988 -4.49585 -1.63404 -0.896926 -5.15879 4.74591 2.7087
53 2 -12.3967 21.528 4.0999 0 0 0 0 0 0
54 1 -12.5785 23.5438 2.09611 0 0 0 0 0 0
55 1 -12.238 23.3236 5.89478 0 0 0 0 0 0
56 1 -10.9733 22.4748 11.1607 -0.689837 -0.780972 3.10379 9.09466 17.7039 15.6461
57 1 23.17 24.0986 8.41782 -1.08794 -1.35084 -1.99235 -15.7865 12.3253 -7.08966
58 3 -12.6607 23.1987 9.98708 1.68108 -1.6292 -1.69636 4.70609 2.66675 -0.987964
59 3 -10.7389 22.4838 7.18478 0 0 0 0 0 0
60 2 -13.9178 24.3562 4.04052 0 0 0 0 0 0
61 3 -12.4823 25.1664 0.812998 0 0 0 0 0 0
62 1 -13.8514 26.1517 6.15981 0 0 0 0 0 0
63 1 -12.6219 25.0263 10.8935 -2.56295 -1.10951 -2.47879 14.0422 7.56353 10.3017
64 1 -15.4303 27.2759 8.68963 -4.90122 1.40946 -0.422786 9.71606 -10.0412 -11.5524
65 3 -14.1547 25.8705 9.593 -2.94449 11.2262 -2.41631 4.00869 7.79273 -4.71305
66 3 -12.4938 24.9462 7.15575 0 0 0 0 0 0
67 1 23.2713 23.8849 17.6128 0.985474 3.33063 2.72374 11.8486 12.1833 -5.60615
68 2 -12.2996 26.356 13.0947 -3.66084 6.03004 0.84414 4.95562 -5.26596 5.64536
69 1 -12.4192 24.9412 15.1437 2.83453 -0.163833 -1.86728 -16.0616 0.82958 -16.3254
70 3 -13.9365 25.7647 16.2207 -1.02321 7.33982 -5.49024 8.37909 -3.96415 -7.62459
71 1 -15.311 29.066 2.18021 0 0 0 0 0 0
72 1 -15.467 28.7039 6.11813 0 0 0 0 0 0
73 3 -13.9143 27.9367 7.25335 0 0 0 0 0 0
74 2 20.2213 29.5545 4.17429 0 0 0 0 0 0
75 1 -17.5227 30.9896 2.1771 0 0 0 0 0 0
76 3 -15.5498 30.6153 0.827037 0 0 0 0 0 0
77 1 -17.1727 31.5221 5.78393 0 0 0 0 0 0
78 2 3.69679 0.402579 13.3858 -1.25621 0.366467 0.128463 6.51274 -11.4556 6.21553
79 3 -17.3144 31.716 16.1977 -6.61213 4.75364 1.23975 -3.88496 6.45246 3.37428
80 2 -15.4473 32.018 4.00546 0 0 0 0 0 0
81 1 2.85535 1.02431 1.78348 0 0 0 0 0 0
82 3 4.73202 0.88585 0.917102 0 0 0 0 0 0
83 1 3.12089 1.84871 5.32028 0 0 0 0 0 0
84 1 4.20867 1.08247 11.0492 0.693503 -1.724 -1.7224 13.5613 -9.01001 4.7315
85 1 1.78569 2.60201 7.99621 0 0 0 0 0 0
86 1 -15.3463 32.1936 17.5321 0.374806 -0.725737 -0.427914 15.3871 9.48542 -6.81644
87 2 3.69549 3.12473 12.4238 -4.46126 3.76317 4.08359 -4.53995 -12.7475 -6.61338
88 1 5.00863 0.619095 15.4176 -3.89771 0.191371 -3.14577 -12.1279 -0.929611 -11.2828
89 3 3.33506 1.52664 16.4574 -1.81067 -6.71012 -2.26995 1.3443 6.58339 -0.4685
90 2 1.51902 2.91549 3.72958 0 0 0 0 0 0
91 1 1.5365 4.69757 5.83644 0 0 0 0 0 0
92 1 0.183697 5.29308 8.39891 0.48693 1.55632 1.07127 -1.49339 -13.277 -4.44969
93 3 1.53931 4.42259 9.63624 -0.389016 -5.0893 1.33873 -6.84555 6.47807 -4.21538
94 3 3.20492 3.72175 6.98616 0 0 0 0 0 0
95 1 1.8487 2.4743 17.9486 0.807224 2.51091 0.695317 -0.19517 -15.281 -13.5593
96 2 -0.0687399 5.52084 4.11024 0 0 0 0 0 0
97 1 -0.0262304 7.14265 2.21229 0 0 0 0 0 0
98 1 0.102835 7.2497 5.91248 0 0 0 0 0 0
99 1 1.59854 6.17122 10.986 1.0088 1.55949 -4.05741 3.56281 17.3826 13.796
100 3 1.50104 6.39571 7.19363 0 0 0 0 0 0
101 1 0.221548 5.46548 17.0714 -3.28603 -2.04497 1.56697 8.68303 1.48501 -5.19027
102 2 1.7371 7.76466 13.0494 -1.6154 -3.3379 -1.08168 12.8586 -12.2265 -13.8537
103 3 -0.0769985 7.41954 16.4373 -6.00257 -9.49863 4.12522 -2.72263 4.82673 5.90445
104 2 -1.55358 8.07265 4.15001 0 0 0 0 0 0
105 1 -1.61206 9.84437 2.31049 0 0 0 0 0 0
106 3 -0.216987 8.74103 0.459978 0 0 0 0 0 0
107 1 -1.60712 9.92508 5.95387 0 0 0 0 0 0
108 1 -3.21529 10.7116 8.30501 2.08206 -0.899304 1.34825 -8.72178 -11.2534 -0.237007
109 1 -1.5832 8.06871 17.5436 -1.87369 -1.40647 1.53303 5.98079 10.0732 11.4629
110 1 0.17365 8.738 14.8957 -1.47601 4.448 -3.6759 2.64445 1.96444 11.7929
111 2 -3.11231 10.7664 4.08062 0 0 0 0 0 0
112 1 -3.0301 12.5504 2.22434 0 0 0 0 0 0
113 3 -1.55358 11.6605 0.961352 0 0 0 0 0 0
114 1 -3.10424 12.4412 5.9325 0 0 0 0 0 0
115 1 -4.83492 13.1558 8.45497 4.52279 -0.171571 2.57471 -2.22465 11.3141 -2.92849
116 3 -3.35498 12.4365 9.7143 -2.43376 -1.35751 -6.94062 -4.48744 -4.4081 -5.55297
117 3 -1.51478 11.6077 7.33764 0 0 0 0 0 0
118 3 -3.57489 12.7972 15.7101 -7.30414 5.77078 -3.08 8.38085 5.1317 -2.35309
119 2 -4.60693 13.44 4.19633 0 0 0 0 0 0
120 1 -4.52237 15.0679 2.13623 0 0 0 0 0 0
121 3 -3.03821 14.3163 0.903122 0 0 0 0 0 0
122 1 -4.56535 15.103 6.15388 0 0 0 0 0 0
123 3 -3.25625 13.933 7.36069 0 0 0 0 0 0
124 1 -4.56616 13.6654 17.3798 -5.51509 0.35045 -4.64781 -13.1851 -13.3913 -14.0947
125 1 -3.06911 14.5137 14.9712 -0.0278443 0.480953 1.37701 -14.509 -11.6931 1.31612
126 3 -4.37203 15.5493 16.3363 1.56017 -4.1427 -0.72153 4.65676 6.86276 -8.08397
127 2 -6.12786 15.944 3.836 0 0 0 0 0 0
128 1 -6.47647 17.7575 2.01192 0 0 0 0 0 0
129 1 -5.93432 17.9123 5.35998 0 0 0 0 0 0
130 1 -7.87758 18.8678 8.48024 0.967543 1.22795 -0.252615 -10.7015 2.97064 -12.3849
131 1 -5.98558 16.2169 17.5416 2.37443 -4.17168 -2.90899 2.39384 -15.1075 -10.553
132 2 -4.27086 19.3828 13.0865 -5.08212 1.95527 -0.690574 10.3636 1.28006 8.91968
133 1 -4.4146 17.1183 14.8841 -0.935375 -2.60966 -0.173381 -4.92543 -4.89472 4.32383
134 3 -6.15232 17.7903 16.0644 -1.71032 -1.17573 -9.56344 6.35737 -3.87087 1.25317
135 2 -7.70746 18.9989 3.97811 0 0 0 0 0 0
136 1 -7.63519 20.4452 1.93185 0 0 0 0 0 0
137 1 -7.77434 20.6438 6.02942 0 0 0 0 0 0
138 1 -6.21015 19.5813 11.248 0.997034 1.03277 1.8944 15.4738 -8.57691 8.15522
139 1 -9.37435 21.3614 8.54241 -3.06685 -1.52505 -0.885448 -5.17061 12.6171 1.54771
140 3 -7.81626 20.2742 9.75934 -2.06159 5.68651 3.42043 -1.09318 5.84086 6.79678
141 3 -6.18961 19.8618 7.19662 0 0 0 0 0 0
142 1 -7.75376 18.9427 17.3395 -1.48352 1.42071 2.58811 6.95675 -16.0846 -5.066
143 2 -6.14156 21.3559 12.9939 -0.662776 1.57329 -0.161223 -12.0331 -12.4316 4.94487
144 1 -6.16313 19.5263 14.7668 1.36559 -1.31677 0.274383 -2.7908 -6.42775 -6.99496
145 3 -7.78922 20.4383 15.9468 2.11652 6.12424 -0.978534 5.50452 5.48963 5.19485
146 2 -9.2342 21.6503 4.16458 0 0 0 0 0 0
147 1 -9.2879 23.3912 6.01879 0 0 0 0 0 0
148 3 -7.81624 22.4012 7.25838 0 0 0 0 0 0
149 1 -9.18831 21.9368 16.4703 -1.0595 3.00128 0.452101 -6.51488 -2.58444 -13.2475
150 2 -10.8505 24.1177 3.97677 0 0 0 0 0 0
151 1 -11.2725 26.1631 2.17682 0 0 0 0 0 0
152 1 -10.956 25.9766 5.64764 0 0 0 0 0 0
153 1 -12.6433 26.8782 8.56018 0.490712 0.647937 -0.19035 17.9775 -4.59984 -1.5948
154 2 -9.412 26.9895 13.1204 -4.22909 -3.18857 4.67734 -6.88344 0.148795 8.66743
155 1 -9.31413 25.3675 15.0704 2.27643 2.47952 4.09349 -11.6699 6.44311 -11.7296
156 2 -12.5756 27.0863 4.10496 0 0 0 0 0 0
157 1 -11.9858 29.0074 2.22934 0 0 0 0 0 0
158 3 -10.8922 27.8008 0.94548 0 0 0 0 0 0
159 1 -10.881 27.7269 11.1955 1.97054 -1.24733 0.0746593 -7.85776 6.55622 -3.53908
160 3 -12.2554 28.6183 9.91246 8.17707 3.30636 -6.47704 -8.47682 2.26025 2.30318
161 2 -11.07 29.8765 13.0017 -0.648687 -1.01495 -2.20136 6.85604 -6.95661 -11.0411
162 1 -11.1447 27.9821 14.6244 -4.78221 -0.502178 -0.00725141 -0.38126 -2.42483 -16.9896
163 1 -13.6081 31.4421 2.34435 0 0 0 0 0 0
164 3 -12.4149 30.5331 0.896531 0 0 0 0 0 0
165 1 -12.4367 30.4964 10.9414 3.02256 -1.40822 2.89729 -7.27686 -9.49779 -16.442
166 3 -11.9469 30.0929 6.96351 0 0 0 0 0 0
167 2 6.25184 0.0314918 12.7668 1.15896 -0.046723 3.87923 6.8721 11.7421 0.970853
168 1 -13.17 30.4985 14.2237 4.54863 0.0967871 0.655601 -17.7423 5.50824 9.87791
169 3 -13.4632 31.1209 16.3202 -0.524361 1.52442 -2.61484 -0.705922 4.51397 -2.38737
170 3 7.67288 0.832675 0.878057 0 0 0 0 0 0
171 1 6.18319 1.80777 5.92967 0 0 0 0 0 0
172 1 7.36324 0.956079 10.6149 -1.99449 0.799481 3.64709 -14.6563 -2.71168 -0.832908
173 1 4.60058 2.61579 8.07162 -0.253921 0.363327 -1.92469 -9.9207 -5.25212 1.56839
174 3 5.66549 1.636 9.56852 0.376885 0.249982 -3.64823 1.76875 -1.75625 3.32618
175 3 8.06318 0.846277 7.04307 0 0 0 0 0 0
176 3 6.29983 1.63056 16.449 1.90059 1.5432 7.05908 -2.31311 -6.92674 0.487288
177 1 4.87291 4.86663 6.17476 0 0 0 0 0 0
178 1 5.34502 3.57065 10.754 1.81314 -0.715024 -1.85536 4.08265 -8.32856 -10.6726
179 1 2.87958 5.25836 8.35377 1.99777 -4.29343 1.97652 0.780868 -8.52232 -8.92668
180 3 4.58306 4.36022 9.06522 2.72431 4.59057 -4.35175 -2.85685 -2.3391 -9.32792
181 3 6.11696 3.51345 7.12843 0 0 0 0 0 0
182 1 4.75336 2.89456 17.5078 2.89676 1.29634 1.18893 -10.4915 -11.2037 5.03052
183 3 4.14771 4.66976 16.4469 0.614011 1.03272 -5.54235 0.167949 -0.302982 3.62131
184 2 3.12415 6.03286 3.78904 0 0 0 0 0 0
185 1 3.06515 7.18273 6.08097 0 0 0 0 0 0
186 1 5.11575 6.25746 9.33439 3.73637 1.28341 0.0636029 5.05529 1.34292 -3.93933
187 3 3.04634 6.96219 9.48679 0.886562 -4.10872 -3.66335 -2.67737 9.31123 7.51248
188 3 4.39302 6.40995 7.46943 0 0 0 0 0 0
189 1 1.22182 9.71605 1.58577 0 0 0 0 0 0
190 3 3.10716 8.96961 0.961352 0 0 0 0 0 0
191 1 3.23951 8.55898 10.7797 0.940238 -0.487088 0.855989 9.43543 -5.86016 -4.62024
192 1 -0.0478258 10.5376 8.6275 2.61458 1.38285 -0.627048 5.34675 -17.2189 -14.2335
193 3 1.64358 9.56504 9.61475 -5.1521 -3.98554 -4.91375 6.63665 4.7823 2.46279
194 2 3.00363 10.3527 12.8234 0.396301 -1.40112 -5.77286 5.31043 12.2893 -8.09208
195 1 3.21276 8.69723 14.8938 1.90899 3.91361 2.69905 17.2634 2.00006 3.97952
196 3 1.81066 9.65062 16.0944 -2.00926 0.00208648 1.26756 1.17931 2.91166 0.582505
197 1 1.72153 11.4873 10.874 2.82058 2.78343 1.32664 -17.1317 -13.2766 12.8273
198 1 -1.57431 13.3829 8.59367 0.834501 3.02144 0.160769 -6.26168 -15.6198 -3.46069
199 3 -0.0767176 12.3729 9.80073 10.2503 0.354055 2.82843 4.26081 4.15063 7.6948
200 2 1.84174 13.3467 13.0332 -1.31446 -1.95728 -1.68899 6.077 7.87267 1.17793
201 1 1.40611 11.4163 15.1111 1.38201 -1.03847 -3.43842 7.22068 -3.48192 -14.9375
202 3 -0.234983 12.2442 16.6446 -4.47949 4.85172 -6.96736 5.54048 7.72209 8.35284
203 1 -1.55358 15.2483 2.22916 0 0 0 0 0 0
204 1 0.293094 14.2888 10.8549 -0.772379 0.874023 0.0227921 16.6765 9.62442 -18.0875
205 3 -1.32077 15.2849 9.82994 4.97219 -1.05613 0.648217 -5.15685 3.9482 6.55563
206 3 -0.0242833 14.3636 7.32159 0 0 0 0 0 0
207 1 -1.25347 13.8561 17.6313 1.009 -0.164959 -0.780684 15.113 -7.20964 8.51356
208 1 -0.199117 13.6825 15.0742 0.0973558 -0.12408 2.07102 -7.20776 -8.82536 -13.6367
209 3 -1.42069 15.1552 15.9058 8.13193 -5.13519 6.86122 -5.42365 1.79705 -5.38621
210 3 -1.55358 17.0423 0.961352 0 0 0 0 0 0
211 1 -0.786541 16.9195 11.3729 -1.53754 1.30769 3.35643 -5.01844 -15.2922 -18.1597
212 1 -2.6628 16.1568 17.3117 0.18406 4.83883 -0.147162 -1.59096 -2.28105 -4.39801
213 2 -1.53088 18.7614 12.9548 -2.56444 -1.90089 -1.89526 7.46722 7.68138 5.68213
214 1 -1.20467 17.0218 14.8435 3.88198 1.67454 -1.0897 -7.57519 9.89381 -7.81022
215 3 -2.95877 17.9286 16.1724 5.40722 -3.07833 5.03087 -0.000443951 -5.40086 6.92962
216 1 -3.14584 19.0656 10.8075 -0.76814 -0.66804 3.73105 12.8561 6.68619 5.96569
217 1 -6.31819 21.369 8.55369 2.76064 -3.75484 -2.12308 -14.8306 -1.37187 6.17323
218 3 -4.79941 20.0509 9.52941 -7.23354 -4.43176 -6.736 -8.15873 -4.9974 -8.48356
219 1 -4.84414 18.6757 17.3133 0.919861 4.05532 -2.91897 2.74001 3.676 -13.1285
220 1 -3.03913 19.6779 15.2412 1.78361 -1.315 -1.64395 2.88583 -10.4994 -1.60875
221 3 -4.58316 20.383 16.5339 -3.45983 0.0202901 0.322148 -1.58176 -8.29127 -1.99936
222 2 -6.20439 21.5388 4.03501 0 0 0 0 0 0
223 1 -5.97445 23.4323 2.15749 0 0 0 0 0 0
224 3 -4.72521 22.3883 0.877806 0 0 0 0 0 0
225 1 -6.21656 23.1221 5.96563 0 0 0 0 0 0
226 3 -4.75435 22.3678 7.51299 0 0 0 0 0 0
227 1 -6.28166 21.613 17.2505 -4.26065 -0.775409 -3.27357 8.48304 6.88129 -13.4049
228 3 -5.67758 23.2956 15.9915 6.41998 4.22372 0.628986 -6.97701 -0.59826 -4.77417
229 3 -6.30941 25.0101 0.858699 0 0 0 0 0 0
230 1 -6.34194 25.2749 10.9483 -1.13027 0.201044 1.88367 -2.22149 2.44315 13.0505
231 3 -6.22183 24.8435 7.11661 0 0 0 0 0 0
232 1 -7.04149 24.302 17.3004 3.4601 -1.67082 0.66662 -10.9452 -16.3901 -0.896358
233 2 -6.39752 26.8576 13.0093 0.743252 3.38015 -1.39575 -3.69987 -4.41282 8.64234
234 1 -6.4503 25.1939 14.9747 2.61156 1.37338 0.216275 -6.16958 -2.41223 -5.47626
235 3 -7.74353 25.9968 16.296 2.66737 3.79759 4.76939 -3.25475 -2.8283 -6.26698
236 1 -9.17115 28.2018 2.19509 0 0 0 0 0 0
237 3 -7.64601 27.7718 0.86196 0 0 0 0 0 0
238 1 -7.82868 27.9106 11.1994 -1.46934 -1.33743 2.20063 11.2951 -13.6751 12.0069
239 1 -10.8064 29.567 8.55443 -0.557443 -0.50984 1.5951 11.796 -18.2291 3.2291
240 3 -9.34735 28.8547 9.85723 4.60492 6.01586 -8.64712 5.30534 -5.14861 3.9902
241 2 -8.10865 29.6336 13.244 0.879626 -0.618842 -4.42418 -2.85341 1.02399 -9.89217
242 1 -8.02093 28.0413 15.2139 1.07614 0.626603 1.19847 -5.06607 -13.2413 -14.8742
243 3 -9.65302 28.9423 16.5012 -2.89704 4.52475 0.471856 -1.35342 4.4564 0.745007
244 1 -9.39243 30.6533 11.0096 -1.78704 -2.2984 0.777957 -0.830184 -15.5683 -17.3143
245 1 -12.2255 32.1875 7.96385 -1.65738 1.4777 0.927526 0.322307 -0.353998 0.00708546
246 3 -11.0608 31.35 9.59306 -1.43662 4.37834 3.38669 4.95247 6.57085 -9.46835
247 3 -9.12289 30.5267 7.48934 0 0 0 0 0 0
248 2 -9.13192 32.0959 13.1824 -6.07729 6.13151 0.412249 11.9496 0.0467796 -7.16546
249 1 -9.75313 30.6292 15.2165 0.908462 -1.05267 -3.60662 12.9291 -3.79247 4.49661
250 2 9.46087 0.362618 3.89774 0 0 0 0 0 0
251 1 9.00822 1.93617 2.01271 0 0 0 0 0 0
252 1 9.53153 1.81751 5.95271 0 0 0 0 0 0
253 1 10.7274 0.992286 11.1832 -0.568901 4.37327 2.88918 1.79198 -8.48635 -7.5381
254 3 10.9466 0.944556 7.38381 0 0 0 0 0 0
255 2 7.66526 2.69429 4.12638 0 0 0 0 0 0
256 1 7.56152 4.48155 2.03961 0 0 0 0 0 0
257 3 9.33238 3.61181 0.790335 0 0 0 0 0 0
258 1 7.77331 4.62081 5.85886 0 0 0 0 0 0
259 2 9.45 5.52066 12.9523 -0.948752 5.23187 6.48316 -2.06025 11.7114 -13.8003
260 2 6.17531 5.48368 4.13582 0 0 0 0 0 0
261 1 6.25461 7.31137 2.23258 0 0 0 0 0 0
262 3 7.69541 6.29398 0.840511 0 0 0 0 0 0
263 1 7.73298 6.08676 10.6477 -2.38107 -4.03001 -0.435197 1.4715 10.5461 -0.820801
264 3 6.90102 7.03643 8.99981 -2.25716 3.39346 2.14184 0.981058 1.62729 9.25454
265 1 5.85637 5.46826 17.5496 0.687295 0.770014 5.61332 1.2474 6.95135 0.864429
266 2 7.62588 7.92269 12.6219 1.09611 4.27718 -1.52387 -3.64036 -11.8463 -6.17146
267 1 7.90349 6.17338 14.8765 0.536883 1.84934 -0.138467 -10.6443 6.36515 -17.0765
268 3 6.60903 6.98589 16.219 -11.4031 -8.72269 7.18376 2.1289 0.565979 -1.94557
269 1 4.98085 9.9416 2.05363 0 0 0 0 0 0
270 3 6.31948 8.90142 0.86437 0 0 0 0 0 0
271 1 6.28565 8.56913 10.3521 -1.40989 -0.430344 1.8878 -13.0058 -5.40245 -4.21699
272 1 3.0057 10.4809 8.59292 -0.862702 0.528888 0.882993 -8.24441 -2.85784 16.2704
273 3 4.61718 9.54901 9.42159 2.76729 -4.58053 3.54382 -4.38342 -8.60105 -0.678166
274 1 5.07567 8.00322 17.083 -2.54732 1.00571 0.938326 1.69201 -5.44729 -3.56551
275 1 6.49936 8.5675 14.9012 4.15907 -1.67711 -0.663579 11.6086 -14.2657 -6.13182
276 3 4.92766 9.60114 15.9671 -3.24534 -5.03204 2.45059 5.2249 -1.18937 -2.16205
277 3 4.65929 11.6682 0.95644 0 0 0 0 0 0
278 1 4.75987 11.197 10.8211 -2.24345 0.404139 1.35248 -16.7466 5.3343 -11.4313
279 1 1.52092 13.1394 8.29789 2.81465 -6.9486 -2.57069 -6.47144 17.0579 -12.8598
280 3 3.34486 12.385 9.64785 2.96681 -3.57556 -4.70627 1.0753 -3.91843 4.77879
281 1 3.35583 10.3434 17.3716 -0.341974 0.0249019 1.29568 -12.4061 -2.64387 16.0208
282 2 4.29489 14.5477 13.172 -1.55886 -0.237249 -6.31477 -9.60228 5.33397 12.7016
283 1 4.43085 11.1725 14.8395 -0.0538552 7.91353 -0.678656 -16.494 1.57628 -9.09491
284 3 2.86027 12.2517 16.3465 4.13601 -1.61016 3.40928 0.652392 2.49186 8.19556
285 1 1.53576 15.2374 2.20755 0 0 0 0 0 0
286 3 3.10716 14.3514 0.961352 0 0 0 0 0 0
287 1 1.51187 15.2459 6.0236 0 0 0 0 0 0
288 1 3.18619 14.3601 10.7986 0.424367 0.430959 3.52281 -2.29965 -15.7336 5.11292
289 1 -0.061103 16.1549 8.40608 -1.56846 0.112175 -3.21522 15.5386 1.40053 18.9081
290 3 1.58772 14.7647 9.37536 -4.94395 -2.57806 -5.52789 7.01481 -7.48414 -3.40939
291 3 3.0637 14.3659 7.2547 0 0 0 0 0 0
292 1 1.36386 13.0265 17.7642 3.45178 -1.86933 1.70752 2.77089 -4.13102 5.13531
293 1 2.42318 14.5116 15.2241 -1.49946 -0.247419 -0.310693 6.68039 -7.22119 17.3077
294 1 0.030201 17.8082 2.18656 0 0 0 0 0 0
295 3 1.55364 17.0409 0.95884 0 0 0 0 0 0
296 1 -1.42496 18.951 8.50617 1.24374 0.0816886 -1.18157 -4.351 1.52694 13.6333
297 3 -0.0617173 18.0279 9.69791 2.71941 0.156211 -0.521503 6.36319 -5.28518 3.99132
298 3 1.50278 17.0021 7.31861 0 0 0 0 0 0
299 1 -1.42914 20.346 2.23517 0 0 0 0 0 0
300 3 0.0401593 19.7087 0.914631 0 0 0 0 0 0
301 1 -0.0678793 19.882 11.2037 -0.448213 -0.58353 -2.76466 0.306727 -14.7517 -4.90567
302 1 -3.31157 21.6758 9.06072 0.561454 -0.470471 3.29591 -5.93916 13.4598 1.8971
303 3 -1.6986 20.4766 9.91277 -7.0096 7.59364 0.837439 7.51868 4.92534 -6.4645
304 3 0.160797 19.8511 7.58297 0 0 0 0 0 0
305 2 -0.45573 22.0263 12.6056 -5.45815 3.65145 -4.31988 -7.30178 9.01362 -11.9585
306 1 -0.227393 20.1789 14.5681 3.76392 2.18037 -2.03201 -7.70921 -16.5542 9.37219
307 3 -1.68845 20.9362 15.9614 -1.34967 -5.82226 -3.77706 -1.25531 9.14154 -7.24714
308 1 -3.13308 22.7258 2.15821 0 0 0 0 0 0
309 3 -1.49831 22.3915 0.882305 0 0 0 0 0 0
310 1 -3.25028 23.2018 6.29535 0 0 0 0 0 0
311 1 -4.84801 24.1701 8.44107 -3.53519 1.35782 2.87235 15.4145 10.4498 13.8886
312 3 -1.91697 21.8414 7.17835 0 0 0 0 0 0
313 1 -1.81299 22.664 14.9545 -3.84069 -2.59047 1.62354 -6.07805 -13.3126 9.86761
314 3 -3.52705 23.2756 16.0799 3.52573 -1.1529 1.49061 -5.05372 -3.78813 -6.73023
315 2 -4.6049 24.1417 4.12101 0 0 0 0 0 0
316 1 -5.20348 26.301 2.04135 0 0 0 0 0 0
317 1 -4.67642 25.9807 6.33759 0 0 0 0 0 0
318 1 -3.20749 25.4347 11.0326 -3.8283 1.86531 -0.378049 -15.5057 14.37 -12.0717
319 1 -6.14743 26.7808 8.54356 3.72495 0.475231 0.927467 5.70835 13.504 -9.37585
320 3 -4.74669 25.7387 9.67266 4.65501 -4.01229 -0.198124 4.01884 -5.0794 -1.80179
321 3 -3.37393 25.0508 7.65176 0 0 0 0 0 0
322 2 -3.16832 26.8187 13.1962 4.93326 -5.07489 0.252716 11.121 8.25084 3.86648
323 1 -3.11545 25.2991 15.7865 -0.559024 2.91094 -2.282 12.1531 3.54704 -16.5633
324 3 -4.92989 26.1188 15.8358 0.502806 -3.38159 -5.49931 -5.3445 -5.41456 -2.4911
325 2 -6.65502 26.9487 4.1769 0 0 0 0 0 0
326 1 -6.35092 28.9864 2.25281 0 0 0 0 0 0
327 3 -4.7366 27.8649 0.766804 0 0 0 0 0 0
328 1 -6.21433 28.7028 6.07086 0 0 0 0 0 0
329 1 -7.69307 29.6182 8.70338 -0.13087 1.10668 1.61265 -7.16869 13.1959 16.4801
330 3 -6.29017 28.575 9.83199 -5.90071 9.04089 -3.06676 6.17514 7.63717 -3.02692
331 3 -4.71733 27.8528 7.35722 0 0 0 0 0 0
332 1 -6.03253 26.985 17.3542 -0.534103 -3.03509 1.0763 -10.3756 -2.58148 15.1423
333 3 -6.39226 28.9951 16.4747 4.10868 -5.30705 -1.25833 -6.87795 -0.815434 6.34799
334 2 -7.86058 29.6431 4.17031 0 0 0 0 0 0
335 1 -7.64296 31.2669 6.24429 0 0 0 0 0 0
336 1 -9.378 32.2346 8.4683 0.379711 2.39557 1.20067 5.5395 -17.6371 -14.9154
337 3 -7.91157 31.5863 9.64559 -2.01439 -6.45556 5.22697 -3.00869 1.65802 -6.66609
338 3 -6.18151 30.3934 7.42303 0 0 0 0 0 0
339 1 -7.85806 29.3538 17.6753 1.81426 2.61171 6.32375 -15.781 -8.57321 9.606
340 2 -6.23165 32.1171 4.36823 0 0 0 0 0 0
341 1 11.9146 2.03523 1.67283 0 0 0 0 0 0
342 3 14.1161 0.958878 0.661661 0 0 0 0 0 0
343 1 12.4569 1.79385 6.07179 0 0 0 0 0 0
344 1 13.9157 0.989327 11.3707 -0.281771 0.609559 -1.39917 3.6843 10.0489 16.598
345 3 12.4219 1.81927 10.093 -2.96297 4.68152 -3.64727 -0.0528479 8.07696 -0.138356
346 3 13.9827 0.902217 7.3416 0 0 0 0 0 0
347 1 -6.4769 32.1367 17.0222 -1.47758 -0.815771 0.684338 12.5233 16.6376 -18.1503
348 2 13.6227 2.88301 13.0802 3.70693 0.611398 -0.206477 1.69381 12.4018 -12.1332
349 1 14.2514 0.952358 14.5734 0.925657 0.179989 0.632901 1.80032 3.82992 -3.11052
350 3 12.297 0.798284 15.1881 -3.01095 -1.6396 1.82906 7.76965 -2.82098 -3.50403
351 1 10.6679 4.66545 1.98945 0 0 0 0 0 0
352 3 12.4824 3.81687 0.783101 0 0 0 0 0 0
353 1 12.4261 3.83383 10.9744 -1.56222 3.38899 -1.19666 -9.04387 -4.51442 3.7776
354 2 12.3584 5.17772 13.1119 -0.496724 -5.84356 -5.38256 -3.26556 7.92969 7.3837
355 1 11.9645 3.16692 14.893 -2.0783 1.52855 -0.708287 9.06011 13.4541 -2.56821
356 2 9.10383 5.25629 3.84386 0 0 0 0 0 0
357 1 9.17863 7.18096 2.15326 0 0 0 0 0 0
358 3 10.8846 6.39664 0.873975 0 0 0 0 0 0
359 1 11.0256 6.28718 11.1014 3.10039 2.05796 1.86104 11.4693 9.31882 -4.28632
360 3 9.49252 6.83127 9.5879 2.7159 4.93946 -0.840822 -6.15929 5.9219 3.20582
361 2 10.9958 7.8826 13.06 4.5289 7.25089 0.660006 5.75323 -3.88219 9.66193
362 1 11.1505 6.2498 14.885 1.21585 -2.09891 1.63142 4.85723 7.67729 -14.418
363 3 9.56413 6.89244 16.1746 2.37156 0.659809 9.57454 -3.18642 6.03122 0.336866
364 1 7.90493 9.81724 2.13639 0 0 0 0 0 0
365 1 9.39081 8.70226 10.7728 -1.06137 0.245987 -1.70574 4.06617 -1.2053 -6.54994
366 1 6.08429 10.4064 8.04639 -3.26361 0.678671 -1.26927 -0.444635 7.40374 -1.48891
367 3 7.73385 9.43374 9.23604 -0.543194 7.23148 0.51422 4.29652 -2.98705 5.93269
368 3 9.61544 8.86137 7.38546 0 0 0 0 0 0
369 1 8.01523 7.86064 17.4339 0.843336 -2.51066 -0.776893 -10.8101 -6.07405 3.32553
370 1 9.4443 8.59834 14.8996 -0.564822 0.640975 -2.46088 10.383 -10.7629 8.87446
371 3 7.86118 9.50348 16.0116 0.335335 -0.0233417 -0.328968 -8.23325 7.04977 -7.82539
372 2 6.219 10.9343 3.99764 0 0 0 0 0 0
373 1 6.21455 12.6218 2.15575 0 0 0 0 0 0
374 3 7.71381 11.666 0.866204 0 0 0 0 0 0
375 1 6.01718 12.5305 5.90796 0 0 0 0 0 0
376 1 4.71506 13.4295 8.36423 -2.60999 -5.80733 3.34539 10.1174 2.94386 6.06661
377 3 7.87963 11.1796 7.15653 0 0 0 0 0 0
378 1 6.50227 10.7607 17.0282 -0.522836 3.04543 0.641272 -10.7316 -3.44063 -9.6317
379 3 5.98843 12.4722 15.7591 5.38643 0.3522 5.01586 4.07522 -5.15045 -7.48862
380 2 4.61426 13.4694 4.06823 0 0 0 0 0 0
381 1 4.66075 15.2483 2.22916 0 0 0 0 0 0
382 1 4.48749 15.2537 5.82173 0 0 0 0 0 0
383 1 3.00644 15.9911 8.3177 0.815163 1.56207 2.73225 15.1565 5.40946 -10.0425
384 3 4.7017 15.4551 9.48584 4.11581 -3.93229 7.18125 -7.37759 6.17486 -4.06895
385 1 4.56638 13.3046 17.3682 2.82176 3.69816 -1.77213 -6.67843 -16.9517 3.71298
386 2 6.7281 15.46 12.5527 -0.872273 0.97192 1.65253 0.733468 5.95369 -8.82427
387 1 5.96854 14.5437 15.0482 2.31791 -1.0732 -4.57611 -12.145 -3.38074 -7.93516
388 3 4.34545 15.0651 16.3222 2.04864 -3.90311 4.12859 6.70979 4.56289 -2.78866
389 2 3.02714 16.1344 3.99796 0 0 0 0 0 0
390 1 3.15998 17.8699 2.20784 0 0 0 0 0 0
391 1 2.91742 17.8083 5.84736 0 0 0 0 0 0
392 1 3.77843 17.5632 10.1711 -0.864105 3.29856 2.89654 2.99372 2.68945 -8.79239
393 1 1.61667 18.768 8.58031 1.14489 -3.24669 0.972583 2.59275 -5.53952 -7.11038
394 1 2.6749 15.939 17.5609 -1.20414 1.91577 -1.94671 6.36867 -15.0797 -17.9029
395 1 4.97888 16.995 13.807 1.45345 -3.51892 0.866512 -5.07978 -14.6064 -12.0192
396 2 1.48164 18.7026 4.01076 0 0 0 0 0 0
397 1 1.70985 20.4135 2.2066 0 0 0 0 0 0
398 3 3.16285 19.7061 0.911766 0 0 0 0 0 0
399 1 1.52368 20.3832 5.8578 0 0 0 0 0 0
400 1 -0.039409 21.5193 8.66393 -1.35112 -7.27156 -3.35895 14.7955 9.26579 2.76283
401 3 1.78766 20.614 9.73024 -1.92263 -0.221298 2.27207 7.20086 -5.6461 4.48027
402 3 3.00321 19.4883 7.1043 0 0 0 0 0 0
403 2 1.94862 20.4271 13.0833 -1.45323 -0.990132 -5.1135 5.12672 -4.12523 -11.9798
404 1 2.79804 19.294 15.3134 4.4471 -1.71002 0.0120175 -2.30604 -11.9059 2.98809
405 3 1.04798 19.6823 16.461 1.40546 -2.12478 1.11101 7.23379 -5.44957 -1.24515
406 2 0.0522192 21.2852 4.0122 0 0 0 0 0 0
407 1 0.11985 22.8689 2.0831 0 0 0 0 0 0
408 3 1.69696 22.3681 0.838062 0 0 0 0 0 0
409 1 -0.345701 22.6256 6.08088 0 0 0 0 0 0
410 1 1.69985 22.4669 10.9272 4.75841 0.974418 -1.06912 14.6409 11.6674 -1.17767
411 1 -1.71095 23.9232 8.54535 0.315567 -3.70523 2.5612 -16.748 -1.73801 -4.16634
412 3 0.0269247 23.3633 9.71628 -4.81278 -4.91347 -4.84356 2.54687 3.27844 2.15502
413 3 1.48522 22.3841 7.0635 0 0 0 0 0 0
414 1 -0.237758 21.1745 17.344 -2.80134 0.206803 -0.6869 -3.60104 -8.1119 10.1591
415 2 1.00802 24.247 12.7081 -0.274894 -6.05186 1.41778 12.7156 9.4614 -12.1388
416 1 1.15477 22.4361 14.5456 2.40297 1.40462 -0.639143 -11.9684 8.13244 9.16704
417 3 -0.0476118 23.0756 16.1634 -5.85675 2.3002 -2.05651 4.63207 -3.9048 -8.21306
418 1 0.0450808 25.302 10.7526 2.37971 1.22487 0.145648 15.9329 -11.0186 11.7136
419 1 -3.25195 26.9343 8.59666 3.58061 -0.472996 6.28952 5.41436 4.42522 1.38769
420 3 -1.68082 25.945 9.6355 -6.6185 0.295782 -2.854 2.69766 -4.30112 -2.17498
421 3 -0.596782 24.4278 7.06931 0 0 0 0 0 0
422 2 -0.33754 26.9596 13.0337 4.63781 -2.02286 4.71581 -11.0751 5.24188 6.75328
423 1 -0.238021 25.0643 14.8493 0.631305 1.38557 1.93036 -10.4102 10.6108 -10.9487
424 2 -2.53917 27.651 3.9919 0 0 0 0 0 0
425 1 -3.33646 28.8358 1.94375 0 0 0 0 0 0
426 1 -3.27074 28.8078 6.08022 0 0 0 0 0 0
427 1 -1.5809 27.8873 10.913 -2.25701 -1.64007 -6.18038 6.73117 9.78282 17.2971
428 3 -1.82089 28.0773 7.36577 0 0 0 0 0 0
429 2 -1.55032 29.537 13.0811 -2.12196 -1.73703 -1.28484 -0.883789 -0.267894 4.6064
430 1 -1.75949 27.8104 15.0933 -0.363756 -0.0148905 -0.714321 10.7897 4.91923 -10.5086
431 2 -4.79557 29.5489 4.1335 0 0 0 0 0 0
432 1 -4.76472 31.3767 1.66733 0 0 0 0 0 0
433 3 -2.96003 30.516 0.793338 0 0 0 0 0 0
434 1 -4.71678 31.3433 6.30918 0 0 0 0 0 0
435 1 12.4227 0.0897649 8.63243 -5.40145 -3.33669 -4.47463 11.6083 9.55523 -13.8982
436 3 17.4076 1.00732 0.44149 0 0 0 0 0 0
437 1 17.3118 1.22035 11.3465 2.22756 3.91973 0.150064 -6.4842 -10.8282 -3.69108
438 1 14.1117 2.60213 8.76314 0.672678 0.459396 -3.01708 7.75053 9.14189 -14.4581
439 3 15.6219 1.80189 10.1199 -3.17824 -5.24008 0.379553 0.00610622 2.09628 0.214354
440 1 15.5753 0.169406 17.2893 -1.23017 4.80227 -1.40655 -3.96556 15.3711 -6.73583
441 2 17.6099 3.04349 13.1842 -1.17798 3.59598 -2.87266 -3.05584 -7.96896 2.50567
442 1 17.3234 1.09547 14.8975 -1.00527 -3.78657 -2.39082 -15.4837 12.8072 14.1374
443 3 15.7107 1.81662 15.949 0.394935 4.23612 7.35179 -3.11874 6.16662 -9.4636
444 1 14.0381 4.05305 2.3062 0 0 0 0 0 0
445 3 15.5849 3.51458 0.957677 0 0 0 0 0 0
446 1 15.3847 3.47649 11.4713 2.27963 0.73767 -5.73958 -0.627597 2.60361 -5.15665
447 1 12.9339 5.30752 8.7398 -0.387005 -0.823689 2.45077 13.3906 5.68219 11.3507
448 3 14.2533 4.48563 9.9983 -3.91737 4.06948 -0.542916 3.23344 -1.96414 5.44119
449 3 15.5377 3.58435 7.3388 0 0 0 0 0 0
450 1 14.1865 2.42702 17.1114 1.44828 -2.73166 2.1562 -9.36832 -14.5731 -10.3381
451 1 15.4572 3.59233 14.7973 -2.20571 1.56245 -4.67791 -14.8402 -5.79733 -7.41972
452 3 13.4666 3.97832 16.236 -4.56595 2.46051 -1.19099 7.82988 -3.56631 2.35622
453 1 12.8124 6.62976 1.64992 0 0 0 0 0 0
454 3 14.3205 6.05876 0.350737 0 0 0 0 0 0
455 1 10.9439 7.72426 8.28747 -3.40838 -1.26534 -4.12018 -11.4543 7.90041 5.65338
456 3 12.2923 7.10597 9.4415 -3.21392 4.28303 -6.97281 1.5377 -5.94884 -5.20541
457 3 14.1948 6.15843 7.23501 0 0 0 0 0 0
458 3 12.3879 6.83038 16.7167 0.952292 -2.67165 3.7603 2.63749 3.85757 2.09579
459 1 10.6533 10.0727 6.0649 0 0 0 0 0 0
460 1 12.5053 8.70368 10.8578 0.799854 0.737154 1.81216 14.3703 -2.40402 -8.7254
461 1 9.44717 10.506 8.51308 0.700627 0.524654 -4.09403 -6.55725 14.155 12.1969
462 3 11.007 9.72606 9.76684 -5.01332 -2.5481 -0.532434 -2.06856 0.297576 -3.74496
463 3 12.5138 8.70878 7.25948 0 0 0 0 0 0
464 1 10.9116 8.24053 17.339 -3.13895 1.21492 -2.05178 -15.7888 10.1122 11.1563
465 3 10.7646 9.75307 16.136 -4.4681 -2.84056 -4.33685 -8.82815 -1.44702 5.98825
466 2 9.18232 10.9782 3.94047 0 0 0 0 0 0
467 1 9.26865 12.6524 6.06834 0 0 0 0 0 0
468 1 10.7847 11.6965 10.677 -0.256749 2.36007 -1.40414 11.0912 -7.56521 -15.8232
469 3 10.9436 11.6389 7.40925 0 0 0 0 0 0
470 2 7.66684 13.5007 4.17255 0 0 0 0 0 0
471 1 7.89753 15.2575 5.93166 0 0 0 0 0 0
472 3 9.63225 14.2303 7.47688 0 0 0 0 0 0
473 2 9.71965 15.6964 12.5928 3.30712 2.04364 -5.66419 -8.74942 -2.18746 6.1413
474 3 7.69128 15.2255 16.1187 6.34686 -0.00783564 2.5046 -1.90042 -0.0853102 -7.93794
475 2 6.1959 16.0598 4.18897 0 0 0 0 0 0
476 1 8.02761 17.036 11.0587 -3.73867 -4.34104 -0.0578275 3.87817 11.5411 16.7068
477 1 5.85496 15.8407 17.416 2.14361 -1.31634 -1.25972 -16.0914 -10.4775 14.4844
478 2 5.65689 18.1868 11.5073 1.43034 2.96461 0.037084 -7.11983 13.2855 0.964171
479 1 8.15149 16.3728 14.2309 2.04642 -5.52798 3.01637 -0.0771188 -1.83749 14.4367
480 3 6.27911 18.5305 19.667 12.2343 -3.81241 7.13249 -0.449718 -0.0187999 -0.927415
481 1 2.9095 21.3208 8.04308 -1.30857 2.58991 -1.33709 -2.01867 -2.30926 1.83874
482 1 4.77644 18.5088 17.9708 -3.44421 5.67979 3.35844 0.956004 0.307832 -6.09057
483 2 3.20892 18.1694 12.6113 0.106021 -7.63049 7.0995 4.6008 2.95443 -3.9559
484 1 4.74254 19.958 13.1135 -10.9544 -2.40053 -4.47943 0.938011 1.0269 0.558074
485 3 3.89902 20.1649 16.8202 8.65103 -1.23053 11.1373 -4.69905 -1.09895 4.6887
486 2 3.07809 21.3234 4.14489 0 0 0 0 0 0
487 1 3.13555 23.2531 5.97168 0 0 0 0 0 0
488 3 4.50606 22.2502 7.17516 0 0 0 0 0 0
489 1 2.303 20.3806 18.2774 -7.93872 3.28307 4.19694 1.5787 0.362086 -1.45608
490 1 3.53189 22.4555 12.668 -0.585153 -2.6799 6.75788 -1.60895 3.40466 2.9247
491 3 2.84428 23.3578 15.5304 -22.9902 -14.4248 9.35164 1.23346 -0.575586 0.903509
492 1 -0.310089 27.1296 8.40774 -2.92018 0.947489 2.96647 -9.65655 0.746445 3.75485
493 3 3.10259 24.5746 7.78297 0.580498 -0.048937 -0.461464 -0.153103 -0.0467185 0.0317769
494 1 1.68926 23.8657 17.0189 -2.89117 5.08788 4.05397 -6.4133 17.085 7.22069
495 1 2.5344 25.0736 14.4796 -4.64079 -13.7682 -10.3543 0.250827 1.91594 -1.31237
496 3 1.47346 25.884 16.0045 -2.30512 2.06227 -5.07186 6.39884 -6.79135 1.4098
497 2 0.208907 26.7291 3.43399 0 0 0 0 0 0
498 1 0.282017 28.6223 1.80775 0 0 0 0 0 0
499 3 1.73074 27.8789 0.528383 0 0 0 0 0 0
500 1 -0.354073 28.7873 5.82488 0 0 0 0 0 0
501 3 0.604751 28.3313 10.0397 -2.34398 0.302134 5.92555 -3.81031 5.43826 0.556279
502 2 1.47396 29.4705 13.0293 -0.521611 2.80258 2.17954 -12.8778 7.45438 -2.08073
503 1 1.2446 27.9364 15.1184 -0.97247 -2.72492 -2.54829 -15.3722 -5.59872 6.4198
504 1 -1.38177 31.0033 2.17586 0 0 0 0 0 0
505 3 0.114397 30.4542 0.851814 0 0 0 0 0 0
506 1 -0.0882005 30.4045 11.0294 1.58969 -2.07103 3.22109 15.3973 0.138249 -13.1336
507 1 15.5505 0.157125 8.76338 -3.01356 -5.7472 0.312629 -5.45565 15.7872 2.5808
508 2 18.6454 0.0718483 13.0765 0.0777853 2.12453 -1.77621 -8.58943 6.63437 2.85739
509 1 -0.346423 30.6141 15.0381 3.14941 0.0112429 3.99257 -1.28822 2.44693 1.67968
510 3 -2.04184 31.4309 15.8728 -5.09949 -0.512486 -14.7223 0.33745 0.579909 -5.49039
511 3 20.2711 0.91151 0.921965 0 0 0 0 0 0
512 1 20.2476 0.536502 10.7905 0.542661 -3.22648 -0.535185 16.0581 -3.9951 -5.88077
513 1 17.0083 2.59886 8.53158 -0.276348 -2.0344 2.01628 -2.01952 2.85377 -7.15545
514 3 18.6651 1.72118 9.70249 10.5724 -6.03407 -6.21592 1.25427 -6.59683 -4.20283
515 3 20.1966 0.896961 7.33867 0 0 0 0 0 0
516 1 16.8709 4.77301 2.13431 0 0 0 0 0 0
517 3 18.6977 3.64939 0.867532 0 0 0 0 0 0
518 1 17.0895 4.4661 6.05747 0 0 0 0 0 0
519 1 15.8108 5.30876 8.62933 -0.684069 1.05691 -3.13937 -17.8641 -1.47685 11.4954
520 3 18.643 3.58784 7.33867 0 0 0 0 0 0
521 1 16.7608 2.86939 17.3844 -2.10086 0.637721 -1.89373 7.86653 -12.2619 5.60702
522 3 16.4827 4.80032 16.1248 5.48869 2.43322 1.15539 -0.706149 -0.882806 7.09572
523 1 15.5627 7.38646 2.31017 0 0 0 0 0 0
524 3 17.1869 6.29165 0.76214 0 0 0 0 0 0
525 1 14.1374 7.90604 8.50189 2.32949 2.31696 0.722806 4.93118 -17.2806 9.18579
526 3 15.8263 7.28112 9.61989 -2.07903 -0.961202 -2.55201 -2.61689 7.40023 -8.75542
527 3 17.0998 6.149 7.26411 0 0 0 0 0 0
528 1 15.0086 5.28138 17.3295 1.64628 1.99665 1.24684 3.1729 -3.06916 0.364852
529 1 16.3714 6.71237 15.2402 -0.953093 2.33129 -1.81286 3.2515 10.8028 -14.1742
530 3 15.5344 8.96708 0.961704 0 0 0 0 0 0
531 1 14.1358 9.5902 5.85872 0 0 0 0 0 0
532 1 15.759 8.82646 10.9773 -1.94535 2.08383 -2.55839 10.9056 2.86985 -15.3737
533 1 12.5358 10.3919 8.39145 0.589837 -1.74228 -2.3549 1.08879 -3.60024 -16.9471
534 3 14.1871 9.55069 9.8662 9.51354 0.659989 2.69896 5.55622 -5.03535 -5.27525
535 3 15.7523 8.72321 7.21595 0 0 0 0 0 0
536 3 13.6488 9.89502 15.926 1.45448 -2.43319 -0.406677 0.890729 -6.4099 6.08032
537 2 12.1253 10.7529 3.905 0 0 0 0 0 0
538 3 14.0107 11.4953 0.691211 0 0 0 0 0 0
539 1 12.2296 12.5266 5.80799 0 0 0 0 0 0
540 3 14.1224 11.1279 7.24564 0 0 0 0 0 0
541 1 12.0007 11.1108 17.0795 -1.99789 -0.787919 -0.0623494 -4.79634 -6.83774 -13.2327
542 2 13.9134 13.5779 12.9665 0.954224 -4.74315 1.51029 -2.98106 -10.9258 -11.8284
543 1 14.1341 11.5822 14.8984 0.0763826 -2.44155 -1.09614 -14.3777 -13.1216 -1.00659
544 3 12.6416 12.5562 15.7851 7.74079 2.2565 -4.64839 -6.97412 9.58224 -4.60547
545 2 10.6991 13.5058 4.09533 0 0 0 0 0 0
546 1 10.8265 15.1403 5.98024 0 0 0 0 0 0
547 1 8.79876 16.417 8.15622 -0.527856 -3.26774 -0.569839 -4.47057 3.56121 -7.48758
548 2 12.9186 16.3606 13.1 8.09589 -1.51563 0.0675551 1.37071 4.3603 -1.82487
549 1 12.5051 14.4764 14.8754 4.54484 -2.42445 -1.08167 15.2266 -12.6808 -11.8247
550 2 9.1947 16.0411 3.94731 0 0 0 0 0 0
551 1 9.27291 17.9475 5.77881 0 0 0 0 0 0
552 1 11.3293 16.6226 10.8932 1.56371 -0.292647 -1.57491 -4.82281 -0.0423236 8.23566
553 3 9.77577 17.2689 9.77259 -3.25744 3.67216 3.00364 -7.69892 -0.681192 3.21598
554 3 10.5984 16.9284 7.00066 0 0 0 0 0 0
555 2 6.97479 18.4016 13.5059 -0.956251 4.27173 14.4661 -4.96388 -3.60726 -2.90608
556 2 7.67873 18.5585 3.6687 0 0 0 0 0 0
557 1 7.76791 20.6301 2.22916 0 0 0 0 0 0
558 3 9.34937 19.7718 0.872721 0 0 0 0 0 0
559 1 7.50262 20.3005 5.44887 0 0 0 0 0 0
560 3 9.2587 19.4711 7.42446 0 0 0 0 0 0
561 3 6.71384 20.3346 16.2147 -2.96524 -23.0365 -11.6988 -0.0449784 -2.66639 -1.74423
562 2 6.01634 21.5282 3.86204 0 0 0 0 0 0
563 1 6.1342 23.2191 2.0287 0 0 0 0 0 0
564 3 7.76791 22.424 0.961352 0 0 0 0 0 0
565 1 6.22269 23.0023 5.8667 0 0 0 0 0 0
566 1 7.66862 23.008 10.7687 4.06895 0.94256 -0.262738 16.1447 5.45732 -1.80586
567 3 6.59301 24.4643 10.1615 -8.27558 -3.86446 -9.00923 8.08813 -7.28255 5.51515
568 3 7.37446 22.5479 7.52658 0 0 0 0 0 0
569 1 5.12458 21.5496 16.2597 -1.77561 -0.284076 -15.3373 0.597625 -0.523835 2.48717
570 2 5.56825 21.7515 11.438 9.9573 3.51768 9.31126 -8.67352 9.20262 -4.9811
571 1 5.70456 22.5127 13.7459 -2.74983 4.09616 -1.49008 1.64739 1.09594 0.373109
572 3 5.84802 23.2611 15.6076 -0.335688 -4.48347 4.87803 -4.17452 2.31981 -1.50946
573 2 4.35679 23.9686 3.80323 0 0 0 0 0 0
574 1 4.7641 25.8033 1.8979 0 0 0 0 0 0
575 3 6.31495 25.0748 0.734974 0 0 0 0 0 0
576 1 4.90145 25.6026 5.6109 0 0 0 0 0 0
577 3 6.18641 25.2507 7.21517 0 0 0 0 0 0
578 1 4.24165 24.5052 16.7104 5.7398 -4.60068 -13.1472 2.90071 -2.29334 -0.224502
579 3 5.79441 25.5666 13.5752 3.68464 -1.08689 -1.75499 1.15466 -0.0519013 2.499
580 2 3.47763 27.0557 3.63307 0 0 0 0 0 0
581 1 3.2747 28.6165 1.69474 0 0 0 0 0 0
582 3 4.77586 27.8267 0.502439 0 0 0 0 0 0
583 1 3.45648 28.611 5.65407 0 0 0 0 0 0
584 1 1.47008 29.6194 8.56979 0.404027 3.43167 -2.13222 -16.6086 -11.2662 14.4849
585 1 3.36295 26.9832 16.5878 -2.40257 4.83072 -2.67196 -2.82289 -1.25588 1.29272
586 3 2.79558 28.9723 16.5226 -5.3073 3.62726 -3.35032 -2.51284 7.03337 3.61315
587 2 1.54604 29.5396 4.09326 0 0 0 0 0 0
588 1 1.88154 31.1496 2.15841 0 0 0 0 0 0
589 3 3.2679 30.4728 0.777022 0 0 0 0 0 0
590 1 2.90003 30.3271 11.1086 1.08132 -2.78862 -3.78776 -9.52032 -3.01331 14.4721
591 1 18.6792 0.00250666 8.68716 0.85707 4.13972 -0.705386 -18.1082 -0.584574 9.77702
592 3 1.48586 31.2032 9.63541 -5.87184 -3.52055 3.81773 0.912057 -4.78389 -5.99314
593 3 2.98215 30.4364 7.1287 0 0 0 0 0 0
594 2 2.91275 32.2734 12.7387 -0.0154864 -6.00768 -3.09475 2.134 6.35039 4.12165
595 1 2.34707 30.761 15.1231 1.87823 -2.37048 -0.0866495 1.5749 -6.34399 -8.33471
596 1 21.6286 1.79843 2.22948 0 0 0 0 0 0
597 3 23.221 0.847713 0.881811 0 0 0 0 0 0
598 1 23.3183 0.550606 10.9315 5.50224 0.0150566 0.0237469 2.90671 -1.83958 12.8246
599 1 20.2602 2.44512 8.3419 1.65017 3.54143 0.361135 -5.27614 -6.71777 -8.841
600 3 21.8375 1.61264 9.65107 -3.40882 1.04001 -2.50427 -5.25 -6.80313 7.01448
601 2 23.1899 2.70907 12.8204 -1.44244 0.83647 3.57613 12.9348 -7.49678 -2.7993
602 1 23.0849 0.949354 14.8224 -0.667923 -1.70142 -1.99364 -9.33103 13.9283 -3.18857
603 1 20.1728 4.46868 2.20003 0 0 0 0 0 0
604 3 21.7502 3.58784 0.961352 0 0 0 0 0 0
605 1 20.0992 4.17916 5.8441 0 0 0 0 0 0
606 1 21.5563 3.33217 10.8235 3.08189 0.749287 -1.44804 4.70448 18.0042 -0.18513
607 3 21.7452 3.58523 7.33159 0 0 0 0 0 0
608 1 22.0506 3.83515 14.8121 0.667037 3.49743 0.534704 -14.7708 -16.5165 -7.0517
609 3 19.9814 4.60017 15.8412 -0.813745 -1.02266 0.955863 2.23625 5.82749 -3.58031
610 2 18.643 5.38177 4.15001 0 0 0 0 0 0
611 1 18.4791 7.2193 2.08806 0 0 0 0 0 0
612 1 17.2531 7.98786 8.46809 -0.37123 -0.985104 0.84457 -9.09193 -12.5674 10.3965
613 1 18.2182 5.44322 17.0069 6.56575 -2.0122 -2.21502 3.13107 5.9881 7.36746
614 2 20.3285 7.51931 12.4297 -2.26274 3.30693 0.788898 -10.2944 4.92654 11.6038
615 1 20.1628 6.23533 14.7174 -1.6173 2.70221 -0.181323 -7.36081 -6.57084 -10.7273
616 3 18.4272 7.10186 15.5943 -3.04305 2.86757 -0.196349 2.79326 7.80727 -4.60921
617 2 17.2097 8.20574 3.99852 0 0 0 0 0 0
618 1 17.0217 9.92131 2.17475 0 0 0 0 0 0
619 1 17.0976 9.70926 5.98879 0 0 0 0 0 0
620 1 19.0319 9.44757 11.1846 1.3477 1.12601 -1.48794 -15.8828 -1.54673 0.387622
621 1 15.6714 10.6263 8.63224 -4.16383 -0.775208 -0.127658 4.67742 0.7022 -13.9472
622 3 17.309 9.73372 9.85315 2.58552 0.7432 -2.87043 -5.35119 -4.94782 -1.18067
623 2 18.954 10.9679 13.273 1.49962 1.24158 3.85375 -0.569391 -11.7053 11.5799
624 1 18.2303 8.70272 14.2951 0.427577 0.587634 5.59768 -13.9996 15.8364 1.21834
625 3 18.3176 9.71773 16.2343 -1.28599 -2.88177 0.405677 1.19656 -1.9917 1.86783
626 2 15.5224 10.6879 4.02717 0 0 0 0 0 0
627 1 15.4477 12.5295 2.13346 0 0 0 0 0 0
628 3 16.9506 11.4787 0.606679 0 0 0 0 0 0
629 1 15.3313 12.296 5.92765 0 0 0 0 0 0
630 1 17.2055 11.8076 10.8878 -4.55791 -0.538498 0.429467 8.55379 5.52119 -1.298
631 3 15.6162 12.8109 9.55711 -1.03646 9.63934 2.58103 -1.3972 -0.362919 2.25925
632 3 17.1175 11.3467 7.25636 0 0 0 0 0 0
633 1 15.027 10.1931 17.2433 -3.5458 -1.06039 1.7386 -9.27743 1.65609 -13.3778
634 2 16.9609 13.2565 13.209 -5.27407 -3.68854 1.28624 -2.94503 4.99343 -4.89896
635 1 17.2727 11.5363 15.3141 1.22427 1.09533 -0.398073 -7.03829 13.3908 15.5083
636 3 15.5807 12.2534 16.4357 2.39107 3.88307 -6.00643 1.8497 -6.02087 -5.84051
637 2 13.6076 13.2917 3.6393 0 0 0 0 0 0
638 1 13.9208 15.2332 2.10088 0 0 0 0 0 0
639 3 15.5413 14.3544 0.953738 0 0 0 0 0 0
640 1 13.9859 13.1815 17.4069 1.12367 -0.227155 0.0820871 17.0423 -10.9483 -4.9511
641 2 15.6907 15.9035 12.7004 4.08879 2.05506 0.404363 -5.00114 0.614911 -2.38425
642 1 15.4255 13.9937 14.9818 0.0748749 -2.86868 0.608012 -11.0312 -7.20683 16.7313
643 3 14.0472 15.034 16.2559 -3.69168 -6.45779 -0.0713647 -3.74144 0.954032 -4.80791
644 2 12.371 15.9573 3.9197 0 0 0 0 0 0
645 1 12.2528 17.6619 2.0991 0 0 0 0 0 0
646 3 13.9814 17.0419 0.960716 0 0 0 0 0 0
647 1 12.3302 17.643 5.76116 0 0 0 0 0 0
648 1 14.0514 17.067 10.9559 0.850453 -0.711736 -0.209445 -7.07478 10.6077 0.0334729
649 1 10.9438 18.4881 8.40309 4.02896 -3.73849 0.526074 -5.44062 -15.9672 -3.25289
650 3 12.5047 18.03 9.77919 6.73347 -5.653 2.37552 9.76653 5.66771 7.23415
651 1 12.6523 15.8392 17.614 -1.2684 1.41779 0.635574 2.90222 -3.37595 0.842276
652 2 15.1288 19.6429 13.8353 3.10064 -1.11249 1.40074 5.03345 5.88767 0.835144
653 1 14.7024 16.7276 14.9177 2.19747 4.04341 -4.84031 14.6837 -12.0638 3.3699
654 2 10.8977 18.8563 4.11492 0 0 0 0 0 0
655 1 10.8858 20.6076 2.18712 0 0 0 0 0 0
656 3 12.2403 19.7166 0.590709 0 0 0 0 0 0
657 1 12.3354 19.6733 10.8876 -3.67253 0.472046 2.59499 -7.11513 -10.2651 8.90095
658 3 12.6827 19.0103 7.2759 0 0 0 0 0 0
659 1 9.2513 23.2321 2.21448 0 0 0 0 0 0
660 3 10.8751 22.424 0.961352 0 0 0 0 0 0
661 1 10.7111 22.548 10.6989 0.186386 1.5177 -3.60727 -0.854872 -9.35035 -0.812711
662 1 7.82427 24.439 8.49118 0.576197 -0.590886 -0.0923213 -12.6902 12.3986 -0.0682491
663 3 9.42742 24.0285 10.0892 -3.12504 2.03968 0.984778 -0.616748 -8.06269 -0.279452
664 2 11.5526 28.5657 10.9499 2.58862 2.24575 -1.0425 -8.89398 -0.55396 5.62973
665 1 7.81241 28.2637 13.8604 6.24634 -1.74803 -2.14215 2.2446 -0.75276 1.20357
666 3 7.14013 22.3437 12.4871 -0.708473 11.0821 -1.4611 2.09135 -1.02893 1.23554
667 2 7.30782 24.2699 3.9889 0 0 0 0 0 0
668 1 7.77069 26.078 6.03604 0 0 0 0 0 0
669 1 9.37733 25.8078 10.8167 -2.3662 0.778511 2.70423 -1.71945 2.63773 3.13292
670 1 6.17601 27.0485 8.39232 -0.974563 -1.82129 0.47592 -13.7413 -1.52202 -1.69411
671 3 7.79 26.4437 9.54611 -1.7241 -0.12217 -5.05801 -7.53644 -3.33888 -4.8807
672 3 9.32743 25.2951 7.1549 0 0 0 0 0 0
673 2 4.31028 25.944 12.335 12.2035 -4.55984 -7.34387 3.09863 4.46902 2.45645
674 1 7.41801 25.7796 12.5846 11.585 -8.84009 0.903596 1.35768 -2.09081 -1.72966
675 2 6.37151 27.0602 4.21495 0 0 0 0 0 0
676 1 6.35086 28.7699 6.06625 0 0 0 0 0 0
677 1 7.36944 28.1332 10.8173 -0.463854 -3.59614 -4.34224 -9.32643 -15.7658 5.6882
678 3 5.50715 28.3743 9.94995 -1.19404 4.12901 3.88471 5.61649 -0.0120351 5.68497
679 3 7.77012 27.8317 7.30188 0 0 0 0 0 0
680 2 5.8673 27.4742 13.0153 6.41709 -1.94007 9.83007 -3.03779 0.285798 0.298433
681 2 4.81671 29.6772 3.85203 0 0 0 0 0 0
682 1 4.7978 31.3665 2.01348 0 0 0 0 0 0
683 1 4.60468 31.2899 5.93259 0 0 0 0 0 0
684 1 5.92819 30.3284 10.6306 -1.14635 1.75402 -3.17604 -8.12945 -2.48881 -12.0398
685 1 3.17966 32.1087 8.43272 2.27916 2.71694 -2.694 -7.68942 -4.81143 -16.8467
686 3 4.2396 30.6117 9.69432 -1.72561 3.73558 0.762121 -2.37456 -5.38342 0.530461
687 3 6.33395 30.716 7.36639 0 0 0 0 0 0
688 1 5.05338 30.2185 16.6248 -10.9972 -5.41219 -10.7654 -4.96916 1.53654 -2.63541
689 2 24.8517 0.0500416 12.9016 -1.29608 -1.27835 -3.37001 -11.864 3.85294 -8.61303
690 1 4.68743 30.5709 13.4622 0.207133 -1.10734 0.397515 13.1734 1.7668 11.6911
691 3 4.22846 31.3704 15.3999 -6.07718 -0.322747 0.694158 -6.79655 1.90037 3.3488
692 2 6.20555 32.2818 3.86218 0 0 0 0 0 0
693 1 24.5555 1.78939 2.15482 0 0 0 0 0 0
694 1 23.3207 2.67359 8.53647 0.731857 -3.93004 -2.62964 12.7521 10.2506 -15.3169
695 2 25.8314 2.61539 12.9225 -3.02982 -3.35009 5.05762 -8.06127 11.2856 3.7611
696 1 26.4869 1.05365 14.7417 0.793359 0.754277 1.77278 6.77863 -0.0397981 -6.16755
697 3 24.7423 1.39095 15.8791 2.79249 7.19986 -4.60014 -1.14664 -5.94706 2.15208
698 1 23.2831 4.47233 2.20388 0 0 0 0 0 0
699 3 24.8573 3.58784 0.961352 0 0 0 0 0 0
700 1 22.9732 4.73266 5.92209 0 0 0 0 0 0
701 1 24.7872 3.66884 10.8718 -2.55837 -1.49047 0.763973 1.62311 -9.98566 13.3049
702 1 21.8169 5.26178 8.50018 1.65443 5.22241 0.153692 -14.6025 0.740297 -9.36993
703 3 23.1235 4.46478 9.77714 3.17667 2.3607 -3.07653 -7.91669 -6.66985 -6.0293
704 1 23.4669 2.68736 17.3734 -2.91849 -1.692 4.36286 12.2399 -15.2716 2.24856
705 2 24.9066 5.19083 13.0136 4.55139 -2.22137 1.92119 13.0754 11.1282 -10.5067
706 1 25.0379 3.51122 15.1384 -3.18256 0.308181 4.41012 -3.78279 10.2741 -1.51775
707 3 23.4417 4.53929 16.2452 3.85119 5.85718 2.16069 0.108141 9.01225 6.42924
708 2 21.6172 5.4848 3.9651 0 0 0 0 0 0
709 1 22.9513 6.24373 11.2772 3.74098 5.23007 -3.29337 4.95967 14.833 8.07885
710 3 23.3037 6.26507 7.36261 0 0 0 0 0 0
711 1 21.6752 5.41139 17.3993 0.583593 0.307135 1.87316 8.81979 0.332049 3.45981
712 2 23.4813 8.03527 13.0766 3.30572 -6.59412 -3.84641 -12.6235 0.434043 -9.73609
713 1 23.4888 6.34116 14.8818 -3.39828 -1.20892 -1.58246 -5.62639 11.9132 2.20495
714 3 21.6357 7.42625 15.8915 1.31157 1.16232 -0.900608 -5.25829 -3.70603 7.42754
715 2 20.1344 8.03496 4.35922 0 0 0 0 0 0
716 1 20.284 9.94802 5.95675 0 0 0 0 0 0
717 1 21.8078 8.93928 11.0675 1.89897 1.05694 -2.31018 -12.3858 2.7525 -0.689836
718 1 18.7929 10.6065 8.47964 -0.127452 1.80144 -0.615786 12.221 -2.75306 5.60374
719 3 20.3445 9.15423 9.24439 -3.97293 -1.13767 5.92801 6.25391 0.590063 -4.80695
720 3 18.5156 12.5356 9.37486 3.03325 6.71369 -0.24749 -8.35675 3.46687 5.17898
721 3 20.2865 11.5613 7.25502 0 0 0 0 0 0
722 1 18.1552 11.2008 17.9168 -0.935617 3.04534 3.30863 2.91868 -17.6794 1.95595
723 1 20.1195 11.0015 15.6307 -1.13166 1.92101 2.54982 10.2159 -12.7578 -14.2994
724 3 18.7639 12.4149 16.6146 5.58568 4.43835 -8.09785 -1.55104 0.877014 -2.50031
725 1 17.0086 15.1253 2.23301 0 0 0 0 0 0
726 3 18.5397 13.8475 6.85271 0 0 0 0 0 0
727 1 17.1279 13.6385 17.3465 -1.53096 0.103662 -0.52411 -16.7766 -7.49238 -7.37983
728 1 15.5292 17.6784 2.18297 0 0 0 0 0 0
729 3 17.0272 17.0204 0.913614 0 0 0 0 0 0
730 1 16.9611 16.9748 10.7477 -0.416209 4.54819 -2.10338 2.45043 1.62108 -9.91752
731 1 13.9942 19.2961 8.8461 -0.159842 0.471111 -0.796124 0.993674 -13.9979 16.1253
732 3 15.5112 18.3651 10.0264 -4.47848 -10.6032 -3.57285 8.69007 -0.188016 -4.85731
733 1 15.5069 15.8426 17.6094 -1.42825 -5.1956 3.0194 -1.27095 10.0573 -2.78518
734 2 17.4306 18.7076 12.6519 4.84695 3.65407 -1.2563 -6.11791 -11.3754 0.197243
735 3 15.6091 17.5653 16.4854 1.6283 3.05951 2.84009 3.27528 7.53829 -5.28268
736 1 13.8384 20.3986 6.25203 0 0 0 0 0 0
737 1 15.7794 19.9952 11.1539 1.75263 1.31269 3.65097 -3.00835 7.60042 0.0737651
738 1 12.4232 21.7405 8.68274 0.263054 0.204864 1.81811 16.7374 2.8099 -14.8345
739 3 14.0075 21.0096 9.94007 -0.238173 4.23959 -4.26958 -8.11274 -3.4906 -0.72629
740 3 15.3854 20.0317 7.57883 0 0 0 0 0 0
741 1 14.1351 18.2768 17.6754 5.18112 14.1312 3.18718 -3.41216 0.132991 -2.66917
742 1 12.3889 23.3479 2.23036 0 0 0 0 0 0
743 3 13.7091 22.687 0 0 0 0 0 0 0
744 1 13.7085 22.7887 10.9587 -2.05976 -3.85672 1.55688 -14.8403 -14.2743 -6.94268
745 1 10.7682 24.7081 8.85518 0.392343 -0.984121 3.98543 -13.2904 13.9119 1.4961
746 3 12.2865 23.4245 9.57698 -2.5077 1.75176 3.12792 4.54375 -1.97221 -5.3432
747 3 13.9182 22.5339 7.33087 0 0 0 0 0 0
748 2 10.2496 25.5349 13.0794 -10.863 -16.1928 15.0996 2.169 3.63102 2.60016
749 3 9.12935 29.4463 13.4569 -4.45917 6.33047 -2.71413 2.68931 -0.00739199 -1.31598
750 3 12.4287 25.1149 0.961352 0 0 0 0 0 0
751 1 9.1894 26.9341 8.27845 -0.803542 4.2781 -5.53627 -14.7806 -3.89259 16.11
752 1 12.8943 18.8483 13.2119 7.46102 -3.31771 4.53332 0.213522 -2.1177 -1.11667
753 2 14.7851 29.4477 14.7966 9.76138 3.89442 0.0736069 -4.14929 -1.99978 -1.39113
754 1 14.033 25.8158 16.9986 -5.55227 -7.53342 6.11991 -0.705269 -3.27882 0.388236
755 3 11.2633 26.632 11.6852 -13.3923 4.1581 -2.87645 -3.98123 -7.32648 1.87582
756 2 9.26437 27.1685 3.63807 0 0 0 0 0 0
757 1 9.27511 28.7611 5.92039 0 0 0 0 0 0
758 2 11.4923 30.6808 16.9518 14.2554 3.11362 12.6298 -0.0218925 -0.00513065 -1.65727
759 1 13.4045 28.9164 12.5219 22.9083 4.99348 -1.12771 2.08959 1.28416 0.940227
760 2 7.75775 29.6638 4.10351 0 0 0 0 0 0
761 1 7.52699 31.4445 5.83856 0 0 0 0 0 0
762 2 27.979 1.64289 12.5979 6.95835 -4.3333 -0.762153 -7.01173 -2.83408 7.51275
763 1 7.78702 30.6525 14.1785 -0.766072 10.0351 -1.92887 0.289935 2.14676 0.573643
764 3 9.57546 31.0314 16.4491 2.0678 0.855923 -17.8071 3.12796 0.649454 3.04046
765 2 9.14556 32.2689 4.12546 0 0 0 0 0 0
766 3 29.4531 0.935918 0.799955 0 0 0 0 0 0
767 1 27.9811 1.82837 5.79118 0 0 0 0 0 0
768 1 26.5853 2.97235 8.20093 4.18328 0.833401 -4.59403 10.3761 8.56923 -5.86938
769 3 29.4587 0.920401 7.31456 0 0 0 0 0 0
770 2 29.6478 3.32654 13.0501 1.1807 2.23284 -6.19417 -8.89204 11.2234 -11.1394
771 1 29.2135 1.69619 14.8751 0.507334 -0.466737 0.885639 -15.158 8.99651 -0.389283
772 3 27.5857 2.00795 16.5275 1.82803 1.85308 -0.275436 -5.96856 6.53625 6.09179
773 1 24.8262 5.30638 8.61025 -2.36751 0.77172 -1.13988 -15.6941 5.17028 -3.36493
774 3 26.529 4.41965 9.61803 2.90769 -3.02565 2.58526 -7.20104 1.78981 1.33897
775 3 28.193 3.80048 7.04569 0 0 0 0 0 0
776 3 26.9125 4.14068 16.795 -1.19999 -3.28426 5.58932 -1.75178 6.04245 7.00528
777 2 24.7571 5.3381 4.02374 0 0 0 0 0 0
778 1 25.4422 6.69611 2.04365 0 0 0 0 0 0
779 1 24.9061 6.93184 5.94002 0 0 0 0 0 0
780 3 26.4109 6.30971 7.29692 0 0 0 0 0 0
781 1 25.0432 5.35002 17.5534 1.0475 -4.36052 -4.49964 17.1077 -2.27572 -9.61592
782 3 25.0065 7.2237 16.1336 -0.615564 -0.358529 0.235161 -4.26207 6.81296 -7.3163
783 2 23.2993 7.9567 4.32634 0 0 0 0 0 0
784 1 23.1809 9.91366 2.23762 0 0 0 0 0 0
785 3 24.7873 8.933 0.825166 0 0 0 0 0 0
786 1 23.2723 9.92921 5.85695 0 0 0 0 0 0
787 1 24.6261 9.29012 11.2451 1.58217 -2.78519 3.54326 15.7395 -6.83058 7.23406
788 1 21.8301 10.4224 8.28702 -1.08921 -1.37769 -0.142424 -0.354039 -2.46864 14.72
789 3 23.1351 10.175 9.91558 -1.54492 -0.0349664 1.71565 4.36492 -1.28359 5.38646
790 2 24.6892 11.0647 13.0042 0.609769 -1.38505 -1.74635 8.26904 -5.30086 4.66391
791 1 24.5339 9.19587 15.0615 1.97343 1.12494 1.03854 11.9677 7.02575 12.3423
792 2 21.7225 10.7616 4.08506 0 0 0 0 0 0
793 1 21.8277 12.4599 6.14225 0 0 0 0 0 0
794 1 23.0049 11.7903 11.0053 2.23112 -2.36953 1.89333 3.42504 -4.7162 0.784522
795 1 19.9843 13.51 8.20468 4.4942 -1.39331 -2.09409 2.14528 -16.2732 -10.1889
796 3 23.3093 11.6243 7.32323 0 0 0 0 0 0
797 1 21.9369 10.9837 17.8463 -3.89613 3.64955 -4.18821 1.50711 -9.81969 -1.69979
798 1 23.192 11.5821 15.1326 0.135801 0.0401295 -0.81971 -6.19473 1.0421 -0.432023
799 3 21.7782 12.4599 16.4039 6.72458 -2.8081 -8.09564 6.28905 -0.869852 7.64564
800 1 18.7214 16.1435 8.66454 2.57114 1.9962 -0.624067 -0.862605 0.586376 -14.1625
801 3 20.2142 15.292 9.32499 0.698271 -1.4991 4.43102 0.292408 1.80025 -2.39659
802 3 21.7566 14.3127 7.21121 0 0 0 0 0 0
803 1 20.4012 13.3434 17.6781 2.9038 -4.47528 -1.81143 5.46005 13.5896 8.3523
804 1 21.5283 14.4227 15.4741 3.35867 -2.75949 -1.25279 -16.7721 6.3028 7.89489
805 2 18.6387 16.2032 4.18434 0 0 0 0 0 0
806 1 18.6542 17.5483 2.08081 0 0 0 0 0 0
807 3 20.1291 16.9831 0.741545 0 0 0 0 0 0
808 1 20.5764 16.8629 10.49 -0.442092 0.461607 -0.206158 3.53998 6.3891 -11.2856
809 1 17.159 19.0469 8.66935 -1.23162 -4.2197 -2.54819 13.5521 14.4763 -15.9867
810 3 18.888 17.8674 9.69996 0.961321 -4.42179 5.42792 6.21137 0.0192734 7.63727
811 3 20.0828 17.0544 7.22911 0 0 0 0 0 0
812 2 20.8466 18.5554 12.6316 -6.72229 -0.00475646 4.35489 -5.85378 -3.11189 -4.20269
813 1 21.0168 17.0002 14.6533 3.32762 1.70296 2.20301 -3.7721 5.34423 -17.7394
814 1 19.0993 19.5514 11.0015 4.34252 -2.98998 4.92537 -3.67041 -4.86085 -9.85758
815 1 15.6409 21.8194 8.60574 0.00151709 0.85277 4.87925 -13.4537 -10.5514 12.8087
816 3 17.3929 20.731 9.8002 -1.9933 -2.91934 -1.59433 -2.20014 -7.17381 -6.1101
817 3 18.7579 19.6391 7.29098 0 0 0 0 0 0
818 2 15.6058 21.3493 4.13383 0 0 0 0 0 0
819 1 15.9455 23.4768 1.58643 0 0 0 0 0 0
820 1 15.4564 23.1795 5.93052 0 0 0 0 0 0
821 1 13.911 24.3719 8.34992 1.79699 3.07426 0.393129 3.62159 9.41056 -17.9276
822 3 15.078 23.6503 9.7835 -3.6451 -2.63761 -2.09122 5.70188 -6.2183 3.28307
823 3 17.2791 22.1744 7.06639 0 0 0 0 0 0
824 1 16.5596 19.534 16.2687 4.31669 -1.46929 -0.632281 -7.82382 -16.9386 0.938954
825 3 13.7566 23.5697 15.956 31.8262 -34.8721 -22.6668 0.343509 -1.88776 -1.96358
826 2 14.2374 24.2301 3.99564 0 0 0 0 0 0
827 1 13.9459 25.941 2.12908 0 0 0 0 0 0
828 3 15.4068 25.2832 0.729 0 0 0 0 0 0
829 1 15.2605 25.4722 10.8209 -3.20774 1.89046 5.66282 6.87058 3.70915 -9.25108
830 3 15.9159 24.7354 7.21751 0 0 0 0 0 0
831 1 15.3017 22.0015 13.1908 -4.73103 11.0241 20.4519 -1.56489 -1.69642 -0.405182
832 2 14.9912 27.0478 13.0796 -6.32839 -5.2753 -12.3725 1.12577 -2.6404 -0.23097
833 1 16.491 24.8898 13.5943 -3.56471 0.326907 -1.03616 0.368416 0.918324 1.42245
834 3 16.1972 20.9923 14.8369 5.29213 -8.65104 11.7212 -0.260503 1.27903 -1.29045
835 2 12.5526 27.0117 3.90296 0 0 0 0 0 0
836 1 12.4225 28.7826 2.14761 0 0 0 0 0 0
837 3 13.7147 27.9043 0.464103 0 0 0 0 0 0
838 1 12.1923 28.7543 5.66028 0 0 0 0 0 0
839 1 9.21434 29.9354 11.6284 -2.88529 -2.16878 -0.828299 -7.78296 -11.0128 -14.6631
840 2 13.9864 31.3876 12.4522 -0.616124 5.1987 8.00404 3.1322 9.89373 -12.7045
841 2 10.7025 29.7318 3.91118 0 0 0 0 0 0
842 1 10.9359 31.3864 2.05589 0 0 0 0 0 0
843 3 12.441 30.4896 0.951965 0 0 0 0 0 0
844 1 10.7748 31.5537 5.88772 0 0 0 0 0 0
845 1 9.8752 31.9264 18.5636 23.6456 -1.16625 12.2674 -1.21646 0.0119679 0.545814
846 2 30.541 0.690329 12.3512 1.00188 -1.51058 0.832384 -12.0395 0.670562 8.84704
847 1 13.2177 31.2831 14.5043 -4.45779 -1.75193 0.582688 -1.71462 1.24192 1.70116
848 3 11.3007 31.6935 15.2336 7.66489 -4.6203 5.32845 1.9585 0.203616 0.835975
849 2 30.7239 0.242276 3.95981 0 0 0 0 0 0
850 1 31.3273 1.78928 2.09516 0 0 0 0 0 0
851 3 32.4671 0.962875 0.531889 0 0 0 0 0 0
852 1 30.8954 2.09599 5.70241 0 0 0 0 0 0
853 1 32.4421 0.769225 10.5757 4.29875 -4.65238 -3.05309 9.22123 0.0244542 9.3959
854 1 29.6061 2.85656 8.36234 0.417583 2.19069 1.0168 1.56224 6.98873 1.5048
855 3 31.0644 1.76283 9.39582 -1.95485 -2.83896 -0.00952711 3.76895 -6.2669 -2.66309
856 3 32.8527 1.3224 7.07472 0 0 0 0 0 0
857 1 31.3115 0.53515 17.0139 -2.18713 7.37103 1.31313 6.31662 -6.59379 0.956478
858 3 30.7271 2.29306 16.39 -0.0289393 -0.671936 8.00992 2.15592 -5.40273 -4.86612
859 3 31.0846 3.54481 0.915378 0 0 0 0 0 0
860 1 31.164 3.66082 10.7776 -4.01533 1.7264 -0.405804 7.99132 4.87005 -6.97084
861 1 28.0318 5.43035 8.39291 -2.15938 -3.43726 -0.483669 -9.446 -5.89751 -1.25312
862 3 29.4744 4.56428 9.81884 -0.223531 -5.29474 -4.4151 -7.6813 -2.74962 3.9789
863 3 31.129 3.65358 7.26012 0 0 0 0 0 0
864 1 29.3742 2.81111 17.6444 -0.195738 1.39588 -0.539365 0.00422942 6.92436 11.6937
865 2 31.6635 4.92742 12.9935 -0.503697 3.05358 5.45844 -12.1566 -1.93825 -8.76263
866 1 31.4982 3.35015 14.9678 1.93892 -0.338911 1.54921 -13.7345 5.06888 -13.8852
867 2 27.9558 5.46779 4.00523 0 0 0 0 0 0
868 1 28.3215 7.19518 2.22584 0 0 0 0 0 0
869 3 29.5832 6.23256 0.895531 0 0 0 0 0 0
870 1 28.1079 6.96551 5.99722 0 0 0 0 0 0
871 1 30.0285 6.33252 10.9429 0.998704 -2.38922 1.39843 8.67556 -10.9217 0.511009
872 3 29.5542 6.34946 7.34508 0 0 0 0 0 0
873 1 28.3298 5.49195 16.8297 -0.78852 0.346714 0.270931 9.27278 -5.55576 -6.74308
874 3 27.7343 6.87134 15.4468 4.34543 -0.672512 1.02338 -7.64981 7.76154 0.795745
875 2 26.4109 8.07265 4.15001 0 0 0 0 0 0
876 1 26.1691 9.74207 2.13829 0 0 0 0 0 0
877 3 27.7966 8.82473 0.772027 0 0 0 0 0 0
878 1 24.6659 10.7864 8.59732 3.75191 -2.04681 0.999572 -0.920682 8.20305 7.16
879 1 26.685 7.83643 17.0239 4.27343 3.30107 2.13777 1.99758 3.23047 1.13802
880 1 28.0618 8.99012 14.8522 0.262518 0.140875 -2.93675 -17.4325 11.0885 -0.53837
881 3 26.4154 9.68515 16.1157 -4.67361 -2.40772 1.75749 -7.75442 2.52597 -6.22971
882 2 24.8643 10.6386 4.06908 0 0 0 0 0 0
883 1 25.2585 12.5404 1.97421 0 0 0 0 0 0
884 3 26.5981 11.5085 0.778882 0 0 0 0 0 0
885 1 24.8878 12.3711 5.86699 0 0 0 0 0 0
886 1 26.3786 11.8026 11.152 1.78919 -3.7718 2.77167 -2.34009 -15.6783 -3.0816
887 1 23.2736 13.4178 8.48723 1.07722 -0.0853711 -3.67705 -10.6994 12.1607 -3.90773
888 3 24.7573 12.5795 9.84904 -4.79734 1.17474 4.88836 3.20757 -1.90322 -7.97597
889 1 24.8797 10.856 17.2404 0.40798 1.61798 0.0343773 -3.22153 7.69105 8.69235
890 2 26.6251 13.7198 12.9313 -0.616792 -1.60966 -3.30537 -9.01845 2.22541 -3.97558
891 1 26.6144 11.3229 14.5806 -1.86211 2.36343 2.44065 -10.7674 -17.3408 -13.5005
892 2 23.367 13.2132 4.0747 0 0 0 0 0 0
893 1 23.3666 15.2223 2.17112 0 0 0 0 0 0
894 1 23.209 15.2391 5.52553 0 0 0 0 0 0
895 1 24.7332 14.5515 10.9361 2.09849 -1.44444 -3.8272 -6.67719 15.9882 7.98781
896 1 21.433 16.0519 8.03181 1.29197 -0.913796 1.68107 -3.40318 5.6547 12.7074
897 3 25.151 13.9711 7.15495 0 0 0 0 0 0
898 1 23.4898 13.6681 17.3338 -0.106884 1.86709 0.576517 4.21541 -16.7939 -4.74405
899 2 24.7105 16.1378 13.0259 3.18416 3.48243 2.91335 10.8827 -8.32459 6.17107
900 3 22.931 15.4283 16.5676 -1.8896 6.14719 3.66797 8.33977 8.29066 6.52266
901 2 21.5637 15.9125 3.75459 0 0 0 0 0 0
902 1 21.6124 17.6901 2.00183 0 0 0 0 0 0
903 3 23.252 16.9105 0.524327 0 0 0 0 0 0
904 1 21.7561 17.8201 5.35412 0 0 0 0 0 0
905 1 22.8011 17.1432 11.7792 0.176501 -3.92865 1.58812 -7.64499 -13.6868 -4.53372
906 1 20.5674 18.8296 8.42585 -0.276411 1.81721 0.0545941 13.9554 -4.12347 11.6292
907 3 22.1038 17.3776 9.49402 3.94172 0.651656 1.35234 -3.75725 -4.88044 -8.55741
908 1 21.7883 16.2876 17.8892 -2.18945 -0.35295 0.769647 11.9111 -8.97312 1.78209
909 2 23.557 19.1 13.0991 -0.393591 -3.00654 -0.575282 -0.675684 -11.6601 -10.1863
910 1 23.6273 17.0512 15.339 0.646674 5.78955 0.588743 4.07265 -13.742 14.0354
911 3 22.0118 17.9149 16.291 -2.4791 0.886027 -3.44127 0.809618 6.76263 -2.2744
912 2 20.0185 18.7907 3.84652 0 0 0 0 0 0
913 1 20.6629 20.4596 1.97377 0 0 0 0 0 0
914 3 22.0052 19.5286 0.701105 0 0 0 0 0 0
915 1 20.0465 20.5661 5.90389 0 0 0 0 0 0
916 1 18.8916 21.3944 8.30003 2.40431 0.693741 -2.28361 -15.7404 12.9675 11.2336
917 3 20.5252 20.7168 9.5738 0.919187 4.37246 0.149383 -3.36428 7.29124 6.58597
918 3 21.7427 20.0335 6.96577 0 0 0 0 0 0
919 1 20.6396 18.8781 17.3421 4.0672 -2.45352 0.249352 -16.4054 -11.9558 -15.8066
920 1 21.7495 19.741 14.8772 -2.36332 1.13236 1.53134 8.84686 -6.80493 13.5861
921 3 20.1123 20.4859 16.0295 0.214489 8.17855 5.63193 -3.73336 -1.86011 2.24719
922 2 18.6583 21.4076 3.96957 0 0 0 0 0 0
923 1 18.7945 22.9549 2.01468 0 0 0 0 0 0
924 3 20.2988 22.3709 0.716897 0 0 0 0 0 0
925 1 18.5663 23.3373 5.7419 0 0 0 0 0 0
926 3 20.4322 22.6257 6.91042 0 0 0 0 0 0
927 1 18.7006 21.5642 17.4239 4.32317 -1.46902 -0.883379 12.7102 15.3265 -7.98302
928 1 20.2709 22.4526 15.0413 -1.93305 1.74118 -0.786237 15.774 0.638261 -3.43934
929 3 18.6982 23.2338 16.1762 4.23366 0.634004 0.394344 -5.13796 -1.76568 7.22243
930 2 17.1718 24.0125 3.76092 0 0 0 0 0 0
931 1 16.9989 26.207 1.68022 0 0 0 0 0 0
932 3 18.4865 25.1659 0.445911 0 0 0 0 0 0
933 1 16.7099 26.0706 5.09692 0 0 0 0 0 0
934 1 15.4903 26.802 8.1522 -1.73644 -0.817713 -0.972246 16.5378 11.5772 -9.02808
935 1 16.9305 24.3263 16.7953 11.1633 -10.3169 4.42786 2.15217 -1.02827 1.00087
936 2 18.2655 26.6977 12.9264 -1.23574 -4.14141 -0.751846 -7.50753 9.85476 -3.01136
937 1 18.8384 25.2197 15.0898 -3.14604 2.52298 1.27296 -6.65338 -0.160503 12.6531
938 3 16.4963 25.9109 15.6501 11.9563 26.7655 5.242 1.12583 -3.22317 2.06522
939 2 15.4371 27.4477 3.44826 0 0 0 0 0 0
940 1 16.8032 27.8079 11.0956 1.0298 -0.184683 -1.29291 11.5574 10.4007 -3.31085
941 1 14.2833 29.9038 8.09623 4.46056 2.41311 2.3375 10.4518 17.4338 -15.7043
942 3 15.1482 28.6004 9.56824 0.777689 6.76989 -1.15022 -7.99611 0.34546 3.55557
943 3 16.757 27.9959 7.2737 0 0 0 0 0 0
944 2 16.5842 29.5481 12.998 1.7054 -0.734533 -1.64715 2.56934 -8.71512 -11.4865
945 1 17.21 27.602 15.0801 1.18762 -3.75944 -1.36576 -2.15983 2.9182 -2.44689
946 1 13.9217 31.3239 2.13783 0 0 0 0 0 0
947 1 13.765 31.4104 5.42202 0 0 0 0 0 0
948 1 15.4356 30.5721 10.7012 1.34761 -1.14568 -1.39735 -11.7931 6.11614 13.3193
949 1 31.3134 0.215061 7.90694 0 0 0 0 0 0
950 3 14.0042 31.5354 9.23649 1.29048 -2.49104 3.16771 8.6642 1.19606 6.74883
951 3 15.3055 30.4689 6.43629 0 0 0 0 0 0
952 2 33.6514 0.572443 3.7762 0 0 0 0 0 0
953 1 34.2573 2.07473 1.87611 0 0 0 0 0 0
954 1 33.744 2.61573 5.26886 0 0 0 0 0 0
955 1 32.7547 2.81698 8.50125 -1.29797 -0.679267 2.32477 -1.38037 -0.27509 0.588983
956 3 34.1231 1.77154 9.91772 1.85419 -1.45955 -0.0810826 -1.56213 -3.48596 6.96943
957 1 33.767 3.3997 11.4388 0.946392 -0.451123 0.40433 15.5721 15.365 1.92757
958 1 30.9764 5.44609 8.64476 0.973997 0.140324 3.07081 -1.73029 -5.51133 5.44867
959 3 32.7247 4.63755 9.71393 7.47598 4.24603 -1.57936 -1.3672 -6.69098 -1.63161
960 3 34.2065 3.87992 7.33207 0 0 0 0 0 0
961 1 32.4775 3.02818 17.6124 -1.19974 -0.116491 -2.30554 3.74001 3.50403 15.4681
962 2 -2.5531 5.35593 12.582 -1.55528 -0.904674 -0.685371 2.90121 -10.2713 3.51723
963 1 31.2483 7.16678 2.15053 0 0 0 0 0 0
964 3 32.6414 6.28262 0.899177 0 0 0 0 0 0
965 1 31.021 7.3002 6.00445 0 0 0 0 0 0
966 1 32.8466 6.26039 11.2916 2.51502 -3.34883 2.46198 -1.99592 7.8201 -15.241
967 3 31.7998 7.0535 9.84264 -6.90983 0.77135 3.80925 6.80634 -4.09272 6.47451
968 2 32.4612 8.08337 13.0228 2.1914 5.02035 1.77963 6.55615 1.71642 3.03928
969 1 32.9791 6.19263 14.6744 -1.30969 -2.14893 -2.62778 -15.3927 8.39654 10.9899
970 2 29.4748 8.13649 4.23039 0 0 0 0 0 0
971 1 29.0773 10.0126 1.93424 0 0 0 0 0 0
972 3 31.0535 8.8983 0.819899 0 0 0 0 0 0
973 1 31.0632 8.83168 10.8275 -1.30322 2.0623 -1.00045 -15.9927 12.4136 13.6109
974 3 31.0742 8.91225 7.30319 0 0 0 0 0 0
975 2 -5.81167 10.7221 12.8146 5.0383 0.790161 -0.136038 11.3934 -10.2485 -0.59566
976 1 30.9848 8.83473 14.9066 1.81912 -0.190111 0.444289 -8.03138 -3.66828 0.469094
977 3 29.5593 9.91068 16.0791 -2.38657 -3.3052 -6.792 -0.463409 -8.33487 5.08496
978 1 29.7366 11.8278 11.281 0.995072 -0.735099 0.406216 0.165305 -16.7537 6.21486
979 1 26.5113 13.2388 8.55 -2.97407 2.87511 2.16291 9.48281 -2.54832 -8.60858
980 3 28.1232 12.2984 9.77533 -3.02978 -6.2701 -0.0524885 -8.84008 4.38226 0.990477
981 1 27.9884 10.5984 17.3597 -1.77411 3.54911 -0.809742 -1.85146 5.56313 -1.25248
982 2 -7.36302 13.7117 12.882 -0.688013 -4.67757 -3.28091 -0.939854 -4.54435 11.1469
983 1 29.7679 11.6115 14.6141 -0.945933 2.26315 3.31675 7.69654 2.74896 -10.882
984 2 26.5548 13.1625 4.01552 0 0 0 0 0 0
985 1 26.3247 15.2595 2.18053 0 0 0 0 0 0
986 3 27.9576 14.25 0.769481 0 0 0 0 0 0
987 1 26.5826 15.0376 5.67171 0 0 0 0 0 0
988 1 28.0463 14.2266 10.9585 1.80557 1.36047 2.63989 13.109 -16.588 -13.4847
989 3 28.0531 13.8678 7.07135 0 0 0 0 0 0
990 2 -8.86936 16.4294 12.292 5.4022 2.94563 -0.67648 8.504 -11.7217 -0.536826
991 3 26.3709 17.0225 0.927972 0 0 0 0 0 0
992 1 26.2423 17.132 11.2812 -1.74392 -1.21872 -2.1523 -7.8851 6.80217 -1.86441
993 2 26.3311 18.8381 13.026 1.38941 -0.977172 -3.05094 -0.109425 3.98576 1.90478
994 1 24.6928 19.4211 10.6272 -2.82701 -0.584016 3.12575 -11.7168 12.2129 -9.54762
995 1 21.847 21.4798 8.1612 2.03547 2.10309 -2.19262 1.01314 -16.1025 -3.67211
996 1 23.4172 18.9815 17.5453 -2.76582 2.54117 0.20049 17.4983 -16.8577 0.691198
997 1 24.8112 19.9396 15.1588 -0.190958 -2.91606 -0.543049 -13.3517 4.61632 1.25918
998 3 23.0982 20.6993 15.973 -0.171906 2.68152 0.597544 1.02263 2.72354 -6.10289
999 2 21.8182 21.6337 3.88126 0 0 0 0 0 0
1000 1 21.8131 23.151 1.89448 0 0 0 0 0 0
1001 3 23.4331 22.3663 0.870733 0 0 0 0 0 0
1002 1 22.1208 23.3496 5.95497 0 0 0 0 0 0
1003 1 23.1257 22.358 10.9747 1.04631 1.23998 -0.753537 0.769755 -1.35652 -1.11792
1004 3 23.4761 22.3563 7.16539 0 0 0 0 0 0
1005 1 21.718 21.4574 17.3585 -0.51572 0.934631 1.8035 -4.06012 0.831229 -16.374
1006 2 23.1447 24.152 12.8715 5.00688 5.38991 5.14301 -2.15119 -4.22222 9.16162
1007 1 23.3544 22.6056 14.9542 -4.02085 -3.23137 -1.69075 -12.2047 2.0197 2.79068
1008 3 21.8339 23.3087 16.2673 6.75035 6.69903 -6.09885 -7.2918 -4.91316 -2.82946
1009 1 21.7175 24.952 10.9619 -1.30597 0.223956 0.507294 6.53469 -16.0791 7.49361
1010 1 18.767 27.4936 8.42005 3.80137 -4.77163 -0.738866 0.400249 -12.1403 8.64443
1011 1 20.232 24.2756 17.547 1.36361 2.45061 -0.902577 4.88966 -9.64768 6.85611
1012 2 -15.2328 26.6182 12.8703 4.02941 5.7094 -2.13085 3.94616 -9.43181 6.68394
1013 1 21.8029 25.1434 15.1439 2.97829 5.11643 0.128819 -12.5157 13.7648 -4.43326
1014 3 20.179 25.9823 16.444 1.36621 -1.74795 6.89419 -3.21846 -5.66201 -4.15543
1015 2 18.3984 27.0759 3.55659 0 0 0 0 0 0
1016 1 18.9004 28.4974 6.01058 0 0 0 0 0 0
1017 1 20.0264 27.4351 11.4109 -0.0378685 -4.64645 -0.938971 16.0975 -6.54638 7.79876
1018 1 17.061 29.3636 8.67691 -1.46108 -5.80844 0.754852 -7.18234 0.978816 16.7297
1019 3 18.6441 28.6987 10.1307 5.8259 -1.4046 -9.20631 -0.886011 8.73601 -3.95452
1020 3 20.5479 27.2691 7.11085 0 0 0 0 0 0
1021 2 -16.6804 30.7381 13.049 2.47532 8.12649 -2.41425 -12.7274 -3.30111 -11.7619
1022 3 18.4512 28.6399 16.1488 -4.55358 0.763378 0.483463 -4.73182 -1.89081 -4.15719
1023 1 18.5422 30.3746 11.5697 -1.33324 2.00882 -1.81989 7.49762 13.9799 -4.81126
1024 1 15.6514 32.2489 8.19145 1.14939 3.85017 0.383267 2.57284 10.5241 -13.7361
1025 3 19.071 29.7042 7.68477 0 0 0 0 0 0
1026 2 0.0412935 0.186136 13.086 -2.97284 6.6639 -2.28818 5.88155 13.1399 -9.54648
1027 1 18.3875 30.7334 14.8659 -1.39 0.420457 -1.03169 -16.3519 3.19988 -15.7868
1028 3 16.6467 31.8975 16.2822 -3.01007 5.68328 8.51118 4.14818 2.81033 -11.2595
1029 3 1.68682 0.868183 19.0688 -2.025 2.40688 0.344569 0.132937 0.0844042 0.257668
1030 1 35.4981 2.25931 26.2445 1.4441 3.1257 -1.90024 0.454495 -0.201714 -1.06403
1031 3 1.19921 1.16535 25.3576 -0.120854 -0.00213217 -0.0249659 -0.167577 0.155681 -0.0665806
1032 2 35.3605 3.00096 21.8748 8.48359 -6.68948 0.858011 -0.223748 0.170529 -0.023501
1033 1 -1.14583 4.26291 19.718 -0.230409 0.519539 -0.236215 0.361172 -0.182775 -0.234894
1034 3 0.219366 3.83004 18.1882 0.181578 4.74537 -0.144199 0.0891012 -0.646651 0.0817844
1035 1 -0.644724 3.95358 23.8592 -0.680549 -0.468604 -1.02078 -0.0593234 -0.259977 -0.13394
1036 1 -0.0586663 3.33374 28.8659 -0.872783 -0.312879 0.270302 0.0676618 -0.0352529 -0.45773
1037 1 34.2846 4.974 26.0607 0.223203 0.0118207 -0.1097 0.0703048 -0.230307 -0.0946808
1038 3 -1.63309 3.8519 27.3816 -0.33276 0.00274396 0.522441 0.073617 -0.385363 -0.0448967
1039 3 -0.0729491 3.23448 25.5414 1.18268 3.23446 -0.820305 0.0232478 -0.0937324 -0.0760022
1040 2 0.544063 4.65349 30.9739 0.566717 -0.101957 0.179313 -0.00973212 -0.0911244 0.0617362
1041 3 -1.13746 6.22518 18.5753 0.112101 -0.299095 1.44026 0.152617 0.0542559 0.00110553
1042 3 -1.27733 5.47631 24.85 -0.894215 0.023299 -0.319813 0.367995 0.18355 -0.417881
1043 1 34.2076 5.31337 35.0769 0.402304 0.246969 -0.154147 0.248543 -0.0320161 0.00799508
1044 1 -1.45743 5.91807 32.4649 1.73057 -0.0437436 -0.15945 0.44784 0.178358 -0.141926
1045 3 -3.04453 6.80577 33.7847 0.786652 -0.188602 -0.340716 -0.0187688 0.0610947 0.116677
1046 1 -4.72955 10.1983 19.9808 -0.793402 0.794316 0.188738 -0.561745 0.550858 -0.71157
1047 1 30.8353 11.0628 26.4536 0.158242 -0.12843 0.159491 -0.219773 0.234084 -0.0366089
1048 3 -4.8324 10.0144 27.5258 0.311006 -0.040976 -0.212779 0.00240272 0.0489662 0.0763946
1049 1 32.6577 7.75784 35.1991 -0.0425049 0.0492141 0.388219 0.121347 -0.00815894 0.0404716
1050 3 -4.68596 9.67753 34.9648 0.367932 0.262844 0.329279 -0.0978333 -0.00241884 -0.124746
1051 2 -6.26112 10.9562 21.8668 -1.4397 1.96989 0.0365022 -0.154692 0.0146954 -0.158808
1052 1 -6.23656 12.7429 19.8665 0.656627 -0.197674 0.230092 0.165356 -0.0695016 0.0627838
1053 3 -4.66101 11.8715 18.6344 0.497749 -0.345235 -0.665716 0.377444 0.724832 -0.252166
1054 1 -5.745 13.5411 23.0451 0.430681 -0.253206 -0.522986 -0.0368569 0.000829827 -0.108176
1055 1 -4.38762 11.7206 28.6066 -0.998315 -0.556726 0.275537 0.292083 0.0405449 -0.138142
1056 3 -5.91919 12.6384 27.6784 -0.424848 0.321068 0.0789052 0.0642802 -0.0232253 -0.0459935
1057 3 -5.16496 12.2391 24.5861 3.42392 -5.33804 0.352512 -0.039906 0.210039 0.354217
1058 1 -6.1097 10.7753 35.7438 -0.141933 -0.362912 -0.150114 -0.055947 -0.00817764 0.0157872
1059 2 -4.7981 13.3122 30.5824 2.57157 -0.142806 -0.943099 -0.335386 -0.0431688 0.145913
1060 3 -6.30141 12.4938 34.6954 -0.587239 -0.382054 -0.208547 -0.0429413 -0.0195911 0.00205223
1061 2 29.2873 13.5349 21.8549 0.0845771 1.27345 -0.451108 -0.0265761 0.0641634 -0.116065
1062 1 -7.97972 15.2597 19.6608 0.486741 0.0509222 0.179252 -0.165451 0.0638888 -0.0477205
1063 3 -6.40629 14.3114 18.4311 -3.37782 -3.26914 -0.213658 -0.364417 -0.245771 -0.582176
1064 1 28.8841 14.5288 24.409 0.834679 -0.30483 0.129614 -0.346946 0.176492 -0.0818071
1065 1 -6.08361 14.5851 28.6802 -0.20504 0.965869 -0.990045 -0.0577339 -0.227788 0.0883257
1066 3 -7.706 15.668 27.7283 -0.0621352 -0.0298641 0.0900397 0.0332673 -0.00733703 0.0751163
1067 3 -6.34924 14.4938 24.7194 -0.530117 1.32311 0.0547872 0.0217735 -0.0265479 -0.0107158
1068 1 29.4532 13.3042 35.5831 -0.201194 -0.280943 0.568289 -0.0133759 0.0591794 0.0897848
1069 2 -9.06641 15.9915 21.9886 -0.172632 0.628283 -0.296286 -0.0178466 0.0435621 -0.0964635
1070 1 -9.12728 18.2008 20.4943 -0.453976 0.545351 1.225 0.134657 -0.0384088 -0.303383
1071 1 -9.14713 17.7408 23.9428 0.787798 0.549691 0.411623 0.192333 -0.36158 0.169628
1072 1 -7.5509 17.2399 28.881 0.0926892 -0.0249945 0.116279 -0.0153244 0.0472404 -0.0273895
1073 3 -9.11379 17.9392 27.8106 -0.23702 0.239723 -0.0634523 0.00997459 0.117932 0.0892188
1074 3 -7.75976 16.5031 24.8729 -0.872972 0.482502 0.227923 -0.0996439 -0.0687335 0.0478529
1075 2 -7.79675 19.0569 30.7767 -0.418 1.88077 0.404765 0.0172225 0.333608 0.0239538
1076 2 26.4173 18.6549 22.295 -0.117416 1.11687 0.27119 0.0243349 0.0663317 -0.102395
1077 3 -9.20658 19.4793 18.7714 -5.80774 2.92523 0.238369 0.15756 -0.493543 0.0881337
1078 1 -10.2782 20.5406 24.1469 -0.0333911 -0.351097 0.126222 0.210447 -0.138811 0.0300542
1079 1 -9.3817 19.653 28.844 0.514012 -0.10039 -0.201358 -0.119723 0.038652 0.0323073
1080 1 -12.2158 21.6353 26.3153 -0.978243 0.588948 -0.17089 -0.0697911 -0.217242 -0.0503084
1081 3 -11.0217 20.3899 27.5724 0.53928 -0.0027874 -1.25504 -0.0605404 0.0390831 0.0526912
1082 3 -8.47444 19.6398 24.7532 -0.047355 0.0261825 -0.0190379 0.047127 -0.0434721 0.0176813
1083 2 -9.62357 20.9593 31.1678 -2.51363 0.516852 -1.21059 0.0423506 -0.0874455 0.432678
1084 1 -12.0431 23.2966 23.8449 0.082949 0.949232 2.12908 -0.167897 0.0509476 -0.586679
1085 1 23.2719 24.0308 26.039 -0.258538 0.915193 1.95796 0.827588 0.123006 -0.329939
1086 3 -12.4681 23.4006 27.366 -0.0894136 -1.86123 -1.71922 -0.0270704 -0.402135 -0.415065
1087 3 -10.4371 22.7188 25.1582 -0.248782 0.0627649 -0.154772 -0.0277201 -0.264404 0.0319629
1088 1 -12.1326 21.3904 35.0443 -0.778409 2.08331 0.265704 0.300749 0.198209 0.449459
1089 3 -12.5879 23.2872 34.0596 -0.525008 -0.461983 -0.149557 -0.0607099 -0.0521696 0.0785202
1090 2 -14.086 24.4067 21.938 0.880873 1.71173 0.680055 0.0565172 0.368723 0.456882
1091 1 -13.8321 26.2551 20.0354 0.414915 -0.720708 -0.431117 0.310181 0.477109 0.155012
1092 1 -13.888 26.0546 24.0238 -0.344274 0.832437 -0.534148 -0.103097 -0.471784 0.383343
1093 3 -12.3644 24.9182 24.8665 -0.311646 0.319538 -0.00688235 -0.121392 -0.0451915 -0.0971581
1094 1 23.203 24.1839 34.9755 -0.611968 0.00832952 -0.0168367 0.16563 0.0163307 0.139028
1095 1 -12.6732 25.0245 32.9142 0.783657 0.909619 0.852298 0.497494 -0.0522085 -0.138204
1096 3 -14.1683 25.9801 33.8648 0.0938392 0.785252 -0.582786 0.245469 0.0599245 -0.22236
1097 2 -15.2716 27.1175 22.1259 -3.78267 -0.0691458 -2.16539 0.0689496 -0.100529 -0.04469
1098 1 -15.139 29.068 20.0389 -2.73696 0.549303 2.3215 0.926577 -0.225059 -0.705669
1099 3 -13.8405 27.9719 18.6894 0.25289 0.259479 -0.697487 0.135072 -0.0741159 0.301596
1100 1 -15.6 28.1992 24.4285 0.733637 1.58741 -1.04094 0.595981 -0.013671 -0.0395224
1101 2 -14.1415 29.3474 30.8173 -1.32057 0.0875132 0.128245 0.299403 -0.00677735 0.0316388
1102 1 -14.3452 28.0208 33.1304 -0.204465 -0.119177 0.273878 -0.21073 -0.0202132 -0.04587
1103 3 -15.6533 29.228 33.9379 -0.1473 -0.796631 -0.725762 0.108131 0.0415345 0.214054
1104 2 -16.5219 29.5995 21.9657 0.920327 -1.87639 1.86848 -0.312374 -0.1218 0.713901
1105 1 -17.0635 31.4074 20.1131 -0.35359 -1.77266 -0.136371 0.14744 0.803427 -0.0490165
1106 1 -15.2351 31.001 29.2619 -0.836749 -0.0328117 -0.323531 0.0566956 0.416811 0.204333
1107 3 -16.5092 30.666 27.4802 1.43043 2.89716 0.836086 -0.026856 -0.289683 0.197438
1108 2 2.78629 0.715185 30.8048 0.086616 0.576273 -0.0920771 -0.270126 -0.12263 0.080422
1109 1 -15.5616 30.8259 32.5398 -0.158836 -0.225466 -0.474894 0.226679 -0.102757 -0.355621
1110 3 4.86729 1.08412 18.5324 -2.6872 -3.36447 -1.91432 0.506648 0.122118 -0.276653
1111 1 4.61089 1.13619 28.4748 -0.478128 0.609432 0.184292 0.159701 0.0707425 0.331917
1112 1 1.81848 2.9227 26.0599 -0.515681 0.514168 -0.238649 -0.10403 0.123295 -0.249682
1113 3 3.19626 2.00207 27.2022 0.283644 0.474805 0.0399484 -0.0835756 0.000328104 0.0324697
1114 3 4.8832 0.780475 25.0645 2.15455 -1.32279 0.575297 0.0458049 0.029334 0.0280175
1115 2 4.52383 2.72827 30.4619 2.2646 -1.24364 -0.133089 -0.39472 -0.0499929 0.0874115
1116 1 4.81073 1.19086 32.5543 0.306432 0.394757 -0.521516 -0.0704404 -0.0243785 0.0572983
1117 1 1.54812 4.77042 19.535 1.26975 -0.322278 1.15282 -0.447377 0.401635 -0.205233
1118 3 3.08849 3.41215 19.0673 -2.01687 -1.23267 -0.735437 0.862996 0.260661 0.0632285
1119 1 3.8175 3.97205 28.243 0.129033 0.524808 0.475792 -0.0407947 0.131068 -0.0120031
1120 1 -0.0782023 5.1278 26.5824 -0.0901054 0.849289 0.570699 -0.255404 0.318374 0.497722
1121 3 1.64277 4.32893 27.6502 0.689774 -0.737782 1.49521 0.282933 -0.27849 0.258651
1122 3 3.08944 3.67664 24.7395 -0.0209174 -0.159478 0.588311 0.0550428 0.0775847 -0.0723221
1123 2 3.25671 4.97302 30.6939 -1.36945 -3.57023 0.141526 -0.00630137 -0.22804 0.0148519
1124 2 0.192099 5.32393 21.7997 0.569561 0.129578 0.0570558 -0.0939439 0.0415193 0.0707484
1125 1 0.212261 7.2961 19.7999 -0.309683 -0.611833 -1.60528 -0.134552 -0.104293 -0.351932
1126 3 1.58372 6.31683 18.392 0.044921 -0.909656 -1.44055 -0.07496 0.0849959 0.0577265
1127 1 -0.00606282 6.98726 23.8951 0.279778 -0.297914 0.136413 0.295812 0.0413268 0.020232
1128 1 1.67367 6.21712 29.0869 0.642312 0.62816 -0.167326 -0.321182 -0.269442 -0.0113012
1129 3 0.0022729 6.97647 28.0153 0.3141 0.605562 -0.319891 -0.154481 -0.175919 0.180534
1130 3 1.08637 6.5421 25.6001 -1.25833 0.1764 -1.53452 0.135111 0.22885 0.196872
1131 2 2.36536 8.09309 30.9525 4.35149 -4.48007 -1.55683 0.0538838 0.230335 -0.192046
1132 1 1.9125 6.30043 32.4438 1.19123 0.419096 -0.326014 0.181018 0.0836617 0.13819
1133 3 0.117931 7.07715 33.4957 0.125101 -0.0816076 -0.156902 0.0161753 0.0942617 -0.0653255
1134 2 -1.18858 8.26853 21.8645 0.161647 -0.440888 -0.137555 -0.0280612 -0.0387378 0.00171166
1135 1 -1.56266 9.99043 20.0208 1.50429 0.0896817 -1.4927 0.192917 0.0542324 -0.227171
1136 3 -0.22881 9.24646 18.7486 -3.60513 -2.56374 -2.22463 -0.246713 0.0474978 -0.00501593
1137 1 -1.43678 7.81802 34.8754 0.304731 0.090079 0.942192 0.0236928 0.0640579 -0.092022
1138 2 -2.99058 11.008 21.785 -0.771255 -0.561434 -0.573214 -0.0277586 -0.0432398 0.0271964
1139 1 -2.90569 12.6035 19.75 -0.769019 0.582418 -1.581 -0.0670003 -0.230475 0.427704
1140 1 -2.94168 12.315 24.2322 -0.181937 0.148244 -0.0392225 -0.319403 0.0669828 0.0747154
1141 1 -4.71281 13.6503 26.0375 0.0878939 0.0578969 -0.0232936 -0.138184 -0.0329754 -0.177771
1142 3 -3.09775 12.794 27.2564 0.32152 -0.485504 0.67433 -0.127282 0.316485 -0.226461
1143 1 -3.04403 10.7654 34.8237 -0.156041 0.208657 -0.146038 0.018225 -0.0255705 0.120079
1144 3 -2.90846 14.4453 18.6402 4.35375 -0.263701 0.735469 -0.375861 0.175277 0.297424
1145 1 -3.2719 14.3778 28.4207 0.131835 0.418722 -0.480918 -0.635122 -0.171143 -0.532272
1146 1 -6.17529 16.2597 26.1108 0.203194 0.42095 -0.0866963 -0.141222 -0.00687743 0.0844236
1147 3 -4.64859 15.3856 27.2038 1.16614 2.06571 1.74999 -0.0826728 -0.0333737 -0.0301704
1148 3 -2.79816 14.3626 24.9991 -0.211095 -1.20116 -0.840559 -0.0319325 -0.151459 -0.0367102
1149 1 -4.74525 13.8006 35.0158 -0.340393 -0.531721 0.630007 -0.0321912 -0.317423 -0.0327239
1150 3 -4.77849 17.4742 18.8321 3.46402 -0.102814 -4.13137 0.0765359 -0.308512 -0.258215
1151 1 -4.70142 17.1227 28.3549 0.481937 0.00541261 0.4065 -0.170307 -0.0939627 0.0571779
1152 1 -7.69908 18.5504 26.2411 0.373335 0.612211 -0.00380603 0.0307743 0.166093 0.0857509
1153 3 -6.23846 18.0229 27.4993 0.152898 0.434453 0.325277 0.070866 0.031721 -0.057064
1154 3 -4.47372 17.5208 25.1286 -0.328145 0.0545355 -0.13694 -0.161059 0.0571616 0.00218505
1155 2 -7.30067 18.129 22.1726 0.223138 -0.141202 -0.0200064 0.0690472 -0.0277278 0.132719
1156 1 -8.043 20.8361 19.4876 -0.884936 0.452502 -1.69773 0.595352 0.966908 -0.801201
1157 3 -6.2346 19.8854 18.5307 0.378538 9.04674 6.19152 -0.403329 0.441207 0.0796332
1158 1 -6.93636 20.1387 23.6316 -0.441639 -1.19093 0.508872 0.00997016 0.0149649 0.169814
1159 1 -6.52109 20.0189 28.3648 -0.0118715 -0.610875 0.0510184 -0.320437 0.151131 -0.563812
1160 3 -8.36763 20.3783 27.4001 -0.340897 0.65788 -0.134131 -0.141465 0.231832 -0.0552226
1161 3 -5.64459 19.5407 25.4521 0.0269845 -0.600711 0.0613946 0.0855379 -0.151086 0.100643
1162 2 -5.85814 20.9378 30.6147 -0.556115 -1.77656 -1.24643 0.0687357 0.141567 -0.17578
1163 1 -6.56512 19.8321 33.0567 -1.67794 1.00688 -0.518845 -0.686934 0.274623 -0.255878
1164 2 -9.01677 20.5542 21.7821 1.56224 -0.381327 -1.50372 0.148126 -0.115887 -0.194318
1165 3 -8.20012 22.708 18.3401 -0.8811 0.27756 1.41695 0.123834 -0.217966 -0.409162
1166 1 -11.13 24.4973 26.3523 0.070489 0.0148951 -0.349068 0.181319 -0.30237 0.0409153
1167 2 -10.8504 24.5091 21.8326 2.50931 -0.362424 -0.17945 0.272567 -0.0470772 0.0064632
1168 1 -10.555 26.7041 20.4356 -0.55548 -0.0231081 0.395153 0.0470704 -0.0757326 -0.06342
1169 1 -10.7244 26.3068 23.6979 -0.127011 0.983792 -1.09281 0.297488 -0.08932 0.292154
1170 1 -9.11829 25.5578 28.6585 0.495155 0.103701 -0.758224 0.345729 -0.0353745 -0.294452
1171 3 -10.7389 26.2523 27.584 -0.175779 0.00737658 -0.0387569 -0.116031 -0.0785979 0.0694351
1172 1 -11.342 24.4587 35.6228 -0.778727 -1.63995 -0.828628 -0.085791 0.122309 0.137296
1173 3 -11.4198 26.0867 34.0695 0.266587 -0.0874886 0.253746 0.111907 0.0116315 0.242035
1174 2 -12.4746 27.1207 21.9967 0.250604 -0.0625893 -0.653032 0.0561999 -0.0092752 0.093234
1175 1 -12.2834 28.9912 19.7081 0.790351 -0.182377 0.0707151 -0.283785 0.0527534 -0.11896
1176 1 -12.3345 28.8165 23.9477 -0.787958 -0.417271 -0.239721 0.11469 0.0599375 0.0452895
1177 1 -10.6972 27.6846 29.1461 -0.186003 0.474614 0.908687 -0.0324152 0.607168 0.488363
1178 3 -10.4082 28.1579 24.8599 0.494959 0.443469 0.849815 -0.220586 -0.226241 -0.235793
1179 1 -12.8916 26.9611 35.1445 -0.820272 0.434239 0.539206 -0.322506 0.16533 -0.0136092
1180 2 -10.859 29.6536 30.7727 0.590676 -0.23145 0.136759 -0.627976 0.310069 -0.0387509
1181 1 -11.2883 27.7887 32.5533 0.134988 0.144474 -0.238667 -0.0176419 0.0716602 -0.0636964
1182 3 -12.7879 28.8163 33.9078 0.00820792 -0.93008 0.0449541 0.0314671 -0.0591145 0.133585
1183 2 -13.4702 30.0004 21.7816 0.486449 0.104309 -0.111695 0.246357 0.249541 -0.0380708
1184 1 -13.7779 31.7454 19.8477 0.947119 0.154238 0.728708 0.203492 -0.25417 -0.169123
1185 1 -13.9539 31.6981 23.6025 0.709987 0.283551 -0.191169 0.152927 0.00379845 -0.13089
1186 1 -12.3506 30.4804 28.6346 0.6073 -0.667852 -0.11626 0.289474 -0.457372 0.0742852
1187 1 -15.5586 32.2565 26.1938 -0.0646445 -0.042392 -0.0275704 0.240013 0.0956697 0.00597765
1188 3 -13.8871 31.5967 27.4582 -0.555931 0.13587 -0.345098 0.0432886 0.0222717 -0.0672483
1189 1 -14.225 30.149 35.0114 0.186357 0.0921423 -0.159219 0.083906 0.141059 0.118526
1190 2 -12.88 32.2194 30.4493 -1.70751 -0.423646 -0.194812 0.108781 -0.330994 0.026152
1191 1 -12.6995 30.6054 32.5734 0.714992 -0.37947 0.505159 -0.214853 0.0906054 -0.0803984
1192 3 -14.2674 31.7365 33.8228 0.694689 1.13256 0.521059 -0.187525 -0.0959864 -0.0335973
1193 2 5.73579 0.630077 21.7768 0.0516664 1.03723 -0.134595 -0.0575365 0.0356418 -0.033879
1194 1 6.43472 1.94314 19.6774 -0.266334 -0.530268 0.753159 -0.198441 0.145831 -0.0231977
1195 1 6.61186 1.53383 23.8938 1.67296 -1.33433 -0.426795 0.271554 -0.406264 -0.217937
1196 1 7.70731 0.89034 28.7579 1.41159 -0.248502 -1.18282 -0.185108 -0.0346207 0.153954
1197 1 4.63053 2.61429 25.8731 0.503054 -0.216921 -1.40746 0.129865 0.00648858 -0.350995
1198 3 6.35906 1.94907 27.2202 0.668729 -0.515408 0.646862 0.0687418 0.0102873 0.0366039
1199 3 8.11796 0.665024 25.1544 0.228567 0.0890085 0.0972636 0.0667236 0.0184382 0.0498122
1200 2 7.60707 2.61623 30.6768 1.80071 -2.65983 0.688268 -0.0633708 0.353816 -0.153524
1201 3 6.92207 3.75764 18.3336 -0.829778 -1.1824 1.71295 -0.241283 -0.102313 0.135049
1202 1 2.75731 5.44855 26.1369 -0.587175 1.0231 1.05231 -0.373053 0.239273 0.120415
1203 1 4.45066 2.54042 34.915 0.223868 0.450174 0.267714 -0.251392 0.372537 -0.235926
1204 1 5.6982 4.15973 32.2195 -0.010525 -0.207761 -0.121274 -0.166822 -0.0612055 0.0783027
1205 3 4.74057 4.30869 34.0368 0.0503957 0.548533 1.18785 -0.263957 -0.22476 0.318946
1206 3 4.71972 6.73184 18.5685 2.37427 0.597919 0.642782 0.213591 0.0733034 -0.771906
1207 1 1.37843 8.23115 26.6821 1.12 -0.0528678 -0.441627 -0.165957 0.157701 0.247236
1208 3 2.92532 7.37847 27.3731 0.428278 0.622152 -0.0353202 -0.171917 0.122579 0.00702941
1209 1 2.94488 4.9628 34.3546 0.589084 -0.396527 0.115325 -0.0752119 -0.226168 -0.077625
1210 3 3.18367 7.00624 34.081 0.088842 0.973205 0.0317233 -0.0360782 -0.0808433 -0.0334015
1211 2 1.38649 8.07361 21.9926 -0.520542 0.613287 -0.461398 -0.047592 0.054323 0.0188487
1212 1 1.40723 9.95483 23.7555 1.4467 -0.886896 -0.546213 -0.283914 0.177632 0.0113069
1213 1 3.18373 9.13766 28.8451 -0.254256 0.195895 -0.841918 0.0899896 0.172149 0.130667
1214 3 1.99956 10.165 27.6446 -0.140201 -0.218849 -0.00332943 0.0245777 0.156044 -0.000894477
1215 3 2.9305 9.36055 25.1843 0.181321 0.52066 -1.65712 -0.110401 0.225843 0.108895
1216 1 1.61756 7.87237 34.9112 -0.266104 0.395697 -0.0140316 0.0391646 0.0182401 0.000747005
1217 2 3.04759 10.9143 31.2204 -0.775765 0.256281 0.0659501 -0.0187453 0.226006 -0.255914
1218 1 3.7943 8.88853 33.1132 1.2388 -0.311319 0.00820919 0.0231605 0.0729729 -0.0677624
1219 3 2.12881 9.83483 34.4088 0.227266 0.213868 0.374316 0.169708 -0.0390395 0.0678532
1220 2 0.014473 11.0326 21.8348 0.753393 0.895974 -0.83056 -0.0543348 0.0487381 -0.0545343
1221 1 0.177565 13.0316 23.5431 -0.516775 1.22333 0.137688 0.0455228 0.00457332 -0.163394
1222 1 1.52329 11.767 28.8649 0.646159 -3.24778 8.00059 0.0635007 -0.617906 1.9225
1223 1 -1.39943 13.7051 26.398 0.113008 0.683696 -0.322215 0.0263211 0.138889 -0.252233
1224 3 -0.550743 12.079 27.6434 -0.896421 0.604783 -0.26916 0.162494 -0.205548 -0.187995
1225 3 1.38565 11.8089 24.8172 -0.495362 -0.0284117 0.343101 -0.012406 0.0326372 -0.162571
1226 1 0.298951 10.6735 35.5703 -0.507839 -0.312264 0.618592 -0.00907082 -0.021364 0.0547028
1227 2 1.30109 13.7087 30.872 1.04057 1.95865 0.567179 0.339225 0.519118 -0.0048
1228 1 1.60978 11.4259 33.3035 -3.39512 0.996951 3.04648 0.166917 -0.28464 0.183717
1229 3 0.309115 12.5987 34.5681 0.0495906 0.624849 2.38625 0.111353 -0.0467956 -0.382387
1230 3 0.0670294 13.7945 19.2656 2.30631 0.0319601 -0.380738 -0.357551 -0.190328 -0.181334
1231 1 -0.287129 14.0042 28.8865 -1.37004 1.52595 -0.35781 -0.227627 -0.184246 -0.00554171
1232 1 -2.91787 16.2997 26.199 -0.300678 0.272895 -0.0474806 -0.114349 0.192101 0.244107
1233 3 -1.54302 15.35 27.6458 -1.12667 -0.133575 0.0516955 0.048731 -0.15719 -0.103998
1234 3 0.588498 13.9862 25.4913 1.03563 0.696527 -0.776174 -0.486347 -0.182894 0.331924
1235 1 -1.39061 13.5287 35.447 -0.394549 0.0237784 0.72417 0.132256 -0.0397698 -0.211401
1236 2 -0.47027 15.842 31.1808 -1.59572 0.114159 1.9663 -0.0135948 0.106751 0.0118675
1237 1 0.187333 14.3854 33.2245 -0.646811 -0.778499 0.472428 0.111804 0.205545 -0.0555005
1238 3 -1.99709 14.8417 33.8072 -1.99822 -0.948542 2.48983 -0.286266 -0.144185 0.428477
1239 3 -1.55169 17.6965 18.1765 -2.29636 -4.29567 -0.0763991 -0.500874 0.163539 0.263514
1240 1 -2.13896 16.5965 29.406 1.28529 1.15325 -1.60144 -0.00296052 1.05991 0.129281
1241 3 -3.05302 17.847 27.9508 -0.382118 -0.458054 0.19888 -0.0762514 -0.119721 -0.0562703
1242 3 -1.15392 17.2568 25.5973 -0.48365 2.0691 0.45993 -0.166752 0.0708069 -0.0389791
1243 1 -2.85499 16.237 35.3096 0.275975 0.713121 0.0377843 -0.0123281 -0.137894 -0.0434676
1244 2 -1.61821 18.8041 30.62 0.536256 -0.883763 -0.677117 0.0470596 0.0113635 0.479307
1245 3 -3.10399 17.8629 34.0909 -0.374807 -0.203399 1.45677 0.00695054 0.0098252 0.0485574
1246 1 -4.72809 21.0026 19.6259 0.357408 2.51804 0.640766 -0.419493 -0.047422 0.0728902
1247 1 -3.78268 19.554 29.4798 -0.0579173 -1.58903 0.2753 0.60333 -0.585497 0.019467
1248 1 -4.44883 18.7619 35.3118 -0.506901 0.0139619 0.00376832 0.164544 -0.384758 -0.318318
1249 2 -3.3695 21.6144 30.9488 4.05165 2.18753 -3.44404 0.130514 0.328088 -0.12789
1250 1 -3.08224 19.5841 32.5913 -2.63364 -1.4268 2.16168 -2.09255 -1.35927 0.946008
1251 3 -4.66787 20.4793 33.9851 0.31309 -0.822822 -0.72741 0.0556856 0.00890882 0.088031
1252 2 -6.53096 21.66 21.5933 1.21598 -0.0270217 -0.125856 -0.0775789 0.129643 0.148676
1253 1 -6.51261 23.4498 19.8894 -0.508921 -0.145393 -1.0599 -0.0682764 -0.350171 -0.113916
1254 3 -4.73767 22.6947 18.5568 1.18183 0.0681864 -1.17686 0.0708924 0.275832 0.120956
1255 1 -4.58192 22.5749 28.6352 -0.0189041 -0.0909366 -0.136384 0.00932598 0.0701281 -0.0777347
1256 3 -5.97824 23.337 27.2136 -0.211084 -0.0120679 1.39279 0.0393269 0.0187496 -0.0559775
1257 1 -5.84585 21.8192 35.2839 -0.122377 -0.269868 -0.0108739 0.259475 -0.141723 -0.0894463
1258 2 -5.0125 24.0874 30.7068 -1.5762 -1.48941 0.761012 -0.0531886 0.00536411 -0.013011
1259 1 -5.06805 22.2826 32.6812 0.141735 0.844866 0.481731 0.276582 0.536935 0.47409
1260 3 -5.55335 23.6121 34.2613 -0.817731 -0.455064 1.49933 0.0977881 0.0106644 -0.214313
1261 2 -7.73802 24.3263 22.1118 1.53564 -3.11895 3.95162 -0.1076 -0.0979569 -0.0475618
1262 1 -7.85533 25.8382 19.7781 0.29673 0.0585654 0.487583 -0.731067 0.228111 -0.408542
1263 3 -6.12642 25.2894 18.8696 1.5562 -0.209448 1.81142 0.0939918 0.110054 -0.0864398
1264 1 -6.36501 25.0411 28.2484 0.113525 0.240948 -0.227941 -0.207786 0.00976538 -0.0769133
1265 1 -9.52111 27.1921 26.4527 -1.45103 -2.13306 -0.932326 -0.319939 -0.406485 0.0413026
1266 3 -7.71101 26.3508 27.1699 -0.265839 -0.95067 -0.600938 0.00500583 0.348157 -0.000282219
1267 1 -7.38412 24.1699 35.1977 0.556016 0.319515 0.648917 0.0854388 -0.214645 -0.163841
1268 1 -5.7729 25.1428 32.856 -0.243144 -1.06657 2.58559 -0.32115 0.0318066 -0.138699
1269 3 -7.78905 25.5508 33.7656 -1.50701 -0.979899 1.74066 0.125833 0.13335 -0.489754
1270 2 -8.65739 26.7456 22.2341 1.04365 -2.06987 -0.677518 0.114237 0.00460154 -0.0108359
1271 1 -8.40092 28.5731 20.5038 0.238635 0.209652 -1.24581 0.393847 -0.0819304 -0.324364
1272 3 -6.97323 27.7735 19.0798 2.83532 -3.1422 -6.27321 -0.642738 0.181622 0.611591
1273 1 -9.00613 29.1211 23.7422 -0.266586 -0.182851 0.604361 -0.0699796 -0.208364 0.551146
1274 1 -7.61041 27.934 28.2641 0.209191 -0.947461 -1.07414 0.122391 -0.162387 -0.302876
1275 1 -10.6199 29.7974 25.9849 0.375234 -0.204402 -0.339722 -0.0740431 0.276773 0.18542
1276 3 -9.46971 28.773 27.5943 -1.00837 0.776075 -0.755187 0.324541 0.035299 -0.0342358
1277 1 -9.52749 26.7351 34.9579 -0.0384292 -0.459032 -0.356132 0.0419914 -0.017198 -0.137269
1278 3 -9.67396 28.5137 33.8934 0.0572064 -0.0140767 -1.35658 -0.0498102 0.00399216 -0.157004
1279 2 -10.6222 29.1725 21.7102 0.70241 0.552377 0.300101 0.0887461 0.0920446 0.0871278
1280 1 -10.9988 31.3552 23.5348 0.981125 0.953593 0.0951637 0.116326 0.0411925 0.0365074
1281 1 -9.15846 30.4257 28.6758 -0.456638 0.617429 -0.0870469 0.0956226 -0.101325 0.0602068
1282 1 6.37891 0.292793 26.3283 -0.0112617 -0.0205211 0.224319 -0.036961 0.175026 -0.0710201
1283 3 -9.20266 30.7087 25.2355 0.276308 0.065403 -0.102724 0.0295739 0.0730997 -0.0304267
1284 1 -11.2522 29.3115 34.9349 -0.314155 -0.941852 -0.221144 0.157478 0.070806 0.226496
1285 2 8.95328 0.436082 21.589 -5.42158 -3.00764 -1.32177 -0.522744 -0.300508 -0.157881
1286 1 9.38109 2.28629 19.9279 1.05624 -0.598089 0.328732 -0.00975794 -0.154081 -0.143234
1287 3 10.5879 1.00028 18.1417 -0.603769 -0.133251 0.834161 0.0558415 0.0828713 0.00879743
1288 1 9.30511 1.83876 23.9656 -0.257894 0.772354 -0.583666 -0.150114 0.0425556 -0.0267183
1289 1 10.9733 0.918622 28.0233 -1.02373 0.521547 -0.0240478 0.0176901 -0.0247721 -0.0579109
1290 2 10.8657 2.70969 30.3813 0.0711798 -0.899243 -0.170246 -0.0846097 -0.066698 -0.0570436
1291 2 7.7185 2.75715 21.8916 -0.12388 0.0180109 -0.432311 -0.0476623 -0.0512703 -0.0697371
1292 1 7.0825 4.71139 20.4264 -0.145057 2.46231 -0.650298 -0.0217633 -0.0971803 0.352137
1293 1 7.85623 4.50802 23.7308 -0.144682 -0.0964638 -0.379083 0.0124928 0.142771 -0.417961
1294 1 9.22583 3.54518 28.7104 -0.0398559 0.36119 -0.52892 0.0196033 0.0540678 -0.0633199
1295 3 9.29037 3.75984 24.9923 0.620685 -0.236205 0.121055 0.211197 0.0177223 -0.054487
1296 2 9.12108 5.08697 30.7523 0.245581 -0.5853 -0.241882 -0.0161997 0.0236943 0.0240526
1297 1 9.04843 3.39057 32.6496 -1.29598 0.208258 0.0796635 0.421762 -0.0571887 0.00589479
1298 3 7.53727 4.48981 33.5436 -3.49518 0.374585 -2.04731 0.120259 0.0429466 -0.0372918
1299 1 6.17479 7.38775 19.7011 -0.0612092 -1.79869 -1.29179 0.209499 -0.52277 -0.370456
1300 3 7.60548 6.17984 18.9107 -2.29635 -1.66855 6.44743 0.0399125 1.37424 0.101885
1301 1 4.42308 8.57574 26.4349 0.0553042 0.11227 0.342038 -0.220662 0.0615771 0.0212539
1302 1 6.15264 5.28442 34.9809 0.19424 -0.52835 0.858109 0.00221065 -0.0391793 -0.115036
1303 3 6.37804 8.95276 18.2682 -0.228706 1.08094 1.73732 0.222935 0.0090061 0.0159629
1304 1 4.95446 9.90692 24.0061 3.24633 -1.82992 -0.433126 -0.0735789 0.333088 0.0420251
1305 1 6.22602 9.21575 29.0168 0.746974 0.657213 -0.955143 -0.136189 -0.0954484 0.240944
1306 1 3.05248 11.0268 26.1405 0.585905 0.707453 -0.182348 -0.237362 0.205977 0.0159468
1307 3 4.59815 10.0899 27.646 0.611874 -0.211425 -0.157735 -0.104604 0.428939 -0.0930368
1308 3 5.08558 11.5235 18.1904 -3.72644 1.91949 -1.69735 -0.255983 -0.42639 -0.531764
1309 3 4.79231 11.7767 25.2172 0.187658 -0.259351 0.248566 0.022873 0.0449968 -0.0788969
1310 1 3.35827 10.8602 35.6099 -0.19205 -0.705453 0.233091 0.249831 -0.21473 0.0813596
1311 2 5.03631 13.3584 30.4843 0.42982 2.72017 2.94377 0.162627 0.167651 0.210973
1312 1 5.61652 11.0517 31.4636 -2.01431 0.21902 -0.246012 0.0237345 0.0581266 0.345627
1313 3 3.16824 12.5671 34.4285 0.101307 -0.0418188 -0.341204 -0.0544819 -0.030184 0.0657685
1314 1 1.38396 15.1569 19.9509 -0.88203 -1.84464 -0.287207 -0.0572933 0.0255876 -0.163417
1315 3 2.88617 14.2725 18.597 2.52823 -0.68801 1.99666 -0.573041 0.412881 -0.161089
1316 1 1.47952 15.3353 24.1635 0.765994 1.21192 1.3506 0.308644 -0.362408 -0.0778143
1317 1 2.99248 14.1809 29.014 1.75831 0.232615 0.507217 0.728994 -0.295676 -0.161349
1318 1 0.236947 15.9366 26.5814 0.45875 2.33613 1.34252 0.247266 0.411769 0.17515
1319 3 1.22895 14.5353 27.793 -0.581323 -1.30343 4.30995 0.366382 0.202384 -0.0878647
1320 1 1.72912 13.3569 35.4909 -0.182593 -1.40867 0.183711 -0.0112189 -0.0484293 -0.0601144
1321 2 3.63211 15.9055 30.953 4.3791 -4.63704 1.23996 0.351194 -0.137798 -0.479703
1322 1 3.2876 13.2986 32.3806 3.40498 2.25406 -2.0766 0.100555 -0.146878 -0.0518376
1323 2 0.0793478 15.2378 22.1728 0.531373 0.393788 0.0524661 -0.00497712 0.0193294 -0.11724
1324 1 -0.744593 17.0324 20.0894 1.46983 -0.107413 -0.113995 0.142868 0.361746 -0.426471
1325 3 1.06633 16.8225 18.7274 0.372983 0.228196 -3.82072 0.692576 0.413604 0.641895
1326 1 -0.323427 17.3745 23.6334 0.00111342 -0.637525 0.166496 0.198118 -0.696776 -0.159442
1327 1 1.25222 16.3029 29.443 -6.57376 -4.0068 4.96558 -0.793854 -0.638294 0.667429
1328 3 1.54101 16.8699 25.3317 3.75686 -1.60184 1.42729 -0.870647 0.387283 -0.335221
1329 2 0.869034 18.0719 31.4118 -2.53894 1.35692 1.44072 -1.07084 0.487377 0.740361
1330 2 -2.03564 18.4329 21.8824 -1.38215 -0.0323623 0.123814 -0.12928 0.0595002 0.111384
1331 1 -1.7589 20.003 19.864 3.36995 3.08883 0.953315 -0.217312 -1.2756 -1.01771
1332 1 -2.03441 20.2043 23.7343 1.10449 -0.0863597 0.487039 -0.31134 0.1643 0.225543
1333 1 -1.49595 18.5801 35.1309 2.28178 -0.60131 1.21084 -0.127465 -0.186693 -0.105982
1334 2 -0.863702 22.0514 30.5585 -1.17662 -1.40691 -1.00228 -0.520547 0.282806 -0.0595016
1335 1 -0.233898 20.1526 32.1503 -0.544441 4.35296 2.7334 0.97429 0.496209 0.880531
1336 3 -1.60436 20.3828 33.8547 -5.28395 -5.33376 -5.32876 0.733772 0.184234 0.401334
1337 2 -3.4694 20.9713 21.8287 -0.923045 -1.90173 -0.418669 -0.0736393 -0.280111 -0.0737073
1338 1 -3.46022 23.0186 23.6923 -1.13386 -0.0314144 -0.859391 -2.0932 0.212407 -1.48147
1339 1 -4.84076 24.6138 25.9675 -0.461544 1.26297 0.798532 -0.10295 -0.203387 -0.157512
1340 1 -3.06816 20.9938 35.3731 -0.560381 -0.262619 -1.5979 0.146781 -0.0853732 0.407369
1341 2 -2.14171 24.4085 30.9156 -0.139218 4.63156 1.37654 -0.182996 0.525472 0.149754
1342 1 -2.0451 22.5018 33.0171 -1.58248 0.148896 -0.0244384 -2.4205 0.423633 -0.391967
1343 2 -5.19942 24.1121 22.2746 0.959839 0.688627 -0.3294 -0.158448 0.134204 -0.0284051
1344 1 -4.08514 26.0376 23.4638 2.34303 1.64312 0.034606 0.206476 0.0842529 0.0172999
1345 1 -3.6091 25.2649 29.0342 0.677869 0.561404 0.583165 -0.0954075 -0.161575 -0.00893755
1346 1 -6.08941 27.1324 25.997 0.808297 -0.34645 -0.269149 -0.165968 -0.319043 -0.445401
1347 3 -4.67518 26.1195 27.3987 -0.681548 -0.856022 3.32891 -0.0519136 0.13798 0.207889
1348 3 -2.89629 24.7846 25.0226 -1.24076 -1.49552 0.0366769 -0.232124 0.149346 0.0206843
1349 1 -5.60189 29.1271 19.6338 0.255369 -1.31827 -0.884922 -0.915941 0.20618 -0.00920614
1350 3 -4.65602 28.62 18.0336 2.61196 -0.0846863 0.676815 -0.226677 -0.178357 -0.151268
1351 1 -4.57557 27.9706 28.428 -0.369332 0.0864225 -0.377798 -0.0768289 0.186982 0.0901311
1352 3 -5.9534 28.6766 27.3432 0.103635 3.9381 2.88544 -0.0693279 0.662445 0.517179
1353 3 -4.11926 27.3887 25.1263 2.50752 -1.63878 -3.25369 -0.0856632 0.171075 0.169126
1354 1 -6.63128 26.9192 34.8276 0.127157 0.360495 -0.28798 0.0299479 -0.158832 -0.226491
1355 3 -6.54118 28.8276 33.603 0.764792 -0.83799 0.0868568 0.0605616 -0.147163 -0.127812
1356 1 -7.99771 31.6645 19.5691 0.27727 0.574847 -0.549216 -0.17133 0.145752 0.345421
1357 3 -6.58373 30.7325 18.524 1.28293 0.486233 2.78683 -0.104987 0.439585 0.61727
1358 1 -6.17718 30.5907 28.231 0.101866 -0.24277 0.092023 0.119479 -0.218512 -0.103475
1359 3 -7.89799 31.3207 27.1882 0.124852 0.336056 0.180683 -0.00901233 0.119078 0.0551196
1360 1 -7.9106 29.5799 34.7945 -0.216447 0.213945 1.44391 0.151067 -0.0591905 0.0466297
1361 2 -6.00634 32.2506 30.293 3.66757 0.68739 -1.43592 0.157568 0.106844 -0.0800452
1362 1 -6.43133 30.7672 32.4136 0.606214 -0.559412 0.273483 -0.0810317 0.0665837 -0.124866
1363 1 12.2249 1.80823 19.0822 -0.586806 -0.640221 2.73368 -0.0334872 0.137044 1.28938
1364 3 13.7589 0.776255 18.1195 -0.750252 -4.01098 1.85894 -0.687749 -0.37833 0.489105
1365 1 10.582 3.07522 26.3186 0.0892762 -0.715741 -0.433942 0.0585435 -0.0380285 -0.0170051
1366 3 12.0936 1.73733 26.3166 -0.979847 1.65029 -0.000859633 -0.181476 0.311915 0.0550924
1367 1 12.7225 0.00425198 34.7859 0.182609 0.0729907 -0.015186 0.0431436 0.0128662 -0.140113
1368 1 14.25 0.851755 32.3647 -0.28225 -0.00634661 0.293629 0.0327166 -0.0455807 -0.0935162
1369 3 13.0427 1.8912 33.913 -0.69141 1.43139 0.445545 0.399439 -0.192178 -0.316365
1370 1 10.9099 4.7534 24.0907 0.175658 0.863281 0.877044 -0.199583 -0.0608327 0.0174535
1371 1 9.32428 5.84931 26.373 0.730042 -0.794765 0.757586 0.0486023 -0.232977 0.0638791
1372 3 10.5768 4.88145 27.5522 0.297435 -2.07776 0.566422 0.122436 -0.160396 -0.0197304
1373 3 12.4076 3.92857 25.6243 -0.248433 -0.091355 0.251461 -0.0303486 0.0238187 0.0391031
1374 1 11.7465 3.34836 34.7223 -0.0181573 -0.26788 -0.172482 0.469575 0.307797 -0.297594
1375 2 12.3537 5.63122 30.4281 1.03712 0.0369031 -0.143221 0.0117024 -0.132497 -0.000589811
1376 3 10.5635 4.42343 33.5128 -0.0558597 0.0155228 -0.0269852 0.0115658 -0.0612222 -0.0438554
1377 2 9.34704 5.51256 21.9521 -0.457399 0.250882 -0.0510348 -0.114416 -0.102068 -0.0148053
1378 1 9.21583 7.22463 20.2427 -0.437394 -0.37075 -1.03245 -0.0255299 -0.481901 -0.26961
1379 1 9.54317 7.38188 23.6971 -1.17527 0.395541 0.109675 -0.0183035 -0.313383 -0.0551853
1380 1 10.362 6.42701 29.1314 0.702743 0.365273 -0.379348 0.263692 -0.238175 0.251625
1381 3 10.1879 7.69049 27.6172 -1.04866 1.02903 -1.27703 0.0420138 -0.115652 -0.0358313
1382 3 10.9475 6.52498 25.1902 0.258613 1.48497 -0.460088 -0.0186263 -0.0713682 0.00960331
1383 1 9.35048 5.43453 34.7812 -0.0189203 0.190989 0.1051 -0.198761 0.216283 -0.186599
1384 2 11.4141 8.40677 30.5115 -0.154054 -0.16526 -0.463482 0.0351639 -0.0179961 -0.0161593
1385 1 10.9241 6.23334 32.4627 -0.780873 1.34961 -1.75874 -0.0414574 -0.0714056 0.166193
1386 3 9.50742 7.33331 33.7319 0.334477 1.64212 0.203511 -0.0357401 -0.372324 -0.142803
1387 2 8.02517 8.53875 21.8393 1.22251 0.880396 -0.0224274 0.129762 0.0350772 -0.0797481
1388 1 7.50538 9.82453 19.6339 -1.11243 -0.0571951 -0.874329 -0.0158923 -0.504764 -0.299868
1389 3 9.34562 8.64613 18.8854 3.82909 -0.679268 -3.58739 -0.157849 -0.353113 0.446586
1390 1 7.80988 9.98042 23.8953 -0.0401057 0.75589 -0.125245 -0.122211 -0.0790194 -0.178393
1391 1 9.13902 8.86642 29.478 -2.22094 -1.43493 -1.00019 -0.166881 -0.269899 0.448656
1392 1 6.33432 10.9157 26.6732 2.82002 -1.41999 2.57278 -0.728564 0.342575 -0.629235
1393 3 7.91233 9.4474 27.7635 0.317156 -0.29775 0.0785686 0.310071 -0.0477565 -0.321152
1394 3 9.47105 9.20665 24.6106 -0.908968 2.43238 0.441907 -0.143932 0.28485 0.0220472
1395 1 7.83858 8.09654 34.8961 -0.377679 0.0399851 0.739613 -0.208987 0.0561849 0.00368069
1396 2 10.0229 11.0121 30.7515 -0.537203 -0.164286 -0.492573 0.123987 -0.181505 0.0147978
1397 1 9.48104 9.22394 32.5974 0.52686 1.30074 0.991024 0.0717211 -0.114228 -0.0779224
1398 3 8.10652 10.0279 33.9587 -0.974124 0.987488 0.841254 -0.132281 -0.0657657 -0.0800035
1399 2 6.66994 11.0461 21.8415 -0.0507107 -0.690186 0.788224 0.12597 0.161604 0.216834
1400 1 6.63038 12.4472 19.5006 -0.408473 -0.981442 -0.592073 0.0834366 0.0111723 -0.175296
1401 3 7.88529 11.542 18.4167 1.71193 -2.90899 -3.76185 0.47638 0.238419 0.0595572
1402 1 6.35377 12.4787 23.906 0.158683 0.626282 -0.965248 -0.219441 -0.243057 0.283486
1403 1 8.42581 11.2157 28.7647 -0.792607 -1.16392 0.254715 0.460848 -0.110138 -0.377328
1404 3 7.8581 11.5573 25.2656 -0.438723 -0.184622 0.137679 -0.180633 -0.392671 -0.0718544
1405 1 6.25279 10.6171 34.8286 -4.54055 -0.617049 -1.5507 -0.0758822 -0.0173292 -0.0279646
1406 2 7.80267 12.6926 30.5889 -1.68398 1.7816 0.857971 0.156531 -0.191845 -0.0988084
1407 1 8.06519 11.5622 32.7048 -0.678635 0.1523 4.30121 -0.0632452 -0.817449 0.298103
1408 3 6.26934 11.6808 33.1807 -0.196661 -0.922606 -0.552396 -0.14573 -0.208162 0.0212977
1409 1 4.27162 14.8719 20.0064 -1.33928 -4.46201 -1.65023 0.39639 -0.614564 -0.220817
1410 3 5.82707 14.2528 18.9126 0.992607 -0.49328 0.107697 0.371122 1.29653 -0.0142672
1411 2 6.41656 15.6079 31.1194 -0.345942 -3.24971 -1.89937 -0.0860421 -0.265722 1.25657
1412 1 6.33616 13.6207 32.917 1.79776 -3.47223 1.04915 0.526816 -0.875653 0.0990875
1413 2 3.15983 15.5024 22.3063 -1.62358 -5.16526 -0.695353 0.48968 0.533812 0.304252
1414 1 2.20943 17.8848 19.6622 1.96077 2.94211 2.11721 0.969409 1.91481 1.29561
1415 3 4.00148 16.7926 18.6455 -5.34091 -3.40774 -0.138027 0.185953 0.259546 1.00034
1416 1 2.61617 18.0593 24.0562 -1.81773 0.321985 -4.90259 0.229314 0.39218 -0.649945
1417 2 3.28126 18.4296 31.0366 -0.55977 4.46892 -9.71025 1.25548 -0.996315 1.82055
1418 1 4.63453 15.4431 33.0583 -1.14186 1.84901 1.37823 -1.60166 -0.478722 -0.191971
1419 2 0.942173 18.8609 21.687 2.77181 5.00949 -1.02122 -0.866181 0.148055 -0.113824
1420 1 0.555632 20.3192 23.7162 -0.170163 -0.070717 -0.0162727 -0.165234 0.400426 -0.423069
1421 3 2.01238 20.0228 25.3424 4.02198 5.57642 -1.42202 0.0386875 0.480341 -0.841247
1422 2 2.07292 20.7627 30.8391 -1.38215 13.7514 -1.08544 -3.65155 0.755518 3.1501
1423 1 2.40379 19.2724 33.2742 2.43218 -0.917182 2.84261 1.80487 0.330283 -0.376853
1424 3 1.23691 20.8692 33.8907 9.88991 10.6167 -8.39753 1.57513 -0.0274999 -0.583723
1425 2 -0.796543 21.2973 21.6378 -2.08512 1.42727 1.64402 -0.540816 -0.255495 -0.117568
1426 1 -0.486316 23.0188 19.7156 -0.450251 -0.481328 -0.794516 -0.676157 -1.14336 0.0129589
1427 3 1.13072 22.2403 18.3103 14.9624 -5.02973 -2.70469 1.54099 0.764959 0.355469
1428 1 -0.120013 23.1066 23.1214 0.503375 1.96907 4.43345 0.73235 -1.04773 2.12169
1429 1 1.05854 22.1084 29.1414 -0.939751 1.42919 -0.0145882 0.591427 -0.442992 -0.918918
1430 1 -0.296239 21.7056 35.1101 2.6618 1.31297 0.0788228 -0.587886 0.725611 0.189192
1431 2 0.346421 24.437 30.1026 -3.85628 2.55667 1.14866 0.675429 1.39306 -1.09932
1432 1 0.435079 22.7174 32.4627 -0.358992 0.0147164 -1.80223 1.0963 -0.312425 0.36297
1433 3 -0.461244 23.4966 33.9978 1.49838 0.364533 -0.729116 -0.621889 -0.227731 -0.144362
1434 2 -2.10911 23.8567 21.6333 1.6591 3.45969 0.742448 -0.466044 -0.152135 -0.0399078
1435 1 -1.37212 25.4184 23.7236 1.23783 0.0452086 1.26306 -0.0701255 -0.0891672 0.76604
1436 1 -2.75126 26.669 26.3437 -0.0716136 -1.57459 2.19347 -0.332858 0.150898 -0.559168
1437 1 -1.23639 25.3388 33.1586 -1.08885 -2.12761 0.854704 -0.30042 -0.463746 0.632151
1438 2 -4.19052 27.8389 21.5397 -0.579149 0.251527 -1.3702 0.112732 -0.048068 0.0382003
1439 1 -2.7634 28.3176 23.6696 2.3327 0.441561 -0.531617 -0.228612 -0.392494 0.0117595
1440 1 -4.63294 29.439 25.8507 0.111995 -0.452131 -0.402726 -0.0917559 -0.128757 -0.0367129
1441 3 -3.23933 28.736 27.0129 -1.03334 -2.80775 -1.36646 -0.198349 0.209018 -0.125095
1442 3 -0.994354 27.5911 25.0869 0.435055 1.76174 3.39775 -0.252192 0.134721 -0.040656
1443 3 -2.99612 28.848 33.4431 -0.519787 -0.120648 0.24032 0.106931 0.0207635 -0.100572
1444 1 -4.72424 31.5961 19.5754 -0.864796 -0.18783 -0.921436 0.462192 0.187363 -0.502328
1445 3 -3.03353 30.8262 18.4858 0.0234394 -2.671 1.36978 -0.948604 1.00673 0.755412
1446 1 -2.68583 30.2941 28.2748 0.297729 0.462727 -0.691602 0.0329528 -0.248693 0.108874
1447 3 -4.33076 30.8644 27.3625 1.04445 0.704857 -3.21288 0.125237 0.0885515 -0.0924018
1448 3 -3.10654 30.2638 24.5901 -0.105739 2.55366 1.02616 0.0266441 0.542108 -0.0911281
1449 1 -4.70456 29.3645 34.625 0.0294042 -0.184687 -0.0823751 0.00803595 -0.00445932 -0.186007
1450 2 -2.79479 31.9723 30.3293 -1.58971 0.402799 -0.138145 0.124374 -0.0733004 -0.0661349
1451 1 -3.18611 30.5623 32.3295 -0.0880409 -0.664118 0.328868 0.0322658 0.342564 -0.140375
1452 3 -4.73614 31.2432 33.4684 0.469634 1.59615 -1.3449 0.000253407 0.0182979 -0.090666
1453 2 15.4577 0.237085 21.6141 0.281663 -0.134501 0.407751 0.00545201 0.108175 0.129519
1454 1 15.3772 1.81271 19.6506 0.234481 -0.694413 4.67842 -0.0836441 0.37636 0.198023
1455 3 16.9115 1.10058 18.6918 3.52905 -5.3346 -0.192367 0.156269 -0.872567 -0.187893
1456 1 16.0155 2.02206 23.9223 -1.05181 -2.79632 -1.26199 -0.112443 0.311355 -0.247416
1457 1 17.3541 0.783289 28.4355 0.15343 0.225187 1.31725 -0.0800507 0.014894 -0.162825
1458 3 16.7709 0.392588 24.6105 -2.68763 -0.753147 0.390625 0.119897 -0.229035 0.055203
1459 1 17.1524 0.863994 32.4013 0.718236 0.332822 0.169987 -0.192893 -0.138105 0.00281547
1460 2 13.8979 2.41152 22.7242 -3.15642 -0.617879 2.03132 -0.520752 0.124946 0.509128
1461 3 15.3309 3.63998 18.5879 2.49555 1.867 -1.69864 0.236643 0.0506554 -0.280518
1462 1 13.9746 4.53162 24.2354 -1.42982 1.38008 -2.40306 0.181761 0.0848194 0.291771
1463 1 12.3557 5.64116 26.5807 0.0426715 0.110676 -0.425726 0.0630982 0.235177 0.0958622
1464 3 15.7169 3.81321 25.1672 3.7274 -5.31039 -7.99876 0.0225893 -0.0595714 -0.164547
1465 2 12.525 4.75421 22.1566 -2.44497 -4.91768 -0.870137 -0.174139 -0.0926196 -0.0295909
1466 1 12.5688 7.31953 23.7913 0.903828 -0.623176 0.121826 -0.000739942 0.0388299 0.0426517
1467 3 13.9602 6.44688 25.3353 0.111473 -0.414432 0.990077 -0.33073 0.157295 -0.0748048
1468 2 14.4411 7.74582 30.2871 0.13078 0.0865071 0.178043 -0.0524597 0.0689294 -0.0195157
1469 1 13.7058 6.71319 32.4361 -0.482739 -0.199813 0.683993 -0.196852 0.0558861 0.121228
1470 3 12.3877 7.3914 33.8468 -0.133068 -0.355273 -0.270904 0.0183444 -0.0344969 0.0203107
1471 2 11.0862 8.3072 21.7897 2.92619 -0.955241 -0.125637 -0.36232 0.0355354 -0.0348359
1472 1 10.8402 9.85907 19.632 -1.28487 0.279989 -0.654512 0.0252051 -0.0454372 -0.181852
1473 1 11.1401 9.96703 23.8445 -0.864354 1.48232 -0.0135987 -0.108075 0.042785 0.0225771
1474 1 9.3429 10.2854 26.3909 0.540702 -0.158024 0.0559887 -0.175611 7.15434e-05 -0.205901
1475 3 12.8391 9.25155 24.7233 -0.311012 0.0804145 -0.0702709 -0.13916 -0.0252417 -0.0398006
1476 1 10.773 7.95194 35.1293 -0.447938 -0.0276754 -0.30835 -0.281002 -0.0166567 -0.183947
1477 1 12.2478 9.06057 32.9055 -1.36679 -0.0621676 -1.36799 -0.46525 0.091883 -0.440795
1478 3 10.809 9.70662 34.1655 0.564209 0.958874 0.435394 0.202644 -0.0713997 0.067066
1479 3 10.4627 11.6246 18.6945 1.20874 0.736053 -2.4686 -0.054664 -0.11562 -0.302023
1480 1 9.42309 12.1476 23.9862 -0.361202 -0.522457 -0.616314 -0.143638 -0.0513072 -0.449441
1481 1 8.08776 13.3104 26.2099 2.26773 4.18764 0.831241 -0.8 -0.859014 0.12052
1482 3 9.32312 12.2329 27.1366 1.14919 -1.81757 -1.37378 -0.15156 -0.422964 0.19951
1483 3 11.0581 11.0063 25.5797 2.16204 -1.97618 2.00514 0.110492 -0.697009 0.65728
1484 1 9.3923 10.6275 35.3805 -0.168783 0.795849 0.825642 -0.0368993 -0.0370887 -0.18794
1485 2 8.10972 13.0846 21.6359 -1.25853 -1.47897 -0.86794 -0.0955441 0.242224 -0.253637
1486 1 7.60554 14.9639 20.0146 -1.9769 -0.901176 -1.97677 0.805388 1.40456 -0.300195
1487 1 7.77138 14.7308 23.4122 1.25498 -3.7361 0.0396821 0.511493 -0.163898 -0.585105
1488 1 9.28889 13.6873 28.5644 0.898706 0.100969 -0.372704 0.79654 0.910607 -0.158515
1489 3 9.52449 13.9655 24.8873 0.524751 0.429771 0.706204 -0.368283 0.0769496 0.2811
1490 2 8.99436 15.1565 30.5937 -2.16009 -1.33689 -3.60378 -0.168306 2.0964 0.123919
1491 2 6.26912 15.9088 21.8029 -0.394125 -3.42237 -0.0304441 -1.25846 0.882948 0.812819
1492 1 4.46318 17.3354 20.7622 1.76994 -2.56063 2.43382 1.61199 0.375614 2.93946
1493 3 11.859 18.3967 15.4114 -15.1474 -20.2924 2.8902 0.475839 0.46536 3.73557
1494 1 8.38223 17.1091 22.2372 13.4721 -8.80793 -1.89988 0.949689 3.16755 0.896284
1495 2 5.56079 21.1214 23.3955 0.468803 10.8134 25.1022 -3.9431 -6.41336 -3.52227
1496 1 8.1213 15.8581 32.9877 -0.572076 2.55041 -3.52815 1.54507 3.7499 -0.716856
1497 3 4.29493 16.197 35.1605 12.3324 -16.1284 6.32124 -1.44777 -0.358379 -1.64797
1498 2 4.28729 19.3961 22.1301 0.592061 15.7208 -10.1947 5.9637 1.15771 2.80385
1499 1 2.50903 20.8952 21.0743 -8.02811 -1.18901 -3.86074 -2.44217 -0.617762 -1.73623
1500 1 14.7068 23.1827 17.6892 4.16984 8.79322 4.68032 -2.04946 0.402752 -0.9401
1501 1 2.62574 21.8415 24.8897 -11.7074 6.48707 6.03968 3.20777 -5.24257 0.851138
1502 3 2.69581 23.0163 26.4276 35.7997 10.2653 -34.3363 2.58876 3.69009 0.747503
1503 3 5.80017 20.5526 21.3709 41.9082 -4.1922 26.5032 -2.20261 -2.44564 7.71202
1504 2 4.85341 17.7558 25.337 -2.84709 -2.51682 16.0617 -6.14811 -5.28803 4.85477
1505 1 3.79295 17.3123 29.0018 2.39024 -7.07591 1.21247 -1.83672 -2.96554 1.2998
1506 1 5.38347 22.6214 35.2204 -16.4844 -8.22991 -1.92026 2.55392 -0.592966 2.38346
1507 1 0.831279 23.9683 26.5338 6.58908 -3.4003 -1.58541 -1.11639 1.51083 0.471716
1508 3 1.5785 23.854 28.5993 -7.66831 7.89157 -0.394196 -0.159712 2.42958 -0.0421044
1509 3 1.83472 22.103 23.205 6.16482 7.72577 -2.00952 -2.44523 1.44515 -0.980828
1510 2 0.39378 25.094 21.5968 -3.72503 1.48757 2.98311 1.64984 -0.691624 -1.51085
1511 1 1.26652 26.215 19.1659 -1.95901 -1.13263 -9.13929 -0.10745 0.285709 -1.30263
1512 3 3.33196 27.1626 18.7031 -17.7174 -1.65964 14.1626 -0.184046 1.14437 0.820451
1513 1 0.90397 26.585 24.3235 -0.54213 4.52566 -0.319331 -1.06653 -0.390659 0.0300377
1514 1 3.0219 25.2889 29.4422 -11.1717 8.94358 -0.746084 -3.82072 -2.46176 1.066
1515 3 1.47823 25.7756 26.0088 -5.92959 -3.76789 -1.89978 -1.55197 1.27387 0.186462
1516 1 0.745582 24.6016 35.2669 0.836024 -2.17408 2.14744 -0.300629 1.53348 -1.17637
1517 2 1.81183 27.1828 30.3343 5.71098 -3.66082 0.32241 0.414856 -0.228386 0.966561
1518 1 1.5537 25.1683 32.1703 3.36755 0.432099 -0.080885 1.58771 -0.162079 2.62317
1519 3 0.581444 26.2623 33.6322 2.13207 -4.12763 1.21666 0.632001 -0.0888521 -0.15837
1520 2 0.367367 27.5853 21.6976 6.42821 -8.91529 -1.2131 1.38585 -0.306358 1.00494
1521 1 0.280666 29.0032 19.4702 0.263177 1.41517 -0.0340001 -0.244469 0.18429 -0.0214321
1522 1 -0.181188 29.0975 23.4081 -5.97127 2.90871 2.10787 -1.35086 0.388675 -0.386955
1523 1 -1.54462 29.7028 25.8732 -2.75986 -0.193517 -0.681095 -0.0830406 0.170023 -0.0587336
1524 3 1.71681 28.3045 23.721 4.395 -0.13463 2.22984 -0.390245 -0.522851 -1.35316
1525 1 0.730965 28.2315 32.5604 -0.389229 -2.60389 0.629316 1.50074 -0.202617 -0.514088
1526 3 -0.248708 29.4987 33.769 5.42492 4.76324 -0.409057 0.0258016 0.323591 -0.544467
1527 2 -1.73753 28.9881 21.3483 0.333219 0.757479 -0.968646 0.555846 -0.243244 -0.109339
1528 1 -1.71586 31.2207 19.8825 -0.642655 0.868193 -1.9816 -0.0632411 0.211573 0.0821745
1529 3 -0.172976 30.7304 18.736 2.41316 -0.968696 1.25404 0.0595416 -0.0523706 -0.246449
1530 1 -1.67576 31.2105 23.242 -0.0298534 -2.526 2.56289 -0.728368 1.13378 -0.381654
1531 1 -3.33866 32.0094 25.9594 0.515741 -0.507591 -0.234696 -0.0542019 -0.245263 -0.0485401
1532 3 -1.69036 31.6446 26.9542 1.84161 -1.92652 -4.29446 0.0656764 -0.4726 -0.56996
1533 3 -0.251223 30.877 24.7069 0.963597 1.17054 -1.67259 -0.17315 0.0655587 0.241783
1534 2 0.0672742 32.0319 30.2852 -0.987236 -2.51074 -0.798282 -0.260222 -0.0199743 -0.124436
1535 1 0.0800518 30.9954 32.546 -1.07624 2.9062 1.91014 0.145606 0.240875 0.0478901
1536 3 -1.78349 31.3494 33.3824 -0.682705 -0.512105 -0.296578 -0.300691 -0.163367 -0.04229
1537 1 17.1324 3.66604 26.4158 0.307279 0.346432 -0.59935 0.177508 -0.142469 -0.0736131
1538 3 18.1664 2.25263 27.0666 -0.871189 -0.695975 0.371082 -0.0490542 0.0609571 0.00735838
1539 3 20.0158 1.36019 25.0221 2.49426 -1.14806 4.04014 -0.468827 0.188867 -0.438126
1540 2 18.1796 2.35185 30.4862 0.179648 -0.545537 -0.368152 -0.0177191 -0.0096239 0.063797
1541 1 19.7471 1.34734 33.4361 -0.343148 -1.70444 -0.00303543 0.0840637 -0.118754 0.160318
1542 3 17.9845 2.05936 34.1592 0.255255 -0.945697 -0.556763 -0.0654501 -0.0948728 0.0501939
1543 2 16.4587 2.96364 21.6712 -0.257279 0.365531 0.828306 -0.0656965 0.0331582 0.157859
1544 1 16.6194 4.85778 19.9541 -2.34167 -1.48993 0.420691 -0.0145343 0.275801 -0.208611
1545 1 17.1023 4.71423 23.7328 0.643255 -0.012334 0.5276 -0.0976565 0.0328602 -0.122446
1546 1 18.6914 3.78295 28.4899 -1.06642 0.680475 0.386386 -0.274619 0.0347789 0.505412
1547 1 15.7431 5.99316 26.3154 -0.0587949 -0.0951299 -0.230119 0.0458366 -0.00331929 0.102579
1548 3 16.4123 4.73212 27.9095 -0.490661 -2.3934 3.50736 -0.757388 0.972819 0.577195
1549 3 18.6535 4.49118 25.2626 0.775843 -0.706792 0.332632 -0.0702123 -0.0442745 0.119888
1550 2 19.0649 5.14057 30.6351 0.594248 -0.3776 0.0905519 -0.0843049 0.225352 0.229004
1551 1 17.9993 3.70279 32.7804 -1.91784 -0.983852 0.818482 -0.437561 -0.0493162 0.113478
1552 3 16.5207 4.83217 33.8439 -0.140209 0.253304 0.385585 -0.309004 0.0387891 0.207892
1553 2 15.2889 5.60244 21.9861 -1.4744 0.252921 -0.168201 -0.145578 0.0136607 -0.0442016
1554 3 16.6137 6.38231 18.5119 7.38635 6.43403 -2.20678 0.445157 0.730456 -0.667491
1555 1 15.442 7.4515 23.9115 -0.821206 -0.00252339 -0.455581 -0.0492075 0.0300698 -0.00876896
1556 1 17.4007 6.16342 28.9002 1.13399 -1.55563 0.120637 0.152545 0.0214515 0.216356
1557 3 16.9496 7.50718 27.2197 -2.47818 0.253829 0.18641 -0.0596877 0.0544511 -0.101255
1558 3 17.0557 6.62459 24.9542 -0.0586711 -0.0265078 -0.378091 0.0443661 0.158888 -0.158857
1559 2 17.6135 8.17274 30.4362 -3.64824 -0.22441 0.505395 0.138529 -0.243119 0.0867124
1560 1 16.8751 6.15632 32.1752 -0.0112197 0.352618 0.0761058 -0.0259874 0.0713741 0.0696298
1561 3 15.4727 6.93113 33.6913 4.7716 1.68412 1.80629 -0.356731 -0.272958 -0.10686
1562 2 14.3374 8.37305 21.5828 4.2623 4.30316 3.04363 -0.386199 -0.0504653 0.077696
1563 1 13.5715 10.282 19.9811 0.124689 0.759469 -0.52415 -0.140874 -0.189938 -0.10214
1564 1 13.8226 10.2721 23.2723 0.948314 -1.07954 0.791877 0.104264 0.230814 -0.0203809
1565 1 15.9828 8.63337 28.4259 0.437447 -0.647864 -0.875228 0.0529639 -0.0664178 -0.0636702
1566 3 15.1293 9.43632 24.5498 -0.225658 0.747919 -0.145645 -0.0385006 0.173042 0.00612757
1567 1 14.1137 7.72247 35.0048 -0.143519 -0.284264 -0.18228 -0.0692773 -0.426221 0.0720481
1568 2 15.7843 10.5271 30.5755 0.738301 -0.875809 -0.447381 0.132309 -0.291302 -0.0679894
1569 1 15.562 8.82562 32.5395 1.08788 1.94058 -0.643619 0.446278 0.291528 -0.018527
1570 3 13.9631 9.84313 33.7617 0.0540696 -0.00712064 -0.166069 0.0570649 -0.0269573 0.0282917
1571 3 13.7091 11.2078 18.1747 1.05244 -1.97425 -1.8235 0.491853 -0.256888 0.0685812
1572 1 11.0546 12.9187 26.2287 0.896576 1.07055 -0.975681 -0.227786 0.10965 -0.385339
1573 1 12.1281 11.3491 34.3498 -0.343801 1.20181 0.911828 -0.246013 -0.765505 -0.714374
1574 1 14.3916 11.6367 32.6728 -2.46733 -2.27836 -1.96425 -0.374708 -0.462949 -0.0423485
1575 3 12.8053 14.2121 18.6745 -0.199228 4.04941 -1.86413 0.304785 -0.608035 0.0676047
1576 1 11.1074 14.4002 23.6942 0.368622 -0.884933 -2.46691 0.252799 0.396555 -0.0113749
1577 1 12.2157 13.8661 29.2185 -0.642597 0.00643762 -0.983879 0.654112 -0.220479 -0.0376064
1578 3 11.1189 14.4895 27.4664 2.17673 0.183778 -0.164791 -0.84112 0.380681 -0.0957457
1579 3 12.746 13.4781 25.2205 0.455263 0.0385639 -1.55845 -0.137364 0.189724 -0.161448
1580 2 12.6721 15.3628 31.1273 -2.75942 2.15958 -1.43104 -1.19001 -5.23939 2.28584
1581 2 9.75084 15.2801 21.3581 3.79394 3.19168 7.66912 -0.57898 -1.52911 -0.343916
1582 1 10.3226 16.8954 19.4513 4.29434 -11.4241 6.72664 -7.23909 5.34202 -1.13084
1583 1 9.80099 20.9686 20.1784 3.47635 -3.13628 -3.38981 -1.98519 -1.13671 -3.7072
1584 3 11.4135 15.9795 24.7323 -1.93101 2.25352 6.30256 1.79331 -0.510274 2.98448
1585 2 5.17638 15.8593 27.0148 14.4171 -2.96162 -6.13291 -0.237126 1.034 -2.10265
1586 1 10.7982 14.7455 32.3709 -4.2849 1.75147 -0.282589 0.568223 -3.35526 0.953573
1587 3 5.61886 18.9255 23.9538 -3.1623 5.40413 12.8362 2.02426 7.28161 -5.83307
1588 2 10.6203 17.4702 16.7695 -0.885892 9.15174 2.02074 3.22455 -1.48035 1.07648
1589 1 10.8984 17.3576 14.0907 4.31763 -3.75927 2.08975 -2.74299 -0.671027 0.76073
1590 1 5.66069 24.4651 19.431 -5.78326 0.68472 2.54183 0.978751 -4.99501 0.333642
1591 1 2.6172 24.0007 22.6087 8.90896 -1.28054 11.3142 -2.36584 1.33492 1.62697
1592 1 6.27726 16.2024 35.7758 2.0377 -6.10218 -6.67723 -1.34957 -0.90113 -1.78905
1593 2 9.37189 19.088 18.3478 10.2675 -6.08617 -13.4483 -5.33326 -0.769554 6.59755
1594 1 9.83524 15.5686 26.0516 2.35535 0.501266 -1.74513 -1.02091 -1.35635 -0.845479
1595 3 4.96292 23.0276 31.0551 36.46 3.7225 -44.142 2.88669 -8.95028 2.12881
1596 2 7.40403 22.1293 15.6705 -5.62529 -2.95418 10.6242 5.44838 -2.42973 2.42173
1597 1 2.25588 29.1336 22.01 -12.0161 0.535171 3.18259 -0.116017 1.78849 -1.19705
1598 1 4.81464 30.4386 22.3002 2.33126 4.58296 0.4809 0.653539 -2.82872 -1.27238
1599 1 3.16162 25.1986 25.2408 6.35267 -16.1625 9.74492 2.88391 3.27578 -2.69901
1600 3 2.33704 25.201 20.7787 -9.63937 8.01111 -18.1333 -2.39471 1.48005 2.19154
1601 3 5.13721 24.8516 21.3415 -21.461 24.7229 3.65748 1.98209 -2.97276 0.0797776
1602 1 5.68317 20.9419 39.4737 -5.74589 2.37729 -9.63636 -1.16107 -1.15226 -0.239848
1603 1 5.30959 26.6011 18.3256 -5.54728 -5.42513 1.31175 0.936611 -1.05123 3.00364
1604 3 5.45267 26.255 16.4053 -8.00664 -8.6264 2.2524 0.87576 -1.33222 0.659496
1605 1 3.858 27.47 23.949 4.45828 0.326645 -7.19082 0.569411 -2.35088 1.20925
1606 1 0.604815 27.3595 26.8692 -0.367646 1.2686 -2.32426 1.21925 0.34069 0.0677375
1607 3 2.34956 27.1333 28.4068 -5.5361 9.03173 -1.17877 -0.381154 -0.817055 -2.67783
1608 2 9.73978 25.4301 18.7445 9.96861 -6.81049 -7.86545 1.0811 -2.6021 -1.06567
1609 1 2.68929 29.1292 18.6337 -5.43213 -6.27278 -5.87842 2.04265 -0.481328 -0.336254
1610 3 6.96251 27.8747 18.7073 16.6853 0.408526 -5.82191 -3.06178 1.81078 2.63376
1611 1 2.8809 29.0234 28.9268 -0.381996 -1.83695 0.12668 -0.615053 -1.3703 -0.790952
1612 3 1.78751 29.1822 27.1683 -3.9326 -1.93095 0.434468 -0.186564 -0.213409 0.160033
1613 1 1.86638 27.3325 34.8638 -3.2532 1.60003 -3.50933 0.882189 0.217814 0.256074
1614 2 3.07806 31.1749 30.117 -5.18806 -0.466417 -6.2362 0.145622 -0.295991 2.22443
1615 1 4.40365 26.8029 27.311 -7.38363 -13.3616 1.55827 -4.25828 -4.29396 -2.1322
1616 3 2.38484 28.8826 33.6537 -2.47108 1.50225 2.02557 -3.00484 -0.312055 -1.05961
1617 3 4.0507 30.4516 18.2928 -1.54982 -2.40651 4.60272 2.08993 -0.118801 0.613602
1618 1 18.2836 0.503785 25.7876 0.185712 1.10687 -0.0911498 0.047511 -0.00670134 -0.0344542
1619 3 2.18386 30.9185 25.4364 -3.11246 0.0988275 -2.87763 -1.46479 0.618206 -0.631812
1620 1 1.35913 30.0489 34.9826 -0.300098 3.46054 0.329968 -0.453568 0.861219 -0.0977624
1621 1 3.04805 30.6738 32.7682 -7.25747 -3.27053 -26.1061 -1.16479 4.56 -2.98275
1622 3 1.65148 31.6721 33.725 6.71437 -3.41076 -0.377172 -1.21241 0.852893 0.041187
1623 2 2.45317 31.6625 21.6149 -1.11078 -1.96882 0.235725 -0.145505 0.226915 -0.142222
1624 3 21.9969 1.32091 17.8989 -2.03996 -6.09147 -5.62239 -3.38339 4.50058 -1.71168
1625 1 21.6531 2.22313 24.1373 0.739217 -0.292151 -0.535635 0.550335 0.513885 -0.234458
1626 1 19.8922 3.03701 26.1418 0.703629 -4.25129 1.55914 0.126923 -0.332401 -1.20559
1627 3 23.1501 1.21216 25.1893 1.06249 -1.32941 0.639664 -0.681474 0.7311 -0.517463
1628 1 21.425 0.149558 35.1451 3.24158 -1.87763 -2.97798 -0.547118 0.679174 -0.140108
1629 3 21.0213 1.89085 34.9394 2.61802 -0.263108 -1.70689 0.203451 -0.428806 -0.151326
1630 3 22.1176 3.63214 18.7641 0.566562 2.81741 0.178824 -0.474061 0.188162 -0.393126
1631 1 19.9205 4.29584 23.7412 -1.64693 -3.20411 5.59811 0.215271 0.599692 -1.35461
1632 3 21.6543 3.97681 24.9741 -1.31956 0.388992 0.605285 0.00262565 0.0866582 -0.0263452
1633 1 19.8805 3.31493 35.1738 0.792597 -0.133895 -2.97328 -0.109767 0.444915 0.0421392
1634 2 21.786 4.95934 30.8291 0.491814 -0.0578673 0.0651173 0.0977497 0.0654877 0.098894
1635 1 21.7106 4.13531 33.2324 0.532807 1.16303 0.545829 0.27094 -0.406386 0.467891
1636 3 19.6476 4.63044 33.7414 0.342679 -0.948772 -0.99768 -0.556152 -0.487259 -0.155891
1637 2 18.4372 5.8683 21.6301 -0.0739603 -0.481545 0.329055 0.137131 0.00682091 0.034695
1638 1 18.6285 7.28157 19.2439 0.187228 0.167202 0.0372278 0.130604 -0.331491 -0.354463
1639 3 19.6599 5.43977 18.5499 2.62819 0.298998 -0.532071 -0.581896 -0.181305 -0.05061
1640 1 18.5462 7.32723 23.709 -0.281347 1.40801 -0.303863 0.0959202 -0.314335 0.197654
1641 1 18.1604 5.56518 35.0181 -0.907223 0.254313 -0.906791 0.383791 -0.189962 0.159026
1642 2 20.8129 7.30364 30.0081 -0.38249 -0.489235 0.772162 -0.113948 0.0539307 -0.196778
1643 1 20.2188 6.22188 32.5373 0.272244 0.901378 -0.320933 0.119644 0.11041 -0.147787
1644 2 18.2558 8.58624 21.484 6.13946 -2.54092 -0.661791 0.590974 -0.0761219 0.126022
1645 1 16.7802 10.0071 23.2903 -0.306587 0.05989 1.36461 -0.0580588 -0.100311 -0.199794
1646 1 15.5297 10.8475 25.9531 -0.742766 -0.980993 -0.0760347 -0.0767492 -0.221638 0.0555586
1647 3 16.7192 10.0522 27.1046 -0.0521909 0.254685 0.20023 -0.0467305 -0.0563947 -0.092001
1648 1 16.9052 7.91813 34.9883 -0.410511 0.368021 0.119354 0.124672 -0.210207 -0.338808
1649 2 18.3517 11.2871 30.629 3.14329 1.3298 1.0564 0.118999 -0.372943 0.566905
1650 3 16.7997 9.8522 34.071 0.446482 0.679729 -0.311638 -0.0770273 0.0270886 0.184333
1651 2 15.3233 11.3936 21.4964 1.34609 -2.40854 -1.73355 -0.114367 -0.0548739 -0.177681
1652 1 15.8283 12.7592 23.9107 -0.293866 -0.17457 -0.730027 -0.0622697 0.109415 -0.22295
1653 1 16.8122 11.5967 28.5064 -0.998249 1.00865 -2.54911 -0.0787308 -0.0315175 0.0472753
1654 3 15.0874 12.3583 27.279 0.168647 -0.0875644 -0.207148 0.0935107 -0.00838216 -0.000985525
1655 3 17.1035 11.379 24.7588 1.88202 -0.353241 0.0808856 0.757289 -0.113526 -0.0779446
1656 1 15.2278 10.5655 35.3198 -1.5974 -0.713419 1.36127 -0.141778 -0.0282549 0.116769
1657 2 16.9115 13.2859 30.624 -1.30445 -1.57314 -0.540114 -0.751523 0.0185173 0.172049
1658 1 17.3006 11.6011 32.9044 -1.14978 -3.0057 -0.617013 -0.106316 -0.755939 -0.354651
1659 3 15.7864 12.3123 34.174 3.01256 0.0936547 -0.553273 -0.391417 -0.0524466 0.0391363
1660 1 14.1589 14.8513 19.9077 0.802228 0.787734 -1.01634 -0.183242 0.221099 0.0655892
1661 3 15.5082 14.0277 18.6902 -2.49078 -4.3213 10.1348 0.243882 -0.322305 0.0411635
1662 1 15.9116 13.9843 28.214 -1.33872 2.53914 -0.299932 0.67612 -0.402093 -0.430803
1663 1 12.7998 15.234 26.2051 -1.54064 -1.26187 -2.49889 -0.960177 0.0919326 -0.889686
1664 3 14.116 14.8697 27.7637 1.20251 -0.207727 -0.55324 -0.942326 -1.10574 0.131265
1665 1 14.3228 13.4783 35.1512 -1.63498 0.00558086 -0.564268 -0.101322 0.097697 -0.0552261
1666 2 16.2686 15.7718 30.9364 2.49088 -0.794592 -0.447802 0.384806 -1.08713 0.704417
1667 1 15.9453 14.0853 32.8944 0.0667131 1.03732 -0.689714 0.383491 0.946189 0.250972
1668 3 14.484 15.318 34.0015 0.505053 0.931329 -1.73978 0.302157 0.554274 0.5211
1669 2 12.3922 15.1312 21.7933 -1.59108 -0.826341 -0.421664 0.0531141 -1.33741 1.22533
1670 1 12.7913 17.253 20.7567 -1.18747 6.37321 8.55877 3.49059 4.94052 -3.75327
1671 3 14.2309 16.7454 18.9865 0.0997651 -7.06884 -7.44029 -1.10941 0.678431 1.88697
1672 1 10.8283 17.7293 24.3494 9.34023 -2.14144 12.4499 -3.92423 -1.64313 0.600858
1673 1 14.4548 16.1543 29.1471 1.4194 -4.41307 0.652374 1.22807 -0.756865 -0.428113
1674 3 14.2859 16.482 25.0404 -2.18597 1.4874 3.32853 -0.463581 -0.14427 -0.449351
1675 1 13.124 15.8286 35.5746 2.96225 -11.11 7.30036 -0.196523 -0.789298 1.77727
1676 2 6.9552 17.3014 24.308 -3.16687 -1.29784 -3.57957 -1.91012 -0.217947 3.18243
1677 1 14.5635 17.1164 32.5927 5.38199 -2.38549 -3.26191 -2.51086 1.32138 0.062925
1678 3 10.9558 15.857 30.1708 -1.7775 0.682319 -1.34745 0.28337 0.108653 1.3501
1679 1 9.81694 22.4822 15.9137 -8.10419 16.4471 2.05917 1.12534 -0.129573 -1.36343
1680 2 11.5399 19.4822 19.8336 -3.48396 14.1671 15.8984 -3.49421 -6.37856 -0.181552
1681 3 9.63617 18.6576 20.3594 -15.5388 -24.7727 -12.5002 10.8358 9.07845 -2.37687
1682 2 10.5893 19.8587 15.1553 -6.08765 -3.74906 8.76992 1.73257 0.64795 -0.387379
1683 1 8.64074 19.6814 13.847 0.838085 3.63177 -0.65667 6.62055 2.42333 -0.393852
1684 3 7.07595 18.9725 15.3761 15.1979 2.34658 9.23354 1.34678 2.10395 6.78161
1685 1 3.89088 26.442 21.0349 12.7088 -13.7655 -4.57762 1.68845 3.29133 -0.635335
1686 1 11.8941 24.4987 15.199 -9.95073 -10.5463 7.43454 -0.386179 -2.37855 -2.28508
1687 1 11.7926 22.3941 24.4312 -3.63274 11.7115 7.97163 6.63007 4.16929 2.44415
1688 3 7.18614 29.2896 24.0416 1.25523 -10.2589 0.054853 0.0492462 -9.83538 -0.173572
1689 1 14.532 21.2841 15.7585 0.801653 4.25255 11.8269 -2.63216 1.82172 -1.19041
1690 2 29.2566 0.104974 26.8365 4.08602 3.30768 15.6606 -0.441486 2.20768 2.42237
1691 2 3.6752 23.744 20.622 14.8368 1.4806 6.34324 -0.0649407 -7.08392 -0.750408
1692 1 7.29007 24.5306 16.1802 16.8075 13.084 -11.2386 -0.214556 2.72595 2.96375
1693 1 11.6617 24.8072 20.1683 -8.93333 2.35217 5.07599 -0.891736 3.78431 2.43552
1694 3 3.979 28.3929 22.1441 -10.6256 13.575 10.2894 0.146593 -1.46383 -3.40643
1695 3 6.55793 29.9624 23.0588 -9.00005 36.2624 2.04807 -12.3215 3.39751 -11.7614
1696 2 9.45038 27.4713 29.2463 4.36233 -9.67025 13.4896 -0.0206272 -1.28087 -0.171373
1697 1 5.9966 30.0127 18.9978 -5.29502 10.108 -8.13483 -6.45083 -1.14042 1.42508
1698 1 8.49917 31.5697 28.4939 23.3768 -26.9894 24.2315 -2.2371 1.78819 -1.79374
1699 1 3.48988 29.7866 26.2824 -0.602746 -7.06094 1.22896 -0.0127369 -4.05637 -6.94606
1700 3 12.128 28.3762 21.9619 6.87626 -18.1227 3.88639 1.39337 3.34831 1.25704
1701 2 23.1231 0.162503 31.7087 5.34191 -4.10201 -8.11936 -0.937028 3.70183 -0.72822
1702 2 25.2713 0.148367 18.8316 8.89593 -1.12627 7.64898 2.47189 -0.136782 3.13612
1703 1 4.06245 32.1603 19.2938 -1.25175 2.23821 0.938633 -0.283782 -0.684997 -1.22586
1704 3 6.85687 30.9629 17.5298 -4.05004 -3.6377 -13.4058 -2.92207 -0.153731 2.27531
1705 1 3.49018 31.7867 23.9214 -2.91859 2.07239 5.319 -0.395914 0.187881 0.412116
1706 1 4.8616 31.6588 28.4904 3.06225 -0.439172 5.41243 -2.95752 0.502701 2.71787
1707 1 21.3832 0.443301 26.2287 2.08136 -2.04482 3.55285 1.17091 0.850695 1.97086
1708 3 4.30524 31.5028 26.4748 -7.04974 -2.91643 1.63971 2.04222 0.903347 -0.346091
1709 3 5.14488 28.1901 25.6753 -17.0832 -36.9611 33.4272 -2.7565 2.16325 -5.63727
1710 1 4.53943 30.6309 35.7909 0.606103 -2.24743 -22.3415 0.0938363 0.25953 -3.28494
1711 2 23.3862 0.602675 21.5764 -4.48321 3.32302 1.05967 0.531826 -0.636214 -0.488034
1712 1 24.3587 2.12077 23.7322 -1.40786 1.11536 3.36396 0.19633 -0.323536 -0.647897
1713 1 23.1844 3.28865 26.1337 -3.03335 -2.41709 -0.0603299 0.617894 -1.25893 0.223084
1714 3 26.0311 1.14263 24.3363 -1.09117 11.4452 3.80743 -0.100038 -4.018 1.24931
1715 1 25.068 0.913767 35.66 -2.62756 7.75446 1.29265 -0.806661 -0.660072 -0.0193156
1716 2 26.6192 3.00273 30.5785 0.404914 1.42182 -1.32404 0.193721 -0.244907 0.211442
1717 1 27.339 1.40675 32.5713 0.118353 1.70123 -2.5772 -0.298357 -1.56232 1.17374
1718 3 25.1994 1.74323 33.8887 2.14915 -2.09879 1.35169 0.424168 -0.0436296 1.23874
1719 2 22.6473 2.96242 21.8953 -2.40628 3.23959 0.80227 0.119462 -0.0752564 -0.133604
1720 1 23.5287 4.44349 20.0178 -0.704154 2.92905 -1.36792 -0.00504525 -0.00522401 -0.00675449
1721 3 24.7185 3.49623 18.7728 1.53981 -2.4156 -0.285193 0.176109 -0.0244208 0.158497
1722 1 23.315 4.98155 23.3298 1.10767 -1.08001 2.14107 -0.258837 -0.599922 0.398992
1723 3 24.6855 3.92263 24.6745 0.750256 -0.104709 0.305344 -0.0161177 0.449258 0.00862473
1724 1 23.0876 2.58997 34.8998 2.33421 -2.76473 -2.3692 -0.214488 -0.757789 -0.144771
1725 2 25.1262 4.94233 30.5854 0.0269147 -0.541087 -0.425728 -0.616063 0.64524 0.082751
1726 1 25.5039 3.64232 32.8415 0.640206 2.09991 -1.94167 -0.155504 0.139741 0.592008
1727 3 23.8489 4.3292 33.7567 0.858994 0.602337 -0.132965 -0.0930063 -0.382757 0.0353129
1728 2 21.0977 4.9206 21.556 -5.82568 8.41564 -0.851524 0.0572221 0.0902655 0.0652824
1729 3 23.443 6.19649 18.995 -2.86891 -4.3821 4.39827 -0.554269 -0.165753 0.747201
1730 1 23.4093 6.20191 29.3451 0.0340206 -0.000634395 0.00653918 0.607211 -0.462942 0.118696
1731 3 22.8371 6.08139 25.3045 0.0223041 0.201468 -0.0104911 0.0612062 0.0396155 0.0124431
1732 2 22.9563 8.38958 30.8257 -0.0346271 -0.877256 -0.324563 -0.0323113 -0.206658 -0.129835
1733 1 23.555 6.02781 32.4419 1.39371 0.730991 -0.41507 -0.4716 -0.0724889 0.476494
1734 1 19.9055 9.99958 20.0588 0.286453 -0.0256712 0.812762 -0.00853825 0.472245 -0.359655
1735 1 21.7123 9.5275 29.0258 -0.173024 -0.685517 0.527697 -0.0587535 0.0680073 -0.0759902
1736 1 18.492 10.5043 26.0779 -0.268948 0.665163 -0.206972 -0.0205493 -0.0151305 -0.103898
1737 2 21.8467 11.0919 31.0161 -3.34147 0.739738 0.137401 -0.188814 0.0673008 -0.0300432
1738 2 18.0849 11.2944 21.3687 -0.726195 -1.0593 0.266596 -0.113481 -0.0683772 -0.0274486
1739 1 18.7621 13.2143 19.896 -0.294534 -0.270689 0.379804 0.297572 0.0498666 -0.266476
1740 3 20.1672 11.7079 18.8514 -1.19035 0.00427746 0.251524 -0.160046 -0.0215278 0.19955
1741 1 18.7196 12.3087 23.6758 0.0907743 0.948218 0.837057 0.0529033 0.0132582 -0.0928652
1742 1 20.046 11.5838 28.9112 -0.239386 0.0887516 0.431209 0.0797585 -0.058038 0.0447287
1743 3 18.7453 11.7223 27.4966 -0.35417 -0.450194 -1.64258 -0.0313101 -0.165859 -0.926506
1744 3 20.1064 11.6991 25.223 0.751526 -0.0431841 0.440845 0.0594983 -0.102647 -0.0425026
1745 1 15.6852 15.808 26.322 4.19031 3.65758 -6.35126 0.0658931 0.375155 0.742673
1746 1 17.0152 13.1264 35.5927 -0.917298 1.2132 -1.04532 -0.260312 -0.0614362 0.305218
1747 3 17.4761 14.7032 34.2751 3.93887 -1.94291 -5.41523 0.0504306 0.0387029 -0.0386235
1748 2 16.834 15.7955 21.8403 -0.323003 -4.22459 0.957297 -0.0136186 -0.460517 0.539597
1749 1 16.041 17.4462 20.223 0.873201 1.44521 4.33482 0.0382904 0.177796 -0.258072
1750 1 15.5131 17.2872 23.3578 3.57011 -1.62388 -3.21169 -1.34521 0.386541 -0.225061
1751 1 17.3412 17.5135 29.4259 -1.50108 -2.94126 -2.65341 1.00286 -0.747483 0.118902
1752 1 13.6304 18.3911 25.5659 -19.9668 -7.37495 -2.76676 0.0465584 0.249193 -2.20438
1753 3 15.9061 17.2291 27.8523 -6.31216 0.928202 -5.10599 0.954557 -1.94189 -0.587931
1754 1 16.1109 15.9584 35.3808 -3.3722 -1.2963 1.46451 -0.175992 -0.322681 -0.671152
1755 2 18.5057 18.7731 31.9549 2.05995 -1.49989 -0.204714 1.79653 -1.27594 -0.167369
1756 2 14.4331 21.8083 22.4061 17.6178 -18.1647 26.2986 -2.9449 -0.365305 1.7445
1757 1 15.4095 20.4273 18.7239 -0.160354 0.908706 9.80839 1.82143 1.53154 4.31757
1758 3 17.9292 17.3855 19.043 -2.86529 -1.66327 -1.82228 -0.572432 -0.591996 -0.666253
1759 1 11.2805 18.3849 31.6005 -4.29069 -2.44956 3.39812 2.95068 2.33717 1.35152
1760 3 11.079 19.364 17.4381 6.86467 3.19593 11.3622 3.62118 1.45627 -4.32737
1761 3 17.7526 22.4805 23.8335 5.96032 -6.85437 18.586 -0.387089 -0.71123 -1.51015
1762 2 12.3 22.4765 16.7411 8.92375 11.927 16.0748 2.26953 1.14992 4.00506
1763 1 12.8519 24.6195 12.5441 14.2901 -6.99631 -2.88082 -0.222721 1.11695 1.62574
1764 3 14.8973 19.9496 17.1908 -18.0236 -30.7485 27.9013 -2.13017 -0.604279 -3.39124
1765 1 17.1077 26.889 25.9153 0.0928874 18.1506 -20.0336 -2.19782 -7.08663 0.945057
1766 1 14.3676 27.5354 18.907 -8.649 6.51188 11.5451 1.1607 3.935 -1.72367
1767 3 11.4442 21.836 14.9962 -13.5423 -8.32274 4.70936 1.4749 -1.23324 -2.23007
1768 2 10.7859 22.9339 13.3964 4.87788 7.91325 -0.0414748 -4.60504 2.07057 -0.752954
1769 1 11.1043 28.1787 13.2132 0.00644658 -9.70145 -7.32821 -2.19102 1.48073 -0.0459306
1770 3 13.4486 20.6763 13.9408 -3.64328 -4.90031 -14.5572 1.63139 1.95694 2.23481
1771 1 9.15545 27.8944 18.5805 5.30254 -7.81789 9.09856 -2.37556 -6.03454 0.797211
1772 1 7.20095 24.578 26.2437 1.57748 -1.60435 14.0399 -8.82876 -1.82454 1.41297
1773 3 10.175 30.2262 22.3778 27.4534 38.1879 -20.0295 -1.71506 7.65537 0.149818
1774 3 17.3684 26.4732 22.1473 -17.6921 20.1418 -5.47861 3.04878 2.88514 -0.853704
1775 1 4.27793 29.0064 33.5214 -9.04924 12.1736 -7.47983 4.58577 -3.39484 2.20472
1776 2 14.8649 31.9166 30.0911 -2.87663 1.32383 3.80974 0.939883 -0.692182 0.370894
1777 1 18.0689 20.937 27.2641 0.347637 0.256699 -2.79052 1.77924 0.860064 0.267175
1778 3 12.9305 32.0618 30.5104 -5.60666 10.2547 1.03158 0.419956 2.39511 -0.879462
1779 2 9.49263 26.0849 16.5619 -1.72524 8.97763 -0.792192 2.85207 0.6079 2.44002
1780 1 6.57836 27.9254 16.5518 -6.45368 13.7688 -14.2653 -1.09885 3.50269 -0.84672
1781 3 8.53706 27.7315 16.7227 5.86008 14.7952 -29.559 -3.88249 3.71894 -2.13285
1782 1 27.9115 0.233167 23.1648 8.82265 -6.8828 0.525266 -0.0604337 -0.863978 -2.8145
1783 2 30.6862 1.61046 30.8763 0.254567 1.11398 -3.57742 -0.271582 -1.69294 0.407919
1784 1 32.1521 0.488379 32.6512 -2.80446 -0.848224 0.510901 0.826246 4.21009 -0.0185485
1785 2 8.9725 31.151 20.7839 -9.44144 -0.912335 5.34154 5.49122 -2.28842 3.9704
1786 1 6.26622 25.9403 23.4228 21.7904 -1.75271 11.5803 1.76447 -1.14587 -2.61774
1787 1 8.55898 26.4764 22.7094 -3.87647 -10.2237 4.90822 -10.9229 -1.92841 -3.15878
1788 1 24.7237 0.0409281 25.76 2.55922 0.589999 0.229687 -1.23374 3.03047 -8.12068
1789 3 25.3778 0.503954 27.5775 -3.39433 1.14984 -7.32749 1.54764 6.81198 1.30881
1790 2 27.901 0.850058 30.3227 -4.41435 0.852078 4.86954 1.41092 -2.06767 -0.796047
1791 1 14.1343 29.6588 33.4505 -17.2229 -1.21217 -2.71546 2.53675 4.24681 7.23315
1792 3 30.0358 1.15665 18.5693 2.32888 1.41703 3.40433 -0.681337 -0.119592 0.187494
1793 1 28.9747 1.96692 28.2415 -1.35024 1.06496 -0.188958 0.99561 -0.138142 3.65792
1794 3 27.6662 2.83154 26.8456 2.3087 4.94699 -1.27176 -0.240384 3.94605 -0.252967
1795 1 28.8979 0.558542 34.9215 -0.685555 1.83941 3.46401 -0.570823 -2.02689 0.190868
1796 2 29.1662 3.7349 29.9946 0.0955312 1.32036 0.144689 -0.111453 0.569829 0.158082
1797 3 28.7647 2.34199 33.8584 -0.501834 0.473327 -1.21615 0.583538 -0.0622783 -0.2667
1798 1 26.5347 4.54784 23.6328 1.06921 0.256393 0.553877 0.0232902 0.17166 -0.164068
1799 1 26.807 4.04023 28.2948 0.0556739 -0.420161 -1.09183 0.387315 -0.252851 -0.0542982
1800 1 24.7783 5.52962 26.1122 -2.12814 1.1096 -0.343066 -0.258609 -0.201664 0.100485
1801 3 28.4425 3.90917 25.1521 -0.0122388 -1.90231 1.68457 1.38045 0.778279 0.447178
1802 1 27.1968 2.87527 35.0318 -0.62725 -0.851589 -1.28384 0.347439 -0.2484 -0.0663715
1803 1 28.2837 4.09793 32.4093 -0.684617 -0.25036 1.1864 0.264983 -0.282957 -0.381408
1804 3 26.8821 4.69292 34.059 -0.983206 5.10313 0.170636 -0.111681 0.230729 0.166633
1805 2 25.4719 5.66603 21.3924 -0.155094 0.311892 0.137966 -0.050276 0.116581 0.148993
1806 3 27.1806 6.1404 18.0819 -1.33895 1.56885 1.24901 -0.34585 0.498196 0.386993
1807 1 23.4636 8.0647 26.1787 0.00513842 0.57649 -0.575663 0.259966 0.320401 -0.0625703
1808 3 24.682 7.16328 27.5171 -0.137472 -0.612429 -0.318022 0.0701286 0.095476 0.0374966
1809 3 26.5937 6.24566 25.0772 0.145831 0.395934 -0.490482 -0.0751013 0.135479 0.102771
1810 1 25.1548 5.5211 34.9132 -0.85927 -0.467697 0.464105 -0.115135 -0.139601 0.0683986
1811 1 26.5203 6.29268 32.5699 0.387355 -2.51208 -0.715514 0.00136498 0.240992 0.136183
1812 3 24.9396 7.23146 33.731 -0.987287 -0.525673 -0.726358 0.0652884 -0.264228 -0.278952
1813 1 24.627 8.7388 28.9892 1.32728 -0.628239 -0.350025 0.135638 0.0313019 0.0262601
1814 1 21.9222 10.9987 26.255 -0.0874851 -0.410399 0.19038 -0.0748572 0.00951864 -0.21112
1815 3 23.3287 9.84828 27.544 0.256577 0.509505 0.445042 0.173239 -0.0101423 0.0144523
1816 3 25.0073 8.86903 25.0321 -0.0143211 0.169769 -0.359826 0.0876235 0.0966481 -0.0572804
1817 1 23.544 7.86371 35.2433 -0.479963 0.908137 -0.536984 -0.412983 0.439484 -0.1324
1818 2 24.4492 10.6871 30.7046 -1.70119 -1.01393 0.274938 -0.178458 -0.0111799 -0.0458009
1819 1 24.753 9.04185 32.6016 0.306336 -0.178432 0.459424 0.0149362 0.522936 -0.525565
1820 3 23.7935 9.81579 34.2012 -0.0814517 0.23434 0.0848029 0.101114 -0.0253287 -0.0473116
1821 2 21.274 10.939 21.903 -1.08747 0.587004 0.825824 -0.168985 0.0597184 0.122848
1822 1 21.8564 12.6872 20.2141 0.150465 -0.329755 -0.139594 -0.0138607 -0.162854 -0.0518063
1823 1 21.7301 12.6962 23.718 0.331684 -0.07846 1.32015 -0.0516521 0.0251887 -0.253791
1824 1 23.1543 11.6888 28.7845 0.673406 -0.403746 0.296215 0.0315644 0.0256546 0.195903
1825 1 19.7941 13.2658 26.3075 -0.324188 -0.924906 -0.324459 -0.0275023 0.0417196 -0.125552
1826 3 21.564 12.5691 27.5439 0.0791605 0.275802 0.0412579 -0.0269752 -0.0719919 -0.084583
1827 3 23.348 11.9012 25.0107 0.12668 0.045504 -0.0935487 0.0176255 -0.00957222 -0.0464202
1828 2 23.7678 13.2827 30.7802 -0.616105 -0.0543015 0.235428 -0.0808562 0.0245056 0.0209738
1829 1 23.6417 11.7993 32.8309 -0.0681375 0.0426567 0.170941 -0.0248224 -0.0577645 0.00655938
1830 2 20.1339 13.6214 21.9356 0.19517 -0.0378073 0.0775239 0.0591475 0.140932 -0.0895281
1831 3 22.2483 14.1792 18.6319 3.44761 -1.62419 2.89263 -0.197445 0.0509752 -0.220435
1832 1 20.1438 15.4086 23.7635 -0.448442 -0.396856 -0.172909 0.0172752 -0.104275 -0.0136168
1833 3 21.4665 14.3831 25.0905 -0.159059 0.237037 -0.325036 -0.072529 -0.00892603 -0.100655
1834 1 20.1157 13.0634 34.423 0.936619 0.415011 -0.950145 -0.0629767 -0.188331 0.160369
1835 3 20.5743 15.2162 33.6548 -5.09319 -2.43891 -4.10991 0.229801 -0.0877951 0.210907
1836 1 19.6954 16.9369 30.4678 0.0311465 -0.632025 -0.438587 0.0164384 0.0435064 -0.0305116
1837 1 17.6633 17.9069 26.7646 1.36856 6.39847 4.18789 -0.202087 0.329373 0.656307
1838 3 19.2146 17.4847 28.0007 -0.696354 -1.60146 0.552002 0.276233 -0.210747 0.311769
1839 3 19.9358 17.4245 24.3694 1.09426 -1.25732 0.634226 -0.396411 0.681406 0.00855473
1840 1 19.1888 15.5955 35.1703 -0.446945 0.157203 -1.34153 -0.144138 0.119351 -0.719428
1841 2 20.9424 19.099 31.0221 -2.92113 2.60701 1.64003 -0.155654 0.360883 0.422354
1842 1 20.4566 17.7475 33.3438 6.42582 -1.04748 -1.82004 0.36362 0.0313914 -0.040794
1843 2 17.6337 18.2011 22.2566 0.335009 1.62223 -1.83837 -0.202956 0.403704 0.506234
1844 1 18.5789 19.1062 19.4462 0.443106 0.432909 0.414091 0.480247 -0.258678 -0.138409
1845 1 17.8859 20.566 24.1288 -2.25455 4.47022 0.336264 -2.91207 -0.463786 -1.46577
1846 1 19.2605 19.3672 29.0631 -0.111755 -1.00578 -0.321533 0.562867 0.565241 0.0404306
1847 1 18.3642 22.571 21.9395 6.8721 2.01444 3.72504 -0.695834 1.98324 -1.19254
1848 3 17.2523 19.1033 28.1603 5.32573 8.62014 2.47959 -0.65113 0.724015 0.856879
1849 3 18.2578 19.6023 25.8068 -0.604388 2.26224 -6.84178 0.999254 0.2489 0.274857
1850 2 18.9495 21.1019 31.0041 4.31554 4.39863 -0.397101 0.188631 -0.205284 0.260867
1851 2 19.1135 20.1655 21.7399 -2.35937 4.02094 1.33169 -0.631992 0.0116122 0.875189
1852 1 16.7094 25.1223 20.6812 -11.2699 11.6746 7.06393 -0.451363 1.69425 -2.88995
1853 3 17.3474 20.3471 18.2395 -3.0918 -10.2201 4.06974 -3.03022 0.736074 2.16836
1854 1 18.4648 23.2796 25.3442 5.06564 -5.19859 -1.91759 -0.492255 0.901214 -0.678674
1855 1 15.8617 22.971 24.11 4.23681 7.58697 -2.08634 0.739151 1.45383 -10.2394
1856 3 14.7146 25.2494 22.3428 -9.23077 -3.92082 -15.013 0.977929 1.44999 4.91073
1857 3 16.1919 27.8869 18.313 -7.43344 12.1139 15.5575 2.60841 -0.594783 2.35469
1858 1 17.8038 22.5916 29.3717 3.29269 2.78084 2.0079 -2.81714 -0.904145 -1.12971
1859 3 17.2677 22.9763 20.3127 19.89 -9.66699 9.95932 -3.13574 -0.0560673 8.19368
1860 1 17.8781 22.3874 32.8617 -0.31523 3.9211 3.84507 1.64024 0.652814 -1.0944
1861 1 15.2768 22.1011 26.9755 3.39974 -4.13085 8.39551 0.540513 -2.45587 5.80073
1862 3 13.0004 31.8391 24.5589 -15.6957 10.223 -28.1663 -0.186998 -5.82406 -0.653796
1863 2 15.2981 29.3801 17.4738 -4.76977 -14.1153 -16.2084 -2.14848 0.789057 0.662422
1864 1 10.2738 29.9332 14.9685 -0.709433 2.59448 -8.21221 -0.904672 0.573859 -1.38764
1865 1 11.6718 26.81 18.0652 3.37466 -12.7628 21.9882 -0.848961 0.752254 1.27378
1866 3 16.0392 29.9102 26.3148 4.18141 9.504 2.51413 0.300114 0.589921 0.557401
1867 1 7.86819 21.32 18.1005 -4.92587 -9.82259 2.50746 0.522779 -1.81741 -1.66294
1868 1 10.677 20.8223 23.9872 -6.85998 7.40551 0.321159 -0.585635 -7.20583 -2.99176
1869 3 6.67272 31.2286 35.3395 24.8168 -39.4125 1.3732 -1.99312 0.659593 -1.49832
1870 2 13.9648 29.6508 21.3971 9.55538 -5.55439 -1.69561 -2.88231 -3.4516 -0.218951
1871 1 13.2592 27.5283 14.7744 -6.70956 -12.1058 -1.92684 4.18003 0.0766211 4.79985
1872 3 14.2196 29.5029 19.1991 2.30866 4.471 -15.8759 0.823818 1.40181 2.77452
1873 1 11.6967 30.3679 20.7637 -0.379403 -1.72393 -7.46222 -0.831752 1.22142 -2.73005
1874 1 13.207 31.6699 28.0522 -1.11491 0.991937 7.60654 1.25166 -0.212066 1.98672
1875 1 27.0709 1.24442 26.1486 -9.15203 12.1807 -9.6674 -1.074 4.29181 -0.179667
1876 3 29.057 0.865997 24.9633 7.08119 3.19448 11.7045 1.86638 3.00252 0.538424
1877 3 13.1305 31.6709 21.2544 -4.41922 0.00883868 -2.40414 2.39947 0.594501 1.49078
1878 1 12.9225 31.9245 35.0164 2.30833 1.56996 -3.16432 -0.313698 -2.60173 0.444706
1879 2 32.2161 1.32928 21.9766 2.50225 0.88254 -2.2465 -0.862658 0.0510956 -0.254359
1880 1 31.4621 2.07295 19.8121 -0.0750574 -0.0392557 -1.96916 -0.678248 0.491442 0.654754
1881 3 32.8795 1.01616 18.5914 -3.06785 -3.10066 -5.66691 -0.0625645 -0.897932 -0.360072
1882 3 30.8777 1.1479 27.3289 2.45049 0.243126 6.97028 1.36225 -0.882032 0.782027
1883 2 32.5699 3.21589 30.5312 -1.48172 -1.35515 -0.308051 0.358861 0.254346 -0.00194209
1884 2 29.8237 2.54225 21.8724 -0.280156 2.2162 -0.504455 -0.243233 -0.689653 0.0289691
1885 1 30.3784 4.89494 20.8735 0.529795 -1.01795 -0.199562 -0.549703 -0.192695 0.460365
1886 3 31.012 3.94164 18.9111 4.86236 0.953769 1.32845 0.0967533 -0.280731 -0.725546
1887 1 29.2269 4.48357 23.4254 -0.330191 -0.0420049 0.574918 0.565442 -0.243484 0.488094
1888 1 31.1102 3.73962 28.2015 0.130922 -1.4739 -1.53722 0.192081 -0.318726 -0.106689
1889 1 28.3427 5.63113 26.1603 0.297576 -3.08725 0.785225 -0.45701 -1.72556 0.54426
1890 3 30.2911 4.42457 26.1315 -1.87005 1.06867 -0.873838 -0.455803 0.00297369 -0.287307
1891 2 28.041 5.76161 21.331 0.221786 -0.325026 -0.619333 0.00904261 0.0754711 -0.157229
1892 1 28.8976 7.03633 19.1557 -0.937991 1.2555 -0.200034 0.175214 -0.0974952 0.0270472
1893 1 28.1921 7.06454 23.6555 0.313372 0.644107 0.558246 -0.0525978 0.152013 -0.0590593
1894 1 29.5637 6.08074 28.9103 0.769227 -0.243899 1.23418 -0.128871 0.0308388 -0.267149
1895 1 26.5316 8.02587 26.254 0.678573 -0.0635087 -0.386407 0.122321 0.096381 0.0695633
1896 3 28.2861 7.2006 27.5356 0.909797 -0.690128 -0.53378 0.167919 0.148675 -0.126948
1897 3 29.651 6.21753 24.9925 -1.55365 0.450615 1.6191 0.137369 0.133467 -0.153704
1898 3 28.0818 8.78358 18.5164 0.810131 -0.160493 0.612152 0.298097 0.688417 0.0548834
1899 1 24.8603 10.6897 26.1392 -0.417711 -0.332338 -0.397825 -0.151406 0.0346318 -0.0537163
1900 3 28.2665 8.54871 24.8728 0.286574 -0.328363 0.975858 0.0618985 -0.119204 0.0145402
1901 1 26.065 8.04785 35.361 -0.578966 -0.536582 -0.763645 -0.203575 -0.0562602 -0.207579
1902 3 26.3078 11.6728 18.5081 -0.641246 -0.151431 0.424061 0.170988 0.204243 -0.0626284
1903 1 24.8542 12.8157 23.7061 0.17814 0.410323 0.0875099 -0.0403429 -0.00261538 -0.0484995
1904 1 23.0854 13.513 26.1497 -1.25195 -0.936712 -0.870875 0.263837 -0.0952985 0.16097
1905 3 26.2297 11.7727 24.7942 -0.101881 0.0196455 -0.00217818 0.0225733 0.0426836 -0.100033
1906 2 26.6971 14.4917 31.0105 -0.124617 2.73238 -0.652621 0.262362 0.131272 0.00530782
1907 2 23.087 14.077 21.9309 0.375757 0.0356066 0.112127 0.053685 0.127223 -0.0158536
1908 1 23.5339 15.5086 19.8845 -1.43033 -0.58693 -0.705622 -0.123464 -0.143175 -0.163874
1909 1 23.2894 15.527 24.0172 -0.730685 0.321925 0.549341 0.344501 -0.113467 -0.3133
1910 3 24.7409 14.4078 24.9198 0.0471808 -0.252629 0.121342 0.0251841 0.108818 0.0468845
1911 2 24.5159 16.0078 30.7781 -1.24365 -0.329959 -0.340786 -0.125805 -0.231463 0.0774854
1912 1 24.7757 14.4195 32.8766 -0.0579117 -0.165619 -0.114043 -0.0138914 0.0722729 0.0499886
1913 3 23.3816 15.6282 33.9419 0.199322 0.412404 0.200356 0.00200572 -0.0656894 0.110873
1914 2 21.8017 16.4172 22.021 0.260578 0.0530839 0.0393583 0.177585 -0.00222649 -0.0985898
1915 1 21.6955 18.4341 20.4116 -0.265717 -0.818485 0.424258 0.154362 0.308563 0.186423
1916 3 22.9353 17.4907 19.1899 0.669972 0.105913 1.82883 -0.259403 0.517415 -0.369491
1917 1 21.6739 18.3997 23.6895 -1.01738 0.242555 0.200066 0.314809 -0.125831 -0.0111951
1918 1 20.1778 19.0025 26.1444 -2.10891 1.51812 -1.17862 0.176085 -0.272712 -0.187764
1919 1 21.8061 15.7991 35.1533 0.94301 0.0699627 1.13906 0.126993 -0.365855 0.0424223
1920 2 23.6843 18.9894 30.8123 -1.89062 -0.792712 -0.320271 0.043586 -0.226615 -0.166004
1921 1 23.2712 17.1635 32.578 -0.481005 -0.447048 -1.03077 -0.113503 -0.122323 -0.0369595
1922 1 20.882 21.219 20.0456 2.18656 -0.639606 -0.653164 0.154434 0.261912 0.322367
1923 3 21.7273 19.7226 18.6169 2.08834 -2.32558 -1.30004 -0.183436 0.642805 0.134218
1924 1 22.0846 19.9765 28.7189 -1.06768 0.508352 -0.334571 0.121831 -0.171094 0.210121
1925 3 20.2697 20.7769 27.6114 5.00273 2.64325 0.597935 -0.376624 -0.192562 0.164269
1926 3 21.2496 20.5812 24.4501 -2.6036 -0.136081 2.64168 0.103139 -0.394813 0.257256
1927 2 22.4053 21.6331 30.8626 -0.808887 0.171248 -2.22956 0.215769 0.0964293 -0.035982
1928 1 19.1679 23.496 19.681 2.3033 0.953157 -7.87053 2.66357 2.19281 4.19167
1929 3 20.1174 22.3114 18.4286 -6.14417 -1.91739 2.26832 -1.40529 -1.11744 -0.988028
1930 1 20.5061 22.1932 29.239 2.44288 -1.53728 2.7382 0.330426 0.0554428 0.307194
1931 2 21.4029 24.3947 30.3141 -0.759059 -1.62542 -1.68245 0.113366 -0.168162 -0.0322441
1932 1 20.6904 22.7135 32.4028 1.76659 0.18581 -0.255301 0.347094 -0.577638 -0.311622
1933 3 19.4122 23.1673 33.8861 2.84432 2.59852 -0.422269 -0.303263 0.276545 -0.0530463
1934 3 18.2942 25.1227 18.7964 -7.29263 -7.7916 2.54698 -1.15208 0.802877 -1.59104
1935 1 19.3945 24.7684 28.7248 2.53658 -0.865417 2.74445 -0.343345 -0.147973 0.0520126
1936 1 14.1018 24.3488 21.0821 13.1349 3.31154 -3.25507 -10.2238 -1.15816 9.49272
1937 3 18.2667 26.4454 28.0055 4.29593 -6.98991 -7.46356 -2.52287 -0.234231 -0.531804
1938 1 18.2011 24.4334 34.8353 -0.845071 3.86838 -1.1876 0.531658 -0.419959 4.36032
1939 2 19.9143 26.9041 30.9163 -2.74623 -3.42697 3.73788 -0.320852 -0.0903021 -0.325368
1940 1 19.1322 24.9664 32.2844 2.49733 -1.98366 0.626137 -0.980844 1.36225 -0.488353
1941 3 18.6356 26.4168 33.7347 4.88438 -0.217703 1.55395 -2.86638 -0.3757 0.0169864
1942 1 16.6407 29.415 24.4265 -2.51299 3.92922 -1.7382 -3.48942 1.25444 -1.73022
1943 1 18.5651 28.3886 29.3192 0.020019 -1.01763 1.93502 0.406709 0.0467104 -0.58632
1944 1 15.1223 31.6869 25.8538 -7.04798 -5.00782 -6.8656 -4.61424 -1.985 0.877762
1945 3 16.996 29.7538 28.8917 -2.78054 1.95824 0.249393 -1.32653 -1.56998 -0.0219885
1946 3 18.0848 28.3771 25.567 2.89098 13.2794 -7.90177 2.59647 4.08499 -1.65612
1947 1 7.45193 19.9995 23.6354 -7.42027 10.8112 -9.87513 0.608392 2.65661 -1.63049
1948 1 18.5265 28.4349 32.4481 2.8517 3.50462 -2.2625 1.30216 0.42239 0.215499
1949 3 14.6383 30.8802 31.7933 -7.46483 -0.379428 -5.14168 -0.371701 1.33936 -0.53633
1950 2 16.2554 29.3683 19.7194 -15.1908 7.02889 -4.13355 -5.83345 1.50589 -2.20546
1951 1 14.8273 31.8474 20.3367 -4.95032 -0.22327 0.812425 0.17256 -2.50618 -1.02697
1952 1 14.1418 31.6813 23.0199 0.742391 5.64827 -2.62612 1.77228 -6.34569 0.120239
1953 1 31.2499 1.00357 25.3792 1.89205 -5.6792 -4.74794 -1.99825 5.16352 1.09229
1954 3 15.8336 31.3815 24.2281 4.88969 2.22925 3.69482 -2.77654 -1.90221 -1.06315
1955 1 15.8218 29.3628 30.9532 -8.07514 -3.72045 -6.26015 -1.15178 -0.428361 -1.60702
1956 1 16.2452 31.797 32.1464 -0.536563 1.35976 -1.31718 1.93329 0.0320412 -2.02081
1957 1 34.6195 1.89161 19.5044 0.0671255 -0.545329 0.100918 0.511955 -0.650118 -0.0612678
1958 3 35.4352 0.990816 17.9114 -0.931397 4.57864 -2.01862 9.16714 7.75132 9.76785
1959 1 34.8944 0.62811 35.4572 -1.26059 0.182105 1.6702 -0.113824 1.58305 -0.389443
1960 2 35.573 2.6571 30.6492 -0.632001 2.70724 0.556609 0.0641012 0.68201 0.19211
1961 1 36.1031 1.64392 33.0223 0.701293 -0.737339 -0.328087 -0.010941 -0.345297 -0.0993719
1962 3 33.8981 1.63999 33.762 0.940076 -1.36593 -1.06282 1.32238 0.63695 -2.34823
1963 2 32.5173 3.87774 21.9374 -6.38481 1.65017 3.82592 -0.457595 0.463864 0.526716
1964 1 32.9967 4.79518 19.6208 -2.00413 2.70261 0.561591 0.305402 0.360302 0.240775
1965 3 34.4436 3.57188 18.4121 -11.392 -1.57842 6.05534 -0.0664203 0.28327 -0.272115
1966 1 33.9184 3.58609 28.5397 0.316133 0.290535 -0.746141 0.166326 -0.50351 0.546944
1967 1 31.4569 5.89898 26.1365 -0.14282 -0.762341 0.391387 0.0965657 -0.106809 -0.299907
1968 3 32.709 5.02102 27.6035 4.34941 -0.0926985 -0.452167 0.176609 0.0546135 -0.1989
1969 1 32.9211 2.86615 35.0569 -2.27098 -1.59042 0.771308 0.0914188 0.103142 0.0915841
1970 2 33.9657 5.40389 30.5743 0.218941 -0.547584 -0.471327 -0.0575867 -0.0660081 -0.0224866
1971 1 33.9884 3.46506 32.5526 -0.3236 2.04467 1.28474 -0.123819 -0.176738 -0.250473
1972 3 32.7493 4.46942 33.8866 0.634221 -0.10832 -0.413951 -0.76097 0.257529 0.159048
1973 1 32.8268 6.64619 28.6673 0.0351226 0.612195 -0.183991 -0.0773239 0.273867 -0.136049
1974 1 29.6987 8.08377 26.2759 1.21992 0.469836 -0.125591 0.143016 -0.0539324 -0.00727497
1975 3 30.8293 7.0342 27.7161 -0.410108 0.201541 -0.106645 -0.0495937 -0.177336 0.0374873
1976 1 31.1088 5.32023 34.9548 0.263784 0.980913 0.130889 0.223944 -0.0458556 0.0794765
1977 2 31.4474 7.4796 30.786 -0.110819 0.65832 -0.145945 0.194712 -0.0481345 0.00295548
1978 1 32.5354 6.05529 32.6176 -0.42987 1.60608 -1.83403 0.10861 0.174944 -0.251833
1979 3 31.2533 7.22426 33.9299 -0.517253 0.0431532 -0.348432 0.0676444 0.100489 -0.0109687
1980 2 29.9968 7.78631 21.6069 -0.676081 0.631398 0.146992 -0.060323 0.112432 -0.00804199
1981 1 29.2392 9.98874 20.2644 0.777647 -0.0993411 1.12108 -0.204349 0.0688766 0.373948
1982 1 29.5273 9.91526 23.646 -0.811454 2.17449 0.564982 -0.204081 0.140249 0.109725
1983 1 31.0924 9.0144 28.7338 0.27366 1.25682 -0.837505 0.0166606 -0.486098 0.175613
1984 3 29.5028 9.55881 27.745 0.447832 -0.800115 -0.68535 0.0213576 -0.184636 0.303497
1985 3 31.0043 9.43164 25.3154 0.339314 0.197225 -0.544643 0.038106 0.0916433 -0.0211696
1986 1 29.6244 8.08197 34.8392 -0.349746 -0.0747714 -0.231776 0.000403508 0.0867779 0.152947
1987 2 -5.52198 10.5927 30.9997 -0.553131 1.88399 2.27124 -0.433683 -0.0659623 0.0891805
1988 1 31.9845 9.11567 33.0299 0.392614 -0.402336 -0.410866 -0.06399 0.196193 -0.0440081
1989 3 30.1616 10.0806 34.1519 0.45752 0.102283 -0.0349787 -0.0479906 -0.0505833 0.0798738
1990 1 27.8463 12.7821 19.6078 0.76385 0.218127 0.260922 -0.494538 0.667166 -0.173486
1991 3 29.572 11.6638 18.6139 -0.0625949 -2.18113 0.561408 -0.404415 -0.553782 -0.711781
1992 1 30.2596 12.0197 29.5867 0.837615 -1.60252 0.346566 -0.074976 0.257733 -0.11908
1993 1 28.2332 10.8386 35.4231 0.473716 0.171789 -0.184902 -0.128209 0.199723 0.0509175
1994 2 -7.30664 14.1057 31.1135 4.32554 4.59772 -2.51157 -0.392195 0.00965351 0.00783683
1995 1 30.1058 11.8406 32.9172 0.486723 -0.357589 -0.0785081 -0.09742 0.133634 0.027476
1996 3 28.403 12.4877 33.9659 0.19087 0.909647 0.367322 -0.0191828 -0.212172 -0.092219
1997 2 26.0399 13.5867 21.3703 0.12255 0.0296409 -0.0749998 -0.0305242 0.0779756 0.00126573
1998 1 26.4907 15.7629 20.0836 0.181799 -0.324101 0.254596 0.302575 -0.746496 -0.167845
1999 1 26.3251 15.0968 23.3768 -0.223935 -0.403073 -0.420587 0.107942 0.0362996 -0.0374415
2000 2 -8.80458 16.5232 31.2024 0.550777 1.45934 0.155591 0.0621045 0.374569 0.0788482
2001 1 28.2271 14.591 33.0071 -0.530769 0.350638 0.218062 0.136253 -0.0637805 -0.0638404
2002 3 26.2133 15.4093 34.0394 -0.359586 -0.184088 -0.6564 0.00339608 0.0029253 0.0762316
2003 2 24.7297 16.4161 21.9983 0.189693 0.301496 -0.197383 0.131681 0.0455416 -0.0941126
2004 1 24.9137 18.0827 19.978 -1.17686 0.876908 -0.830162 -0.142343 0.548075 -0.355391
2005 1 24.7779 18.1421 24.0631 -0.281366 0.49476 -0.342167 -0.0818803 0.0257572 -0.0664641
2006 1 24.6664 16.4864 35.2367 0.48047 0.351923 -0.371859 -0.032364 0.308737 -0.193616
2007 2 26.4433 18.7079 30.8136 -0.795258 -0.150551 -0.204986 0.0564405 0.150825 0.0996409
2008 1 26.2626 16.8034 32.4428 0.147249 -0.0713041 -1.69256 -0.0396612 -0.0177685 0.0950818
2009 3 24.6936 17.7602 33.7952 -3.14528 -0.734379 -1.89144 -0.568343 -0.272712 -0.23994
2010 2 23.563 19.0072 22.03 -0.49976 -0.301918 0.0108562 0.00782855 -0.105949 -0.0983485
2011 3 25.1159 19.698 18.7219 2.82645 1.74116 -1.08815 -0.379775 -0.0675042 -0.203948
2012 1 23.2122 20.9591 23.6403 0.018815 -0.218734 -0.259957 0.0674834 0.0961994 -0.0674386
2013 1 24.9833 20.3045 29.0588 0.865124 -0.681594 -0.671633 0.0466844 0.309019 0.153649
2014 1 21.7796 21.7331 26.3192 -0.375848 -3.21936 0.0977367 -0.649276 0.191026 0.0798731
2015 3 23.3811 21.2857 27.6808 0.739425 0.214466 -0.0848199 0.215674 0.0387004 -0.0605597
2016 2 -12.283 21.411 31.4154 -0.238091 -0.56659 0.718812 0.00687809 -0.165691 0.140739
2017 1 24.8623 19.5232 33.1942 -0.444842 -0.820775 -0.886693 0.518689 0.00703204 0.108531
2018 3 23.2231 20.1304 34.7513 0.359803 0.531462 1.38792 0.137904 0.19634 0.279834
2019 3 22.9159 22.0635 19.1554 -1.3079 -2.79744 1.09592 -0.272987 0.0206812 -0.107764
2020 1 23.6102 22.9137 29.0117 -0.551213 1.57257 -0.266399 0.327265 -0.0870902 0.211402
2021 1 20.5445 23.8576 25.9469 -1.36442 2.17876 -3.59448 1.88212 0.614277 0.0749978
2022 3 23.5909 22.2827 25.1398 0.361067 1.01313 -1.99574 0.408015 -0.557811 0.00508364
2023 1 23.1528 21.8763 33.2627 -0.356596 -0.124779 1.11502 0.198986 0.173375 0.630176
2024 3 21.6234 23.5448 33.9633 0.564348 -0.219774 -0.360071 0.302542 0.0885684 -0.358778
2025 2 20.5336 23.5664 22.053 6.49369 -4.86482 -4.83402 1.25317 -0.773893 -0.326139
2026 1 21.0345 25.4022 20.5971 -0.278404 0.70588 -1.13156 0.307396 -0.123641 0.0633839
2027 3 22.1229 25.2506 18.5792 -0.785576 8.66507 2.8887 -0.0946632 0.567505 0.149435
2028 1 20.1155 25.7836 23.7577 0.97045 -3.78801 -2.20055 0.933621 -1.43375 -0.224797
2029 1 19.5675 27.311 26.7917 2.9221 -0.285485 0.476092 0.786563 -0.32058 0.309799
2030 3 20.5237 25.2345 27.3165 -7.83823 2.02213 -0.146736 1.45292 0.270362 0.218195
2031 3 21.7609 24.7966 24.7508 -0.959878 -0.152347 0.419282 -0.187468 -0.0860332 -0.409788
2032 1 21.6189 25.6691 32.5391 2.16733 -0.13167 -0.713135 0.395515 0.0425897 -0.010777
2033 2 19.3573 27.0979 21.7676 -8.54207 -1.94692 8.57325 -3.38676 0.247972 -0.408597
2034 1 19.046 28.9762 19.979 3.34523 0.433961 -0.15282 -0.592009 -0.458689 0.385877
2035 1 19.16 28.9744 23.8079 -1.00227 0.248808 -2.50878 -0.453614 -0.60762 0.568143
2036 1 17.9579 30.2298 26.8006 -3.01978 -3.03327 -0.702948 -1.16553 -1.59418 -0.231149
2037 3 19.3666 29.0639 27.7908 -1.93225 -0.399565 0.365936 0.907312 0.53871 -0.405959
2038 3 19.9861 27.3731 24.878 -3.19549 -2.10803 -0.771857 -0.12893 -0.0909246 -0.491567
2039 2 -17.2723 30.1742 30.813 2.59108 0.213887 0.359708 0.101081 0.295226 -0.105353
2040 3 18.9697 29.7363 33.8959 -0.661478 9.02674 2.15244 -0.639608 -0.225405 -1.66186
2041 2 17.3244 28.5498 21.9665 9.66567 -33.3851 -1.70551 2.69471 -2.03889 -0.669788
2042 3 18.8341 30.9103 18.7364 -10.0751 1.41012 -4.7525 0.500981 -0.989905 1.34068
2043 1 17.3798 31.8981 23.6715 -0.808261 2.76395 -0.539433 -0.283357 0.993656 -0.679927
2044 3 18.1718 30.4886 24.7208 -5.47431 -1.0829 -4.09478 1.67766 0.435968 0.784542
2045 1 17.3954 30.3935 35.0974 3.24851 6.80313 -2.18855 0.157202 -1.85768 -0.603431
2046 2 37.0066 0.199512 30.8313 -3.24152 1.10813 0.3041 -0.155841 2.01065 -0.137726
2047 1 19.0212 31.2893 32.9781 -1.40582 4.15358 -5.30025 -0.84282 2.04136 -1.44251
2048 3 17.1974 31.9607 33.7948 1.50383 4.01319 -0.676697 0.451785 0.678713 0.486238
2049 2 0.697136 0.504419 39.2949 2.57725 -1.18202 -2.04547 0.403486 0.0235848 -0.590576
2050 1 0.133983 1.73903 37.0285 -0.440267 -0.641587 -0.0533729 -0.319909 -0.1461 -0.105388
2051 1 0.366976 2.12795 41.559 -2.98126 0.863213 0.800582 0.211479 0.508806 -0.24073
2052 1 35.3917 3.00002 43.4753 -0.162889 -0.101179 -0.932277 -0.472654 -0.433235 -0.0176971
2053 1 -1.26708 4.42984 37.0985 -0.0589808 0.373842 0.310021 -0.0465013 0.262347 -0.265087
2054 1 0.232632 2.78838 46.2729 -1.15162 -0.0501088 -1.42696 -0.36744 0.0129905 -0.487659
2055 1 -2.8893 5.4553 43.844 -1.26606 1.62389 -1.89976 -0.496848 0.176711 -1.05833
2056 3 -1.12873 4.17096 45.013 0.318911 0.743015 0.0256316 0.0668104 -0.0586409 -0.173442
2057 1 -3.01961 6.86583 37.4651 0.66223 0.0456987 1.75046 0.273448 0.331625 0.954907
2058 3 -1.63118 6.29093 36.3272 -0.36956 2.88282 -0.710284 -0.0548138 0.0480459 -0.336591
2059 1 -0.991734 5.84124 46.2489 -1.2597 -1.34868 0.41397 -0.0477997 -0.0906785 -0.273032
2060 2 -1.96402 7.99768 47.4448 -4.37271 0.973995 8.18128 0.603272 0.190871 -1.34106
2061 3 -3.01427 8.73809 35.9573 0.0410172 0.28451 -0.000812032 -0.0777099 0.0407948 -0.022435
2062 1 31.1805 10.432 43.8243 -0.667099 -0.180751 1.43545 -0.0793128 -0.0876482 -0.368864
2063 3 -2.90631 8.2803 43.3695 -0.768979 -1.57877 -0.500551 0.0371085 0.680005 0.104257
2064 1 -3.53263 9.30074 48.7238 0.659791 -0.321851 -0.400434 -0.0352084 0.0353043 0.0190673
2065 3 -4.42232 11.9858 35.622 -0.46765 -0.599687 0.225354 -0.00583512 0.00488599 0.0612014
2066 1 29.4606 13.0803 43.382 -0.442029 -0.589476 -0.0413554 -0.0935097 0.0723543 -0.267152
2067 3 -6.30973 12.2938 44.2934 2.46308 2.3801 -0.725598 -0.186993 -0.12647 -0.274653
2068 3 -4.61319 10.8403 42.1986 -0.241212 0.64697 0.239739 -0.235491 -0.133777 -0.0423656
2069 2 -3.94634 13.1531 46.8724 0.779001 -0.553189 1.37538 0.2673 -0.375833 -0.221344
2070 1 -4.80537 12.3769 48.9865 1.62012 0.351424 0.058741 0.0472196 -0.130011 -0.326673
2071 2 -7.42136 13.7187 39.5484 -4.15564 2.23887 0.302473 0.982562 -0.103024 0.0229087
2072 1 -7.67946 15.2772 37.5881 0.105557 0.49479 0.607854 -0.373047 0.22706 -0.157737
2073 3 -6.27747 14.8057 35.9415 -0.0172443 0.494657 0.0778563 -0.142117 0.100935 -0.239295
2074 1 -7.44371 15.3421 41.5142 -0.814263 -0.0730485 0.246723 -0.0303114 -0.0455853 0.107622
2075 1 -9.19185 16.0746 43.9207 -0.0755895 0.355415 -0.705303 0.212067 0.0166437 -0.168643
2076 3 -6.09632 13.8942 42.6326 5.65169 -2.71359 -1.68074 -0.34695 -0.157126 0.789912
2077 2 27.9815 16.0373 39.4798 -1.0368 1.3268 -0.754789 0.128638 -0.15803 -0.00189882
2078 1 -9.45113 18.071 37.5076 0.115579 -0.588849 -0.13676 0.212717 -0.377855 -0.000319991
2079 1 -9.39665 17.9084 41.3539 -0.0225129 -0.587262 0.417785 -0.0708716 -0.0976184 0.113535
2080 1 -7.50441 17.4088 45.5537 -0.538732 0.73061 -1.17089 0.720854 0.449917 -1.86716
2081 1 26.5269 18.5926 43.6314 0.225832 0.164888 -0.490338 0.0531199 -0.111185 -0.226975
2082 3 -9.3395 18.0106 44.9751 -0.264727 0.249484 0.0607823 0.0152998 0.193212 0.164097
2083 2 -7.98059 18.6634 47.8255 -0.244687 0.0563646 -0.131171 -0.214884 -0.220913 -0.318115
2084 2 26.3243 18.6485 39.4641 -0.231053 1.05727 0.644597 -0.0855356 -0.0603085 -0.286311
2085 1 -11.0334 20.6383 37.9235 0.907709 -0.537365 0.80824 -0.858292 0.301945 -0.473979
2086 1 -10.9774 20.4213 41.2842 0.892342 4.13384 0.88877 0.0706722 0.498566 0.586425
2087 1 -9.28409 20.0749 45.8792 0.0859313 -0.064979 -0.438381 -0.240986 0.3015 0.396072
2088 1 -12.3286 21.4244 44.0285 1.41601 -1.12981 0.314779 0.440699 -0.0685799 0.0141983
2089 3 -11.1269 20.0366 44.8036 0.424622 -1.14318 0.41968 -0.282307 0.0368737 -0.220556
2090 3 -9.34143 19.8523 42.5675 1.16578 0.720399 -0.994966 0.0826343 0.00623827 -0.0423039
2091 2 -9.4101 22.0413 47.4748 0.11935 -0.341981 0.487993 -0.107182 0.400754 -0.509192
2092 1 -8.90765 20.4305 49.2641 0.948731 0.00524322 2.56762 0.521198 0.546403 -0.952361
2093 2 24.6978 21.4682 39.565 -1.78161 -1.17715 -0.696762 -0.0783915 0.15042 -0.0328679
2094 1 -12.6234 23.1449 37.5013 -0.725453 0.411311 0.723547 -0.283548 -0.371338 -0.271589
2095 3 -10.9291 22.3978 36.5198 -0.648878 -0.529004 -0.0238494 -0.243249 -0.0475253 -0.069122
2096 1 -12.3307 23.1345 41.5138 0.464178 -0.700519 0.934875 -0.221322 -0.0620063 -0.478749
2097 1 -13.7801 23.9778 43.7346 0.742484 0.5145 -0.877818 -0.105739 -0.109131 -0.0606821
2098 3 -11.9433 23.0149 44.9538 -0.292287 -0.460624 -0.387453 0.142139 0.0564752 -0.126546
2099 3 -11.1926 22.1202 42.661 -0.0219077 0.785516 0.447956 -0.0152452 -0.107662 0.0273562
2100 2 -13.7407 23.8812 39.6202 1.86584 3.07943 1.58902 -0.142452 0.395986 -0.0562936
2101 3 -13.1713 25.2039 36.5106 -0.0479624 -0.284853 -0.411835 -0.250876 0.0103324 0.075729
2102 1 -14.2378 25.6092 41.4457 0.738572 1.19582 0.863864 0.166888 0.0399 -0.00594396
2103 3 -12.4419 24.9591 42.7754 0.00152646 0.447316 0.014966 0.0430027 0.0769392 -0.220028
2104 1 -12.0806 25.3759 49.7188 0.248258 0.0749298 0.565257 -0.0755204 -0.0935245 -0.277662
2105 2 -14.088 26.9083 39.3528 -0.215974 -0.441161 0.0434473 -0.0138253 -0.196424 0.0660489
2106 1 -14.7905 29.4135 37.7532 0.922246 0.910312 -0.922671 0.0840449 -0.176771 0.141906
2107 1 -15.3339 28.297 41.2107 0.523523 0.311761 0.0346047 0.225697 -0.284286 0.135096
2108 1 -13.6075 27.5632 49.5775 -0.973753 -0.797506 0.57972 -0.12348 -0.0325454 -0.0826206
2109 2 -16.4939 29.5733 39.5071 -0.0691446 -2.32948 0.0918493 -0.350066 0.0144562 0.0778335
2110 1 -17.2046 31.2943 37.1379 5.61144 2.72956 -2.06067 -0.311686 -0.250725 -0.189677
2111 1 -16.8356 31.426 41.322 0.117211 -1.73982 -0.465239 -0.0429178 -0.204171 -0.00460397
2112 1 0.0171099 0.200595 43.3299 -1.22732 -1.00769 0.721518 0.111603 -0.525097 -0.737909
2113 2 -15.9117 31.9233 47.3376 -0.775521 0.552224 -1.47209 -0.151601 0.146303 -0.594233
2114 1 -14.7775 30.2527 49.2352 -0.0765955 -0.48106 -2.92016 -0.00134243 -0.278628 -0.142007
2115 2 -15.303 31.919 38.9123 -0.0770938 -2.80868 -1.07984 0.214117 -0.386669 -0.143138
2116 1 2.90543 1.68536 37.548 2.25204 -2.26093 0.180172 -0.152141 -0.0804797 0.0295085
2117 1 2.87539 1.61928 40.6374 2.10273 0.589725 0.303453 -0.140102 -0.138999 -0.0724537
2118 1 4.31194 1.32195 46.4096 0.447382 0.648732 -0.873509 0.00337273 -0.198671 0.315969
2119 2 4.71043 2.96721 48.2546 -0.529943 0.506293 0.170029 0.174809 0.211746 0.00100389
2120 1 4.08071 0.733694 49.2062 0.654387 -0.159 0.59256 -0.0800539 0.285186 -0.585021
2121 2 1.32961 3.00757 39.1472 0.297066 0.56273 0.478326 -0.156603 0.249644 -0.0544772
2122 1 1.4752 4.8046 37.3914 0.0904782 0.597399 -0.0154357 -0.111546 0.453893 0.030882
2123 1 1.40287 4.77669 40.9725 -1.42141 0.987568 1.77636 -0.20281 0.0270234 -0.229327
2124 1 3.19275 4.01126 46.5108 0.148104 -0.697539 0.768357 0.0967449 -0.0245026 -0.0784637
2125 1 0.289864 4.74795 43.8517 -1.8384 1.44778 0.431616 0.403272 -0.324287 -0.401414
2126 3 1.77999 3.92107 44.949 0.245965 0.0709455 0.737592 0.00433362 0.0191058 -0.000264547
2127 2 3.21002 6.28355 47.7633 -0.336835 0.177122 0.350243 0.281724 -0.0150522 -0.156354
2128 1 4.33392 5.08602 49.5812 1.27363 -0.00972977 -0.186787 0.0608313 0.221066 -0.00118631
2129 2 -0.199283 5.58859 39.2973 -0.91368 -0.774698 0.785342 -0.230002 0.101932 -0.0321054
2130 1 -0.0733084 7.44823 37.6553 1.13704 -2.07505 3.48357 -0.597783 0.000831372 -0.749875
2131 1 -0.0524665 7.72787 40.671 -0.606501 -0.672435 -1.02477 -0.17641 0.0670756 -0.0928621
2132 1 1.84256 6.25257 45.6203 -1.13424 0.30462 -0.582446 0.166787 -0.151657 -0.160468
2133 1 -1.17357 7.45001 43.3676 0.722191 1.43689 -0.42549 0.0292528 -0.160007 -0.0172696
2134 3 0.114596 6.77693 44.6972 -0.195149 0.0252284 0.743094 0.127778 -0.114473 -0.0714771
2135 3 2.44489 5.99415 42.3287 1.25494 1.12502 4.42449 0.577504 -0.0895977 -0.291691
2136 2 1.38958 7.93225 47.4601 1.84787 0.711135 -0.936639 -0.6806 -0.377822 0.0387686
2137 1 1.61993 6.54252 49.56 -0.164343 -0.112124 0.764165 -0.0550284 -0.285232 -0.319592
2138 2 -2.19829 8.14548 39.5332 -3.84395 -2.81586 4.90302 -0.199702 0.0591701 0.0499067
2139 1 -1.81772 9.61277 37.2102 0.673115 1.19188 -0.525564 -0.0168052 -0.22559 0.2258
2140 3 0.0186714 8.69 36.0628 1.04876 -0.252008 0.0721368 -0.0820661 -0.0356684 -0.0924345
2141 1 -1.94475 9.7467 42.0175 -1.47035 0.0443712 -0.186157 -0.0252862 -0.18085 -0.463617
2142 1 -0.232612 8.61426 45.8879 -0.253271 0.563486 -0.46033 0.265308 -0.105204 -0.130528
2143 3 -0.0399742 8.9772 42.5281 0.151881 2.37112 -0.377877 -0.0534872 -0.185923 -0.429653
2144 1 -0.270537 8.87142 48.9722 -0.334043 -0.161755 0.13423 0.0292317 0.167749 -0.329186
2145 3 -1.71697 11.4398 36.1356 -0.377455 -0.00104506 -0.933724 0.0507373 -0.0971622 0.149634
2146 1 -4.51761 12.6473 43.4373 -0.591026 -0.936315 0.448769 0.0626055 -0.442436 0.367258
2147 3 -1.92585 11.3035 43.4502 0.2606 0.123735 -0.20046 0.123577 0.157982 -0.0969133
2148 2 -1.22341 12.729 47.4253 2.17615 2.02277 -5.71734 -0.188134 -0.216652 -0.0388226
2149 1 -1.70159 11.2576 49.2274 -1.95775 -1.02234 1.63806 0.101078 -0.090407 -0.636786
2150 2 -5.02369 12.9805 39.0679 -4.81054 0.935285 0.910654 0.586822 -0.257826 -0.414866
2151 1 -4.73401 14.9772 37.519 -1.67072 1.12641 0.383394 0.0903872 0.0109111 -0.463121
2152 3 -3.06132 14.5715 36.219 1.18 -0.193658 -0.559788 -0.409233 -0.0204091 0.0534711
2153 1 -4.78741 14.434 41.062 0.819238 0.611653 0.735268 -0.484973 -0.374303 -0.328587
2154 3 -3.47366 14.4258 42.6097 1.43838 -0.0107554 -1.16364 -0.171732 -0.226496 -0.265197
2155 1 -2.67307 14.3229 48.722 -1.24652 0.610483 2.55503 -0.0512429 -0.164983 0.158557
2156 2 -6.02942 16.0848 39.4951 -0.41027 0.432075 0.600325 0.172868 -0.0370086 -0.112498
2157 1 -6.14419 17.9379 37.7742 0.388428 -0.837481 -0.277368 -0.0345 -0.107441 0.0448826
2158 3 -4.64097 16.9282 36.4035 -0.551729 0.689867 -0.255553 -0.030977 -0.0483097 -0.137184
2159 2 -7.85156 18.8146 39.5515 -0.00792901 0.117836 0.109978 0.0783768 -0.04613 -0.0634154
2160 1 -7.77045 20.6504 37.7495 -0.736674 0.0573406 1.19353 0.771131 0.264558 -0.844077
2161 1 -7.71769 20.7665 41.4266 0.905424 -0.623006 0.152185 0.0116931 -0.326578 -0.102624
2162 1 -6.38208 19.6146 46.2278 2.4175 -3.27493 -0.498607 -0.104543 0.277103 -0.337156
2163 2 -6.36267 21.535 47.9509 -0.530332 -0.657715 -0.667041 -0.60733 -0.096708 -0.169387
2164 1 -6.43635 19.7595 49.5323 -0.0275555 0.645086 0.520761 0.295101 -0.00907344 -0.489208
2165 2 -9.33595 21.2811 39.5289 0.213756 0.173741 0.517274 0.030221 -0.20807 -0.209201
2166 1 -9.27495 23.2842 37.4959 -0.223456 -0.564864 1.32112 -0.319264 0.190768 -0.378814
2167 3 -7.52474 22.4947 36.5145 0.783523 2.16115 -1.51595 0.0317278 -0.52705 0.0979567
2168 1 -10.8469 23.8792 43.5847 -2.90057 1.36784 1.14168 -0.147299 -0.0250116 -0.28961
2169 1 -7.7661 23.0825 49.0978 0.360483 -0.135493 -0.00224468 -0.173955 0.222425 -0.171545
2170 3 -9.17412 24.8579 36.0279 -0.860801 -1.6908 1.37421 -0.0633079 -0.320948 -0.316228
2171 1 -9.36046 25.8284 46.7402 -0.891501 -1.41433 0.926824 0.144941 -0.0120863 0.0630647
2172 1 -12.3016 26.6217 44.0202 0.792992 -0.545277 -0.408759 0.117294 -0.00340225 -0.216815
2173 3 -10.9859 26.0522 45.5206 -0.285756 -0.227451 0.597586 -0.0427524 0.0112576 0.073341
2174 2 -9.69855 28.1423 47.9611 -1.77295 -0.814642 -0.828039 -0.154365 -0.0434419 -0.245952
2175 1 -9.381 25.9706 49.2963 -0.568252 -0.879101 -0.0843133 -0.137274 0.875488 -0.110694
2176 1 -12.0887 29.4712 37.2983 0.334073 1.82862 0.063134 -0.523183 -1.40866 0.276215
2177 3 -11.3999 27.8012 36.1618 -0.682614 0.341749 0.694936 0.0911374 0.0125878 -0.0824024
2178 1 -12.949 28.6572 42.2142 -0.0526607 0.788133 -1.62159 -0.0047328 0.132062 -0.467975
2179 1 -11.1341 27.9574 46.0039 -0.433087 1.0773 0.0622832 0.717036 -0.514524 -0.153647
2180 3 -11.1662 27.8525 43.0583 -0.850513 2.23121 3.50253 -0.0843208 0.0516964 -0.0439423
2181 1 -11.0382 28.0046 49.9158 -0.313494 -0.101695 0.699791 0.424022 0.162591 -0.421406
2182 2 -13.2245 29.1953 39.7374 0.70785 -0.936272 -0.264755 0.248518 -0.16529 -0.0535617
2183 1 -13.2843 31.7944 37.2162 -0.552754 1.07298 1.55338 0.441365 0.54674 0.475806
2184 3 -12.5173 30.7601 35.6646 -1.53448 0.325189 -0.240288 0.12061 0.0141281 -0.0906545
2185 1 -13.7291 31.2914 40.8886 2.67606 -1.23725 -3.05528 -0.287132 -0.428843 0.243063
2186 1 -12.1849 30.1676 46.4298 0.786879 1.10299 -2.27263 0.638884 0.0811601 -0.153131
2187 3 -12.4145 30.56 42.6167 2.02067 0.606785 -0.428641 0.000549646 0.00641984 -0.0511378
2188 2 -12.7792 31.9683 47.9436 -0.694487 -1.1571 0.365016 -0.114458 -0.428006 -0.259783
2189 2 6.5511 0.00344534 39.2872 0.0772525 1.35128 -0.318531 0.117457 -0.178281 0.0953988
2190 1 6.27706 2.0229 37.4879 -0.809979 0.0934911 0.3304 0.0611455 -0.127146 -0.108047
2191 1 6.15272 1.75801 40.9761 -0.346378 -0.433114 -0.978386 0.0119479 0.180421 0.0620708
2192 1 7.15632 0.87734 45.9894 -1.09037 2.01413 1.33057 -0.312541 -0.0790445 0.141642
2193 3 5.74623 1.75076 44.8952 0.00600977 -1.55545 -0.884227 -0.00269622 -0.106399 -0.103607
2194 3 7.25163 0.893897 42.7036 0.234628 -0.709364 0.373628 -0.166357 0.171742 0.104478
2195 2 7.87834 2.24053 47.9115 0.219477 -0.514921 0.193543 -0.0151174 -0.0713078 -0.118213
2196 2 4.58622 2.75931 39.1866 0.421822 2.48459 -0.183052 -0.105217 0.489589 -0.134027
2197 1 4.43425 4.56204 37.174 -1.5437 -1.58828 -0.623081 0.534421 0.283969 0.0481827
2198 3 5.95753 3.55966 36.0666 0.696069 0.000371331 0.421476 -0.0410767 -0.100775 -0.093693
2199 1 4.18583 3.99642 41.3639 0.40882 0.170835 -1.66644 0.0622604 0.321821 0.00656363
2200 1 6.18439 3.5491 46.1852 0.185194 0.158288 0.333158 0.111849 0.0226447 -0.0796895
2201 1 3.35646 4.80683 43.6431 -2.04352 -1.22748 1.99177 0.0218433 -0.0901798 -0.0456318
2202 3 4.84223 4.40748 44.9321 -0.191934 0.696518 -1.48153 0.0153591 -0.0295354 -0.0313387
2203 2 5.90081 5.58782 47.7114 -0.26507 -0.0761639 0.210955 0.0449107 0.153794 -0.0559422
2204 1 6.94836 3.99321 49.3384 -0.475749 0.0634331 0.134943 0.26495 0.210688 -0.226915
2205 2 3.14659 5.33262 39.2645 -0.00629375 0.207078 0.120561 0.0222706 0.0519997 -0.121793
2206 3 5.0577 6.30408 36.532 0.851061 0.667711 0.471691 0.035735 0.00518153 -0.173158
2207 1 3.22164 7.23749 40.9578 0.412582 0.357323 0.956514 -0.00370294 0.0994611 0.0245451
2208 1 4.57651 6.12293 45.7247 0.419776 -1.14587 -0.201125 -0.0630032 0.297713 -0.143707
2209 1 1.59432 7.81455 43.4505 0.450963 -0.201478 -1.02514 0.0842957 -0.0726562 -0.108566
2210 3 3.24164 6.57302 44.284 0.250679 1.63687 0.4463 0.00698007 -0.404074 -0.259715
2211 2 1.8432 8.20579 39.0394 0.793921 -1.17087 0.00934262 -0.0309832 -0.156126 -0.172423
2212 1 1.4018 10.0017 41.2974 0.177789 0.633802 0.564665 0.0128816 0.0247603 -0.0424345
2213 1 0.126178 10.8181 43.6875 -0.173652 -0.198761 -0.881078 -0.00963326 -0.266707 -0.256978
2214 3 1.17158 9.55412 44.7398 0.484391 1.25744 -0.0414055 0.167143 0.0087185 -0.00897272
2215 3 3.08787 8.89375 42.2694 0.629326 0.436199 -0.227717 0.138222 0.206751 -0.229192
2216 1 3.17098 9.05914 48.3926 -1.7823 -0.375407 -0.665362 0.491518 -0.081659 -1.18489
2217 3 1.77411 11.4349 36.6919 0.262424 -0.278615 -0.0816638 0.0129337 0.195919 0.100738
2218 1 -1.83897 13.4358 43.3311 -0.0623817 -0.437835 -0.411868 0.0618506 0.0515202 -0.201773
2219 3 -0.368133 12.642 44.4176 -2.36288 0.0635009 4.53468 0.0749787 0.039494 -0.281531
2220 3 1.62585 11.7193 42.7718 -0.0913535 -0.132284 0.0775572 -0.18271 0.0500073 -0.0463984
2221 1 1.36365 11.5525 47.9343 0.573635 -0.0304515 -0.0664892 0.101736 0.01668 -0.264988
2222 1 -1.42275 15.0932 37.721 -0.564559 -0.472059 1.03619 -0.088822 -0.170585 -0.486686
2223 3 0.297744 14.6559 36.3562 0.756788 -0.217313 0.337895 -0.072829 -0.00742476 0.187868
2224 1 -1.87017 15.1985 41.0147 0.298908 0.39523 -0.299348 -0.635916 -0.188985 -0.21938
2225 1 -0.177254 14.3168 45.6015 0.785425 -0.218005 -1.4175 0.0225085 -0.617287 -0.42074
2226 1 -3.43411 16.2576 43.5738 0.648608 -0.515821 -0.734809 0.571675 -0.376977 -0.574557
2227 3 -1.88784 15.0989 44.6175 -1.47184 -1.47541 2.88097 -1.01085 -0.703062 -0.344463
2228 3 -0.605563 14.2844 42.1256 0.11681 0.591567 -1.42664 -0.368572 -0.427695 -0.0446387
2229 2 -0.522475 15.6089 47.8224 1.23509 -1.5428 0.979098 -0.171397 -0.218449 -0.180027
2230 1 -0.0857777 13.8182 49.4817 -0.122831 0.241482 1.44851 -0.0569611 -0.336934 -0.37727
2231 1 -3.17792 17.6422 37.6567 0.0501386 -0.225654 0.167103 -0.381488 -0.123447 -0.159745
2232 3 -1.62124 16.9503 36.6554 -0.696597 -0.607728 0.900457 -0.213469 -0.0386889 0.221191
2233 1 -1.61856 16.7721 45.9693 1.03411 0.504494 -0.403961 -0.0764302 0.486817 -0.125996
2234 3 -3.01869 17.6917 44.9302 0.529026 0.485196 0.0990763 -0.184723 -0.324034 -0.101079
2235 3 -1.96901 17.0259 42.315 -3.19153 -0.805248 3.34552 0.530397 0.175925 -0.763369
2236 2 -1.82967 18.6584 47.7831 -0.48522 0.989586 -0.631237 -0.222663 -0.0627925 -0.0909618
2237 1 -4.71509 20.4727 37.7806 -0.0594618 0.236627 0.375033 0.180996 0.264135 -0.0602474
2238 3 -3.06656 19.3627 36.5313 3.44732 1.65764 -0.795333 -0.324632 -0.205032 0.12412
2239 1 -3.58672 19.3938 45.9168 1.32004 -1.0318 -2.38705 0.0121669 -0.254801 0.0890922
2240 1 -6.58461 21.4949 43.9109 -0.228076 -0.0832451 0.419972 0.296401 -0.0396167 -0.58666
2241 3 -5.15344 20.2057 44.605 0.266747 1.3833 -0.953137 -0.146982 0.0794967 -0.040915
2242 2 -3.46673 21.4873 47.7468 0.361923 0.103433 -0.173796 -0.151385 -0.283697 0.270279
2243 2 -6.26826 21.5082 39.5887 -0.290866 -0.212076 -0.0563887 -0.248253 -0.0963048 -0.224756
2244 1 -6.19515 23.3635 37.8034 0.777059 -0.53931 0.650961 0.0143792 -0.337575 0.482016
2245 3 -4.49285 22.2443 36.6727 0.892767 0.354911 -0.805861 0.253731 -0.199275 0.0571206
2246 1 -5.66102 23.2381 41.2195 -0.390461 0.104224 -0.0319051 0.0150335 -0.472041 -0.351935
2247 1 -5.04312 22.1023 45.924 1.22967 1.2146 -0.0655226 -0.32599 -0.328101 -0.869452
2248 3 -4.99765 22.6985 43.057 2.18624 1.09761 -1.22967 -0.298512 0.130109 0.454772
2249 1 -4.70219 23.3864 48.8171 -1.3384 1.1557 -1.13077 0.109271 -0.285633 0.365388
2250 1 -7.91192 25.9783 37.3512 -0.0270328 0.0636825 0.466733 -0.110769 -0.0329246 -0.307893
2251 3 -6.38764 25.198 36.4779 0.209091 -0.467183 -0.120094 -0.0474568 -0.152489 -0.221471
2252 1 -9.37482 26.8814 44.0971 0.565523 0.660218 0.798325 0.203132 -0.0544088 -0.186039
2253 3 -7.68744 25.8851 45.3187 0.0377672 0.153687 1.11919 0.0599901 -0.1681 0.00989862
2254 3 -5.80151 24.8554 42.7898 0.494408 -0.289113 -0.0914491 0.0662623 -0.161222 -0.0875322
2255 2 -5.83836 27.7896 47.9851 0.244355 0.916078 -0.137598 0.00265437 0.180651 -0.145209
2256 1 -7.00957 25.5986 48.1977 1.63303 -0.550816 0.291957 0.397341 0.300456 -0.253613
2257 3 -7.80621 27.6853 36.062 0.205958 0.675754 1.02757 0.133493 -0.0436181 -0.188456
2258 1 -7.61336 27.8794 46.1724 0.663457 1.82925 0.901073 0.113209 0.14029 0.0134945
2259 1 -10.7587 29.6996 43.8172 0.242679 -0.50178 -0.741094 -0.0666248 -0.118468 -0.0520988
2260 3 -9.21675 28.7695 44.8968 -0.725785 3.0687 0.369641 -0.0333989 0.0645711 -0.131725
2261 3 -7.55673 27.7547 42.8372 -1.42266 0.197336 0.597126 -0.374848 -0.0754828 -0.0558386
2262 2 -7.21474 30.1592 47.2057 2.0075 -2.23892 -5.44107 0.202519 -0.389944 -0.818975
2263 1 -7.74997 28.723 49.2285 0.433421 0.487986 0.629084 -0.396083 0.0604016 -0.183581
2264 1 -10.9505 31.571 41.528 -0.737883 0.148858 -0.549576 0.0979574 -0.25666 -0.0936305
2265 1 -9.52017 30.2603 46.4012 0.95362 -1.13554 -1.74296 0.232569 -0.17488 -0.391564
2266 1 -12.7775 32.2761 43.6556 -1.01409 -1.97968 0.332012 0.245628 0.220831 -0.171211
2267 3 -11.1404 31.3163 45.0969 -0.0038607 -1.96397 -0.0491496 0.195333 0.123093 -0.245992
2268 3 -9.47611 30.5726 42.8706 -0.0499323 0.380858 0.148397 0.0495677 0.00373442 -0.00537417
2269 1 7.47156 2.63584 43.8449 -0.558122 0.623982 -1.68896 -0.185359 0.166865 -0.600476
2270 3 8.84586 1.78651 44.9117 -0.252756 -0.369317 0.165967 -0.0555247 0.139796 -0.122793
2271 3 10.9084 0.65838 43.4345 2.36852 -3.49152 -0.982768 0.105097 -0.0371692 0.249181
2272 2 7.7309 2.97659 39.4151 -0.392013 0.588971 -0.0781508 -0.0616044 0.223633 -0.0949603
2273 1 7.46047 4.659 37.4537 -0.389156 -2.02907 1.34633 -0.0438298 0.18847 -0.242044
2274 1 7.43692 4.7215 41.3316 -0.961724 -0.200395 0.226017 -0.140238 0.00360008 0.0425705
2275 1 9.05924 3.63637 46.126 -0.188597 0.682067 0.748311 -0.295138 -0.269456 -0.408173
2276 3 8.89298 3.97106 42.8963 1.6791 -1.23349 1.19494 -0.0426705 0.014946 -0.102951
2277 2 8.85353 5.20577 48.1014 0.0127352 0.232025 0.0609103 0.241228 -0.0624927 -0.163493
2278 1 10.1131 2.98954 48.7587 -0.0854511 0.898586 -0.0961184 0.361912 -0.710901 -0.998564
2279 3 7.82891 6.07116 35.8126 -0.642756 0.55328 1.08649 0.202741 -0.229211 -0.339358
2280 1 7.56952 6.52271 46.2318 -2.64996 -0.822799 1.82768 0.155185 -0.0742926 -0.24299
2281 1 4.38504 8.08258 43.7316 0.524227 -0.773183 -0.172947 0.192883 -0.0739199 -0.233078
2282 3 6.13094 8.87173 35.6391 -0.822034 -0.153543 2.23042 0.166838 -0.0217294 0.0674266
2283 1 5.19313 9.44667 41.6496 -1.10591 -0.844455 -1.25349 -0.0565432 0.0805619 -0.147122
2284 1 6.09921 8.94824 45.5986 3.79448 -2.72642 -0.4041 0.083568 0.0714303 -0.367273
2285 1 2.84598 10.2953 43.6977 0.84849 -0.51626 -0.216399 0.446532 -0.0735574 -0.656973
2286 3 4.33185 9.78893 45.0711 0.324176 -1.01813 0.723645 0.096273 -0.0106008 -0.149609
2287 3 6.18632 8.81864 43.4444 1.34261 1.62853 -1.40297 0.148786 0.199039 -0.467859
2288 3 5.02486 12.0293 35.5686 -0.252368 0.0653825 -0.167602 -0.0550783 0.0361424 -0.00223524
2289 1 4.48399 11.2814 46.5047 3.15274 -1.90576 -0.881244 0.148605 -0.199127 -0.522752
2290 3 4.54832 11.1356 42.4356 -0.726509 -2.4297 -0.127212 0.167686 0.247396 0.00796762
2291 2 4.73705 13.0994 48.1685 -1.68139 0.615388 1.74507 0.502425 -0.180199 -0.483861
2292 1 4.36151 11.1213 49.3922 -0.358172 0.00887081 0.498181 0.0566513 0.117399 -0.176727
2293 1 1.53134 14.2408 38.006 0.149134 -1.839 -2.53803 0.0599462 -0.616531 -0.329564
2294 3 3.17286 13.5792 36.6736 -0.342634 -0.00656252 -0.417488 0.0630019 0.107815 -0.00880473
2295 1 -0.607151 15.9346 43.4522 0.0446561 0.380548 -1.95001 0.549082 0.185526 -0.171153
2296 1 2.72057 13.9537 48.9181 0.769806 -0.0729358 -0.246042 -0.318844 -0.0921226 -0.00629013
2297 2 0.513595 15.8886 39.5139 3.67421 -0.791334 -1.77304 0.238415 1.13729 0.408388
2298 1 -0.165225 17.5043 41.2487 0.274392 -1.83544 -0.733317 0.501523 0.349778 -0.371615
2299 1 1.1353 17.301 46.6639 1.857 -0.334234 1.41603 -0.221539 0.242753 0.00567468
2300 1 -1.51042 18.5877 43.685 -0.897089 -1.93825 0.0828694 0.23796 0.403418 0.270165
2301 3 -0.158427 17.5976 44.9366 3.90439 0.549988 -0.121351 -0.466653 -0.34058 -0.421825
2302 3 1.23287 15.9229 42.6463 -2.28183 -0.884086 1.85939 0.095563 0.442023 -0.0813543
2303 1 -0.522501 19.5117 45.8625 0.295866 2.67325 -0.512175 -0.113827 0.330269 0.716128
2304 1 -3.58679 21.2221 43.5018 0.0165417 -0.320704 -0.195127 0.102846 -0.135634 -0.912745
2305 3 -2.2614 20.2412 44.8094 -0.718816 -1.5906 4.03101 -0.0012762 -0.0308062 -0.849379
2306 3 0.253972 19.0652 42.5821 1.17581 -0.747666 0.357746 -0.196346 -0.259239 0.252152
2307 2 -0.762724 21.304 47.7437 0.484911 0.496987 -0.158485 -0.169053 -0.0847493 0.271234
2308 2 -3.77557 21.5613 40.0172 -1.34132 0.0929894 -0.0155826 -0.665427 0.123768 -0.107158
2309 1 -2.96113 22.7607 37.9854 -1.63808 0.624991 -1.31239 -1.09511 -0.353192 0.160619
2310 3 -1.96987 22.6727 36.1104 0.116127 1.07081 -0.0800197 -0.0266445 -0.132387 0.0222589
2311 1 -2.99526 23.1374 41.7227 -1.05867 0.0349701 -0.86672 -0.343091 0.314145 -0.307083
2312 1 -2.04739 22.2002 45.8366 0.399565 0.339183 0.953417 -0.234507 -0.00901796 -0.427611
2313 1 -4.26463 24.2615 44.046 0.785082 0.731986 -0.575298 0.0908839 0.130036 -0.188159
2314 3 -3.5927 22.5948 44.7559 -2.10088 0.12795 0.134302 -0.529279 0.0107969 0.161997
2315 3 -1.72755 22.0577 42.8548 -2.5734 2.22177 -0.40129 -0.178849 -0.128046 -0.264705
2316 2 -0.775063 24.1156 46.8405 -1.70736 0.575502 -0.332796 -0.0428219 -0.0390388 -0.827511
2317 1 -2.08484 23.1983 48.8199 0.585589 0.18701 0.354168 1.12798 1.50876 -0.698576
2318 1 -4.44788 25.8112 41.7741 -0.401491 0.244357 -2.25393 -0.139133 -0.161688 -0.476068
2319 1 -6.08149 26.6449 44.0195 0.205603 0.610803 -1.00254 0.116641 -0.133256 0.10925
2320 3 -4.88718 25.4232 45.4915 -0.276715 -0.310191 -0.736052 -0.244334 -0.0618065 -0.106228
2321 3 -3.0144 24.8144 42.6646 -0.619955 -0.445564 -0.0686119 0.346359 0.113098 0.119974
2322 1 -6.13241 28.7011 37.0667 -0.257249 0.717322 -0.125479 0.106938 -0.0749999 -0.179128
2323 3 -5.01159 27.5238 35.7634 -0.441018 0.868584 -0.360805 0.0124496 -0.0806424 -0.22867
2324 1 -6.22037 28.6554 41.2415 -2.67008 1.18922 -3.74493 -0.174617 -0.194158 0.715033
2325 1 -7.54722 29.6428 43.7913 0.69896 -0.378118 -0.527486 0.182903 -0.11696 -0.0766286
2326 3 -5.87097 28.5111 44.8507 3.03941 -0.507817 -3.08656 0.395934 -0.220783 -0.351497
2327 3 -4.8937 27.5575 42.5676 0.568638 0.0044575 0.49328 -0.34705 -0.126467 -0.375001
2328 2 -4.33527 29.9015 47.2716 -0.134553 -1.21133 -4.56758 -0.334538 -0.34889 -0.577485
2329 3 -6.06153 30.3885 35.823 -0.703393 -0.386347 -0.304056 0.0126132 0.135872 -0.157183
2330 1 8.92219 0.0346949 43.8537 -0.419182 0.066819 0.0631807 0.0373712 0.03287 -0.0261627
2331 3 -6.71384 30.8304 42.1404 -0.66147 1.8778 -1.63655 -0.035668 0.0415527 -0.160465
2332 1 -5.79977 31.3007 48.7975 0.198248 0.799406 1.33987 0.0504611 -0.213095 -0.413031
2333 2 12.6739 0.296458 39.4099 -3.26047 -2.93744 0.462477 0.142446 0.0253392 -0.0897275
2334 1 12.7143 2.02882 37.29 0.455172 0.43075 0.852876 -0.119301 -0.109524 -0.242399
2335 3 14.103 0.678482 36.1105 0.397339 -0.279814 0.531132 0.0695661 0.0705752 -0.100044
2336 1 14.1507 0.983904 45.19 -0.15006 -0.25636 0.399722 -0.126331 -0.0946444 -0.159646
2337 1 10.5105 2.59793 43.9296 -0.0198597 0.109458 0.538786 0.0125671 -0.401787 0.208023
2338 3 11.9832 1.08842 45.2453 -1.09593 -1.72397 0.822259 -0.243061 -0.180296 -0.225777
2339 2 14.5909 2.47017 47.6206 4.61814 6.36032 2.8967 0.917395 -0.140877 -0.426682
2340 1 14.0364 1.11949 49.5452 0.0457924 -0.400076 0.210508 -0.181207 0.125005 -0.208784
2341 2 11.0156 2.76166 39.2505 -0.210359 0.184202 -0.553784 0.0689232 0.269114 -0.064028
2342 1 11.086 4.60693 37.33 -0.221177 1.08098 -0.0692203 0.0601638 -0.157131 -0.22978
2343 3 12.7293 4.25939 36.081 0.52177 0.865453 -1.13822 0.150317 0.188188 -0.198264
2344 1 10.7531 4.41136 41.5023 -0.073624 -0.187165 0.154608 -0.184493 0.0311627 -0.247293
2345 1 12.4775 3.06374 46.3082 -0.0151421 1.62206 0.905229 0.213031 0.192613 1.2966
2346 3 11.0594 3.94013 45.2498 -1.87385 -0.116193 0.888061 0.621045 -0.102383 -0.0411578
2347 2 12.7998 5.92525 47.0344 1.61526 -3.22702 -1.47072 0.0947117 -0.0570646 -1.17981
2348 2 9.43603 5.03293 39.3239 0.27026 0.480086 -0.267203 0.05811 0.110915 -0.129068
2349 1 9.02681 6.85248 37.3992 1.99491 1.94262 0.634623 -0.105448 0.0268233 0.0505048
2350 3 10.6042 6.43398 36.4469 -0.575316 -0.219226 -0.580002 -0.0652008 0.0124088 0.0224109
2351 1 10.4817 6.08584 46.0498 0.256512 0.91366 -0.268603 -0.473723 0.0393663 -0.481737
2352 3 8.9908 6.80276 44.9901 -3.76929 1.35283 -4.61139 -0.622939 0.142027 -0.91708
2353 2 10.8034 7.78437 47.9035 -0.158143 -0.307677 -0.426043 0.113975 -0.18595 -0.160278
2354 1 11.2633 5.63338 49.0602 -0.401319 0.328621 1.17194 0.247616 0.0685856 0.193312
2355 1 7.2714 9.57933 37.3263 2.95122 7.03544 3.49946 0.0746383 -0.508806 -0.389208
2356 3 8.96499 8.69746 36.3264 -0.498588 -0.366921 0.454797 -0.00361149 -0.0257611 -0.0473487
2357 1 9.07704 8.98857 46.3162 -3.11363 1.946 -1.85381 0.0362389 -0.161935 -0.145419
2358 1 5.9613 11.0218 43.8462 2.45494 -0.839844 -2.19639 0.565766 0.280276 -0.512395
2359 3 7.40373 10.3163 45.2273 0.701359 -0.058 -0.0787658 -0.072462 -0.0263714 -0.302355
2360 2 9.28577 11.24 47.6139 -0.31272 -0.159293 0.652713 -0.300343 -0.146183 -0.259524
2361 2 5.76773 10.4996 39.1554 8.56226 1.77824 0.455404 -2.00175 -0.13922 -0.0281887
2362 1 5.92224 12.3869 37.5367 0.630303 0.212128 0.252609 -0.656568 -1.26632 -0.417359
2363 3 7.59754 11.2536 36.4801 0.580511 0.453455 -0.437957 -0.130975 -0.150521 -0.165843
2364 1 6.14518 12.1125 40.9131 1.29687 -0.0361679 0.241865 0.443294 0.512628 -0.166727
2365 1 7.08535 11.7612 46.4912 -0.540166 1.3331 -0.838285 0.108415 -0.239319 -0.149949
2366 3 5.63371 12.5603 45.2346 -0.197265 0.464379 0.103569 -0.0236874 -0.0513279 -0.178756
2367 3 7.27209 12.8154 42.7228 3.28682 2.57454 -0.831335 1.30599 -0.0186914 -0.767449
2368 2 7.94376 13.5705 48.0524 0.272331 0.0190089 0.473173 -0.0939357 0.0547641 -0.318112
2369 2 4.20315 13.1184 39.6437 0.985416 0.959796 0.236438 -0.473861 -0.201786 -0.0859534
2370 1 4.47701 14.8705 37.323 -1.28022 1.71324 -4.56121 0.997363 -0.627115 -0.876926
2371 1 6.1603 14.2541 46.5407 0.657285 2.40107 3.44373 -1.33061 -0.886575 -1.30786
2372 2 6.15131 16.0688 48.2623 -0.445934 1.2727 0.429129 0.109242 -0.0513835 -0.705881
2373 1 6.05377 14.1168 49.7627 -0.641805 2.0091 0.896855 0.0399798 0.216562 0.00834412
2374 2 3.09768 15.8351 38.9828 -3.2241 -0.0590205 0.0734252 0.227824 0.573503 1.06056
2375 1 2.29641 17.4561 37.3521 0.234601 1.05816 -0.661445 -0.835361 -0.436851 0.451249
2376 1 2.53739 16.6088 41.2404 0.23882 0.940486 0.198306 -0.53569 -0.283946 -0.505807
2377 1 3.74183 16.3069 45.5239 -3.34862 -1.65108 1.21649 -0.0746566 0.698656 0.357466
2378 1 1.38656 17.9619 43.6618 0.074992 0.0789844 -0.424928 0.167141 -0.149781 0.165373
2379 3 2.71621 17.7813 44.983 2.19422 -1.37228 2.07601 0.288229 -0.114945 0.175813
2380 1 3.87783 16.6189 49.0943 -0.13759 4.51155 -4.30182 -0.273745 -0.626295 -1.37054
2381 2 0.552987 18.5398 38.8957 0.319464 0.175798 0.0145777 0.0555524 0.0714867 0.362209
2382 1 0.60822 20.346 37.1267 0.826363 -0.737172 -4.91111 -0.837518 -1.16139 1.62533
2383 1 2.85726 19.5079 45.6093 0.780827 1.913 0.983509 0.625881 -2.91329 0.0945642
2384 3 1.16658 20.0461 44.8786 -3.17273 2.61016 1.74679 0.222053 0.54364 0.242891
2385 3 2.75089 18.259 42.1152 -0.826411 -1.01712 0.617713 0.729202 0.652261 -0.826147
2386 1 -0.629249 23.7749 37.4587 -1.80313 2.35855 -0.263895 0.0675457 0.183009 -0.236631
2387 3 1.43285 22.7718 36.3778 -0.504975 6.28696 5.58318 -1.16929 -0.731503 -0.664758
2388 1 1.0286 22.0209 46.315 -0.447651 0.432626 -0.101028 -2.43994 1.5511 0.449985
2389 2 1.58982 24.8844 47.016 -2.96981 0.738398 -1.10895 -1.66967 1.47217 1.30836
2390 1 0.648473 23.1266 48.7379 -0.0470392 -0.461569 -0.0312163 -0.458572 0.201228 -0.20002
2391 2 -1.90697 24.3619 39.6211 -0.617714 -1.05907 -0.42463 -0.593347 0.560962 -0.0627439
2392 1 -1.9068 26.2289 41.8945 -0.973773 -1.89583 0.17793 -0.161266 -0.00707781 0.217215
2393 1 0.035248 25.8177 48.6669 -0.0667731 -0.101878 0.903265 -1.04977 -1.11635 -0.19401
2394 2 -3.36743 26.7661 39.7111 5.98064 -1.98309 1.71597 0.203716 -0.0852462 -0.0481368
2395 1 -3.50706 28.6054 41.5258 -5.59594 -3.93785 -0.922192 0.422319 0.280836 0.0628771
2396 3 -2.18098 28.1272 43.3197 -0.772578 0.216236 0.625738 -0.411492 0.317942 0.190873
2397 2 -4.66028 29.6646 39.3533 1.94269 0.36319 -0.207923 0.297279 0.072632 -0.0287246
2398 1 -4.38793 31.17 37.1454 -0.29736 -0.0909228 0.170229 0.0112579 0.077269 -0.192945
2399 3 -3.0231 30.2688 35.7543 0.561419 0.319852 0.0777729 -0.0558772 0.105341 -0.124269
2400 1 -4.71591 31.2889 41.4081 -0.0050792 0.440935 -0.020506 0.019575 0.0435616 0.0197079
2401 2 15.0034 0.0227724 47.443 -0.125827 3.8744 0.681127 -0.17471 -0.0320924 -0.278046
2402 1 -3.01051 30.6204 49.1885 0.253124 -0.315927 0.85183 0.226336 0.157831 -0.224648
2403 2 15.2285 0.120895 39.1129 -0.869687 -0.189167 1.58946 0.0594449 0.109311 -0.20232
2404 1 15.6652 1.76944 37.0394 -0.185169 0.244992 -0.330704 0.552618 0.232029 0.337928
2405 1 17.1081 0.981811 46.1153 -0.684252 -0.296028 -1.0866 0.0396961 0.130463 -0.0578457
2406 3 15.7982 1.68423 44.255 1.20961 0.723871 -0.255819 -0.0613427 0.0103347 -0.166576
2407 2 17.4702 2.96426 47.542 2.13557 -1.82342 0.124799 0.313919 0.209592 -0.56295
2408 1 16.9084 0.952949 48.8828 0.756034 -0.247942 0.283807 -0.446904 0.277451 -0.264218
2409 2 14.2403 2.85395 39.0898 -0.576053 0.119521 0.374026 0.102277 0.113226 -0.122319
2410 1 14.3951 4.60674 37.1633 2.39801 -0.320133 0.305219 -0.247597 0.200143 -0.176386
2411 1 14.0581 4.4915 41.2931 0.482395 -0.667645 0.587354 0.0603204 0.00705376 -0.0570158
2412 1 15.691 3.31267 45.5444 -0.276556 -1.05851 1.76334 -0.31973 0.00699252 -0.534308
2413 1 12.6089 5.0339 43.9167 0.775582 -0.20977 -0.241218 -0.077952 -0.535352 0.254081
2414 3 13.9585 4.11333 44.9625 -0.549582 0.0844931 0.00957947 -0.198735 -0.351287 -0.0429252
2415 2 12.5674 5.38004 39.3539 0.571646 1.87537 -0.0518835 -0.0802685 0.192198 -0.069446
2416 1 12.9398 6.96367 41.4231 0.320073 0.810493 -1.85976 0.0125612 -0.127008 -0.169548
2417 3 12.2816 6.65981 45.2348 -0.511843 -3.99477 -2.31427 -0.375546 -0.828777 0.0369989
2418 3 14.5046 6.04298 42.9313 0.336667 -1.47585 -1.95746 0.130297 -0.0263065 -0.343614
2419 1 12.2406 8.52253 45.9178 0.730683 2.54235 1.96207 -0.00812653 -0.122202 -0.105515
2420 3 12.5832 8.82741 42.4905 -0.251354 -0.0791802 -0.149012 -0.0612984 -0.020438 0.0746906
2421 2 12.1833 10.0963 47.8623 0.180341 -0.480597 0.334796 0.00593679 -0.114838 -0.14331
2422 1 13.4114 7.88303 48.4005 -1.11695 -4.46747 0.329148 0.373308 1.19164 -0.129684
2423 2 9.8853 10.4534 39.9948 -4.79386 0.0964075 1.22818 1.86306 -0.187129 -0.10816
2424 1 9.6481 11.6609 37.7341 -0.150559 0.555256 2.35921 -0.166847 -0.622154 -0.156004
2425 3 11.3575 10.7699 36.3623 0.91049 0.529171 0.627899 0.0605898 -0.115949 -0.0970461
2426 1 9.53511 12.3359 41.6102 -0.525275 -1.19887 -1.3148 -0.234742 -0.215702 0.33857
2427 1 11.1405 11.0428 45.7576 0.31207 0.220169 -0.311945 0.117758 -0.314118 -0.194129
2428 2 11.3728 12.604 47.6113 0.974577 2.26807 0.643654 -0.176455 -0.111251 -0.103284
2429 2 8.14083 12.7359 39.4708 -0.943415 4.30225 1.72639 -0.506995 -1.03242 -0.22464
2430 1 7.82324 14.1295 37.0374 1.21662 -1.37081 1.38797 -0.904134 -0.69516 -0.277043
2431 1 7.35618 14.5921 41.3517 -0.102792 -0.457324 -0.742373 -0.541991 0.168405 0.539129
2432 1 9.44927 13.4195 46.1101 -0.977634 -0.452413 -1.48385 -0.492045 -0.0695156 -0.259009
2433 2 8.71975 15.4457 44.5344 -4.79036 -1.34102 2.76266 0.513477 -0.493351 0.628902
2434 2 6.31684 14.4741 39.0523 -2.92627 -1.47449 -0.172624 0.214853 -0.886553 -0.074353
2435 1 9.3064 21.856 22.2163 18.3614 -1.683 10.4527 1.68293 6.19177 0.063562
2436 1 4.86001 15.256 40.7787 -0.242676 0.435248 -4.77019 -0.253113 -0.459478 0.640982
2437 1 8.37594 15.8965 47.146 -4.28368 0.440341 0.540232 0.956524 0.0236502 -0.305241
2438 1 4.27522 18.4731 43.3311 -1.09981 -0.629463 0.776973 0.484419 -1.13968 -0.676787
2439 3 4.13459 30.1342 37.737 -1.48377 6.89975 -2.98838 0.936942 -0.645166 -0.0235611
2440 2 12.36 18.9003 27.8511 -11.0707 -6.89318 11.0934 4.61152 -2.57637 -2.13262
2441 2 6.30098 18.7345 34.7165 1.24681 -7.4202 12.4438 -1.95648 -3.93982 0.632354
2442 1 8.85526 17.854 30.2172 -14.6721 0.178802 10.6211 2.40437 -0.77577 1.15461
2443 3 11.0046 15.4426 35.2015 -0.658181 0.475873 -22.7455 0.00358531 0.084466 2.98292
2444 1 1.68716 19.6186 41.2573 0.280763 -0.651766 0.45477 0.829439 1.31476 0.0535485
2445 1 17.084 21.6837 43.347 5.86349 -2.62783 -15.7501 -6.6831 9.4418 0.72169
2446 3 10.3087 15.9065 43.3715 -0.191499 0.408453 -6.63455 -0.216355 0.218177 -0.664441
2447 3 4.53856 17.2055 41.5078 -0.0631794 1.36134 0.401719 0.115899 -1.38216 -0.669069
2448 2 14.1025 19.2667 38.9333 12.2399 -12.6276 8.12765 -0.384161 0.552962 2.96008
2449 1 7.08897 28.5748 21.0722 -8.47294 1.64137 14.3159 -4.16599 -6.35687 -4.73982
2450 1 2.87669 19.7765 38.2754 2.09995 0.822283 1.16707 1.71718 0.143848 0.219879
2451 3 3.28691 17.2633 35.2971 2.83529 8.82184 5.26583 1.20633 -0.893834 0.643307
2452 1 1.5345 21.8074 43.8026 1.38241 -0.828782 -0.440529 -0.746431 1.75103 -1.20928
2453 2 3.22023 23.6082 36.2172 30.5647 8.55591 15.2545 1.39683 -4.4542 -6.12587
2454 2 0.62823 24.6763 39.748 -0.776567 -0.848111 -2.9435 1.07883 1.67197 0.0738449
2455 1 0.644576 26.8212 37.7153 -0.239348 -1.95901 0.622672 0.427949 0.180088 0.523284
2456 3 5.16491 30.691 40.8643 -0.0973987 -8.04575 3.17049 -0.339667 0.933179 2.06937
2457 1 0.463307 25.544 42.5437 -2.25999 -4.14085 0.285339 0.180967 -0.434501 0.324926
2458 1 -0.488609 27.2018 44.4209 1.96345 2.76491 0.206122 -0.493087 0.354111 -0.745443
2459 2 8.42437 18.8894 32.9654 -8.12195 -3.96006 0.345435 3.41198 -4.32178 -0.134743
2460 1 15.0091 22.2756 20.0929 -4.55422 -6.91519 -3.13417 5.61213 -5.46553 3.58771
2461 2 -0.488362 26.9778 40.0012 -3.22179 0.952743 2.96053 -1.41106 0.846838 -1.26205
2462 3 0.805079 28.5992 36.4543 6.85631 -0.323928 0.013108 1.21713 0.840904 0.274129
2463 1 -0.713081 28.7372 42.0161 -1.30278 -1.7285 3.80354 -0.115362 0.204291 -0.068447
2464 1 1.6006 27.6456 46.9863 -2.11534 2.11317 2.31949 -0.0550709 -0.573757 -2.03097
2465 3 0.319013 28.5797 45.6915 -1.61573 -0.211512 1.41463 0.318623 0.315338 -0.314737
2466 3 0.76776 27.7638 42.8667 -0.286968 -0.0613127 -0.245829 -0.251282 -0.385857 -0.182402
2467 2 2.09795 29.9302 47.9868 0.19568 1.18666 0.519359 -0.131475 0.0214364 0.134509
2468 1 0.911949 28.1656 49.4058 2.47581 1.3866 -0.338126 -0.608854 0.0375904 0.0205582
2469 2 -1.74456 29.376 39.7483 0.87938 0.0457457 0.0444388 -0.105571 -0.096599 0.190196
2470 1 -1.68436 31.7146 40.6474 -0.995036 -1.58332 -0.583612 -0.0617486 0.0177102 0.376787
2471 1 0.320847 30.6012 46.3969 1.04883 0.162856 -1.93011 0.65318 0.19356 -0.915844
2472 3 -0.0274551 30.6718 42.8165 0.390548 -4.96926 -4.71598 0.0896271 -0.490872 -0.883065
2473 2 19.1171 0.514885 47.8423 -0.290782 -0.532161 -0.0167417 -0.0772308 0.0863102 -0.152854
2474 1 -0.0200372 30.6828 48.9908 0.376559 -1.54946 0.410681 -0.253158 0.800725 0.695103
2475 2 -0.526343 32.1437 38.5484 -1.83857 -1.46954 -0.424528 -0.186011 -0.172191 0.00687312
2476 1 19.1075 1.28924 40.3611 -0.817687 -1.10777 -0.299533 0.170538 -0.336758 -0.21608
2477 3 19.9974 0.971173 43.3013 -1.39827 1.00488 -0.17042 -0.316901 0.184412 -0.341729
2478 2 17.0871 2.12647 39.2604 1.20359 -0.378893 0.82742 0.294395 0.0298407 -0.289592
2479 1 17.1936 4.64107 37.6692 -1.54124 -0.00298039 1.30529 -0.136903 -0.502782 -0.347365
2480 3 18.7582 4.20982 36.4342 3.04506 1.20171 2.98911 0.376122 0.189662 0.44123
2481 1 18.0505 4.14823 45.5241 -0.984055 -1.29304 2.19819 0.109199 0.429723 -1.2061
2482 2 18.3359 5.32661 48.1849 0.295331 1.31426 -0.715773 0.043568 0.18531 -0.3443
2483 1 19.6541 3.14285 48.9244 -1.87364 2.17905 -2.48971 0.0865524 0.0419438 -0.0326127
2484 2 15.506 5.49747 39.4064 -0.640459 0.367552 0.583685 -0.0611723 -0.0193511 -0.1576
2485 1 15.8902 7.43032 37.8229 0.586158 -0.123944 -0.583645 0.237904 -0.189429 -0.352344
2486 3 17.4561 6.57846 36.7163 0.139497 -0.554093 -0.383559 0.0351607 0.157566 0.00690679
2487 1 15.5612 7.41426 41.1063 0.0393089 0.605742 0.620089 -0.176307 -0.0553552 -0.1566
2488 1 13.9156 7.94765 43.8094 -0.277519 0.428295 0.552401 -0.089685 0.0357126 0.0504744
2489 2 13.9963 8.34762 39.4502 0.742277 3.39071 0.0949248 0.0497466 0.171426 0.0309997
2490 3 15.6969 8.71344 36.1904 -0.19427 -0.665744 0.317654 -0.0238207 -0.116356 0.0560431
2491 1 13.9571 9.95283 41.6726 0.43773 1.0607 -0.165419 -0.121033 -0.177989 -0.0954604
2492 3 15.1393 9.77653 43.4355 1.79856 -1.33181 -0.388982 0.0591817 -0.162438 0.0127085
2493 2 15.664 11.1594 46.4981 -0.577478 -0.38888 -0.463856 -0.0378094 -0.372902 -0.643303
2494 1 16.4722 9.31314 47.8806 2.65239 0.377957 -0.182105 -0.394813 -0.170088 -0.44181
2495 2 12.5835 10.7409 39.4952 -14.3401 1.70543 -3.48276 -0.271365 -0.0248023 -0.245045
2496 1 12.4834 12.4654 37.4669 -1.49303 2.40303 -0.687208 0.526061 0.0220219 -0.662422
2497 3 13.4445 11.6651 35.7122 0.20969 -1.06942 1.72647 0.129181 0.506924 0.382396
2498 1 12.9675 12.7238 40.7888 -3.36316 -4.34427 1.11572 0.430984 -0.167836 0.308702
2499 3 13.5929 11.8246 42.717 -5.52328 5.09961 -1.32405 0.312853 -0.373161 -0.51091
2500 2 13.9478 12.8865 48.2511 -0.721181 -0.981088 -0.100734 0.155705 -0.935434 -0.640367
2501 1 14.4247 10.6442 48.6614 -1.47952 2.13159 1.00091 0.62982 -0.743729 -0.883446
2502 2 10.8867 13.0065 39.5048 -0.680196 3.47975 -0.654115 -0.284089 0.599716 -0.266572
2503 1 10.8884 14.5948 37.2902 0.889261 0.748821 -0.682533 0.574509 -0.148163 0.390496
2504 3 12.3218 13.8415 35.8027 7.27224 2.53195 1.01062 -0.315605 2.03907 0.40506
2505 1 10.6901 15.0468 40.9879 -2.38642 -1.15793 2.02852 -0.572355 1.40204 0.326134
2506 1 12.6927 13.8706 46.1734 1.00158 1.23292 -1.19687 0.71322 0.0796798 0.633537
2507 2 12.5089 15.5013 48.3974 3.84548 1.17362 -1.69726 2.56501 0.467996 -1.05052
2508 1 12.1316 13.5001 49.6983 2.71678 0.119244 0.888364 -0.66234 -0.174998 0.193312
2509 2 8.69897 15.3785 39.3255 -1.71915 5.88132 1.54388 0.638634 0.710897 0.0550696
2510 1 4.27159 18.8711 36.1517 -9.34495 11.1222 5.50824 1.377 4.79763 -2.93086
2511 2 10.9082 16.9273 36.5727 2.62405 -1.7014 5.01278 6.65238 0.338147 -4.68371
2512 1 10.4787 15.4499 49.8051 -0.404292 0.306986 5.26842 -1.10538 -0.0303994 -0.539997
2513 1 4.8628 17.6304 39.2995 -5.27334 -6.4696 4.84804 0.983635 0.727973 -0.98841
2514 1 11.1307 31.1484 37.8464 12.7692 -8.08946 17.907 1.44154 1.2332 -2.60399
2515 3 10.0142 15.7895 45.9337 1.92774 -0.815605 1.31693 -0.0556151 -0.251816 -0.273021
2516 1 2.5774 21.175 35.7475 -3.72484 -9.81926 -4.39773 -0.0466939 -1.13645 -3.95634
2517 3 17.3893 22.1402 37.2389 -8.13491 8.92618 -0.34854 -3.31626 3.02751 2.4229
2518 1 0.972702 22.6483 40.9267 2.13549 -0.638415 -5.14224 -2.12778 0.446462 0.34236
2519 1 10.4815 19.8673 29.4778 2.12519 14.6455 1.65413 1.58444 7.70581 -5.17242
2520 3 2.21821 21.4863 41.9091 1.64664 -5.64419 2.44713 1.20888 -1.13493 0.409101
2521 3 12.3206 17.5453 35.1743 8.86515 1.48794 -15.157 -4.8711 1.2177 4.27776
2522 2 13.3256 24.3282 23.685 -24.1877 2.00826 16.914 11.044 -0.559405 2.03164
2523 1 13.8783 18.383 41.8951 3.85062 -13.7135 17.4463 3.53396 -3.46606 -0.837092
2524 1 7.61713 15.9851 27.7189 -2.66577 -0.725003 -2.72726 0.697167 0.105295 -0.76959
2525 1 7.04815 27.2697 29.5402 -1.90171 9.6605 5.9824 0.473973 0.412426 -6.11575
2526 3 8.86197 16.1044 41.1487 3.62658 0.933231 -1.53674 -0.321159 0.104559 -0.451865
2527 2 2.3785 27.9064 39.5978 -2.37103 1.85187 1.71158 0.61727 0.319339 -0.294566
2528 1 2.13307 29.7985 37.9355 -0.349336 0.171384 -3.31737 -0.258098 0.213124 -0.190516
2529 3 4.60671 30.56 31.3201 -3.8109 -1.54262 4.21464 -1.73212 1.1358 6.06927
2530 1 2.75964 27.8263 42.1709 -0.867988 1.36575 0.857126 0.081987 -0.122016 -0.0438
2531 1 1.38205 29.5715 43.7528 3.30736 -3.06331 -0.696886 0.118806 0.417551 -0.572757
2532 2 14.0014 19.5197 31.6635 -1.98769 -0.160549 0.82968 0.622259 -3.0316 2.99471
2533 1 4.46832 31.5575 47.7657 0.0780437 -0.0408959 1.38927 0.028737 0.00645436 1.04379
2534 3 2.64436 31.1928 36.5603 3.58683 8.88903 3.4922 -0.738578 -0.24719 0.387721
2535 1 1.13983 31.4366 41.5161 -3.28393 -1.35358 0.877882 1.23934 0.539334 -1.45303
2536 1 3.31496 30.1592 45.7603 -0.823962 -0.471308 0.863115 -0.502453 0.0406051 0.361199
2537 1 0.121021 32.0695 44.3195 -0.866594 -0.0224673 -2.05813 -0.132484 0.942221 -0.402192
2538 3 1.69626 31.1138 45.0247 3.33122 -2.48959 -2.40599 0.34471 0.131186 -0.212176
2539 3 2.96005 29.9797 41.9406 -3.13401 -4.44434 1.11285 0.418961 0.839561 0.1189
2540 3 23.0635 0.668074 36.2262 -3.4224 -2.09138 -1.80891 -5.03455e-05 0.348473 -0.242864
2541 1 21.4338 1.65901 42.0593 -4.91582 -4.4694 -0.933641 -0.375879 -0.319588 0.0829205
2542 1 23.2802 1.69601 46.766 1.10543 -0.129183 1.08594 0.0481177 -0.245806 0.137219
2543 1 20.0924 2.81588 44.1451 1.86714 0.399681 0.982809 -0.373124 0.499126 -0.365492
2544 3 21.5104 2.19018 45.5527 0.812667 0.405912 -0.472419 0.00766207 -0.0823633 0.00445359
2545 3 22.897 0.914115 43.1092 -1.12246 0.511849 1.03904 -0.39835 -0.135248 0.538482
2546 2 20.3343 2.60763 38.8218 -0.0349002 1.05599 0.604998 0.313633 0.330509 0.201175
2547 1 20.3569 4.77347 37.6706 0.27123 0.622586 -0.0291345 0.148323 0.264212 -0.265792
2548 3 21.8825 4.07152 36.1569 1.67341 -0.717434 -1.19005 0.726357 -0.21333 -0.107859
2549 1 20.7485 4.16168 40.7485 -2.55697 1.51708 0.30495 -0.757307 -0.286896 0.35259
2550 1 21.624 3.96263 45.9976 -0.381849 0.0679997 5.6944 0.130689 0.00164446 0.286544
2551 3 20.0527 4.61039 44.9262 0.532794 1.74029 -0.148726 0.113753 0.180714 -0.219586
2552 3 21.6148 3.63914 42.7767 0.548391 2.08058 1.0025 -0.363459 -0.262704 -0.731589
2553 2 21.4685 5.25335 48.0116 -0.195599 0.850122 1.73972 -0.177236 0.239394 -0.776157
2554 2 18.7769 5.38494 39.6461 -0.0454072 -0.127939 -0.338465 -0.0284984 -0.0402005 -0.0633109
2555 1 18.8575 7.25165 37.9983 -0.778203 -0.815994 -0.315223 0.231441 0.258226 0.0400032
2556 1 18.537 7.2896 41.3818 0.0130092 0.196747 -0.119004 0.0773605 -0.138596 0.209239
2557 1 19.7931 6.16153 46.2243 1.65423 0.0680594 -1.91202 0.100822 0.174859 -0.283578
2558 2 19.8803 8.01673 47.6797 0.277566 -0.140011 -1.36904 0.350215 -0.334911 -0.688248
2559 1 20.0198 6.42322 49.5696 0.468705 1.85334 0.443264 -0.0255264 0.067882 -0.0237271
2560 2 17.2385 8.64271 39.6081 -0.802439 -0.36183 -0.271341 0.064569 -0.103188 0.0308309
2561 1 17.8175 9.71766 36.8451 -0.0822265 0.228196 -0.286329 0.15091 -0.0160114 0.122654
2562 1 16.752 9.53484 42.3285 0.0580576 0.533649 0.308276 -0.0494254 0.0381949 0.189459
2563 1 18.5423 9.33926 46.1562 -3.06726 1.71203 -0.869699 0.134894 0.202359 -0.100027
2564 2 18.198 11.2111 47.7418 -3.62646 -1.86421 -0.246004 -0.337534 -0.105871 -0.211
2565 1 19.2387 9.62615 49.3388 1.19368 -2.8923 1.08805 0.0939692 0.0934846 -0.294974
2566 3 16.6985 11.3079 36.6142 -0.529289 -0.4547 -0.133193 -0.0316214 0.0684181 -0.095174
2567 1 15.4378 12.2671 41.7896 -1.64259 1.90597 0.223045 0.382819 -0.432775 0.0134291
2568 1 13.9718 13.6135 43.7006 0.810697 0.840444 3.53089 -0.00687909 0.163055 -0.501366
2569 3 17.1172 11.4779 42.7345 -2.95613 -8.7677 -4.87653 -0.188651 -0.687401 -0.323192
2570 3 15.6153 14.2687 36.5484 0.428891 -4.33521 -2.16058 1.88204 -0.0839441 -0.0992476
2571 1 14.2472 15.1068 41.4027 1.46312 -6.46061 1.59726 -0.139654 1.02549 -1.42639
2572 1 15.6609 13.5643 45.912 1.34998 -2.09093 -2.41112 -0.103463 0.277811 0.11064
2573 1 12.5376 15.6003 43.8099 -1.69521 2.31202 1.16532 0.147471 -0.488825 0.405499
2574 3 14.293 15.0452 45.1886 7.24819 -2.33975 -0.90317 -2.1042 1.0816 0.651521
2575 3 15.3972 14.1142 42.6836 -1.752 1.5519 1.85017 0.917257 -1.26827 0.235972
2576 2 12.8229 14.8577 39.3338 1.05107 1.49787 -2.25981 0.14691 -1.04204 -0.0341673
2577 1 10.5299 17.0616 34.1836 -2.52199 6.72182 4.35895 -0.864285 -0.818453 -2.66878
2578 3 15.0139 16.4876 37.0259 1.894 4.0233 5.673 -0.0693435 0.858674 -0.405791
2579 1 3.10064 20.1962 28.8863 -0.0485593 6.15676 5.48383 3.62567 1.2176 -3.78403
2580 1 14.144 16.8424 46.6186 0.888257 -1.6516 0.226398 0.88728 -0.814175 -0.187857
2581 3 15.6134 17.7959 45.3949 -8.25835 0.870155 -4.1275 0.841429 -0.808826 0.238268
2582 3 14.31 16.4297 42.6601 3.52132 -6.37979 -8.72554 0.0684659 1.78836 -2.48248
2583 2 16.5499 17.7699 47.1058 -3.40055 0.830519 -2.68588 0.238964 1.14919 0.337786
2584 1 15.436 16.1209 48.8191 4.41143 6.8045 -0.00507928 0.477335 0.842744 -0.102709
2585 3 5.5441 15.8389 25.0305 -18.6656 1.48398 5.70083 0.847036 3.07254 -2.35521
2586 1 16.9953 19.2859 45.1583 0.0125903 -3.99342 0.485848 -1.29644 -1.15189 -0.711819
2587 1 13.2534 28.2291 23.7256 -5.66442 -26.9756 -6.57817 0.0461238 0.89396 -2.71267
2588 3 15.9987 28.5492 34.4019 -4.89316 -0.575668 -12.1137 -0.172777 6.02161 0.751956
2589 3 7.73616 16.4391 29.6862 -2.71778 -6.51471 -3.86423 -0.697202 0.339478 0.799457
2590 1 9.99968 28.7762 21.2118 -3.87462 -13.6303 0.84775 -2.60125 -4.15681 -3.83778
2591 3 9.82967 25.3536 23.5988 17.723 -4.37161 20.2109 -2.77402 5.02374 -2.97529
2592 1 15.3136 21.3534 37.3164 -13.1705 10.4907 -27.4862 0.00316955 0.714677 2.01416
2593 1 4.08136 18.1487 51.1652 0.10784 -2.41835 -1.30587 0.0960819 -0.0637098 -0.200818
2594 3 3.76563 22.1333 34.7193 10.589 3.93637 -8.68125 -6.42679 7.67866 3.63294
2595 3 6.43434 17.382 26.4864 0.567044 1.37694 -24.1758 0.919776 2.09361 2.03957
2596 2 9.16702 19.9183 25.5981 -5.01508 6.2011 -22.0246 1.61881 5.0269 16.5852
2597 1 8.29027 24.3185 23.6976 3.21825 -1.26607 -12.1132 -2.99985 -3.22382 3.34867
2598 2 9.74065 24.6022 21.692 -18.2947 -3.08646 20.3251 -1.33843 0.574679 -1.2464
2599 1 1.97406 22.7796 38.2457 2.11796 -0.670124 2.01961 -2.85104 0.994392 2.52437
2600 3 10.8817 20.1164 27.4648 -28.0168 -19.8033 -19.0192 -5.47755 0.838091 -4.18935
2601 1 12.9465 17.2759 39.8067 2.19122 -5.17043 5.76044 -3.46445 -1.7112 -1.40337
2602 3 6.32523 17.9534 36.4851 -20.2171 17.5948 8.78298 -0.59771 0.800984 2.90198
2603 3 15.1815 28.9989 39.3913 5.79503 -11.7228 6.61298 5.77686 -2.08532 0.266038
2604 2 7.85453 22.7699 20.1585 -3.57765 18.4457 -0.142849 0.845888 -2.08918 0.537657
2605 1 6.42596 27.08 26.8662 -9.66366 -6.76773 13.0894 3.34573 5.20328 -2.46782
2606 3 1.99953 26.0059 39.0348 -1.51214 -0.533417 1.33926 2.5099 -0.939227 -0.91004
2607 1 3.84931 32.1251 38.23 1.70017 -1.34267 7.57556 0.369755 -0.199875 0.305768
2608 3 7.28606 31.7588 38.5905 -0.888473 9.38613 -1.32978 -1.29714 -2.09677 3.73383
2609 1 7.15763 21.6546 26.3678 9.34778 -16.8763 -2.13249 2.41941 -2.30476 0.729177
2610 1 21.5276 0.499316 44.7433 -1.07817 -0.00981283 0.910714 -1.72438 -0.15673 0.44036
2611 3 4.3366 32.1814 45.8932 -0.140822 0.0794593 0.255893 0.0857639 0.0731591 -0.0546538
2612 2 25.3174 0.626599 48.4728 0.191769 -0.272206 -0.3355 0.0111001 0.15075 0.108373
2613 1 7.16565 29.5528 25.7535 -4.67102 -5.53441 5.64189 2.06286 -0.987063 15.9567
2614 2 24.4803 0.130534 39.8999 -2.72625 -5.24135 0.141505 -0.175142 -3.06369 0.157935
2615 3 27.0958 1.21803 36.1817 3.63704 5.4987 -0.580566 0.423729 1.20507 -0.319492
2616 1 24.2277 1.87603 41.6372 2.28255 2.12895 1.05085 0.12351 0.478045 0.484802
2617 1 26.4646 1.99932 46.5148 -0.763283 -0.641829 -0.473337 0.414617 0.554358 0.550098
2618 1 22.8436 2.69281 44.1772 -0.926135 1.56544 2.41141 -0.181436 -0.470232 -0.00051771
2619 3 24.5638 2.27587 45.4555 1.28002 0.217666 0.242612 -0.570416 0.0639982 0.0345819
2620 3 26.2204 1.63815 42.6843 2.97476 -1.00605 1.01925 -0.160503 0.0810116 -0.234117
2621 2 27.8818 3.42432 47.9723 -0.281037 -0.204833 -0.588819 0.0687091 -0.00108342 -0.028361
2622 1 27.1416 1.68361 49.64 -0.604674 -0.091122 0.0238689 0.329206 0.344723 0.100905
2623 1 23.509 4.37451 41.8093 1.93835 0.824094 0.113942 0.225822 0.242597 -0.0592635
2624 1 21.1738 5.6606 43.4121 -0.594635 -0.742061 -1.11836 -0.2711 0.207921 -0.603198
2625 1 25.1161 3.12806 48.6662 0.18485 -0.706954 0.228593 0.0291291 0.136981 -0.00432489
2626 2 22.5761 4.89868 39.1837 0.787113 -0.165586 0.161713 -0.0251336 -0.118081 -0.113352
2627 1 21.8068 6.68793 40.9005 -0.263791 -0.0899607 0.515066 0.213981 0.259703 -0.358144
2628 1 23.0998 6.17049 46.082 -1.282 -1.27617 0.142525 0.142663 -0.0121071 -0.305299
2629 3 21.3957 6.74191 45.1644 -2.86939 0.561008 4.36855 -0.695959 0.337885 1.05045
2630 3 23.2888 6.27405 42.6341 -1.33668 -0.302256 1.87866 0.0194257 0.0898815 -0.277734
2631 2 22.9929 8.04199 47.6448 1.11473 0.73699 1.49074 -0.163621 -0.323711 -0.308077
2632 1 23.8685 5.7406 48.5991 0.294722 0.807719 0.392303 0.115556 0.0127765 -0.212011
2633 2 20.1522 8.35919 39.8611 -0.142652 -0.0629253 -0.793417 -0.0723409 0.127724 0.0869646
2634 1 21.5276 8.90241 45.8547 0.900472 0.00921033 0.679675 -0.0221945 -0.104975 -0.355054
2635 1 18.6924 11.1868 43.9387 0.126298 0.241787 -1.26929 -0.455347 -0.25373 0.93274
2636 3 19.9489 10.1115 45.0643 -1.46406 1.58979 -0.755604 0.0872116 0.153841 0.00159452
2637 2 18.6625 10.6393 39.0455 0.00074011 0.245936 0.17486 -0.0211849 -0.0983267 -0.0258897
2638 1 18.6149 11.9132 41.3144 -1.22782 2.7317 1.54596 0.477523 -0.852482 0.174037
2639 1 19.9185 11.9543 46.0944 0.30278 0.407194 -0.342407 0.617098 0.559926 -0.257879
2640 1 17.2296 13.3333 43.5103 2.23318 2.14022 -2.37218 -0.327321 0.58281 0.74385
2641 3 19.0056 13.0456 44.6212 5.55321 -3.02419 5.01797 -0.203575 -0.0187452 -0.529525
2642 3 20.1542 11.4407 42.4614 -0.33621 0.267326 -0.238251 -0.0105455 -0.12626 -0.163185
2643 2 20.5681 13.6593 47.8975 2.68013 3.2015 0.765913 0.459897 0.68301 -0.116528
2644 3 18.9642 13.4855 35.8348 -0.0945068 1.80065 -2.73043 0.124385 -0.0322538 0.217044
2645 1 18.6541 14.6324 45.9018 0.50566 -0.314088 1.18028 -0.157986 0.183934 -0.28251
2646 1 15.8046 16.052 43.8918 4.18943 -3.09586 4.67039 0.735583 0.86627 -0.675378
2647 3 17.2792 14.9938 44.542 15.9675 -14.8565 -8.14981 1.40421 -1.73102 0.241011
2648 3 18.7115 13.9207 42.2492 2.05368 3.75282 -0.0909131 0.315441 0.525732 -0.0665904
2649 1 17.1743 16.6044 37.9518 -3.06111 -0.94861 -5.35069 1.14017 -1.45067 -0.812454
2650 3 17.9085 16.7529 36.1625 -0.119868 0.469344 0.580082 0.473791 -0.431454 0.332374
2651 1 16.6696 16.8214 40.856 -5.44152 -2.40275 -1.64261 1.04394 -0.912336 -1.88432
2652 1 7.42577 20.5706 31.1998 10.4455 -2.54576 -19.9607 -7.92871 2.45045 -0.263159
2653 3 17.4295 17.3088 42.7792 -1.55969 0.639601 1.83459 1.19304 -2.06718 -1.28468
2654 2 17.0402 26.3545 32.5088 8.17611 -3.40534 5.30575 0.401586 0.66838 1.28555
2655 1 17.724 19.6522 34.225 6.5458 -0.540457 -5.41956 1.51038 -1.11366 -3.72941
2656 3 16.1704 18.0465 34.3701 -14.1231 9.30267 14.2232 8.32326 -3.43295 2.53421
2657 1 9.40593 22.0632 29.2905 -11.7061 -4.141 4.4191 0.413276 2.86485 1.78588
2658 1 5.36725 23.4871 23.0221 3.83196 -1.01676 2.70672 -1.20377 2.87884 -4.51354
2659 3 15.9506 19.6432 46.8034 2.37757 -1.09299 -2.74573 0.69653 -1.81961 -0.273947
2660 3 16.2776 20.2538 42.5203 28.1476 -6.10636 14.2868 1.02527 -2.02866 0.623315
2661 2 19.8649 20.682 47.605 1.17796 1.64651 -0.295723 0.26129 -0.351538 -0.34266
2662 1 17.2631 20.5632 47.9996 -1.01623 4.27602 5.16378 0.933149 -0.138536 -0.232973
2663 1 3.21522 22.1449 32.7454 3.70254 1.22896 -2.09556 -3.25853 2.05068 -0.706463
2664 3 17.3835 20.4463 32.1056 -7.04449 -2.23955 4.42982 0.875589 -0.283805 -0.49966
2665 1 14.8572 26.2729 39.0282 -19.6722 -12.5153 -1.18143 1.71015 -2.41431 1.54842
2666 1 14.2339 30.5101 38.6539 10.8817 3.84175 -9.78788 -6.22077 2.13481 -0.34622
2667 3 16.0636 27.797 35.5596 -19.224 -1.09764 -1.34728 -2.05416 -0.640552 3.12473
2668 3 14.6725 17.6722 39.9964 7.85388 -18.2345 5.4564 1.84414 3.42218 2.34443
2669 2 4.78251 23.5469 26.7846 -6.47859 23.2587 -12.2895 -9.13299 0.862902 -8.17548
2670 1 14.9638 18.7804 28.0912 12.9392 17.6444 -11.2357 4.0262 1.08351 -3.6838
2671 1 15.3108 28.5107 27.7091 -2.99058 4.36381 -4.6351 4.7342 0.501142 0.817546
2672 3 17.6782 25.8973 42.3212 -9.44368 13.9949 -10.6477 -0.286456 -3.03154 0.202782
2673 1 13.5623 26.9156 21.5495 -21.6823 1.10027 -3.62447 -0.126205 -1.94969 -1.74281
2674 1 16.9107 29.8799 38.8536 -6.74315 -3.62854 4.81343 -1.27478 1.53704 -1.52435
2675 2 14.8773 19.3903 34.1212 -0.018776 1.65753 -11.6932 -3.34731 7.43147 -0.327566
2676 1 10.8745 31.2224 31.0854 3.37756 -2.96407 -17.3246 -8.20377 1.721 -0.409366
2677 2 10.8152 31.2713 24.6094 8.92502 -19.9485 3.44877 1.10974 -2.74638 -1.52322
2678 3 15.3496 28.1038 40.4758 20.6291 -18.0749 -6.69999 -5.71002 2.90587 0.664609
2679 1 5.78495 21.3414 28.7497 22.6082 -4.46291 -6.47218 2.50973 -0.296495 8.90815
2680 1 3.98188 21.2704 43.097 -4.87292 3.82927 9.82451 1.51303 2.77838 -1.70252
2681 3 5.60082 21.626 30.7639 -4.87928 10.5856 16.0533 -4.0512 3.07702 1.50999
2682 2 30.6717 0.208904 47.6633 0.811425 -0.91995 -0.456858 0.0202349 -0.452009 -0.596363
2683 1 3.19259 22.0684 40.1965 0.0032274 -8.33068 -0.552998 2.90948 -1.5596 1.31105
2684 1 25.491 1.20879 37.9037 -0.0776274 -1.26085 1.5389 1.59618 -1.07353 0.23086
2685 1 26.4628 0.126024 41.6318 0.185163 -1.41952 -2.71933 1.87798 -0.929575 -0.33299
2686 1 10.4276 30.0956 27.0234 -14.2259 -14.9638 32.6303 -1.67709 -3.10996 -0.984705
2687 1 24.5242 0.709329 44.2567 -0.809874 1.22087 -0.764043 -0.198542 0.172441 -0.205943
2688 3 4.25705 30.5724 42.0382 0.454047 -2.40082 -0.650837 -0.320426 0.00754893 -0.264449
2689 3 2.48156 27.879 37.6577 -8.05722 -0.397191 -3.75412 -0.885812 -1.68782 -0.652908
2690 2 28.2493 0.580262 47.7421 1.03004 1.79589 -1.67716 0.175414 0.356759 -0.386023
2691 1 1.7051 3.04822 55.67 -13.7647 -15.1057 -5.46032 4.4509e-06 -0.000121293 -0.000833846
2692 2 27.4404 0.527353 39.4935 7.42554 -6.25937 -0.476222 -1.02585 -1.34876 -0.296557
2693 1 28.2934 1.71666 37.6478 -2.75992 2.31447 -0.753791 -0.113811 -0.81449 0.878136
2694 3 30.0517 0.451721 36.4226 -0.558097 -5.64554 8.58222 0.0151498 -1.39267 1.53621
2695 1 27.8951 2.65977 41.3183 -1.69801 2.47233 2.92465 -0.0400123 0.325473 -0.815258
2696 3 28.207 2.08343 45.0966 -0.807488 -0.189012 -0.15072 -0.0357151 0.108323 -0.208484
2697 3 29.4017 1.92479 42.2873 3.47989 0.231257 -1.48588 0.428152 0.518151 0.069958
2698 1 27.944 4.09282 50.2349 0.00992201 0.0221075 -0.0519258 -0.212417 -0.181777 -0.337021
2699 2 25.1298 5.01062 39.4338 2.60327 0.0416464 -1.02685 -0.056786 0.0326435 0.0154323
2700 1 24.8562 7.19679 37.7859 -0.185094 -0.124974 0.504864 0.0944238 0.0674247 -0.181894
2701 3 26.2076 6.41926 36.4322 0.459978 -0.194421 0.253891 0.0183167 -0.00985004 -0.00980022
2702 1 24.9256 6.89361 41.0653 -0.19268 -0.192316 0.335143 -0.1096 -0.141135 -0.195406
2703 3 24.7511 6.83514 44.6727 -0.205884 -0.0135547 -0.340904 0.0435378 -0.0376578 0.0280634
2704 2 23.1652 8.11781 39.3827 -1.39413 -0.304486 -1.00834 -0.0553464 0.0628813 -0.255291
2705 1 23.5592 10.2142 37.6605 -0.570648 0.130323 -0.0753409 0.411029 0.0790574 0.121637
2706 3 24.7542 8.95347 36.5586 -0.325765 -0.231995 -0.113962 0.0305766 -0.0253166 -0.102758
2707 1 24.6334 8.60857 45.6384 0.280381 0.741835 -0.0123015 -0.573321 -0.49859 -0.0577708
2708 2 24.7256 10.7239 47.0691 0.26155 -0.353616 0.43753 -0.106003 -0.0647302 -0.369801
2709 1 25.0021 8.85113 48.6842 0.919833 -0.470747 0.241773 -0.141384 -0.208285 -0.191512
2710 2 21.4804 10.6424 38.9516 -1.02729 0.217002 -1.22148 0.00529447 -0.017539 -0.23038
2711 1 22.2834 12.7271 37.7358 0.779241 -0.149853 0.717526 0.424806 -0.0406185 0.105129
2712 3 22.6538 11.7445 35.9563 -0.902318 0.458894 -1.55494 -0.0494584 0.0830097 -0.273998
2713 1 21.8628 12.4821 40.8976 0.175849 0.5074 0.895684 0.369997 0.0912776 0.405104
2714 1 22.3525 11.8158 47.1624 0.28588 0.215278 -0.509561 -0.863966 0.311513 -0.369624
2715 1 20.4191 13.2878 43.3462 0.0489164 0.140517 1.10104 -0.0349375 0.0923466 -0.184047
2716 3 21.7085 12.6931 45.0668 0.106573 -0.114113 0.12975 -0.180984 0.156904 -0.136769
2717 2 23.7417 13.8502 47.2435 -0.460511 -0.0575722 0.250905 0.338561 -0.0853172 -0.192897
2718 2 19.9374 12.7691 39.245 -0.332738 -0.0162521 -0.0862674 0.0258514 0.0574839 0.0736868
2719 1 19.8002 14.3028 37.4323 -0.969209 0.787799 -0.291859 -0.854705 0.324647 -0.471248
2720 3 21.4754 14.083 36.225 0.0794277 0.441556 -0.0731139 -0.0359028 -0.000509809 0.0844188
2721 1 19.9045 14.6779 40.8397 -0.154087 -1.89143 0.299744 -0.0799547 -0.314901 -0.783072
2722 1 21.7331 14.6493 45.9155 -0.614397 -2.26398 0.123519 0.391943 -0.020336 0.325887
2723 1 18.8979 15.9227 43.1918 -2.70325 2.09922 0.682826 -0.328513 0.0208895 0.0507396
2724 3 20.1816 14.8949 44.4615 -0.495663 -1.9843 1.77954 -0.216578 0.0286404 -0.639186
2725 3 21.9599 14.1241 42.2424 0.329199 -0.22583 -0.971688 0.115667 -0.13082 -0.114481
2726 2 21.6365 16.6948 47.3766 3.95894 1.8643 0.199432 0.641187 0.337336 -0.493224
2727 1 19.4178 18.0351 36.7293 -0.538132 0.608439 -0.801775 -0.881423 0.992689 -0.0992904
2728 3 20.6038 17.4509 35.2755 0.537342 1.35644 0.179292 0.0617863 -0.14096 -0.132031
2729 2 19.6637 18.0875 48.6483 0.397019 0.614425 0.532906 -0.104265 -0.280107 -0.188562
2730 1 20.7862 16.0184 49.4709 -0.167679 -0.388651 0.863889 -0.287423 -0.562472 -0.289543
2731 2 18.0734 18.6104 39.3608 -3.34 -1.71339 2.86573 0.851362 -0.281125 0.111463
2732 1 17.5195 20.2606 37.6143 -6.07591 -0.125699 5.78601 2.28377 -0.534389 -0.151634
2733 3 18.9107 19.8303 36.0103 3.67141 -4.91212 -0.27957 -0.1393 0.66118 -0.541764
2734 1 17.7263 20.6385 41.2024 1.03088 14.4116 -5.23024 2.56615 -2.82986 -0.36267
2735 1 5.39392 23.9925 29.0753 -11.6197 -3.07945 24.4723 1.60194 4.41785 0.603223
2736 1 18.9351 20.1112 49.911 -0.595702 -1.57173 0.11209 0.206401 -0.0689544 -0.347194
2737 1 14.9445 18.6082 36.5718 -2.48139 -7.19948 8.45067 -0.396496 1.03906 -0.0444781
2738 3 17.8113 24.1892 40.0384 -10.421 1.09076 5.09242 -6.43938 0.843499 5.8654
2739 1 18.228 21.5853 45.7652 -5.3613 1.2261 -2.73185 1.68836 -4.67017 2.37972
2740 1 7.77696 25.0522 19.7158 4.86107 -0.851409 -0.561504 0.0535119 -1.6492 -4.4189
2741 3 17.0448 27.0791 41.9387 17.9097 -13.4696 4.95843 -0.444278 0.487087 -1.31369
2742 3 17.183 22.4092 41.2095 10.444 -5.26119 -3.47197 1.0803 3.71406 -0.338139
2743 1 10.2353 18.2122 27.4567 -3.38107 1.64971 11.7043 -13.9889 7.80738 -0.593874
2744 3 5.07917 17.3459 31.3391 -1.62008 -1.37825 -5.03062 -0.960286 -1.28232 -0.627908
2745 3 18.3396 24.943 41.2832 1.18164 -7.71594 -6.12267 7.77762 1.43914 -0.439722
2746 2 4.75573 18.5957 27.4547 12.0211 -12.8229 8.41584 7.16459 2.61221 -4.08809
2747 1 6.35512 31.8855 33.0278 -4.08177 -8.78712 9.03288 -2.29005 0.475091 2.19204
2748 3 6.35714 22.937 27.6021 0.235486 -14.4704 13.3765 8.50407 -2.97712 4.3594
2749 1 17.6771 26.8416 36.6555 12.2694 -13.5745 -0.425212 -1.12053 -1.83349 0.805
2750 3 16.1582 28.1203 33.052 13.5077 16.3568 18.2449 3.91604 -4.10321 -3.18595
2751 1 31.8739 0.231375 45.3246 0.522459 -1.05658 0.663944 0.290721 -0.104622 -0.00734245
2752 2 15.4174 21.6878 41.5655 1.61844 -7.01009 8.65106 -3.90211 0.413146 -2.16975
2753 1 3.05616 25.2624 40.8602 7.90591 1.55266 -4.21059 -2.00581 -0.928571 -1.91605
2754 3 15.6172 30.4357 37.5047 0.512232 -10.399 10.5983 1.5201 0.121498 -3.41079
2755 1 29.696 0.548734 40.8536 4.30901 3.9638 -1.11698 3.39285 8.18093 -3.15905
2756 1 28.3296 0.746929 43.3858 2.91778 -1.86541 2.59492 -0.0388863 -1.26634 -0.396998
2757 2 32.1703 0.492172 39.4167 -0.624585 1.76199 -3.52538 -0.402277 -0.908969 0.149725
2758 1 31.358 1.71481 36.9972 -1.23963 -1.47854 6.52484 0.286791 -1.601 0.315532
2759 3 32.8576 0.950552 35.5111 1.19544 2.57427 0.563421 -1.57234 -0.0769967 1.98118
2760 1 31.3287 2.44159 41.4298 1.04719 -0.583645 -2.50337 0.306266 0.00291923 -0.906421
2761 1 29.8061 2.66394 44.0776 0.490442 0.412219 -1.10709 -0.241742 -0.153446 -0.632751
2762 3 31.1315 2.12231 45.2231 0.446448 0.439886 -0.157012 1.20754 -0.108712 -0.062075
2763 3 33.0195 1.61489 42.5327 -0.447036 -1.06065 0.759655 0.660545 -0.191257 -1.05052
2764 3 31.2097 3.45639 35.9719 0.888833 -1.03472 0.5765 0.346139 0.280054 0.0777321
2765 1 31.2569 4.03503 46.0137 1.17963 2.64965 0.191607 0.409949 -0.188094 -0.275768
2766 1 28.179 5.22319 43.666 0.58109 0.599479 -0.664437 0.100562 0.221028 -0.0456861
2767 3 29.7702 4.38169 44.5978 0.35999 0.238305 0.483577 -0.023254 -0.149153 -0.0882098
2768 3 31.3647 3.32309 43.0296 -1.22344 -0.482137 -1.79206 0.253236 0.215689 0.427135
2769 2 31.081 6.04764 47.3212 -3.38153 0.120739 1.05698 -0.562355 0.154534 -0.0884391
2770 1 30.6144 3.84338 48.4898 -0.894563 0.430285 0.192873 0.0639988 0.231113 -0.14666
2771 1 27.9629 7.36055 37.1105 0.200905 -1.76423 -0.297787 -0.131831 -0.265032 -0.0280263
2772 3 29.3702 6.23956 35.8774 -0.650946 -0.0080422 -0.285094 0.426214 0.107764 0.0450558
2773 1 28.2989 7.34082 41.3489 0.374842 -0.227082 0.369171 0.07313 0.0010231 -0.0204036
2774 1 26.7085 7.43314 43.7768 -0.234593 0.00340554 0.598609 -0.0968082 -0.0913374 -0.146034
2775 3 28.1567 6.94827 44.9205 -4.62923 0.368481 0.0970484 0.493341 0.0391916 -0.164449
2776 3 29.5647 6.1801 42.8147 -1.95695 1.74004 0.994079 0.249586 0.0170908 -0.109685
2777 2 26.5812 7.96554 39.4504 -1.23105 1.99045 0.633241 -0.155757 0.132018 0.0344484
2778 1 26.4018 9.88694 37.672 -0.0694652 0.0524591 0.381176 0.212603 -0.00905834 -0.322891
2779 3 27.8427 8.82281 35.177 0.250567 -0.836222 -0.341125 0.000521265 0.2051 -0.283044
2780 1 26.3931 9.526 41.6794 -0.793525 -0.0523632 -0.775501 0.193841 0.016876 0.312335
2781 1 27.874 8.8249 46.185 0.87893 2.39854 -0.865598 -0.0749592 0.44723 -0.995715
2782 3 27.9733 8.94314 42.8513 0.12091 2.53969 2.60981 0.133838 -0.119629 -0.0209914
2783 2 27.8051 11.2397 47.7118 0.0318671 0.463308 0.232992 0.147837 0.0618801 0.465445
2784 1 23.2602 13.6565 43.8454 -0.298398 0.0812429 -0.350609 -0.219942 0.123975 -0.244191
2785 2 26.1055 13.0295 47.1525 0.321573 0.437077 -0.461539 -0.162348 -0.529193 -0.104867
2786 1 25.7896 11.504 49.1663 0.220968 -0.0544645 0.682498 -0.303471 0.0902837 -0.378884
2787 2 23.8584 13.6129 39.5319 -1.44567 1.36762 0.674125 0.245081 -0.119206 -0.119724
2788 1 22.8922 15.3459 37.8349 0.905609 0.451487 -0.484604 0.490341 0.0471888 -0.0172639
2789 1 23.8065 15.1563 41.6522 1.87185 1.32388 -0.886853 0.402457 0.327808 -0.0470282
2790 1 21.6486 15.8707 43.2733 -2.6599 -3.3285 -2.01796 0.563816 0.477386 0.100201
2791 3 23.1367 15.5956 44.6422 -1.57662 1.70365 1.32775 -0.030677 0.0428269 -0.0741347
2792 3 25.1295 14.2603 43.0775 0.319625 -0.491616 -1.94081 0.210287 -0.271452 -0.728644
2793 1 25.1827 14.4788 49.1052 -0.533737 -0.0976476 0.739579 0.0308988 -0.0862144 -0.0949094
2794 3 22.9803 16.9368 36.531 1.14087 -1.39525 4.66889 -2.15016e-05 -0.0895978 -0.00909528
2795 1 22.7411 17.6131 45.3006 -0.570338 0.255551 2.62482 0.467959 0.101544 -0.711342
2796 2 20.576 18.7647 39.005 -0.0976257 -3.50189 -1.6303 -0.12309 -0.149717 -0.24953
2797 1 20.4113 20.7281 37.2566 0.351158 -0.115382 -1.85868 -0.168851 -0.586419 -0.722412
2798 1 20.1169 21.0805 40.5612 6.38652 -2.32543 3.87763 0.931869 0.523304 0.902938
2799 1 22.3128 20.251 46.2674 0.187563 0.106182 -0.341278 0.0951938 0.0264832 -0.367043
2800 1 19.4532 22.0877 43.3499 -1.42483 -5.83606 7.10946 -0.33272 -0.112102 2.24983
2801 2 22.2474 21.8168 48.2784 -0.112044 0.0645789 0.113142 0.203869 -0.166347 -0.1862
2802 1 21.7639 19.2926 48.817 0.782281 0.65744 1.06039 0.0987516 -0.450768 -0.71613
2803 2 18.0905 22.3171 39.2648 -9.99518 -20.3874 16.0592 -0.38598 -4.41464 -1.73901
2804 1 19.1066 23.2895 37.2795 0.156172 0.699294 1.26297 -0.0415191 1.00215 -0.0523998
2805 1 20.9768 22.6258 46.3116 1.2853 2.43895 -3.86402 1.40694 0.467075 0.0630804
2806 1 7.53384 19.347 37.3085 -0.484751 -15.0788 -11.1628 -0.62174 -1.08823 -5.52705
2807 3 19.5146 22.8835 45.1229 0.159695 1.19278 12.0403 0.577768 -0.898554 -1.61226
2808 3 20.7079 22.8101 42.4718 1.52862 -2.54175 2.47462 0.975427 -0.328393 -0.546859
2809 2 20.912 24.3012 48.0065 -0.192985 -0.710833 -0.689979 -0.154193 0.124617 -0.0906693
2810 1 20.1633 22.404 49.365 -0.193597 -0.0809592 -0.334347 0.0740645 -0.133583 0.104076
2811 3 19.1358 25.2286 36.2249 1.00967 -3.81566 -5.19885 -2.20877 -0.616537 -0.643179
2812 1 19.4399 24.6585 45.7282 1.15596 -1.89513 1.19476 0.492932 -0.591004 -0.613252
2813 1 18.3319 27.0185 39.7635 1.29715 -10.7027 -1.52891 0.774713 0.178047 -2.01336
2814 3 16.4155 27.2823 40.7189 10.9243 -10.6255 -21.28 1.88477 -1.38803 -2.16434
2815 3 16.8565 25.1889 39.607 3.59243 -2.24916 7.71021 -2.37691 3.36169 -2.11552
2816 1 14.8112 28.3272 37.4498 -11.7159 -4.97785 2.73637 3.30503 0.782881 -1.77715
2817 1 17.0055 28.4039 46.055 -1.76916 0.313741 -0.62128 -0.403279 -0.631454 -1.00562
2818 1 10.7269 28.6719 36.7956 -5.16385 -13.7772 -20.0508 -0.694975 1.02433 0.696194
2819 3 15.6124 29.0692 44.7148 0.906547 -15.1203 8.82841 1.17352 0.967894 -0.773944
2820 3 17.8928 28.041 42.4471 11.2969 -4.96033 -2.15227 1.50158 6.82446 0.0665628
2821 2 17.2456 30.4216 47.8448 0.0336931 -0.490733 0.780237 0.420069 -0.0141179 -0.0493426
2822 3 15.9756 31.182 36.3013 1.73941 -5.18365 15.1098 -1.95321 -2.02336 3.31283
2823 1 13.9341 32.152 41.9104 1.19087 0.30377 -2.54897 -1.64872 -1.3057 -0.926532
2824 1 15.8284 30.8907 45.8344 1.22876 -1.51848 1.44353 0.224584 -1.12793 0.0237002
2825 3 15.815 30.9457 42.2509 -2.42495 1.73132 0.905934 1.70174 0.812855 1.7554
2826 1 16.7143 30.6176 50.2548 0.569783 0.611691 -0.498919 0.342387 0.139862 -0.41091
2827 3 35.5478 1.10655 37.2959 -1.19068 -0.653769 -1.13363 0.838889 0.548238 -0.535973
2828 1 35.8696 0.947018 45.893 -2.03489 -1.62237 -3.29616 -0.947424 0.242602 -0.446441
2829 1 32.6705 2.51355 44.174 0.457562 0.36962 0.459723 -0.538526 0.256865 -0.0819387
2830 3 34.4473 2.02199 44.8782 -3.40979 1.63821 -1.94024 0.293194 0.0739572 -0.029934
2831 3 35.9626 1.2889 42.356 0.767507 -0.0335263 -0.720107 -0.0711599 0.0019993 -0.142644
2832 2 35.5131 2.4268 47.8987 -2.48841 -1.40914 -0.708466 -0.303941 -0.608065 -0.649211
2833 1 32.6644 4.4038 37.4807 0.116723 0.0092969 -0.195719 -0.0432528 -0.00329568 0.179744
2834 3 34.1579 3.88849 36.4397 -0.147744 -0.394048 -0.264881 -0.0641278 0.00882545 -0.139449
2835 1 34.4616 3.839 46.0777 0.547834 1.04025 3.17747 0.624295 -0.201418 0.143831
2836 1 31.3836 5.22494 43.3529 -0.292816 -0.210432 -1.02448 -0.0993956 -0.174395 -0.27974
2837 3 32.8101 4.4396 44.761 1.68812 -0.618136 3.13715 0.304983 0.12605 -0.6913
2838 2 -3.09853 5.82629 47.6331 -1.51781 1.00722 -0.722246 -0.577549 0.445508 -0.801875
2839 1 33.4514 3.6776 48.6016 -0.846335 -1.7512 0.585908 -0.473026 0.0125958 -1.01801
2840 1 30.7291 6.95271 37.3735 -1.53555 -0.977666 0.262322 0.00156582 0.0383889 0.0606956
2841 3 32.5684 6.13248 36.3794 -0.124903 -0.232111 0.180177 0.0228268 -0.021086 0.0169045
2842 1 29.6557 8.00262 43.8303 -0.419202 -0.126392 -0.575852 0.117439 -0.0294937 -0.187003
2843 3 32.9418 6.07827 42.0693 0.106632 0.505028 0.636452 0.155679 -0.0181668 -0.166255
2844 1 32.4893 6.51256 49.274 1.01575 0.861602 0.649029 -0.467044 0.130608 -0.140945
2845 2 29.6447 8.4353 39.3265 -0.411272 0.597979 -0.442226 -0.132435 0.110901 -0.11566
2846 3 30.8512 8.74362 36.2765 1.41459 0.704742 0.511017 0.212101 0.0414086 0.116897
2847 1 29.3154 9.96625 41.6091 0.370214 0.40548 1.27571 0.0750149 -0.0213125 -0.32919
2848 1 28.2809 10.5166 44.2716 -0.120253 1.13519 0.387706 0.250547 0.00459013 -0.545889
2849 3 29.6395 9.64601 45.2148 0.43376 2.00941 -1.08299 -0.144456 0.00593844 -0.131316
2850 3 31.1676 8.91541 42.6949 -3.18028 -2.04652 3.20143 0.26584 0.207923 -0.361394
2851 2 -5.51143 10.4188 47.6469 -0.237894 0.0251155 0.170953 0.0632611 -0.187934 -0.28945
2852 1 31.4791 9.5668 49.955 0.311821 -0.915716 0.241095 0.173191 -0.266286 -0.262464
2853 3 29.5728 11.5119 36.7707 0.0280998 -0.271522 -0.108099 -0.00417772 0.107326 0.00180182
2854 1 29.9101 11.644 46.1169 1.13719 2.35938 4.32529 0.0258433 0.087989 -1.21116
2855 3 28.3517 12.5637 44.9034 2.38941 -0.363549 -0.747788 -0.0134015 0.32165 -0.742188
2856 3 29.3795 11.1989 42.9637 0.399665 1.1531 0.64827 0.0693937 -0.095021 -0.110436
2857 2 -6.91335 13.425 47.7389 0.418169 0.605269 0.5128 -0.0269713 -0.0890862 -0.367794
2858 1 29.8454 11.3675 49.031 -1.65393 0.0412481 -0.945191 0.212891 0.0649099 -0.118377
2859 2 26.6583 13.4016 39.491 -2.23605 0.745981 -0.118877 0.20817 -0.162214 -0.064339
2860 1 26.2842 15.1625 37.6114 0.0576896 0.10447 0.0980419 -0.00218431 0.189912 0.0747677
2861 3 28.0298 14.7136 36.2866 -0.407699 0.151892 0.102824 0.0193242 -0.102973 -0.0160381
2862 1 26.5833 14.9765 41.5339 -0.18992 0.341428 0.477504 -0.202354 -0.141783 -0.0483263
2863 1 28.1932 14.4112 46.0745 0.301651 -0.237628 1.5963 -0.193308 -0.18344 0.107144
2864 1 25.178 15.964 44.0633 0.465301 -0.0920013 0.148436 -0.0495163 -0.0402984 -0.233242
2865 3 26.6166 15.6015 45.3732 -2.07483 -0.561229 1.39415 0.668256 0.597494 -0.80149
2866 3 28.3533 14.4425 42.4337 -0.816017 0.575314 -0.576864 0.140809 0.249038 0.00125779
2867 1 27.9431 13.8752 48.6469 0.31773 -0.0432661 -0.174723 -0.0502926 -0.109268 -0.360525
2868 2 24.8157 16.196 39.6227 -0.244616 1.7202 0.596066 -0.0888021 -0.103704 -0.155674
2869 1 24.5761 17.8125 37.7187 0.518272 0.0257497 -0.128677 -0.145847 -0.405714 -0.0322283
2870 3 26.039 17.3711 36.5322 -0.743244 0.214617 0.421399 -0.0977396 0.0279942 -0.0132401
2871 1 26.5737 17.3157 46.2309 -2.32259 -0.917991 -0.768321 -0.908057 -0.391017 -0.69103
2872 3 24.923 17.8151 44.7918 -0.29291 0.941641 1.44117 -0.137041 0.0423396 -0.163632
2873 3 26.6561 16.7155 42.7736 0.103935 0.231077 -2.39719 -0.0126172 -0.0682042 0.102575
2874 2 -10.596 19.398 47.8632 -0.127573 -0.147898 -0.00423255 -0.0204517 0.0635992 -0.0905826
2875 1 27.2167 17.1745 48.8498 -0.119656 0.209941 0.661081 0.12493 -0.179052 -0.183151
2876 1 23.4033 20.3252 37.1134 -0.673641 0.104688 2.19435 0.448362 0.129944 -0.63197
2877 1 24.9064 19.305 46.175 0.343291 -0.157889 0.0680033 0.0448296 -0.170526 -0.219716
2878 1 22.167 21.825 44.2528 0.883627 -1.55504 1.79106 0.424724 -0.408562 0.219907
2879 3 23.8947 21.089 45.6245 2.8289 -2.97581 2.56932 -0.355476 0.345823 -0.511394
2880 2 22.1197 21.0036 39.1546 -0.903492 -3.60364 -1.52901 0.0369847 -0.0754193 -0.408455
2881 1 22.0639 22.9163 37.4315 -0.129987 1.10633 0.154041 0.0537333 0.52075 1.40426
2882 1 22.1159 22.689 41.2873 4.02914 2.27358 -2.96355 0.183411 -0.598018 0.379309
2883 1 24.071 22.7669 46.5608 -2.31044 -0.00163782 0.615451 0.338925 -0.107736 -0.0903876
2884 3 22.6862 23.5207 45.4737 -1.1037 -0.82573 -1.42588 0.0394669 -0.101618 -0.0877315
2885 3 23.4401 22.1886 42.8828 1.37034 0.0452733 -0.902336 0.667771 0.272681 -1.2157
2886 2 -13.5881 25.5142 47.7639 -0.377296 -0.68659 -1.23414 0.163164 -0.0234676 -0.0644237
2887 1 22.8947 23.7796 49.5287 0.212226 -0.175718 -0.00921009 -0.163586 -0.0801945 -0.209464
2888 2 20.613 23.519 39.3339 3.2751 3.09393 0.466793 1.69516 0.266281 -0.306759
2889 1 20.417 25.7591 37.3293 -1.35002 1.6059 1.86696 -0.147615 0.355899 0.907092
2890 1 18.8945 26.6046 43.9526 -0.212896 0.0388345 -7.67475 2.23333 1.78953 2.15414
2891 2 -14.954 27.7732 47.5803 -1.14609 0.806647 -0.0481601 0.0428966 0.156764 -0.217938
2892 1 21.8343 25.992 49.4324 1.41312 0.567547 0.712475 0.0517948 0.458381 -0.375973
2893 2 20.8256 26.324 39.9248 3.07477 1.92134 -2.38176 1.00733 0.000975862 -0.750184
2894 1 19.1097 28.8477 37.7997 -1.13065 0.61541 4.9007 -0.0297174 -0.216883 -1.57749
2895 1 19.3168 29.0486 41.6901 0.426239 -0.200566 3.57782 0.857205 0.892738 -0.893802
2896 1 20.3146 27.6844 46.0414 1.47715 -3.10781 -2.21812 0.0704859 -0.733094 -0.706134
2897 1 17.2421 29.7511 43.5128 -4.62136 -2.97379 6.18347 1.71325 1.30071 1.40696
2898 3 18.6249 28.6259 44.9405 -5.01232 -3.1943 5.0557 1.01625 -0.456593 -0.728763
2899 2 -16.538 29.6482 47.6505 1.00912 -0.949523 -0.133284 0.269795 -0.152306 -0.25711
2900 1 20.1832 27.8134 49.031 -1.42366 1.31182 -0.275624 0.663405 0.239395 -0.140133
2901 3 19.1361 29.7917 36.0363 -1.80801 2.73946 -0.283082 -0.392917 -0.708709 3.00145
2902 1 17.0639 31.8654 40.9258 1.89055 2.02899 0.984842 0.717722 -0.499131 -0.262626
2903 1 19.046 30.5553 46.0148 -6.17643 3.17578 3.84227 -0.349691 0.682793 0.471475
2904 1 34.5993 0.377375 43.513 0.0545097 0.75179 0.67367 -0.385473 -0.207269 -0.318148
2905 3 17.4893 31.532 44.6817 0.978271 0.691509 -0.535226 0.192167 -0.344062 -0.294655
2906 3 18.3796 30.8593 41.9998 -5.32267 -4.76289 1.42422 -0.169729 0.0162708 -0.531133
2907 2 0.251681 0.541555 47.6685 0.25324 -0.676124 1.59643 -0.673496 0.421114 -1.06193
2908 1 -17.8726 30.9674 49.1383 -0.735968 -2.13408 1.11548 -0.0794018 -0.169777 -0.0404963
2909 4 3.64282 3.094 2.18196 0 0 0 0 0 0
2910 4 1.74018 5.04005 2.3127 0 0 0 0 0 0
2911 4 -4.29901 17.3011 2.34779 0 0 0 0 0 0
2912 4 -8.04026 22.5941 2.46133 0 0 0 0 0 0
2913 4 -9.38221 24.9649 2.4081 0 0 0 0 0 0
2914 4 6.29471 2.49211 2.35346 0 0 0 0 0 0
2915 4 4.92399 5.4973 2.26592 0 0 0 0 0 0
2916 4 2.94256 10.6357 2.7064 0 0 0 0 0 0
2917 4 0.529642 12.4517 2.45853 0 0 0 0 0 0
2918 4 -3.65828 19.9655 2.27585 0 0 0 0 0 0
2919 4 -9.71335 30.3927 2.6464 0 0 0 0 0 0
2920 4 -3.40048 24.9598 2.15546 0 0 0 0 0 0
2921 4 10.8215 0.0620446 2.13113 0 0 0 0 0 0
2922 4 -0.686096 24.9467 2.39251 0 0 0 0 0 0
2923 4 -1.74637 27.3008 1.52153 0 0 0 0 0 0
2924 4 13.55 1.02051 2.83841 0 0 0 0 0 0
2925 4 11.2486 7.95313 2.58037 0 0 0 0 0 0
2926 4 10.3042 10.4548 2.05685 0 0 0 0 0 0
2927 4 8.98622 12.7999 2.4901 0 0 0 0 0 0
2928 4 7.59524 15.1428 2.47179 0 0 0 0 0 0
2929 4 6.1871 17.4736 2.3801 0 0 0 0 0 0
2930 4 4.82806 19.9263 2.48908 0 0 0 0 0 0
2931 4 3.43051 22.5266 2.27659 0 0 0 0 0 0
2932 4 2.06437 24.937 2.37391 0 0 0 0 0 0
2933 4 16.2043 0.693966 2.3167 0 0 0 0 0 0
2934 4 17.8184 2.83865 2.7847 0 0 0 0 0 0
2935 4 13.5228 9.91095 2.35561 0 0 0 0 0 0
2936 4 11.9399 12.6219 2.28557 0 0 0 0 0 0
2937 4 10.5665 15.0189 2.43537 0 0 0 0 0 0
2938 4 9.14774 17.5598 2.28778 0 0 0 0 0 0
2939 4 18.8906 0.340223 2.60433 0 0 0 0 0 0
2940 4 6.4314 27.5316 2.01572 0 0 0 0 0 0
2941 4 20.7018 7.53347 2.24048 0 0 0 0 0 0
2942 4 19.247 9.99535 2.49893 0 0 0 0 0 0
2943 4 17.6578 12.3985 2.53443 0 0 0 0 0 0
2944 4 13.1524 19.6502 2.64646 0 0 0 0 0 0
2945 4 10.6346 24.983 2.50376 0 0 0 0 0 0
2946 4 9.1897 27.6045 1.43198 0 0 0 0 0 0
2947 4 7.67147 29.9537 1.87393 0 0 0 0 0 0
2948 4 26.555 2.70214 2.63569 0 0 0 0 0 0
2949 4 23.4189 7.67881 2.09677 0 0 0 0 0 0
2950 4 20.3792 12.5323 2.52863 0 0 0 0 0 0
2951 4 15.8499 19.8989 2.35304 0 0 0 0 0 0
2952 4 14.25 22.09 2.10085 0 0 0 0 0 0
2953 4 27.5948 0.143749 1.88993 0 0 0 0 0 0
2954 4 29.276 2.62458 2.51531 0 0 0 0 0 0
2955 4 27.795 4.98489 1.81356 0 0 0 0 0 0
2956 4 23.0459 12.1562 2.11453 0 0 0 0 0 0
2957 4 18.5705 19.7695 2.42957 0 0 0 0 0 0
2958 4 30.6211 5.03079 2.54004 0 0 0 0 0 0
2959 4 23.7693 17.5345 2.62327 0 0 0 0 0 0
2960 4 18.9878 25.108 2.6386 0 0 0 0 0 0
2961 4 17.8709 28.2806 1.73097 0 0 0 0 0 0
2962 4 15.9717 30.137 2.34018 0 0 0 0 0 0
2963 4 33.5257 4.99748 2.52058 0 0 0 0 0 0
2964 4 30.9353 9.96641 3.20245 0 0 0 0 0 0
2965 4 29.2073 12.2559 2.23272 0 0 0 0 0 0
2966 4 24.9456 19.9869 2.46148 0 0 0 0 0 0
2967 4 21.966 25.3594 2.29715 0 0 0 0 0 0
2968 4 20.361 27.5454 2.56153 0 0 0 0 0 0
2969 4 -1.06262 4.71874 2.25786 0 0 0 0 0 0
2970 4 -5.3049 12.4465 2.30204 0 0 0 0 0 0
2971 4 -6.89287 14.7065 2.11966 0 0 0 0 0 0
2972 4 -9.60745 19.8654 2.8465 0 0 0 0 0 0
2973 4 -10.7492 22.3244 2.57496 0 0 0 0 0 0
2974 4 -13.6739 27.5236 2.12233 0 0 0 0 0 0
2975 4 3.37284 4.00662 4.73509 0 0 0 0 0 0
2976 4 -1.10228 11.6965 4.62401 0 0 0 0 0 0
2977 4 -3.664 16.7724 4.94423 0 0 0 0 0 0
2978 4 -4.92437 19.8056 4.68328 0 0 0 0 0 0
2979 4 -7.74459 24.2355 4.61601 0 0 0 0 0 0
2980 4 -9.13169 26.8225 4.38563 0 0 0 0 0 0
2981 4 -11.0281 28.7353 4.79696 0 0 0 0 0 0
2982 4 -12.168 31.6589 4.35641 0 0 0 0 0 0
2983 4 3.41734 9.0434 4.8659 0 0 0 0 0 0
2984 4 2.09092 12.1429 4.8105 0 0 0 0 0 0
2985 4 0.196998 14.0914 4.60909 0 0 0 0 0 0
2986 4 -1.0247 16.5098 4.32023 0 0 0 0 0 0
2987 4 -2.28973 19.1236 4.81679 0 0 0 0 0 0
2988 4 -9.71871 31.0516 5.38413 0 0 0 0 0 0
2989 4 6.13563 8.85625 4.87347 0 0 0 0 0 0
2990 4 -2.11282 24.0549 4.55157 0 0 0 0 0 0
2991 4 -4.45422 26.4812 4.15526 0 0 0 0 0 0
2992 4 12.0282 4.16084 4.71571 0 0 0 0 0 0
2993 4 10.3133 6.84191 4.88572 0 0 0 0 0 0
2994 4 8.8338 9.11445 5.15181 0 0 0 0 0 0
2995 4 0.693678 23.7764 4.45059 0 0 0 0 0 0
2996 4 -1.19748 26.4508 5.47158 0 0 0 0 0 0
2997 4 -3.57235 31.4231 4.37362 0 0 0 0 0 0
2998 4 14.8547 4.08702 4.85861 0 0 0 0 0 0
2999 4 13.5669 6.47961 4.65555 0 0 0 0 0 0
3000 4 12.1972 8.80523 5.02927 0 0 0 0 0 0
3001 4 1.82759 26.2113 4.9085 0 0 0 0 0 0
3002 4 -0.886061 31.5204 4.8193 0 0 0 0 0 0
3003 4 16.2511 1.74748 4.82909 0 0 0 0 0 0
3004 4 16.2676 6.43225 5.01331 0 0 0 0 0 0
3005 4 1.98208 31.6236 4.88928 0 0 0 0 0 0
3006 4 19.1779 1.75411 4.91663 0 0 0 0 0 0
3007 4 15.4733 14.1817 4.52781 0 0 0 0 0 0
3008 4 10.3956 21.6673 4.11048 0 0 0 0 0 0
3009 4 9.3775 24.109 4.85666 0 0 0 0 0 0
3010 4 22.037 1.71113 4.85045 0 0 0 0 0 0
3011 4 19.1958 11.515 4.76393 0 0 0 0 0 0
3012 4 18.1924 14.0452 4.63848 0 0 0 0 0 0
3013 4 16.3225 16.7697 4.45735 0 0 0 0 0 0
3014 4 14.8094 19.0591 4.72713 0 0 0 0 0 0
3015 4 13.0888 21.626 4.5217 0 0 0 0 0 0
3016 4 12.1477 24.1648 4.82733 0 0 0 0 0 0
3017 4 10.7672 26.489 5.16851 0 0 0 0 0 0
3018 4 24.761 1.97516 4.91998 0 0 0 0 0 0
3019 4 26.4131 4.14144 4.96627 0 0 0 0 0 0
3020 4 20.9063 14.0777 4.87873 0 0 0 0 0 0
3021 4 17.8346 19.1573 4.98515 0 0 0 0 0 0
3022 4 29.3876 3.975 4.93623 0 0 0 0 0 0
3023 4 14.656 29.0685 4.79935 0 0 0 0 0 0
3024 4 32.1025 4.17173 4.81555 0 0 0 0 0 0
3025 4 27.7693 11.3905 4.70386 0 0 0 0 0 0
3026 4 25.005 16.3431 4.73937 0 0 0 0 0 0
3027 4 23.5012 19.1627 4.89116 0 0 0 0 0 0
3028 4 20.4196 23.8013 4.55346 0 0 0 0 0 0
3029 4 19.7422 26.3571 5.21187 0 0 0 0 0 0
3030 4 17.3711 28.888 4.40705 0 0 0 0 0 0
3031 4 16.5584 31.4785 4.63813 0 0 0 0 0 0
3032 4 -2.21691 4.40833 4.96347 0 0 0 0 0 0
3033 4 -3.56019 6.77252 4.78901 0 0 0 0 0 0
3034 4 -6.6088 11.8713 5.1335 0 0 0 0 0 0
3035 4 28.9297 13.8408 4.43224 0 0 0 0 0 0
3036 4 -15.0153 27.0158 4.43901 0 0 0 0 0 0
3037 4 -13.6636 29.3793 4.54448 0 0 0 0 0 0
3038 4 1.98845 8.56781 7.52062 0 0 0 0 0 0
3039 4 0.565178 10.6622 6.51453 0 0 0 0 0 0
3040 4 -2.28413 15.9507 7.14536 0 0 0 0 0 0
3041 4 -3.72051 18.2971 7.20172 0 0 0 0 0 0
3042 4 -8.19475 25.864 6.75788 0 0 0 0 0 0
3043 4 -9.43324 28.3288 7.04256 0 0 0 0 0 0
3044 4 8.30496 3.05674 7.38644 0 0 0 0 0 0
3045 4 6.55715 5.80986 7.33182 0 0 0 0 0 0
3046 4 4.70106 8.62994 7.27135 0 0 0 0 0 0
3047 4 3.77837 11.1278 6.69364 0 0 0 0 0 0
3048 4 -0.550297 17.9722 6.56975 0 0 0 0 0 0
3049 4 11.0034 3.28264 7.08344 0 0 0 0 0 0
3050 4 9.27868 5.86342 7.21086 0 0 0 0 0 0
3051 4 7.41418 8.39611 7.3638 0 0 0 0 0 0
3052 4 12.0001 5.90448 6.80931 0 0 0 0 0 0
3053 4 7.54782 13.3997 7.31045 0 0 0 0 0 0
3054 4 6.15448 15.7409 7.26981 0 0 0 0 0 0
3055 4 4.7571 18.0749 7.11504 0 0 0 0 0 0
3056 4 1.19038 25.7211 7.51195 0 0 0 0 0 0
3057 4 -2.42309 30.7263 7.04691 0 0 0 0 0 0
3058 4 7.48138 18.1235 7.12859 0 0 0 0 0 0
3059 4 5.94653 20.5257 7.05833 0 0 0 0 0 0
3060 4 3.72131 26.6794 7.19525 0 0 0 0 0 0
3061 4 1.58547 28.3406 6.87418 0 0 0 0 0 0
3062 4 0.469461 30.8325 7.0806 0 0 0 0 0 0
3063 4 17.6501 1.05933 7.06368 0 0 0 0 0 0
3064 4 13.6346 13.3205 7.37585 0 0 0 0 0 0
3065 4 12.3772 15.7206 7.66369 0 0 0 0 0 0
3066 4 9.08433 21.5123 6.49395 0 0 0 0 0 0
3067 4 4.98123 28.9946 7.88562 0 0 0 0 0 0
3068 4 20.4262 6.11184 6.94877 0 0 0 0 0 0
3069 4 19.1251 8.49048 7.21969 0 0 0 0 0 0
3070 4 16.4303 13.4705 7.53891 0 0 0 0 0 0
3071 4 14.9524 15.629 6.77684 0 0 0 0 0 0
3072 4 11.7421 20.9996 6.80607 0 0 0 0 0 0
3073 4 10.7987 23.5384 7.11031 0 0 0 0 0 0
3074 4 23.4909 0.889121 7.12929 0 0 0 0 0 0
3075 4 24.6618 3.7197 7.01067 0 0 0 0 0 0
3076 4 22.0398 8.33906 7.2119 0 0 0 0 0 0
3077 4 17.9292 15.9889 6.52976 0 0 0 0 0 0
3078 4 16.1856 18.0574 6.85474 0 0 0 0 0 0
3079 4 12.3373 25.7742 7.35743 0 0 0 0 0 0
3080 4 10.8781 28.0752 7.38119 0 0 0 0 0 0
3081 4 9.16031 30.6364 7.15835 0 0 0 0 0 0
3082 4 26.3526 0.924789 7.2144 0 0 0 0 0 0
3083 4 24.7724 8.83708 7.12943 0 0 0 0 0 0
3084 4 14.5883 25.905 5.82761 0 0 0 0 0 0
3085 4 13.7267 28.111 7.175 0 0 0 0 0 0
3086 4 12.2414 30.4245 7.16705 0 0 0 0 0 0
3087 4 27.5544 8.67373 7.35299 0 0 0 0 0 0
3088 4 26.4047 11.125 7.04724 0 0 0 0 0 0
3089 4 23.6 15.4978 7.72614 0 0 0 0 0 0
3090 4 22.4888 17.973 7.47599 0 0 0 0 0 0
3091 4 18.7307 23.6211 7.99497 0 0 0 0 0 0
3092 4 17.7837 26.0039 7.07297 0 0 0 0 0 0
3093 4 32.4184 5.80369 6.97451 0 0 0 0 0 0
3094 4 29.1186 10.9041 7.14832 0 0 0 0 0 0
3095 4 26.3062 15.8127 7.76583 0 0 0 0 0 0
3096 4 25.1332 18.0867 6.82927 0 0 0 0 0 0
3097 4 20.9753 25.1188 7.61652 0 0 0 0 0 0
3098 4 17.3299 31.0533 7.22541 0 0 0 0 0 0
3099 4 35.0157 1.19856 6.46756 0 0 0 0 0 0
3100 4 -2.15205 5.92708 7.22476 0 0 0 0 0 0
3101 4 -3.78476 8.30049 7.10794 0 0 0 0 0 0
3102 4 -8.26184 15.7079 7.9277 0 0 0 0 0 0
3103 4 -9.65914 19.1157 7.21295 0 0 0 0 0 0
3104 4 -16.2027 30.7107 7.6676 0 0 0 0 0 0
3105 4 0.56493 0.722377 7.46403 0 0 0 0 0 0
3106 4 -1.02532 8.39311 7.49565 0 0 0 0 0 0
3107 4 -6.32882 17.5911 7.55171 0 0 0 0 0 0
3108 4 -10.6713 26.0501 7.87864 0 0 0 0 0 0
3109 4 -13.8061 31.2722 6.49921 0 0 0 0 0 0
3110 4 3.27278 1.01982 7.40651 0 0 0 0 0 0
3111 4 3.25856 2.90884 9.87057 2.04854 1.29176 -0.183618 16.9151 -8.3861 -4.75042
3112 4 0.867849 7.24715 9.20466 0.990466 -2.94594 -0.756911 8.97299 5.15628 25.5878
3113 4 -1.74009 11.086 9.91825 1.03788 0.94989 -1.40663 -5.71821 14.2993 8.45533
3114 4 -3.40816 14.6699 9.34113 -0.78252 1.02894 -0.909655 24.7483 -19.7974 -0.186499
3115 4 -5.06273 17.9812 10.0141 -1.28865 0.321337 -2.78615 -2.89911 -16.0522 -12.8646
3116 4 -10.8532 23.5862 8.98187 0.918542 2.20249 -1.90515 -8.59811 3.31346 -25.1463
3117 4 -13.6031 31.8458 9.59646 -0.477915 0.0773115 0.864037 -10.1428 -11.5382 6.27128
3118 4 -2.14594 17.2057 9.57422 -0.862231 1.24159 -0.537526 12.9913 16.0435 13.2297
3119 4 -6.95512 23.6162 8.70475 2.8007 -1.917 0.862629 -9.64083 5.7726 20.6979
3120 4 -8.28004 27.2326 9.08445 1.21266 -1.20149 -1.29442 14.0951 13.695 24.7335
3121 4 10.351 1.79701 9.16124 -1.60651 0.680402 0.844117 9.27349 19.6864 13.8922
3122 4 6.63256 4.48061 9.21199 1.95533 -2.74841 -1.04786 15.76 -17.7631 16.2021
3123 4 10.8372 5.19284 9.23006 0.115847 2.54344 -1.09271 23.7984 -25.5471 -6.04166
3124 4 -4.69614 29.534 8.58765 -0.72977 -0.318271 -1.14821 -5.03118 15.9886 2.02812
3125 4 7.6368 15.0179 9.59034 3.08605 1.19966 -0.328324 16.4679 16.5413 25.3574
3126 4 6.06363 17.1073 9.52884 0.283637 1.4967 -0.410909 -5.05138 -18.5621 11.433
3127 4 3.8108 19.5903 9.09916 -0.804109 2.17737 -1.46426 -8.56464 12.1608 -12.1005
3128 4 3.72601 22.8672 9.4204 0.205628 2.56444 0.227273 1.39405 17.2171 -22.8939
3129 4 1.76509 24.3877 9.53133 -2.99192 -4.25014 -1.67152 -12.6908 -4.23553 -12.5189
3130 4 -0.81814 29.3998 8.90303 1.922 -2.59094 -0.904407 -7.82684 -11.9355 22.0875
3131 4 11.388 12.9826 8.90034 0.30106 1.39404 -1.37217 -10.3139 3.18077 0.310137
3132 4 10.4583 15.3362 9.16652 4.12729 -1.60577 1.2269 18.0695 5.69585 -15.6743
3133 4 8.50638 18.7861 9.3528 -0.472527 0.0360517 -2.14204 -24.7964 5.84208 16.6951
3134 4 6.26857 22.3544 9.22145 -2.52524 -0.0726357 0.992154 -12.0508 -21.51 18.8547
3135 4 4.9604 24.9996 8.85217 -0.571381 0.983244 3.19511 -14.5609 1.79817 16.1684
3136 4 3.16922 28.6488 9.58409 -0.576187 1.02012 0.235311 12.9018 4.57395 -23.9857
3137 4 19.7413 4.3648 9.15226 -0.797651 0.911609 1.6446 -11.7538 -21.6034 -22.8904
3138 4 14.5107 14.7147 10.681 0.435066 -1.16617 2.6392 -23.5992 -1.63137 1.3184
3139 4 10.785 20.3913 9.48037 -0.528691 -1.87393 0.0981585 1.09407 26.1475 19.0509
3140 4 9.05598 22.4204 8.96338 -2.206 0.355465 -0.870282 17.3099 -20.6308 18.5892
3141 4 20.9745 7.01128 9.94644 0.747611 -2.46591 1.7201 0.808995 -3.13994 22.6156
3142 4 17.4035 14.3813 9.6521 -1.83885 -0.363548 3.63042 -13.5551 14.9718 17.2538
3143 4 14.3091 17.0773 8.75011 -0.442288 3.23869 0.643506 -7.19361 -7.09256 13.3908
3144 4 7.25392 29.2003 8.7956 0.703401 -0.266281 -1.68476 -0.91819 -7.09673 19.4912
3145 4 5.70736 31.9066 8.98865 -1.54563 -2.17581 0.241075 25.7677 23.0649 -3.80797
3146 4 26.4476 2.23928 10.476 -0.544597 -0.931446 1.38523 18.7354 -21.3918 -11.425
3147 4 20.5269 11.7379 9.41755 -0.444014 0.750939 -0.310391 7.46942 -15.2195 10.845
3148 4 11.1709 26.6692 9.65952 0.604643 -0.208591 -1.5646 -11.0515 6.8662 -10.5226
3149 4 9.33204 28.3898 9.93751 1.06954 -0.927936 0.948043 -15.3438 3.57137 -28.6721
3150 4 28.2537 1.17414 8.93572 -0.657939 0.366545 1.44232 -3.38455 -10.0181 -3.96892
3151 4 25.8591 7.20514 9.10553 1.52674 1.71458 0.536456 24.866 5.37437 23.909
3152 4 22.2751 15.1677 10.0115 -2.78221 2.5063 0.891189 -6.76521 -24.4495 2.89406
3153 4 16.6108 25.0043 9.13838 0.248963 2.29857 1.45512 -20.3714 16.728 1.75032
3154 4 13.4712 29.7907 10.3137 -0.302834 -0.550551 -0.947966 -3.85391 18.3478 22.6532
3155 4 11.9378 31.9317 10.0681 -0.830576 0.273881 1.98087 -6.9972 13.6554 17.6789
3156 4 30.1118 7.83154 8.90118 0.265365 1.25784 -3.28448 19.2567 -10.1277 -7.22728
3157 4 29.2602 10.3122 9.69718 0.695403 -0.643406 0.849988 20.9115 -7.90586 -3.5322
3158 4 24.1567 17.0874 9.98393 0.486513 1.02236 -0.202653 -12.5481 -25.3505 -4.13073
3159 4 21.8795 19.217 10.4758 0.382012 1.46103 -0.765939 10.4433 -9.12713 -8.40475
3160 4 21.1525 23.0812 9.38452 1.22405 0.353319 0.969415 10.3173 25.0833 -6.11902
3161 4 20.078 26.0362 9.66008 0.0998758 -0.796502 -3.04382 20.9189 18.289 12.8234
3162 4 34.7341 3.79116 9.4349 0.448531 1.58295 0.575471 -26.8911 10.2295 3.21368
3163 4 -10.5854 18.8482 9.60547 0.536401 -1.36177 -2.01931 19.6838 -0.212343 17.2826
3164 4 23.5892 20.0191 8.60993 0.795204 -0.212235 0.522647 -6.3393 4.1672 4.87789
3165 4 17.3043 31.3891 9.69503 2.28545 0.168062 0.679534 -13.8607 23.9018 22.0429
3166 4 0.087849 2.87858 9.41681 2.34498 0.381232 -0.213904 -18.586 2.48454 -22.8096
3167 4 -3.49054 6.58526 9.29003 0.271246 -0.601071 4.00664 17.7447 16.2369 -27.2998
3168 4 -8.04442 18.2459 10.6757 0.86459 4.3797 -1.13451 -25.1202 16.9585 -6.25201
3169 4 -14.0239 29.2053 8.91203 -0.774353 -0.478886 2.37182 -17.9457 14.7687 3.87401
3170 4 2.25109 0.398705 9.90846 -1.56318 -0.497608 1.45498 -4.05736 18.36 -16.2755
3171 4 3.61993 5.22121 10.6838 1.3434 1.06308 -0.358566 -1.55106 14.3503 23.0773
3172 4 -0.0627441 12.2541 12.0534 -1.41554 -0.986603 0.649122 3.02832 -22.8655 10.2206
3173 4 -1.7982 13.4563 10.8439 -0.44326 2.58687 0.67623 11.2476 22.8456 2.16573
3174 4 -3.32446 17.2645 12.4118 -0.408495 -1.02335 -1.8908 15.891 -23.9296 -16.3926
3175 4 -6.80274 21.7969 10.7824 2.04455 -1.31354 -0.699018 -3.99605 3.27222 10.6603
3176 4 -7.89233 25.0459 13.0636 -0.363319 -0.692241 0.477068 24.6367 2.2752 6.49967
3177 4 5.62313 6.7783 11.4988 0.202866 0.824641 0.365785 -8.28851 24.9118 -18.492
3178 4 -4.26236 20.9954 11.3545 -2.32325 -1.06265 -0.642174 18.9176 5.38547 19.9364
3179 4 -4.42849 23.5026 10.4454 0.629561 -1.04209 0.607394 0.351974 5.51658 15.4222
3180 4 5.32031 9.32564 12.8214 -2.58009 0.0606301 -0.45772 8.20269 7.56141 3.46035
3181 4 4.3739 12.2523 12.8019 1.51365 -0.254589 -1.13627 23.0434 -14.2133 -1.60806
3182 4 1.50782 16.6383 10.1035 -1.97124 -0.857837 -2.35267 6.84204 1.41176 -18.7472
3183 4 -1.6686 23.6384 10.8953 -2.04003 1.39641 -1.19757 -16.7403 3.41095 -12.7678
3184 4 -5.97488 29.0025 11.9555 1.18957 1.89013 1.27082 -2.3134 -25.252 17.3657
3185 4 -7.16603 31.1218 11.5249 -1.27139 -2.15946 -0.242689 -24.0043 19.1386 -8.02996
3186 4 11.0142 3.24112 12.7094 1.75641 0.0290687 -4.15253 -11.6687 -5.71144 -14.2144
3187 4 7.59095 10.1177 11.3807 0.4645 -2.16717 -0.986275 10.6199 22.8572 -2.56492
3188 4 5.27881 13.6464 10.6193 1.83619 -0.152855 -0.590391 4.96598 24.6393 -9.16274
3189 4 4.59885 16.0722 11.5813 -0.305624 0.726096 0.834521 10.1522 9.9441 -0.32455
3190 4 1.82022 18.8226 10.8557 0.0187855 0.653334 -1.97168 10.0165 6.43656 23.5732
3191 4 -4.25966 27.6273 10.468 -0.708952 -2.06057 1.64665 25.476 -22.4713 18.3793
3192 4 -2.81313 31.8601 11.1866 -2.00801 1.62426 -2.64935 -9.17461 -12.2582 20.4084
3193 4 13.3963 6.24055 10.9419 0.556312 0.577214 -0.209897 25.3781 20.5522 -21.3719
3194 4 10.9505 9.94281 11.992 -0.317671 -1.71656 -1.26943 17.0029 18.2233 -8.96945
3195 4 9.43311 13.7379 11.2997 -0.922622 -1.06857 -0.985236 12.0409 -24.1413 -17.8836
3196 4 3.36944 20.7561 11.3497 1.00606 2.44556 0.429153 -4.08566 12.3522 -3.14116
3197 4 3.07198 24.409 11.6547 0.993349 -0.465252 4.36258 -15.714 -22.8807 20.43
3198 4 1.94132 26.7735 12.7482 0.575378 -4.76088 -1.64951 3.71394 -12.5914 21.4765
3199 4 17.4047 3.39677 10.5318 1.42121 -1.82688 1.74822 22.8384 -23.2648 6.17435
3200 4 15.8458 5.71992 11.0554 1.75118 1.76178 -1.61307 -11.8789 5.03395 6.49712
3201 4 14.0112 9.58562 12.2848 0.295696 0.390852 0.635423 -14.7115 -22.518 -25.6078
3202 4 12.9171 11.0509 10.496 2.35233 0.0410421 1.65049 6.05972 -15.2395 13.9122
3203 4 11.8902 14.6393 11.9145 1.79064 0.301417 3.22204 14.9086 21.7208 -9.34076
3204 4 7.08666 20.0441 11.7067 -0.105705 2.47892 -0.687144 6.40385 9.18772 -10.62
3205 4 5.69139 24.0644 11.9872 -0.612873 -1.30151 -2.96803 -5.70541 2.479 -0.297665
3206 4 6.03215 26.4382 10.7819 3.66334 -2.46592 1.43632 -4.7221 -22.569 22.3752
3207 4 4.52748 28.8834 11.8559 1.37491 -2.39252 0.254565 16.1004 8.41818 -10.7015
3208 4 19.4179 2.37169 11.6487 0.408758 -3.76383 -4.19175 11.4516 -21.3924 -15.115
3209 4 21.1302 5.17963 12.2454 -0.490698 1.64521 -1.02148 13.0496 7.91166 14.2811
3210 4 17.7598 7.67679 10.6724 -0.932838 1.63827 1.28547 14.471 -1.93345 -2.23789
3211 4 8.95748 23.9421 12.0749 3.93295 7.01891 -0.0403663 0.83652 0.490149 3.21392
3212 4 27.4179 4.03251 11.9298 0.764528 3.18379 -0.205435 -10.3199 -14.7752 25.3879
3213 4 20.7717 10.8758 11.6295 -2.42872 -1.29107 -0.134419 -15.272 25.7952 7.84188
3214 4 19.6757 13.8171 10.6868 0.0413437 -2.22129 1.42208 11.9831 6.07252 -25.776
3215 4 18.9434 17.3143 11.8263 0.14723 -1.42284 0.0484808 -17.4134 11.9749 -20.3394
3216 4 13.686 27.0665 10.9647 0.933824 0.93238 2.35689 -14.3445 11.4439 14.642
3217 4 11.1416 30.6511 12.4196 3.21774 -7.35105 -5.9882 2.41156 -1.48582 3.13981
3218 4 9.57444 32.1393 13.9507 -0.459924 1.15687 -9.09291 1.53048 -3.97476 2.40557
3219 4 29.3364 2.45359 10.7255 -1.50962 2.63525 3.21565 7.44108 18.2878 -25.3826
3220 4 27.8552 6.02694 10.4738 0.995088 -0.424064 -1.08304 -16.9201 -3.95998 -19.6447
3221 4 26.7257 9.896 12.5608 1.32301 1.35098 2.4674 -19.1045 -0.828694 9.60164
3222 4 18.9939 21.9053 10.5311 1.58198 -1.1489 0.986732 -19.5535 -16.9987 7.26531
3223 4 16.3471 22.2776 10.7228 -1.37334 -1.04084 2.80383 -4.86254 -17.4756 18.9178
3224 4 29.3691 9.73141 12.3346 2.57285 2.95218 1.26589 -3.74673 -26.0674 -18.9892
3225 4 22.304 21.6085 13.2358 0.617065 0.710192 -0.452992 -16.4656 -11.7868 14.5296
3226 4 20.858 24.437 13.225 0.610521 -1.2429 1.67635 -22.6144 21.1817 20.3607
3227 4 33.8726 1.17817 12.2018 -0.206124 0.174444 1.09021 22.3995 19.3124 13.8673
3228 4 24.7706 21.0933 12.0987 -1.00216 0.0248757 -3.89932 6.28866 10.9591 18.0425
3229 4 -16.4964 29.467 10.6315 0.490112 2.41848 0.711151 0.710001 -16.8678 -20.4531
3230 4 -1.23463 2.59251 11.9135 -1.33697 2.15185 -1.65379 -24.4348 -15.1238 -1.30612
3231 4 1.35481 3.99704 11.6873 -2.75783 0.419356 0.905083 0.796605 25.9878 0.836662
3232 4 -3.87143 8.56039 10.8556 -3.56078 0.999233 0.132905 -2.82811 -14.0989 11.7667
3233 4 -3.19999 11.4287 12.0906 -1.06353 -1.18023 -1.53917 -25.3488 -6.59378 -2.48241
3234 4 -5.20734 13.0465 10.8992 3.57271 0.967847 1.89404 17.9843 -14.6142 2.00653
3235 4 -6.04015 17.8913 13.0406 -1.53058 -0.602962 -1.6932 8.42689 1.36291 -13.6522
3236 4 -10.5464 25.0705 12.1409 -3.09943 -0.913716 -1.02424 -15.8527 -0.284058 18.4595
3237 4 -12.9153 28.4641 12.0553 -1.56268 -0.275055 -1.43732 22.9144 10.156 16.9574
3238 4 -14.3685 30.8742 12.1333 -1.41313 0.269113 0.543105 -0.943809 20.8549 -15.0277
3239 4 1.85936 1.58075 12.3635 0.546237 -1.60269 -0.18695 11.8445 11.5932 7.11632
3240 4 4.79499 2.8294 15.3044 0.559704 1.22564 1.19069 -22.9958 -11.864 23.1655
3241 4 3.63005 4.90942 14.2746 -0.859564 2.32549 -2.99192 -19.9583 -25.8713 0.986682
3242 4 -4.5574 21.622 14.8961 0.315321 3.29027 -1.83925 20.3866 12.6831 22.7237
3243 4 -7.13596 22.8612 14.5908 0.0465321 -0.404665 -2.62856 -6.26256 -25.2712 -23.2429
3244 4 9.16357 4.20658 14.9135 -1.87561 -1.69359 0.470117 -18.2596 -13.3207 -14.3251
3245 4 4.81727 7.03558 15.0883 -0.178007 -0.035621 -2.40361 -12.9069 23.5119 -5.01149
3246 4 0.480626 15.5551 14.1268 2.711 -1.01926 1.17609 21.3361 16.548 12.8061
3247 4 -2.27362 20.9143 13.6049 -2.12163 -0.975269 -1.12376 12.1204 23.1059 10.9584
3248 4 -4.51677 24.2558 14.4213 -0.371436 -0.124967 2.10478 24.8077 -15.698 2.59552
3249 4 -7.52378 30.6396 15.5712 0.0736156 -1.10187 -1.76011 -8.23201 23.7396 13.4464
3250 4 10.3006 1.31713 15.0367 -0.299102 -0.902817 0.727939 6.75465 -8.25109 6.18708
3251 4 6.59647 10.7508 14.7723 -0.346619 0.624668 3.14338 0.136859 -25.9483 4.66358
3252 4 4.18558 13.2862 15.1341 0.774356 2.06991 0.0327016 -15.7947 -20.8451 -0.750565
3253 4 2.85151 16.1951 13.7949 -1.30164 -0.402959 0.604222 16.9799 -15.5009 22.1146
3254 4 1.03608 18.3306 14.2544 -1.59236 -0.0706106 0.535089 -20.8836 0.224265 -22.2017
3255 4 -5.17251 31.2197 15.1145 -0.959084 -0.972984 0.912602 8.46419 -18.8993 11.4908
3256 4 12.2651 0.983176 13.0977 -0.755564 0.465043 -1.6945 15.602 -15.6218 23.0366
3257 4 9.21718 10.8827 15.0443 1.13133 0.361432 0.469417 -22.4652 -15.204 13.4683
3258 4 8.0156 14.0978 14.3245 1.26911 0.762861 -0.242879 19.7553 -16.8364 18.9319
3259 4 -2.3618 31.6759 13.8225 0.545499 -0.51554 0.947904 -8.698 20.8958 4.7719
3260 4 15.7014 1.69197 13.0208 2.31858 -1.7081 0.349019 17.0997 -16.2972 13.3014
3261 4 14.2319 5.54251 15.1185 1.413 -0.0823881 -1.34858 22.7618 19.0946 16.8407
3262 4 12.0547 8.366 15.282 1.65471 1.72369 0.773394 23.3764 -22.1785 5.5208
3263 4 11.9282 10.8281 14.7754 0.0693633 -1.02891 0.11971 22.1541 14.2071 -24.7484
3264 4 10.8522 13.2777 14.1651 -0.284244 0.0852319 -1.78905 -2.14692 5.34609 -22.9047
3265 4 19.9749 3.55254 13.9301 2.5093 1.37109 0.706998 14.2992 -25.6526 25.6129
3266 4 18.0445 5.26466 14.6513 -0.323314 -0.906299 0.66553 18.8709 1.22979 2.49384
3267 4 16.5501 7.74847 13.0827 -1.93678 -1.6166 2.19699 -16.9635 -15.2951 17.0616
3268 4 10.0184 15.4651 15.5309 1.06007 -0.464218 1.07477 1.43316 21.6133 -17.3637
3269 4 4.46208 24.0901 14.2372 -2.34832 -2.47844 5.39454 -2.35897 1.88333 2.16768
3270 4 3.27861 28.8895 14.5042 -1.96831 0.0391036 -0.0986471 1.81069 -9.14523 0.981454
3271 4 20.7146 0.797835 14.8747 1.28532 -2.08112 -0.0679753 13.9895 -8.96058 7.962
3272 4 11.3117 24.5768 11.1102 0.636904 -1.2965 -2.92153 -11.4731 15.4546 -17.6697
3273 4 12.4299 29.4402 14.8475 0.656405 -3.71926 8.00514 -4.51523 -0.658347 -0.247226
3274 4 20.4171 9.05049 14.3743 2.72282 -1.51633 0.397507 -8.39067 -23.1145 -20.0644
3275 4 18.877 13.0014 14.5687 -0.0119724 -1.30083 -0.0673096 -2.25215 14.6634 1.99096
3276 4 16.9357 15.525 14.7081 -0.411414 0.220549 -1.33273 -21.4786 10.43 4.33313
3277 4 9.08511 17.9151 15.4988 2.51516 2.37899 0.189531 -5.47684 2.33545 -5.44184
3278 4 16.5357 18.0485 14.7098 -0.118631 -3.03174 -0.0771462 -25.6092 -6.66797 2.96753
3279 4 27.4417 3.18249 14.8109 -0.684142 2.13639 0.445213 -12.0772 -7.22768 22.0651
3280 4 26.0812 5.52209 15.5052 -0.497681 1.14027 -2.23606 1.6201 10.9853 -19.9292
3281 4 22.6316 10.2037 13.2333 -1.5726 1.29274 0.331384 13.184 -3.1699 -16.0249
3282 4 21.2763 12.429 14.2124 1.19032 1.46994 -1.34535 5.30511 24.2394 6.12292
3283 4 20.985 16.0226 12.5435 -3.50656 -0.708377 -0.858028 19.0951 13.667 -25.7689
3284 4 19.1945 18.4468 14.6023 -0.00787592 0.520185 -0.648439 -4.38883 1.88183 -10.2067
3285 4 18.1825 21.2903 15.3336 1.7601 0.469505 -0.268024 0.43458 -22.5615 -24.1826
3286 4 15.7034 23.0544 15.1242 -7.19407 -3.11801 3.83642 1.24784 2.81853 -0.864889
3287 4 29.2587 5.11234 14.7771 0.553405 0.692936 -0.697562 20.0489 24.7205 12.5885
3288 4 26.1589 7.84484 14.423 0.710308 -1.04939 1.41254 -19.1763 15.788 12.1308
3289 4 20.0341 20.5838 13.7285 -0.301604 2.14971 -2.53368 15.3039 -19.3615 -17.5697
3290 4 18.4837 23.3954 13.8857 -0.655321 1.86007 0.857226 -19.4223 -1.62889 14.074
3291 4 15.7474 31.5801 14.2541 -0.25763 -1.38994 0.226844 -0.231388 12.0423 12.3027
3292 4 31.4253 1.0048 14.7254 3.86579 2.91264 0.57217 -11.4186 11.7754 22.7975
3293 4 33.5873 3.61958 13.8736 -0.0702358 1.54776 -0.825444 -21.6764 -14.7526 -15.1317
3294 4 26.8592 16.2441 14.0106 1.85236 -1.37957 -2.31408 20.0939 -0.622285 22.3217
3295 4 36.7356 0.755283 15.354 -0.458523 -2.38007 -2.08122 -24.7393 21.6104 -8.215
3296 4 -0.176891 3.40844 15.1559 -0.00281884 1.49997 -0.0794115 15.2704 -20.7695 -24.9383
3297 4 -7.75159 14.9055 15.2704 0.13859 -0.593839 -1.5699 2.53422 -25.3507 -21.3134
3298 4 -10.8769 20.965 14.1143 -3.06575 0.919934 3.33043 1.44142 -21.4328 -11.9686
3299 4 -12.0923 23.2857 13.3329 -0.452186 2.23543 -0.0662526 15.0146 -6.15494 -6.35484
3300 4 -14.9408 28.9651 13.9432 1.18389 -1.21344 -0.455693 11.8018 -19.352 -2.03482
3301 4 2.29685 3.32586 16.0113 -0.357757 -0.967349 -2.10277 7.92648 -21.3838 5.01161
3302 4 -1.62401 11.8888 15.2036 0.349034 1.38415 -2.73391 -1.88507 22.8329 19.7681
3303 4 -5.26433 12.5313 14.3634 -0.850494 -0.444083 0.248295 -24.8755 -18.6646 -23.9221
3304 4 -5.35076 15.0162 14.5836 -0.320862 2.2998 0.0567647 -22.5831 13.2272 -7.88111
3305 4 -9.62026 23.1521 14.6436 0.122747 -0.310324 -1.08058 24.6936 23.5155 -14.4352
3306 4 -0.199884 10.0574 16.7539 -0.676168 -0.550797 2.28298 9.62175 1.85351 15.2752
3307 4 -2.68121 12.2349 17.5553 -2.18536 -1.78611 -1.02726 4.23604 -11.4734 -0.930348
3308 4 -9.19358 24.3069 17.0858 -0.547959 -3.07721 -0.405331 25.9289 1.08703 8.64002
3309 4 -10.6824 26.9355 16.5455 0.431494 3.41363 -1.56779 9.68043 23.8123 -12.7587
3310 4 -11.7459 29.7263 16.1766 -1.84017 -1.0898 -1.14899 20.667 -6.50268 -13.595
3311 4 3.16327 6.58682 16.9831 -1.15334 -1.64409 -1.62367 18.9995 -7.51807 1.28342
3312 4 -8.95173 31.3839 17.5037 -2.24239 0.673638 1.20438 13.2447 1.47026 -23.2784
3313 4 -11.6477 32.0271 15.1863 -2.74636 3.68676 2.05368 21.5215 -8.61112 1.32855
3314 4 8.03186 1.92621 17.9608 -1.99599 2.28907 -0.0122203 10.2566 -24.2809 3.77754
3315 4 8.01289 5.45411 17.0365 0.341227 0.623848 -0.546772 13.8901 23.7037 1.50649
3316 4 -0.321372 15.9083 17.6233 2.50763 -1.92023 -0.524193 6.94992 1.75839 22.5694
3317 4 -0.985578 18.9011 16.3698 -1.06907 1.2045 0.530599 15.0404 10.1251 -4.59136
3318 4 -1.82579 22.7388 17.3295 0.32564 -0.929007 -0.332884 -21.8717 -25.0498 -24.5031
3319 4 -4.73141 24.6167 17.3247 -1.25577 -2.16917 0.599376 -23.1737 10.0042 12.3806
3320 4 12.0613 2.11304 16.8949 1.20937 2.39257 1.3336 6.18924 -15.778 -1.72102
3321 4 11.1412 4.8218 16.6161 -1.52576 3.71753 -0.0598848 -9.37279 15.7609 -6.04326
3322 4 3.93098 17.0735 16.0949 0.198804 1.17206 0.631257 -3.86794 -7.18297 11.5571
3323 4 2.27398 18.2762 17.4767 0.107894 -0.869947 0.835727 -13.8518 5.87392 8.11717
3324 4 -0.22072 25.0311 17.1419 -1.0479 3.16114 -0.142636 -5.38321 6.0328 -4.22925
3325 4 -3.57421 27.4726 16.6965 0.0286794 0.126672 -0.288934 -10.2503 17.6262 -9.11258
3326 4 -4.82038 30.6537 17.4403 -1.97711 0.0603051 -2.16024 14.5447 10.9814 -14.9546
3327 4 12.914 9.17494 17.8401 -0.550815 -0.415343 1.28301 -26.5633 -12.2242 22.711
3328 4 9.15839 10.1176 17.554 1.04337 0.815733 -0.675492 -19.5255 1.3954 6.80889
3329 4 6.90371 13.4517 17.3507 -3.80931 0.0844196 -3.41645 -6.10291 -11.3791 10.9008
3330 4 1.34216 27.5988 17.4599 1.86956 -2.44831 1.04884 15.1258 21.2947 8.21722
3331 4 -1.64344 29.8682 17.3347 1.21499 1.26795 -0.099567 16.8056 -8.23618 17.1305
3332 4 18.0458 3.15459 15.6822 0.648607 -1.44472 -0.960527 25.4852 15.5859 25.4373
3333 4 14.5968 7.59395 16.6727 1.1267 0.448692 0.553021 -16.6563 -3.59237 -5.18351
3334 4 11.6338 13.8971 17.0236 -0.00658036 1.62566 -2.70357 -0.962372 -23.3723 -1.99546
3335 4 8.50501 15.7518 17.9686 2.45265 -0.451525 -0.248238 -4.22787 -4.86254 1.51624
3336 4 6.4164 16.8621 15.4857 0.590269 -1.77795 -1.80482 17.605 16.1906 16.9769
3337 4 0.95869 30.0323 16.916 -0.341737 -0.370432 0.441248 6.74028 -9.63318 -18.8817
3338 4 -0.605123 32.2793 17.2659 0.653052 1.40659 -2.45076 4.23518 -4.77606 3.57399
3339 4 21.291 3.1193 16.784 -0.0749484 1.98654 -0.240814 10.1434 -12.0477 22.8947
3340 4 17.3854 7.90277 17.1705 0.198149 -2.17691 0.804316 4.09137 9.82914 8.14988
3341 4 16.1885 9.53508 15.3039 0.446143 0.352793 2.23201 8.44002 -22.4671 -11.7245
3342 4 12.6052 16.5291 15.5285 -1.93832 0.85161 1.16482 6.69341 -19.4209 3.96029
3343 4 3.53076 21.4039 14.8216 -5.22227 -0.124132 3.69898 0.572498 1.13731 -4.14414
3344 4 6.74971 20.7348 14.006 -0.522795 -0.689516 -5.91277 -3.19514 -3.14487 2.43248
3345 4 4.34356 26.6696 14.722 -4.16931 -6.42087 -4.22503 0.57106 -1.40807 -2.58037
3346 4 4.62485 28.4263 17.5772 2.47608 1.06916 -2.12793 0.112746 1.69761 -0.697182
3347 4 2.95448 31.6692 17.0257 -0.622293 1.91466 1.48797 -17.3615 8.82715 -2.25478
3348 4 19.9468 6.89597 17.0141 2.2185 -0.238366 1.46608 21.3618 1.33459 6.90328
3349 4 16.1797 18.4547 18.2037 2.63254 -1.43473 -6.87727 3.0295 -0.0589308 3.42526
3350 4 13.8185 18.7701 15.2063 1.17333 -0.273284 -2.89467 3.9854 -3.91422 5.30367
3351 4 7.36423 26.5168 15.0599 -4.68632 -1.9979 12.5551 -1.55017 -1.65411 -1.01261
3352 4 26.6311 0.162699 16.8879 1.12519 1.75671 1.51065 13.5981 24.459 -1.08003
3353 4 23.7464 0.243813 17.2261 -1.12348 2.69465 -2.06295 -12.4072 23.9563 4.73438
3354 4 25.6828 2.572 17.2091 1.54415 -1.31235 -2.64679 -7.51845 11.424 -1.27058
3355 4 23.2745 6.93346 17.0995 -2.16912 0.0659229 1.23809 5.62603 20.5923 -11.7077
3356 4 22.322 9.66797 15.9856 0.380925 -1.70769 2.41998 1.04512 10.5391 -3.30981
3357 4 18.9806 14.5467 16.4796 1.29023 0.142961 0.621937 4.7693 12.1986 -20.3241
3358 4 17.4494 16.788 16.9774 -0.772304 0.670364 2.00474 14.691 -23.1339 -21.9624
3359 4 29.1509 0.613637 16.7797 0.896094 3.39776 -0.946899 14.0782 16.1597 -2.99932
3360 4 20.1195 16.8319 16.6385 0.922373 -0.613509 1.27299 11.0888 18.1615 17.0793
3361 4 18.5537 19.2368 17.1251 1.2648 -2.59546 2.67432 14.3082 18.366 11.7081
3362 4 15.0467 27.4255 15.9926 1.52232 -6.03666 -0.58448 3.95269 3.09862 1.94483
3363 4 14.107 31.1744 16.4646 1.29721 -0.572607 4.22589 -5.17339 -4.1981 -23.5959
3364 4 30.6865 4.50297 16.843 0.0831704 -0.588853 0.0207841 -1.13615 -18.1288 10.7013
3365 4 28.9671 7.89608 16.8053 -0.0317471 -0.243273 1.7349 6.64962 20.2202 5.38154
3366 4 24.8862 15.247 15.8171 0.300144 2.11477 1.83895 3.00501 -2.22089 -6.93014
3367 4 18.1076 26.5887 17.0419 -4.87535 -0.602577 -1.4043 -8.97028 -2.70781 1.70031
3368 4 16.641 29.8017 15.7827 -2.87402 -3.11319 1.5353 -13.5458 -6.26252 13.7855
3369 4 33.8539 1.51059 16.6642 -0.283587 -0.206518 -1.59684 16.0004 12.8912 -19.0144
3370 4 33.2982 4.60963 16.2168 -1.67607 1.86384 0.971781 13.1226 23.0176 -18.1924
3371 4 31.9255 7.1817 16.5448 -1.042 0.751181 2.29421 -13.3733 -12.3383 -3.92762
3372 4 27.887 14.9007 17.5745 -0.51969 0.328836 1.73805 -2.42585 24.663 -10.5943
3373 4 25.9236 18.0467 15.7899 -0.642962 -1.54791 4.15172 -2.48942 -13.9555 12.3664
3374 4 20.4478 28.0845 16.782 0.534995 -2.36073 -1.05782 -3.45707 9.74776 -21.094
3375 4 -8.10179 17.8051 15.3533 1.05366 1.50459 0.0958396 -4.39089 15.4858 -11.9215
3376 4 -11.9688 22.5507 15.9888 0.40948 0.0750497 -0.208994 -12.6207 -0.739048 12.1634
3377 4 -12.9588 25.9826 18.0311 0.258808 -0.480169 -0.0539867 0.0966201 -0.0832871 -0.0228893
3378 4 -13.7439 27.9676 16.5251 -1.22605 -1.15075 -0.556286 22.4193 0.109712 22.9965
3379 4 -15.3546 31.3546 15.2401 -0.87503 -0.706527 -1.79351 -6.97304 -17.5108 7.43684
3380 4 -0.420953 11.7461 18.802 -0.253019 -0.266042 0.0374346 -0.434812 0.00904631 -0.0238887
3381 4 -2.94309 16.5698 19.4166 0.0258766 0.0191371 -0.195244 -0.22215 0.0483888 0.302462
3382 4 -8.55363 27.1558 17.8805 -1.33169 0.484298 1.75261 10.4599 -9.46441 0.167455
3383 4 -9.96761 29.3396 18.9482 0.65753 -1.84877 -2.32834 0.275139 -0.356336 -0.473635
3384 4 -12.3009 32.1578 17.7893 0.271937 -0.316434 -0.356193 -1.25606 11.8817 2.86387
3385 4 4.36094 8.90206 18.9575 -0.191301 0.273014 -0.0141785 0.142912 -0.0667629 -0.397122
3386 4 1.36496 8.30417 17.74 3.5045 -0.885696 -0.101908 1.26351 23.26 25.4577
3387 4 3.18521 12.2208 18.7793 -0.976153 -0.190647 -0.513796 0.205878 -0.433609 -0.137313
3388 4 -2.89517 19.4292 17.8834 -0.726203 -1.42915 -0.118392 7.7695 -17.859 12.7541
3389 4 -2.71915 22.1575 19.8383 -0.327419 -0.234785 -0.410427 0.123085 -0.20676 0.0832829
3390 4 -4.45086 24.3015 20.0077 -0.0309087 0.417732 -0.115962 0.050196 0.0179768 0.0898059
3391 4 9.0126 4.55006 19.4471 -0.0591838 0.0749447 0.023785 0.136909 0.0143873 0.0819543
3392 4 0.144253 18.7593 18.7566 0.366486 0.478461 -3.80347 0.234877 0.433877 -0.452938
3393 4 -1.91157 24.7083 19.3659 0.578401 0.560566 -0.145735 0.0157141 0.29324 -0.195528
3394 4 -4.90485 26.9498 19.3166 -0.183596 0.396424 0.494626 0.0518476 0.0512945 -0.256116
3395 4 13.2118 3.94548 18.4074 -0.321771 -0.475289 -0.763859 0.0600136 0.192085 -0.29914
3396 4 9.83852 6.62748 18.2485 0.59825 0.515479 -0.318971 -0.411562 -0.706274 -0.0118999
3397 4 4.35197 19.348 19.8715 0.065463 -1.7729 -0.921417 -2.83104 2.81982 1.02272
3398 4 0.595242 20.8716 19.7817 -0.425888 0.059431 1.15197 -1.00692 -0.309947 0.0402574
3399 4 -0.809724 27.0235 19.7492 -0.509474 0.0392742 2.05292 0.0383271 0.426578 0.597782
3400 4 -3.26249 29.0961 19.6025 -2.417 2.95295 2.16517 -0.211284 0.589937 0.109626
3401 4 14.6556 5.94625 19.4549 0.311052 -0.616186 0.478867 0.145627 0.103347 0.289926
3402 4 9.05146 11.0991 20.4311 0.244832 -0.672774 0.66198 0.187428 0.056845 0.162786
3403 4 8.90511 13.2606 19.2417 -0.156744 0.151542 0.810444 -0.102394 -0.01097 -0.0315029
3404 4 4.94836 19.3237 15.304 2.86661 -3.36705 -7.75402 5.08817 -1.63313 -0.689532
3405 4 1.86542 21.5955 16.4252 -2.01362 2.39022 4.21329 -22.3774 23.6387 -24.366
3406 4 16.6219 7.11271 20.5883 -0.0824032 0.202908 0.368121 0.222914 0.204322 0.300714
3407 4 15.2417 8.97796 19.1786 0.511715 -0.440216 -0.587036 0.109879 -0.424287 0.150127
3408 4 11.8272 15.6396 19.7076 -1.43331 3.84374 2.70085 4.1144 -5.52661 -0.421658
3409 4 9.91754 18.1637 11.9759 1.19554 1.26249 -1.39392 12.7721 -6.91678 18.7316
3410 4 6.30588 23.2875 17.6638 11.2796 4.49222 0.173268 -2.14396 -2.19051 0.535463
3411 4 3.67866 25.1454 18.8807 -6.95952 0.282063 -2.2626 -3.02212 1.5552 -0.99921
3412 4 1.83656 31.2408 19.2294 0.352525 -1.57032 0.765466 -0.12641 -0.424587 0.554852
3413 4 17.8832 3.19352 19.2721 3.67014 2.71479 -2.15619 -1.0049 -0.927764 0.465819
3414 4 17.7698 9.53687 19.3575 0.064415 -0.371805 0.0376784 0.00828028 -0.056658 0.216409
3415 4 15.7648 11.9301 18.608 -1.68258 -0.0745508 1.11386 0.0206211 -0.117407 -0.190399
3416 4 14.2041 18.8848 20.1115 9.49907 -2.86703 11.258 1.40959 -3.10659 -2.99433
3417 4 7.93301 29.8732 16.2936 -0.709792 8.05928 -0.554361 0.219375 -5.5807 -2.41525
3418 4 21.2983 6.71249 19.2003 -0.143516 -3.09152 2.00372 0.0878808 -0.590909 0.948394
3419 4 19.9347 9.77629 17.6947 -2.03913 -1.7781 0.685906 -23.2042 20.1643 10.7865
3420 4 17.1004 15.3465 19.2935 -5.96065 3.42724 4.2282 -0.982402 0.342139 0.298317
3421 4 14.9063 23.9409 12.2906 -2.29068 1.32023 1.00278 1.97271 0.89612 1.05056
3422 4 5.73948 29.2321 14.7603 0.539171 -2.19171 1.16744 2.64869 -3.15206 1.83293
3423 4 23.4106 2.02532 19.5757 -0.317962 0.23226 -1.39858 -0.143205 0.279399 -0.228616
3424 4 26.3905 4.5718 19.2938 -0.99081 1.39455 1.83681 0.080972 0.351485 0.197871
3425 4 25.4696 7.01961 19.0031 -0.279136 1.30776 -1.46372 -0.0163248 0.41232 -0.262337
3426 4 23.4851 9.30301 18.4728 0.374695 -2.34204 -3.26587 0.201317 -0.445383 -0.651897
3427 4 20.1958 17.473 19.1287 0.517539 -0.252414 -0.0589326 0.0819197 -0.110536 -0.0721264
3428 4 9.277 27.4989 12.1276 -0.478805 2.27395 2.66171 -1.90825 1.87474 2.73602
3429 4 13.1672 31.2733 18.9617 6.28302 4.32015 6.45231 -2.60252 2.17245 -0.0159934
3430 4 27.7362 1.8513 18.8275 1.92616 -7.62455 0.15345 0.142179 -0.549376 -0.61814
3431 4 28.875 4.67212 18.9529 -0.615345 0.228468 0.273272 0.0255449 0.126093 0.138288
3432 4 26.1929 9.52509 18.4523 0.585548 -0.54209 -0.794633 -0.354493 0.473241 -0.475016
3433 4 23.7449 12.085 18.9612 -0.671099 -0.854674 -0.811708 -0.277479 0.192676 -0.0121987
3434 4 17.8916 26.9915 19.8783 -2.93901 -0.700387 1.86766 1.31891 0.891972 -0.444103
3435 4 6.23179 31.6979 15.1954 -1.02926 0.756324 0.712471 5.99135 18.9675 22.6839
3436 4 31.0887 6.10742 19.0021 0.0191864 0.170498 0.112383 0.0876968 0.208669 -0.255996
3437 4 25.6494 13.7859 18.9616 -2.64461 0.0475041 0.684529 -0.280011 0.0636001 0.0499949
3438 4 24.4127 16.7801 17.9113 -1.38524 -0.539743 1.92325 25.2192 -16.6526 -5.61199
3439 4 20.1876 26.2044 18.703 -0.4147 -0.0298969 -0.0328583 -0.183996 0.166866 -0.342629
3440 4 17.7583 29.2597 18.0377 3.13684 2.89837 -0.158553 0.657596 0.0750332 -1.05508
3441 4 -3.3076 7.01748 18.7855 -0.218915 0.553787 -0.0990848 0.182809 -0.157225 -0.314309
3442 4 30.0723 9.56409 18.2218 -1.01934 -1.18599 -1.02584 -0.404231 -0.00294241 -0.580905
3443 4 -9.49485 17.3563 18.4095 -3.04818 -0.253461 1.0079 -0.00990145 0.0260572 0.0395584
3444 4 24.1498 21.1923 17.6836 -1.45268 -0.911838 -1.07017 -12.268 5.12881 10.9339
3445 4 -13.4583 24.0047 19.7409 -0.322159 0.336983 0.130829 -0.00978979 -0.0281618 0.259126
3446 4 -10.1577 21.3499 18.4383 0.815853 -0.0713241 0.0129825 0.416188 0.253633 -0.320147
3447 4 -10.1014 24.4316 19.495 -5.17578 -1.90951 -0.992458 1.08688 0.835418 0.448457
3448 4 -13.9894 30.1434 18.2218 0.512264 0.473282 -0.042673 0.0484864 0.144101 -0.0245289
3449 4 5.1071 3.96434 19.4575 -0.629067 4.64588 -2.69939 -0.0777499 0.867028 -0.830187
3450 4 3.12762 6.36584 19.8293 -1.47393 2.88492 0.208854 -0.0697805 0.0987546 -0.00160586
3451 4 -0.983542 13.1801 21.1037 -0.723656 0.18033 -0.308084 -0.00577294 0.134361 -0.203182
3452 4 -2.04795 15.9715 21.7537 0.365859 0.559012 0.222362 0.084055 0.188926 0.0768234
3453 4 -3.90256 18.9507 20.2938 0.423018 -0.0664192 -0.933725 0.429802 -0.0543963 -0.859221
3454 4 -11.6231 31.1628 20.7144 -0.0797975 0.213405 -1.12723 0.0447976 0.126685 -0.230644
3455 4 5.81591 8.95315 21.2799 0.400594 0.1811 -0.733998 0.0504254 -0.256241 -0.111447
3456 4 5.05654 11.0529 20.168 0.320181 -0.454825 0.113038 0.0588152 -0.0866215 0.00675795
3457 4 1.50481 13.4295 21.5267 -1.0992 -0.567012 -2.54318 0.00348306 0.14014 -0.177271
3458 4 -6.19484 26.1272 21.3246 -1.18287 0.806831 0.20432 -0.254124 0.0201786 -0.239926
3459 4 9.969 3.35213 22.4281 -0.825571 0.397087 1.2273 -0.118071 0.115198 0.170729
3460 4 5.88176 13.692 21.1362 0.0411873 -0.344841 0.131935 0.062798 0.139226 0.0159127
3461 4 -2.10794 26.6307 21.9595 1.4018 2.23848 2.66772 0.278633 0.335816 0.622606
3462 4 14.4962 3.70554 20.6687 -0.375694 -0.319972 -0.0904567 -0.0613076 -0.089497 -0.0447557
3463 4 11.2245 6.16357 20.6286 -0.237123 -0.409577 -0.134155 -0.0962652 -0.0449632 -0.0849685
3464 4 2.63427 20.141 23.2233 -3.87115 -4.64748 -2.76434 -4.11887 -1.09025 2.49167
3465 4 1.19717 22.7963 21.2537 2.79596 -2.31687 -1.69975 0.985427 0.465674 2.1373
3466 4 11.9986 10.597 21.7135 -0.178913 -0.193361 -0.351726 0.0204512 -0.155037 0.0199099
3467 4 10.4382 13.0673 21.9279 -0.0668568 -0.090358 -0.71683 0.113145 0.153604 -0.0998253
3468 4 3.55306 22.3293 17.8717 -5.99852 -14.8349 -0.411698 0.896927 1.79439 0.189794
3469 4 1.31626 24.1205 19.2855 4.79505 -2.40368 1.52097 2.15801 -1.27451 -1.34198
3470 4 2.25308 27.6808 20.3676 -1.38757 -1.2626 3.72075 -0.44962 2.01334 0.548254
3471 4 0.154583 30.3851 21.311 0.355888 -0.420184 -0.128052 0.0535302 -0.10037 -0.050664
3472 4 17.5182 1.03056 20.7528 0.0228883 1.16546 -0.775706 -0.0911538 -0.213077 0.0287033
3473 4 18.6537 3.57184 22.0123 0.00198241 -0.400174 -0.0778492 0.0595035 -0.126872 0.349362
3474 4 13.4714 12.5675 19.7618 -3.31924 -0.820012 0.651551 1.17727 0.537008 -0.147223
3475 4 5.90884 16.3643 19.4805 3.57999 -0.000500534 -0.54647 1.26707 0.939313 0.506365
3476 4 3.74781 30.18 20.4095 2.48833 2.95146 -2.82527 -0.526814 0.670572 0.778902
3477 4 20.5648 1.75523 22.2674 0.357552 -0.924494 0.853095 0.282658 -0.387099 0.320868
3478 4 16.7081 13.4394 21.0663 1.56094 -0.48549 3.00068 -0.644816 -0.219788 -0.574117
3479 4 14.5178 16.235 21.6557 1.82511 -1.05009 -3.49742 0.5778 -0.153827 -1.0291
3480 4 24.8742 3.63924 22.2324 0.695836 0.401863 -1.19643 -0.0203222 -0.0841406 -0.237634
3481 4 23.1022 6.21692 21.3005 -0.310045 -0.550227 -0.0309011 0.0812063 0.0806233 0.0978071
3482 4 21.6194 8.67795 20.9625 -1.63274 -1.37107 0.199743 -0.11822 -0.0699915 -0.304
3483 4 19.088 15.6713 21.2581 1.7434 0.840203 3.53334 0.0275428 -0.000512541 0.0764184
3484 4 26.0303 1.17085 22.1198 0.364276 -1.63943 -0.739397 -0.565536 -0.0178505 0.223068
3485 4 27.6443 3.54132 21.8451 0.128504 -0.794052 1.01685 -0.278452 -0.162332 0.13401
3486 4 25.0894 8.02176 21.7205 -3.91018 0.129391 -1.34201 0.2285 -0.0487308 0.212372
3487 4 23.5534 11.8487 21.9093 -0.141268 0.213612 -0.310257 -0.165445 0.0838636 0.118608
3488 4 21.2608 14.9993 20.2119 -1.48965 1.25989 0.849319 0.0479219 0.258932 0.0109085
3489 4 20.0463 17.9383 21.9907 0.552866 0.493723 -0.13101 -0.239195 0.00462125 0.0571566
3490 4 16.3241 21.8071 16.9944 0.559305 2.49127 5.42275 0.534204 -4.03091 1.36237
3491 4 30.0611 0.441036 20.5719 -2.59926 -0.0816077 -1.17959 -0.763253 -1.38821 0.205154
3492 4 26.3686 11.3084 20.6425 -0.663221 0.617313 -0.563552 -0.0906601 0.135032 -0.338034
3493 4 21.527 20.2287 22.1533 -0.00907272 0.334076 -0.212588 -0.0886811 -0.031274 -0.109914
3494 4 18.8021 24.9776 21.1591 -0.139547 -7.84843 -5.27402 1.12183 -0.334226 -1.12563
3495 4 32.2019 6.22354 21.3855 0.470055 0.506034 -0.215669 0.162341 0.331638 0.0199808
3496 4 23.3433 19.9464 19.8449 -0.0210717 0.0881032 0.160562 0.251961 -0.0604227 -0.125445
3497 4 21.4033 23.4891 19.4536 -2.03483 -1.4246 -0.101289 0.699905 0.0615695 0.222947
3498 4 17.7592 30.7922 20.5734 0.0529752 2.54674 0.40473 2.01951 1.61582 0.397256
3499 4 34.5254 0.606493 22.0185 0.486311 3.3676 0.399354 0.472598 1.06997 0.444999
3500 4 -1.75417 6.2406 20.6673 -0.0211441 0.127086 -0.197043 -0.0519797 0.125437 -0.0135955
3501 4 -3.26323 8.63362 20.8348 -0.0861843 -0.103756 0.272257 0.0499513 -0.180527 0.0986535
3502 4 -10.7439 19.7596 20.2228 0.0700975 0.867959 -0.952684 0.117806 0.167249 0.0578981
3503 4 -12.5073 22.5215 21.6773 -2.23154 -0.503028 0.450077 -0.515472 -0.183207 0.242359
3504 4 -15.2392 31.5984 21.6155 0.295892 1.06022 0.165239 0.257026 0.294355 -0.00418266
3505 4 -0.23683 1.97288 18.952 0.678373 0.118049 0.823805 -0.126172 -0.109172 -0.228887
3506 4 1.64344 2.9523 20.7536 5.08055 6.19543 9.41552 -1.31797 -1.39674 -1.95844
3507 4 -5.54277 15.6667 19.782 3.8172 -2.62851 -1.92077 0.84271 -0.346145 -0.401731
3508 4 -8.61487 22.7195 20.6098 -0.34108 0.544156 -1.1073 0.216785 -0.343567 -0.250582
3509 4 3.71402 1.5775 20.1354 -0.370183 0.684646 -1.04478 -0.398976 -0.131599 -0.918964
3510 4 4.56305 2.20027 23.4085 -0.0610652 0.184766 -0.674137 0.00943513 0.24783 0.142307
3511 4 1.30215 5.0699 24.2365 -4.08875 -4.51737 7.64037 -0.903614 -0.774385 1.60854
3512 4 -4.55883 15.4696 24.7548 -0.0543274 -0.021788 0.0263612 -0.0302322 -0.00691264 -0.00641191
3513 4 -6.49298 17.9863 24.4064 -0.168921 0.126582 0.11936 -0.0953593 -0.0539202 0.0833131
3514 4 -8.50474 21.898 23.7399 0.224596 -0.450959 0.533632 0.0967788 -0.0685943 0.00245021
3515 4 -9.53485 24.4091 23.933 -5.60953 -3.03724 1.50908 -1.13912 -0.634191 0.318537
3516 4 5.13124 4.41472 24.5239 2.87401 -1.91672 0.757099 0.222998 0.0199317 0.326443
3517 4 -0.860343 15.3018 24.6988 -0.225201 -0.100193 -0.227174 -0.0666002 -0.113524 -0.128336
3518 4 -2.61199 17.1039 24.0134 -0.0599315 0.0364374 0.0910574 -0.0327374 0.0545383 0.0495372
3519 4 -4.30363 19.3208 23.709 -0.488379 -0.245805 -0.445214 -0.163748 -0.0934631 -0.0371628
3520 4 -6.14781 25.7131 24.1836 0.100708 0.271602 0.0986687 0.131882 0.176141 -0.133193
3521 4 -8.28882 27.1263 24.676 -0.0426265 -0.227187 0.148414 -0.0551053 -0.084664 0.0802758
3522 4 7.29747 7.79538 24.0334 0.380017 -0.232345 0.229084 0.173416 -0.00914024 -0.0372808
3523 4 3.21269 11.2518 23.8673 -0.905183 1.08609 0.22491 -0.135621 -0.0201922 -0.0531352
3524 4 2.63808 13.4731 24.7024 1.1467 -1.16267 3.43772 0.177107 0.093657 0.514946
3525 4 -5.14795 28.4993 23.7685 -0.0351767 -0.398886 -0.28743 0.154014 -0.160934 -0.179686
3526 4 -7.2401 29.6451 25.9818 -3.64532 -2.20576 2.1443 -1.51489 -0.927742 0.827306
3527 4 -8.81986 31.8627 23.5741 -0.134173 -0.262752 -0.150441 -0.0827185 0.0855666 -0.057986
3528 4 11.5176 2.56936 24.2854 -0.0624978 -0.00473873 0.0833503 0.0247919 0.0537041 0.00761266
3529 4 5.25601 14.4686 23.4927 -1.1814 2.728 -0.578743 0.155964 0.345575 -0.388558
3530 4 -3.51813 30.1199 22.389 0.0732913 0.0323717 -0.258668 0.00602705 0.0472001 -0.120784
3531 4 -3.80569 32.2877 23.8346 0.058024 0.0322111 -0.0309493 -0.0141346 -0.234877 -0.0397268
3532 4 1.40778 24.346 24.3807 9.84888 0.494008 -2.59721 -3.43216 -1.50797 -0.846717
3533 4 18.1292 2.56762 24.6959 -0.169095 0.214248 0.0349747 -0.110427 0.141908 0.120973
3534 4 11.6587 12.21 23.9714 0.938605 -1.65775 1.0372 0.276797 -0.0728486 -0.153083
3535 4 2.16495 26.4488 22.6025 4.41073 2.19267 -1.28084 1.09797 0.787091 -1.39319
3536 4 5.63263 32.2416 23.5438 -8.43988 -0.476169 -1.5587 -1.07921 0.400098 0.502124
3537 4 1.39637 30.6881 23.4993 1.64407 0.0578549 -2.22668 1.1571 0.0362925 -0.264012
3538 4 18.6556 0.434811 23.535 -1.19077 1.2419 -0.111639 -0.361754 0.285593 -0.0926657
3539 4 13.2146 15.0908 23.9499 2.64601 4.55464 -3.1404 0.122151 -2.17699 0.435109
3540 4 12.0898 17.7314 18.302 -9.07783 -5.65245 4.77535 2.58863 3.30486 4.54705
3541 4 3.44697 29.5191 23.911 -3.50988 -1.91881 0.0961706 -3.26599 0.508364 -0.151554
3542 4 21.3575 6.01184 23.7092 0.020666 0.250885 -0.00079611 0.0135406 -0.0207433 0.0534203
3543 4 15.7277 15.1593 23.9252 -0.518835 -0.885918 -0.69139 0.924855 -0.13607 0.307005
3544 4 16.8406 19.5993 20.6058 1.07546 3.66629 1.05706 -1.96883 0.987881 -1.80981
3545 4 15.2992 18.1781 12.3456 1.07155 0.349163 0.450166 2.78581 11.0126 13.2074
3546 4 13.0592 28.7425 17.2575 -0.30493 3.39774 11.7431 0.0717296 -0.753481 1.15144
3547 4 23.7173 7.41309 23.9371 -1.98258 1.70885 -0.106829 1.44399 -0.911343 0.344129
3548 4 18.1676 14.3255 24.4799 -1.99792 0.70687 -3.63663 0.37962 -0.440698 0.932603
3549 4 18.5944 21.3613 19.8412 0.576986 -2.36379 0.329473 0.361301 -0.723095 -1.46428
3550 4 16.0718 31.4345 18.4107 1.43147 1.92407 3.20079 -0.435961 -0.465258 0.142236
3551 4 15.9757 30.4199 22.2226 0.903026 -0.032432 -8.54476 -0.942647 -0.111232 2.19786
3552 4 10.2028 28.7107 16.8702 -2.04893 2.47008 6.30875 5.37185 1.87538 -0.870061
3553 4 27.69 2.35123 24.2036 -0.416952 0.760807 2.35655 0.0609783 -0.752545 -0.917247
3554 4 24.5515 10.5624 23.8742 -1.12142 -0.103568 0.0325879 -0.154635 0.0540006 -0.051377
3555 4 19.5989 19.3551 23.9634 0.222025 -0.0961938 0.176322 0.144903 -0.815648 0.238885
3556 4 19.7825 21.8016 23.3742 -0.271855 0.317844 -0.588762 -0.669354 0.433808 -0.250178
3557 4 18.0774 27.0306 23.9819 3.40913 2.73009 5.65858 0.803276 0.729812 -1.90461
3558 4 30.375 0.572394 23.2193 -1.32252 -4.73902 -1.0272 -1.01175 0.988406 -0.981729
3559 4 30.9538 2.87483 23.9389 -3.16422 4.60431 3.0149 -0.522988 0.573054 0.662076
3560 4 31.276 5.42497 23.8767 -0.297761 -1.95929 -0.282148 -0.109291 -0.183774 0.0792168
3561 4 27.0899 10.0029 23.9059 -3.26133 -2.64506 3.35405 -0.647192 -0.63767 0.726484
3562 4 27.3521 12.8928 23.2168 0.012772 -0.693053 -0.367731 0.0222163 -0.0940309 -0.10379
3563 4 21.8277 22.7797 24.2288 0.288622 0.172191 -0.423649 0.0866106 0.19994 0.0271531
3564 4 33.3829 1.03611 24.3107 1.20352 1.20588 -1.00366 0.0341746 0.819665 0.165132
3565 4 34.4128 4.47022 23.6542 -0.852571 -2.61092 2.47885 -0.230896 -0.440891 0.457412
3566 4 30.3367 7.87173 24.0618 0.051237 -0.0244419 -0.0232392 0.093388 0.11445 0.0372862
3567 4 30.0301 12.4223 24.5 -0.142159 -0.0221575 0.33718 -0.100946 -0.0586353 0.0514947
3568 4 19.2152 31.0871 22.8771 -1.27899 -1.95229 -2.13731 0.997635 -0.697185 -0.367484
3569 4 -0.776327 1.66655 24.2851 -1.80127 1.06131 -0.968369 -0.520462 0.476922 0.0158638
3570 4 1.37713 2.75102 23.8407 -0.160166 -1.36395 -0.986281 -0.0631336 -0.179257 -0.214127
3571 4 -2.2563 6.94871 23.6447 0.462355 -2.63528 -2.36385 0.0982845 -0.524997 -0.281519
3572 4 -6.91602 15.7197 23.0692 0.00043202 0.117091 0.248251 0.00231911 0.0349126 0.0667289
3573 4 -15.7617 30.4176 24.151 -1.20051 0.110244 0.647315 -0.125987 0.347979 0.141929
3574 4 2.86101 0.723584 24.1676 0.470282 0.547033 0.58947 0.0944411 0.156328 0.0353594
3575 4 0.884812 10.1618 25.9054 -0.20547 0.0098367 0.448517 -0.0951014 0.185823 0.0197533
3576 4 -0.730714 11.9777 25.3503 -0.348452 0.100262 -0.520262 -0.0779124 -0.0366378 -0.165575
3577 4 -7.14145 20.9087 25.8635 0.296664 -0.0745167 0.25497 0.158525 -0.0441023 0.0517466
3578 4 -8.98301 24.8972 26.4305 0.0609034 0.0729124 -0.0441145 -0.0628168 0.0117189 0.0185296
3579 4 7.15039 2.95987 25.4124 3.53146 -2.12957 0.131434 0.356948 -0.263433 0.00930733
3580 4 4.63449 6.47392 25.9693 -2.21662 2.23232 -7.69817 0.485153 -0.260689 1.14678
3581 4 -2.84404 18.6459 26.0002 -0.385426 0.0903665 0.038338 -0.121602 0.0252804 -0.0218199
3582 4 -4.27802 22.4092 26.1217 -0.237444 0.116602 -1.18283 -0.116875 0.0500099 -0.154849
3583 4 -6.71397 23.4274 25.1737 -0.890409 0.578999 0.356882 -0.0843212 0.0888285 -0.0581778
3584 4 -10.1978 31.7023 27.0112 0.0552485 -0.17566 0.140643 0.0958206 -0.047069 0.0508028
3585 4 8.66274 1.99754 26.9593 1.60069 -1.085 2.05517 0.118775 -0.0935014 0.265198
3586 4 8.65571 8.10514 26.1458 0.264008 -0.0647118 0.122726 0.0540036 -0.0678625 0.0132354
3587 4 1.40398 12.6018 26.8621 -0.460081 0.298895 -0.830732 -0.145933 0.0772483 -0.452204
3588 4 0.417549 18.6636 25.3486 0.0877103 1.26105 -0.236929 -0.442299 -0.389136 0.048274
3589 4 -1.70775 22.8216 24.856 -0.825652 -7.48002 -1.51056 1.43552 1.82743 0.98513
3590 4 -2.90132 24.4456 27.1038 -0.325003 0.125031 -0.0982953 -0.263369 0.0371893 0.0970809
3591 4 -5.87474 31.9547 26.3984 -0.289405 -0.537563 -0.187148 -0.121718 -0.391533 -0.229524
3592 4 10.3237 0.593413 25.7457 0.259215 -0.355654 -0.341511 0.0449338 -0.0074141 -0.0186464
3593 4 5.77733 13.5349 26.0153 -0.614917 -0.728904 -0.331986 -0.144002 -0.140741 -0.127156
3594 4 3.45307 15.9153 25.1309 3.50875 3.62164 -2.83996 -0.347409 0.428586 -0.283811
3595 4 2.76728 18.339 26.477 -4.37167 -2.5216 -0.374445 -1.6005 -0.155434 -0.897944
3596 4 0.581439 22.0158 25.1399 0.434497 -0.15805 -1.46214 -1.69835 0.607764 0.20547
3597 4 -0.721708 25.6332 25.8846 -0.053125 0.529553 0.476678 0.454619 -0.376861 0.102949
3598 4 13.9931 2.33258 25.1683 -0.0802684 0.0551168 0.230844 -0.0345471 0.0544731 0.216879
3599 4 14.3075 4.40123 26.6492 -0.0839022 0.126365 0.242252 -0.0116195 0.0415878 0.0242658
3600 4 11.1273 8.57972 25.7658 0.240222 -0.265425 -0.137207 0.0967786 -0.0908168 0.00716452
3601 4 7.52379 15.3398 25.5451 -1.1908 6.42436 -3.73272 -0.0475916 0.463401 0.0951179
3602 4 3.72589 21.9658 22.3792 1.38826 -5.19981 6.5606 4.54789 4.22208 -0.488331
3603 4 0.657133 29.02 25.3854 -2.11698 1.4717 -1.24715 0.658728 -0.639557 0.553324
3604 4 16.3224 1.61288 26.2877 -0.00326751 -0.0511104 -0.289444 -0.109151 -0.185426 -0.092928
3605 4 14.9458 8.21397 26.2906 0.3825 0.150723 0.000726766 0.0983555 0.129383 -0.0222412
3606 4 13.3516 11.2153 25.4815 -0.511619 -0.0589946 -0.0300553 0.0011061 -0.0836033 0.100819
3607 4 8.79749 20.1404 16.2386 9.23885 -4.13397 0.0466246 -4.0666 3.0103 1.86566
3608 4 17.9814 5.70567 26.7771 0.136969 -0.343506 -0.424031 -0.0434687 -0.00177035 -0.0650683
3609 4 17.0553 8.82564 25.3409 0.180552 0.165237 -0.386971 0.00148961 0.0597405 -0.182082
3610 4 14.7833 13.8552 25.8477 0.201584 -1.02822 -0.162911 0.102351 -0.193362 0.0338905
3611 4 11.3586 16.8725 26.7248 -4.66073 -5.40335 1.10871 8.27193 -5.10155 -8.39991
3612 4 7.30604 26.172 17.5745 6.1479 8.52775 -1.07029 3.22031 -2.1058 3.93096
3613 4 6.85443 30.6634 21.1176 -14.4619 9.20633 -6.61351 -7.61974 6.75278 -2.9002
3614 4 20.4737 5.30945 25.9891 -0.47612 0.249776 -0.174865 -0.174171 0.143341 -0.013109
3615 4 20.2869 10.0982 27.329 0.070344 0.377967 -0.0939265 -0.0254657 0.132904 -0.00966684
3616 4 17.1124 12.5566 26.4656 -0.0153501 -0.101569 -0.046323 0.034787 -0.11654 -0.0683975
3617 4 18.3792 24.3783 23.3443 -2.18085 -1.46971 -7.11226 -1.13101 1.18086 1.22208
3618 4 11.8958 26.4744 15.9595 2.55445 -8.02976 5.38395 -2.22832 0.472162 0.563126
3619 4 7.63319 31.1659 24.086 -17.783 11.1964 -4.58727 4.81927 8.87443 1.95157
3620 4 25.1577 2.20539 25.9311 3.75937 -3.91574 -0.861662 -1.14088 0.818244 0.297665
3621 4 26.5265 4.20679 25.8283 -0.849982 0.773017 -0.819986 0.0332884 -0.076699 0.539987
3622 4 19.2679 16.3822 26.067 0.247344 -1.05848 -0.0171643 0.106109 -0.158185 0.177173
3623 4 17.4004 28.2917 27.4147 10.1399 -0.963791 -3.84734 1.5412 0.582238 4.34871
3624 4 21.6729 16.579 25.1686 0.0203947 -0.233971 -0.0786618 0.032945 -0.0834334 0.0848592
3625 4 19.6351 21.2766 25.6687 -0.160258 -0.139457 0.314781 -0.299893 -0.0248015 0.705469
3626 4 19.1595 25.4893 25.7966 2.14216 2.064 -4.25525 -3.71575 0.52652 -0.576746
3627 4 29.6291 2.43937 26.2096 -1.28481 2.30818 1.41667 0.32176 -0.269744 -1.49449
3628 4 32.2574 3.53318 26.2116 -0.589097 -0.00753973 -1.24504 -0.108027 0.0363038 -0.289737
3629 4 28.8564 10.2578 25.8494 -0.124693 -0.220182 0.0674948 -0.0218962 -0.158708 0.050143
3630 4 26.7341 13.8779 25.3665 0.144617 -0.292935 -0.605514 0.0231181 -0.0384702 -0.126544
3631 4 25.678 16.3433 25.1228 2.16526 0.439105 -0.427098 0.387051 0.0434853 -0.120714
3632 4 22.9276 20.0189 25.7151 1.13572 1.12256 -0.0882998 0.562343 -0.0208072 -0.0740995
3633 4 17.1516 32.1127 25.9157 0.990318 0.884593 0.502158 2.04724 0.261663 -0.30163
3634 4 33.0413 1.1973 26.8758 0.764892 0.675297 2.10831 -0.10891 0.359352 0.585688
3635 4 32.4368 7.99409 26.8031 -1.15373 0.560618 -0.14796 -2.08118 0.85418 -0.962853
3636 4 -6.93077 14.1023 26.5897 0.0708317 -0.0111057 0.0452187 0.0212221 -0.013097 0.00978586
3637 4 -9.12473 16.4946 26.3198 0.402786 0.195547 0.252566 0.0151002 0.127151 0.146214
3638 4 -9.86701 19.2361 26.253 -0.0342705 0.161823 0.0284324 -0.013974 0.0506296 0.00281853
3639 4 21.582 26.4227 25.9565 0.892463 0.790728 0.359163 0.352733 0.26354 -0.137914
3640 4 20.0376 29.2232 25.86 -0.670035 0.527202 -1.78103 -0.304747 0.500607 -0.0934083
3641 4 -17.7054 31.5393 25.9549 -0.117696 -0.044598 -0.0894286 -0.0377683 0.268772 -0.158389
3642 4 0.283184 1.86551 27.1889 0.147074 0.474977 0.103339 0.192065 0.176055 0.00952847
3643 4 -1.02238 7.12201 26.1327 1.77631 0.822362 -0.797485 0.926787 0.350811 -0.236912
3644 4 -4.26617 11.4688 26.2008 -0.471687 0.195267 0.173181 -0.156155 0.0221754 -0.0860937
3645 4 -11.7238 26.6981 25.6938 0.0581238 -0.317926 -0.273842 -0.00497751 -0.0552679 -0.160245
3646 4 -12.97 30.7081 25.4434 2.06701 -0.156855 -0.528516 0.376719 -0.0805245 0.0232748
3647 4 0.0340289 10.0217 28.3381 0.368917 -1.83907 -0.0840796 0.106408 -0.510895 -0.0640136
3648 4 4.01072 6.24025 28.6666 -1.13861 -1.62674 -1.87059 -0.436056 0.0442997 0.255046
3649 4 -0.946142 17.4754 27.7014 -0.173059 -0.253891 -0.32505 0.0380445 -0.124241 -0.0584168
3650 4 -2.33217 21.271 28.8369 0.824829 -0.696052 0.633076 2.02524e-05 0.100615 0.188171
3651 4 8.26374 7.1321 28.4142 0.476198 -0.653932 -0.0938591 0.0431643 -0.348624 -0.158969
3652 4 3.8839 12.1426 27.8619 0.243524 0.234343 -0.326256 -0.440995 -0.278202 0.517818
3653 4 2.60948 16.0601 27.5195 0.338378 -0.778914 -0.908322 -0.331112 -0.204853 -0.503843
3654 4 1.86255 18.4717 29.228 -1.68189 -1.44674 0.0352094 -1.2752 -1.44214 -0.519806
3655 4 0.130452 20.0677 29.8359 -0.815435 1.27089 0.533237 -0.279682 0.242047 -0.462187
3656 4 -0.641767 23.3204 28.3066 -0.0190214 0.449015 0.0354272 -0.109479 0.366234 -0.211253
3657 4 12.1681 3.45201 27.7869 -0.112036 0.0680402 0.106222 -0.0614214 0.0402517 0.0180586
3658 4 7.12661 14.3032 29.1127 -0.136038 0.312653 -0.0143519 -0.20506 0.836583 0.220478
3659 4 1.85512 23.1086 30.9951 2.13652 3.2209 -5.58 -1.0955 -4.50766 -3.27999
3660 4 0.739956 25.7514 28.2892 -0.43292 2.39973 -2.3227 0.302416 -0.283728 0.102616
3661 4 -1.38383 28.0709 27.399 -0.336821 0.329643 0.700911 0.242843 0.186808 0.225142
3662 4 16.6413 2.82699 28.5366 -0.554368 -0.457997 -0.80064 -0.0640787 -0.173755 -0.052896
3663 4 15.1637 6.46317 28.4014 -0.0675836 0.143854 -0.0716665 0.000575373 -0.00303401 -0.0276045
3664 4 12.3079 7.20004 28.3243 -0.269915 0.51959 -0.493684 -0.0489899 0.175276 -0.216
3665 4 10.7098 9.65497 28.127 -3.11315 2.15913 -1.31159 -0.775422 0.353227 -0.250435
3666 4 10.9096 12.103 28.412 -0.115688 -0.0281036 -0.780986 -0.164297 0.168383 0.0561071
3667 4 1.88887 21.2942 27.1445 -1.35182 -3.56823 1.81972 0.290666 -1.27049 1.04478
3668 4 0.650063 28.5187 28.8459 0.729647 1.4484 0.0528486 0.204721 0.348648 -0.379592
3669 4 0.330962 30.9214 26.8351 -0.105884 -0.811808 -0.947127 -0.0236499 -0.1738 -0.218529
3670 4 14.8195 10.4908 28.1552 -0.150926 -0.125875 -0.467495 -0.0525441 -0.119463 -0.127042
3671 4 13.0074 13.1214 27.3005 0.219348 -0.302084 0.524769 0.0829032 -0.0352615 0.332367
3672 4 12.2907 15.8671 28.5607 0.671131 3.97636 1.32505 1.07201 -1.8431 -0.815857
3673 4 4.25347 25.4376 23.05 -4.5681 -3.62213 3.85837 -2.57558 0.308082 0.495572
3674 4 2.68592 31.0602 27.7882 0.598306 0.325739 -1.03902 -0.522933 1.01293 1.1347
3675 4 19.6671 1.00478 27.5973 0.00966263 -0.069931 -0.557916 0.0479599 -0.0208572 -0.14791
3676 4 21.4851 3.07314 27.5877 -0.171017 -0.529719 -0.186353 -0.0882231 0.0623566 0.271734
3677 4 20.284 5.45581 28.6166 0.352466 -0.503653 0.270015 0.152911 -0.138476 0.0894236
3678 4 18.1449 9.82174 28.6035 0.125755 -0.388562 -0.265998 -0.0180587 -0.118855 -0.106337
3679 4 23.321 1.22332 27.2911 1.24903 -0.915814 0.0138893 -0.176976 -0.533479 -0.430126
3680 4 24.5649 3.8513 28.3653 0.568457 3.65287 -4.16476 0.0347296 0.255516 -0.698711
3681 4 22.8735 5.45095 27.2619 -1.30542 1.07648 -0.432775 -0.24338 0.0655958 -0.0753222
3682 4 22.6133 7.81099 28.1608 0.81105 0.491261 0.640341 0.155949 0.175457 0.141946
3683 4 18.3995 13.3032 28.7788 -0.649794 0.370229 -0.803531 -0.124122 0.151495 -0.429046
3684 4 17.461 15.804 27.9341 -0.184406 -0.336748 0.344684 -0.199022 0.0505406 -0.0887514
3685 4 26.7237 1.78599 28.4093 1.63182 -10.5913 -0.106133 0.933697 -0.152437 0.662021
3686 4 26.5034 6.08542 27.4493 0.279419 1.71121 0.727094 0.228032 -0.170624 0.217916
3687 4 21.3143 14.6919 27.1932 0.024784 -0.104899 0.00793299 -0.139405 -0.0923545 -0.0664718
3688 4 11.5359 24.1115 27.4111 2.53977 -12.7609 -4.33174 2.29216 -7.96183 -0.845332
3689 4 28.9572 4.25976 27.736 0.258955 -0.621854 0.521219 -0.153882 0.760557 -0.130308
3690 4 26.7831 8.40153 28.4341 1.48818 -0.129128 -0.209868 0.219959 0.323273 -0.114392
3691 4 25.2149 10.7891 28.3928 0.168151 0.00697285 -0.0511303 0.0894608 0.0271247 -0.0312344
3692 4 23.4806 13.8565 28.3844 0.338725 -0.144291 -0.268254 0.0476877 -0.00209509 -0.196165
3693 4 15.9822 23.4041 21.7992 9.76139 -16.4719 -4.27756 -0.477346 5.31848 4.79454
3694 4 15.792 31.221 28.034 5.55727 4.79745 -2.56851 1.53178 1.21925 -1.55936
3695 4 32.1066 1.46925 29.1282 1.32823 -0.117022 -1.82713 0.260812 -0.416657 -0.63933
3696 4 28.168 10.6697 28.9032 1.6901 -0.507306 2.48951 0.477033 0.359786 0.192979
3697 4 29.0565 13.9434 28.9172 -0.0687855 -0.144934 -0.288715 0.00653998 -0.0758051 -0.123086
3698 4 27.7061 16.1999 28.9943 0.0345795 0.161922 0.223447 0.0671849 0.069781 0.0961003
3699 4 26.1322 18.3454 28.3928 -0.0304846 0.118163 0.217767 0.0169822 0.0923732 0.0730906
3700 4 21.753 23.4522 27.8197 1.18963 0.23526 -0.477616 0.306047 -0.0935171 -0.152543
3701 4 20.3472 26.7574 28.7156 -1.92366 1.24896 0.142694 -0.237435 0.39038 0.200748
3702 4 18.9649 30.9056 28.7247 0.57507 -0.3754 -0.153304 0.330806 -0.0565969 -0.117446
3703 4 35.2764 1.76757 28.4648 0.541275 -0.859716 0.372919 0.206976 -0.101075 0.576698
3704 4 -13.6413 25.1122 27.9843 2.71413 1.2153 -1.8456 0.461663 0.243736 -0.42452
3705 4 -16.2992 29.0299 29.0873 0.451542 0.561501 0.295345 0.331508 0.251324 0.283396
3706 4 2.34871 0.400795 28.2793 -0.0890114 0.081724 0.172338 -0.00682878 0.0111772 0.0847324
3707 4 2.23314 2.78052 29.1688 -0.0955634 0.371047 0.443346 -0.0239432 0.139904 0.00889966
3708 4 -1.96942 7.15125 29.0743 -1.70834 4.21238 -1.61342 -0.177813 -1.26742 0.00864262
3709 4 -2.48422 10.7141 27.6205 1.35263 1.00671 -1.86112 0.226636 0.258696 -0.306343
3710 4 -10.3613 22.4389 27.3115 0.999298 -0.755603 -0.688831 0.0907672 -0.101762 -0.0971902
3711 4 -11.1994 24.4986 28.6953 1.13907 -1.12532 -0.226092 0.107572 -0.188032 -0.139859
3712 4 -11.6207 28.4328 27.3093 0.776903 -0.8162 -0.594593 0.262869 -0.0861541 -0.16844
3713 4 0.170235 6.94175 31.1582 0.413092 -0.587826 -0.955019 0.0141108 -0.142863 -0.338363
3714 4 -0.308492 9.36786 31.0853 -5.09278 -2.31072 -1.24101 0.959384 0.128878 0.429982
3715 4 -2.0926 12.6327 29.1093 0.224311 0.0416043 -0.287867 0.184562 0.0617001 -0.108926
3716 4 -4.43582 15.5959 29.8987 -0.00509577 -0.179172 -0.121389 -5.00888e-06 -0.0967567 0.0259713
3717 4 -5.78455 18.4154 29.7997 -0.148009 0.427847 -0.540695 -0.098828 0.110994 -0.111757
3718 4 -6.94144 23.2379 29.7263 -1.87829 2.47461 1.76553 0.517829 -0.263963 -0.92565
3719 4 -9.01437 24.7938 31.0068 -6.4157 0.576512 -0.0589008 0.845903 0.215163 0.209575
3720 4 -3.6151 17.7479 30.958 -0.579447 0.130305 -1.02157 -0.152785 -0.0468944 -0.260979
3721 4 -8.74194 27.6707 30.1963 0.0244742 1.35043 0.0569224 0.170755 -0.0464758 -0.00449383
3722 4 6.82926 7.62256 30.6978 3.80335 3.72163 1.09228 0.56907 0.579744 0.0771872
3723 4 4.57947 9.10688 30.809 0.0269925 -0.268908 -0.0332318 -0.0862324 -0.134371 -0.145591
3724 4 -5.51696 26.3975 29.7803 -0.975664 0.0518065 -0.511549 -0.130885 0.0296342 -0.161928
3725 4 -6.30549 28.9593 29.7732 0.155519 0.0638021 -0.165111 -0.0917593 -0.0496865 -0.0564287
3726 4 9.36332 7.39148 31.2927 1.61034 -0.445664 0.218126 0.272045 -0.0600355 0.156741
3727 4 7.76612 10.158 30.9034 0.0971314 1.12488 -0.902207 0.0285994 0.163806 -0.135673
3728 4 -2.87559 27.2841 29.8277 -2.91529 -0.826201 6.01811 0.250852 0.327169 -0.514176
3729 4 -3.93074 29.8387 30.0691 -0.52808 0.682643 -0.36434 -0.538323 0.535161 -0.630044
3730 4 15.8243 1.94706 30.8404 0.37567 0.194849 0.11524 0.121782 -0.0287483 0.108897
3731 4 14.732 5.19286 31.2358 3.32365 0.314131 4.63468 0.631336 0.780002 0.0684912
3732 4 -0.144016 26.3658 31.439 -0.789076 0.426744 -0.451532 -0.850554 0.741452 -0.273197
3733 4 16.9534 4.42009 30.5263 0.136099 0.6044 -3.9474 0.0652389 -0.0177605 -0.569083
3734 4 13.7315 9.72432 31.463 0.09722 0.252424 0.281027 0.154258 -0.0730101 0.109414
3735 4 12.3075 11.9434 31.6022 0.280911 -0.00302661 1.09296 -0.315594 -0.930167 0.910917
3736 4 10.4341 13.4497 30.5263 -0.7044 1.18786 1.23707 -0.119073 -0.141502 0.211612
3737 4 4.8035 28.8663 27.4632 4.90398 6.22975 -3.35276 3.49403 1.44529 5.48224
3738 4 1.24075 29.9053 31.0086 -4.45577 2.8148 1.14341 -0.367857 0.393163 0.247805
3739 4 20.0479 3.21656 32.0404 -1.02844 0.56495 0.102098 -0.382334 0.428252 -0.0545319
3740 4 5.37378 26.0499 25.3478 -5.61832 -0.169381 -0.83577 -3.4883 -2.21649 0.72538
3741 4 20.5469 0.13857 31.7354 -1.95669 3.6955 -1.04053 0.139913 -0.606309 0.32352
3742 4 23.4714 3.65355 31.8135 -0.121192 0.110013 -0.0548939 0.199233 0.0758207 -0.0379489
3743 4 19.9344 9.55986 30.3596 -0.0618567 0.0643145 -0.112026 -0.0757473 0.050352 -0.0624301
3744 4 18.6654 13.3694 32.5262 5.56506 -4.75218 -7.03949 -1.31913 0.908467 1.70742
3745 4 6.28368 18.4254 22.112 0.19407 -4.51604 -1.46657 5.591 0.49938 -4.55509
3746 4 16.1361 25.8958 18.2329 -11.2289 7.37283 -2.34697 -1.18313 -1.72462 -1.13152
3747 4 25.0709 0.392897 29.8765 -8.9914 3.72802 -1.05595 0.562877 -1.64564 -1.73958
3748 4 21.5147 13.0853 29.7082 0.200506 0.0781896 -0.145561 0.124824 0.016779 -0.138174
3749 4 18.8388 15.8873 32.701 -2.1644 -3.07489 0.277201 0.0999636 0.668617 0.0601806
3750 4 17.2653 19.7641 30.1065 3.52106 0.31963 -0.83618 -0.948516 -0.0243791 -0.0814284
3751 4 15.9487 17.7567 25.5116 -2.82426 5.43734 -5.20539 -1.08696 1.78799 -0.0341345
3752 4 27.4681 5.44131 30.0733 0.0749019 0.20503 0.437052 0.0654551 -0.116452 0.0388566
3753 4 24.9438 7.25633 31.1416 -0.185607 -0.353716 -0.206663 0.196633 -0.226282 -0.268229
3754 4 22.5615 15.0138 32.0826 -0.950564 -0.307096 1.01122 -0.161193 -0.00245853 0.24712
3755 4 19.249 22.8799 27.5356 0.146467 -0.415155 -0.60448 0.401331 -0.278546 -0.273276
3756 4 16.846 29.9483 33.0519 0.583114 2.83848 3.15489 0.332822 2.1039 -0.156775
3757 4 29.6357 0.633834 32.6522 -12.9156 -19.218 -7.12372 -1.2796 1.03714 1.41295
3758 4 31.5199 5.23827 29.8629 -0.631054 0.331417 0.127583 -0.159856 0.0141414 0.0551277
3759 4 29.1596 8.05255 29.8419 2.34285 -1.18802 5.74388 0.874462 1.06076 -2.18762
3760 4 26.3476 9.41107 30.8396 -0.684314 -0.680054 -0.494569 -0.0512842 0.082841 -0.0880148
3761 4 25.7671 12.3455 32.0015 -0.103775 0.294009 0.235127 -0.020399 0.0985263 0.0129656
3762 4 17.7775 30.3494 30.8121 0.715239 0.996128 3.22091 -1.36199 -1.70738 1.46628
3763 4 33.794 1.3963 31.5742 0.950847 -1.45053 -1.08243 0.326781 0.302459 0.00713342
3764 4 22.7958 23.8354 32.2959 0.323473 0.282476 0.63153 0.327768 -0.0197381 0.142258
3765 4 -16.2633 28.5387 32.0674 -2.15075 0.359828 1.54049 -0.288244 0.25068 0.411021
3766 4 0.676132 2.30258 31.1282 0.711518 -0.0489109 0.953506 0.259799 -0.0205544 0.200343
3767 4 -3.23948 7.47104 31.7127 -1.82845 0.841013 -0.26478 -0.249382 0.0918718 -0.0456876
3768 4 -12.4487 23.7421 30.9778 -0.113055 -0.0280915 -0.237996 -0.232593 -0.133183 -0.0973572
3769 4 -13.5771 26.6035 31.6842 1.82843 0.506352 0.907869 -0.402814 -0.336323 0.0396711
3770 4 3.53163 3.27082 32.6565 0.0615492 -0.303904 -0.0434922 -0.03948 0.00564282 -0.142171
3771 4 0.153742 9.17375 33.8628 0.228672 0.0795554 -0.235412 0.129838 0.0684423 0.040763
3772 4 -1.10402 11.3079 33.952 0.0507551 -0.154916 0.127267 -0.0069971 -0.0139951 0.0508548
3773 4 -3.01776 12.9252 34.1521 0.0303055 -0.00164921 0.197745 0.0481262 0.0370453 0.062633
3774 4 -4.08121 15.6927 33.6234 -2.6286 -0.86537 3.07511 -0.282968 -0.00699863 0.325262
3775 4 -4.96762 18.298 33.1775 0.351747 -0.281662 -0.0957041 0.531803 0.0520586 -0.0724852
3776 4 -7.26972 23.3887 33.031 0.462844 -0.604225 -0.441691 0.0848883 0.137623 -0.264717
3777 4 4.28396 5.92121 32.6695 -0.253479 -0.161383 -0.0448373 -0.0627753 0.00490558 -0.117391
3778 4 -1.58399 17.3608 32.7466 -1.42663 -1.02508 -0.777588 -0.0880856 0.0905049 -0.0731926
3779 4 -6.96379 27.0737 32.5241 -0.0815967 0.126662 -0.13361 -0.233293 -0.072129 -0.160021
3780 4 -8.32259 29.2867 32.447 0.164465 0.17717 0.0568958 0.0374548 0.0559359 -0.0191896
3781 4 -10.4707 30.411 33.2392 -2.09659 -3.56344 -3.6704 -0.536704 -0.794989 -0.843013
3782 4 6.35434 2.79755 33.8718 -0.14214 0.349927 0.48532 -0.136234 0.132686 0.056908
3783 4 7.57727 6.49462 33.459 0.0774194 0.00304489 -0.27862 0.0644522 0.0936529 -0.0537562
3784 4 6.31843 9.36439 33.044 4.63632e-05 0.157425 0.11931 -0.0266822 -0.038586 -0.147893
3785 4 4.27297 11.1046 33.4978 -0.0163732 -0.0233456 -0.138556 -0.171892 -0.0486538 -0.030618
3786 4 1.73743 16.1205 32.5117 0.964377 1.0679 2.84458 0.423675 -0.344249 -0.531287
3787 4 0.256446 18.6854 33.7611 2.06862 1.62895 0.531927 0.111251 1.35213 -0.348372
3788 4 -3.67199 24.2155 32.7106 -0.166093 -0.702982 -0.0724986 0.112032 -0.349068 0.108743
3789 4 -4.19023 27.0085 33.2775 2.65268 -1.57382 -2.46065 -0.834705 0.557879 0.845717
3790 4 -4.89647 29.1947 32.3772 0.00923497 -0.52977 -0.02126 -0.0575623 -0.0250978 -0.25181
3791 4 11.1795 2.35597 32.8327 1.19718 0.987988 -0.831686 0.107366 -0.0700886 -0.0884256
3792 4 3.86671 17.5303 33.2409 -2.18364 1.32102 -1.02283 0.13596 0.406507 0.111737
3793 4 -1.20396 27.5692 33.5926 -0.0756022 0.421297 -0.716015 -0.0960097 0.33568 -0.0955425
3794 4 -1.36223 29.4213 31.9244 0.239292 0.0266545 -1.07312 0.0999843 -0.006248 -0.241212
3795 4 14.181 5.15094 34.1383 -4.48855 2.59812 2.92493 -0.743415 0.338077 0.338683
3796 4 10.1713 11.4219 33.2208 -0.348785 -0.145218 0.162348 -0.1651 0.033483 0.253856
3797 4 8.64636 13.7289 32.4997 -0.138527 0.320622 -0.666286 0.0790294 -0.160279 -0.326203
3798 4 5.75086 16.4436 29.123 -1.35468 0.94253 1.1568 0.130551 1.42781 0.475241
3799 4 7.15158 17.7069 31.4886 -13.482 2.70908 -6.34851 1.23421 -2.40688 -2.21114
3800 4 15.9551 2.76558 33.2691 -0.644403 -0.476378 0.651942 -0.21121 -0.221745 0.297504
3801 4 12.6252 13.6007 33.7359 -0.359374 -2.06941 -0.410295 -0.0947465 0.0733698 -0.134487
3802 4 9.57039 15.9823 23.7357 -3.29792 4.29891 -9.07417 -1.27086 -0.912002 1.49649
3803 4 1.62023 22.8551 34.2719 7.25374 -1.30082 -2.57918 3.34083 0.617296 1.5711
3804 4 2.80451 26.987 32.6574 4.80305 -1.7022 -2.96114 -2.10045 -0.712212 2.02544
3805 4 14.4728 27.3199 33.8191 1.28577 -0.811885 -3.09727 -1.00235 -1.01586 1.704
3806 4 12.4667 22.9436 22.1387 -1.5634 -4.03789 2.02479 -1.04867 -3.45134 -2.25768
3807 4 10.7705 22.9494 19.7082 5.48155 3.19747 -0.519167 -4.90389 -1.65978 1.49613
3808 4 23.4465 0.0935348 34.2659 4.25792 -10.9274 5.40089 -1.85083 0.660323 1.65891
3809 4 21.9827 1.77653 33.1041 2.31601 -0.493875 1.65238 0.405738 -0.0499544 0.121281
3810 4 22.8176 8.07637 33.166 0.119067 -0.11141 -0.0382535 0.0211619 -0.111215 0.0377265
3811 4 18.1561 11.3656 35.0389 0.391153 -0.190205 0.318873 0.146518 -0.0652355 0.0902778
3812 4 16.4606 16.2507 33.2662 0.8733 -2.02371 -0.588332 0.0448923 -0.327143 0.188107
3813 4 9.69229 15.8654 28.4572 0.432866 -2.71532 2.43287 -0.805645 1.10596 0.143906
3814 4 17.1165 18.561 36.2817 -2.05368 -3.29964 -2.69738 0.169483 -1.58656 -0.21959
3815 4 14.1593 29.9122 24.5482 6.26281 -4.74047 1.17871 3.29195 7.34969 -5.6795
3816 4 8.70363 31.5784 26.02 -5.38043 -5.50587 4.22745 0.921676 -6.29286 1.35688
3817 4 26.7225 0.191599 34.3938 -0.544257 8.55295 -1.82526 0.930622 1.15214 -0.831988
3818 4 25.1025 1.65748 31.9045 0.511264 1.52025 6.36765 -0.0385211 -0.471683 -0.733227
3819 4 21.8539 10.7953 33.7291 0.272441 -1.36701 -0.979675 0.0451465 0.455151 0.524914
3820 4 22.2548 13.6786 34.1677 0.526113 -0.940548 1.00357 0.312343 -0.092855 0.237959
3821 4 18.5339 17.6967 34.4538 -1.18991 -1.30241 -0.867684 0.580528 -1.07635 -0.00880637
3822 4 18.4462 21.9341 35.4649 2.64766 -0.6563 -0.17185 4.89453 2.24561 -1.54795
3823 4 19.2997 23.4001 30.7766 1.98141 0.768369 2.41753 0.406261 0.0569093 0.180718
3824 4 29.0803 4.43265 34.4802 1.09253 -0.638993 -0.536701 0.186594 -0.168968 -0.011217
3825 4 27.6149 6.63131 34.7088 0.471883 0.640529 -0.813602 0.123436 0.00721413 -0.159619
3826 4 26.7615 8.46858 33.322 -0.242025 0.0722463 -0.475631 -0.0403777 -0.149025 -0.232051
3827 4 22.5221 19.646 32.771 0.657274 -1.72927 0.604461 0.141516 -0.0486476 0.0599586
3828 4 19.4258 20.8166 33.2119 0.785457 -1.86633 0.233481 0.0155553 -0.383913 -0.367305
3829 4 15.0811 31.8082 34.0245 3.20111 2.07153 0.774836 -1.66199 -2.08227 0.395231
3830 4 31.1017 1.77445 34.6182 0.415925 -3.41162 -1.03444 -1.17278 -1.27389 -1.58747
3831 4 31.4299 3.43849 32.6177 1.88309 -4.72225 1.3913 0.305919 -0.711252 0.286467
3832 4 30.2309 5.87052 32.6276 1.59254 -0.986139 -2.11011 0.229663 -0.279412 -0.159085
3833 4 29.9109 8.49652 32.6182 -3.3455e-05 -0.464589 0.457377 -0.0513482 -0.101317 0.0877549
3834 4 28.266 10.4543 33.2562 -0.158906 -0.290357 0.390295 -0.0152751 -0.107895 0.129778
3835 4 0.492376 4.924 33.4813 -0.661631 0.20944 -0.0029709 -0.0559138 0.0905401 0.0203456
3836 4 -3.14144 8.85274 33.786 -0.0072053 0.0578731 -0.0221837 -0.0224524 0.0632517 0.0336094
3837 4 -5.05912 11.2535 33.6585 0.0388993 0.0190114 0.00996711 0.0301653 -0.0157649 -0.0102699
3838 4 -5.9433 13.7574 33.07 -0.284972 -0.221472 -0.185312 -0.116412 -0.03746 -0.0953175
3839 4 -6.87407 16.124 32.4935 0.517644 0.362358 -0.535631 -0.0250994 0.0915646 0.187795
3840 4 -8.95273 18.536 32.7631 -0.705247 -1.5423 -0.686223 -1.08804 -0.0627526 -0.565588
3841 4 -9.91871 21.3432 33.6572 6.26129 -0.286268 1.51803 -1.32351 0.249521 0.215122
3842 4 -10.5938 24.1238 33.4999 1.659 0.707441 1.71615 0.481953 0.205541 0.635651
3843 4 2.72661 0.737539 33.4745 -0.894541 -0.787368 -1.26321 -0.301316 -0.139418 -0.462086
3844 4 2.92609 6.28145 36.1824 0.0429436 -0.126897 -0.074251 0.0377182 -0.0497605 -0.027402
3845 4 2.13272 9.23033 36.551 0.0969939 0.02378 0.0715563 0.0492793 0.004585 0.0523239
3846 4 -10.666 31.1075 36.4525 -0.990077 -0.0351022 2.85333 0.123533 -0.00186509 0.109554
3847 4 5.69163 0.538004 35.1299 -0.984992 0.007428 0.00766554 0.0159428 0.047805 -0.149777
3848 4 7.98851 3.83626 35.461 0.0637993 0.0505736 0.00228982 0.030399 0.0361937 -0.0757407
3849 4 5.23038 7.31189 34.6238 0.0177687 -0.0393088 -0.242752 -0.0309519 -0.0875002 -0.185794
3850 4 -0.652354 15.9439 34.9888 -0.00259039 -0.173405 -0.22007 0.0718645 -0.0914007 -0.0470369
3851 4 -3.68875 22.9134 34.7596 -0.0389623 -0.283443 0.0833717 -0.0123593 -0.0396714 -0.00336196
3852 4 -5.00855 25.4549 34.9937 0.229357 0.335935 -0.411071 0.110572 -0.244314 0.0570583
3853 4 11.2492 1.44121 35.5809 0.988162 0.648866 -0.399563 0.3386 0.425887 -0.145104
3854 4 2.46399 15.452 36.1267 -0.318781 0.548417 0.259013 -0.309905 0.241931 0.258664
3855 4 1.78141 19.0103 35.6599 -3.74378 -0.116641 -1.3575 1.94729 -0.057912 0.235812
3856 4 -1.5841 24.5763 35.3832 0.227866 0.375247 0.178293 -0.253466 0.13624 -0.0834889
3857 4 -3.05239 28.0747 35.5219 -0.269506 -0.191193 -0.446823 0.0243381 0.178616 0.121673
3858 4 14.0968 2.7385 35.5489 0.248171 0.181324 -0.000574114 0.186178 0.12859 0.0412015
3859 4 11.6339 5.70237 34.7623 -1.23331 0.392514 0.0573701 -0.212053 0.133732 -0.0708286
3860 4 7.41365 12.5138 34.8073 3.12041 -1.83105 -1.38823 -0.234854 -0.068818 -0.0170374
3861 4 4.80588 14.065 35.079 -6.26381 -0.578901 -0.848545 -1.06808 0.0475886 -0.124474
3862 4 9.7195 30.3232 33.2545 4.06183 2.67298 -15.9674 1.86367 0.934416 0.492477
3863 4 -0.121215 26.7104 35.6538 -0.407048 -0.229129 -0.399545 0.262112 0.128555 -0.203897
3864 4 -0.993491 29.408 35.7016 -0.0391258 1.04043 -0.932471 -0.0811938 0.374319 -0.438121
3865 4 17.0084 3.53303 35.5012 1.72555 -0.646677 -1.0423 0.230415 0.0122541 0.0050361
3866 4 15.6856 6.15882 35.7899 1.22546 -1.24019 -0.781649 0.277965 -0.308722 -0.147508
3867 4 12.5827 9.34538 35.2028 0.103163 -0.393676 0.0171299 0.0526862 -0.0919367 -0.0204017
3868 4 10.6066 12.6469 35.7185 0.522622 -0.303202 0.606069 0.238576 0.0166582 0.287122
3869 4 8.9712 14.716 34.889 2.52175 -0.283719 0.0444159 1.16487 -0.152936 -0.15749
3870 4 4.45384 17.0567 37.0823 -1.83043 0.784148 -0.860522 0.194729 -3.24568 2.36115
3871 4 -0.217866 31.7002 34.601 1.10823 2.29422 -0.541103 0.554736 0.61764 -0.337828
3872 4 16.109 0.65835 34.8174 -5.93143 -3.11441 -1.68513 -1.41352 -0.815783 -0.384263
3873 4 16.6534 21.3936 22.3107 -0.0434789 2.75186 17.6261 1.97907 -4.97356 1.42474
3874 4 11.4533 19.3346 25.4835 2.35782 -2.16156 10.1654 1.73258 2.45793 4.72033
3875 4 20.3726 5.50603 35.5267 0.0197152 0.152119 0.202425 -0.152002 0.0908233 0.091882
3876 4 18.9895 7.71048 35.7831 -0.0867831 0.0565641 -0.110111 -0.0870923 0.030025 -0.0418132
3877 4 5.73033 31.6839 37.1932 5.38708 -1.56808 -4.19297 1.65161 -0.44547 2.25858
3878 4 25.1037 3.3488 35.1599 0.788916 -2.75554 -0.849492 0.162664 0.0417703 -0.0669207
3879 4 22.7936 5.71424 34.7968 -0.896295 0.928979 -2.1514 0.00071298 0.00367288 -0.277679
3880 4 22.354 9.62986 35.9062 0.460158 0.117631 -0.063663 0.159099 -0.104364 -0.0230476
3881 4 20.4919 12.1205 36.5456 -0.228976 -0.189625 0.308936 -0.0314275 -0.153991 0.0827629
3882 4 13.4698 20.8403 24.5437 5.54961 -5.96494 -4.07539 -0.318981 -0.102829 0.0560608
3883 4 5.20196 30.3005 24.9132 -6.71221 -5.01895 -18.8064 3.98974 -0.029744 0.994619
3884 4 29.2675 2.49196 35.9782 -1.00675 1.02145 0.100275 0.548009 0.428182 -0.414509
3885 4 25.9276 10.25 35.2971 -1.15913 -0.357708 -2.28329 -0.184114 -0.103417 -0.530242
3886 4 23.6436 14.6117 35.896 0.240057 0.104958 0.441673 0.0169481 -0.0205136 0.250614
3887 4 22.6378 17.786 34.579 0.369686 -0.597567 -0.502137 0.116071 -0.106773 0.0687442
3888 4 20.9402 20.1037 34.9968 1.03813 1.24114 0.487546 0.169509 -0.586173 0.207001
3889 4 24.5963 18.8288 35.6898 0.212176 -0.0226092 0.0145137 0.153262 0.00224981 -0.0152155
3890 4 23.0242 22.0907 35.561 1.50845 0.34202 0.350167 0.395353 -0.207698 -0.360837
3891 4 20.6584 23.3804 35.756 0.64968 -0.4831 -1.96264 -0.282984 0.234317 0.303701
3892 4 20.2397 25.1952 34.238 0.146298 -0.601376 -0.376696 0.524187 -0.00422387 -0.0563076
3893 4 19.6705 27.452 35.8459 2.83436 -2.4349 3.81046 1.98574 -0.310272 0.599624
3894 4 35.2424 2.77492 35.0647 -1.08637 0.573645 -2.03023 -0.249241 0.328726 -0.534565
3895 4 26.6734 17.5127 34.5452 -0.0011097 -0.242066 0.150528 -0.0226759 -0.06477 -0.0199814
3896 4 -10.3832 19.918 35.9118 0.237567 -1.22894 0.524909 0.177637 -0.138088 0.161092
3897 4 22.1411 25.8614 35.776 -0.785675 -0.548361 -1.21302 0.0625824 -0.144649 -0.175256
3898 4 -15.0234 28.2554 35.6416 4.96719 -2.37031 -2.20988 1.13658 -0.344296 -0.459986
3899 4 -16.7344 30.7733 34.7002 -0.729404 -0.66221 -0.589005 0.493875 0.335306 0.233629
3900 4 37.2095 0.0727413 35.2891 0.245396 -1.30909 0.605637 0.13099 0.0772749 -0.356468
3901 4 2.78875 3.49881 36.0579 0.518723 0.540735 0.590136 -0.0452082 0.0233349 0.187665
3902 4 0.293165 6.2777 35.6207 -0.050064 0.217849 -0.0208499 -0.0376819 0.122198 0.0632773
3903 4 -6.52297 18.0159 35.4622 0.180976 -0.525785 0.00491098 0.0448312 -0.384539 -0.0823733
3904 4 -7.68321 20.5379 35.3632 0.421731 0.00849025 -0.401509 -0.0107625 -0.0313824 -0.10334
3905 4 -15.1843 32.0373 36.101 0.141999 -1.15609 2.52721 0.108046 0.280624 0.019922
3906 4 0.292442 10.0377 37.8041 0.000317282 0.212592 -0.170274 0.00790463 0.10257 -0.0249976
3907 4 -3.12241 12.7892 37.116 -0.0741802 0.114518 0.143598 -0.0422625 0.0180988 0.044776
3908 4 -10.3064 26.27 37.0216 -3.4688 -2.65378 -1.96333 -0.528767 -0.569698 -0.430889
3909 4 4.12379 7.2997 38.3384 0.0304631 -0.0231394 -0.445695 -0.0167652 -0.012831 -0.194938
3910 4 3.64282 11.8702 37.6833 0.0756578 0.173022 -0.232219 0.0654361 0.130943 -0.223847
3911 4 0.0271791 12.5916 36.8522 0.141524 0.00183252 0.0530343 0.0714591 0.0284963 0.0445939
3912 4 -1.55289 16.9561 39.1908 -0.010697 0.13059 0.0183811 0.175541 0.000555471 0.127147
3913 4 -9.55006 28.7533 36.1772 -0.0258743 -0.167734 0.295078 0.113211 -0.113543 0.0417582
3914 4 8.29476 1.01865 38.0845 0.134792 0.512689 0.465082 -0.10791 0.162531 -0.192446
3915 4 9.29352 3.30781 37.6025 -0.131624 0.504135 -0.0255819 -0.0829651 0.140046 -0.067558
3916 4 6.83871 7.40191 36.9745 -0.235251 -0.659199 -0.247472 -0.0537192 0.158118 0.00773249
3917 4 5.23085 10.2996 36.815 -0.356572 -0.272505 -0.181282 -0.114567 0.14008 0.0893384
3918 4 0.324299 16.5479 37.3236 0.747702 0.555345 0.310545 -0.246377 0.103031 -0.119661
3919 4 -1.17493 18.8859 37.3403 -0.765149 -0.0384837 -0.634788 0.149842 0.142856 0.182523
3920 4 -4.31483 24.3463 37.0847 0.276575 -0.341026 -0.421782 0.313142 -0.114862 0.173564
3921 4 -5.47013 26.6192 37.7156 0.413535 -0.250203 -0.613443 -0.0765024 -0.100703 -0.336932
3922 4 -6.37984 32.0852 37.0815 0.018561 0.16024 -0.238049 -0.00463751 0.13549 -0.150912
3923 4 -1.69095 27.1313 37.9397 0.67419 -2.27619 0.454067 0.370284 0.311736 0.267883
3924 4 12.6685 6.15508 36.9898 -0.504531 -0.265417 -0.388456 -0.0952001 0.0915155 -0.0621281
3925 4 10.8909 8.82731 37.1721 0.535115 -0.560416 -0.166237 0.0936863 -0.107662 0.0343536
3926 4 0.339617 28.7928 38.6772 -0.366722 0.329667 0.0758587 -0.0965382 0.10161 -0.00174829
3927 4 -2.23523 30.7131 37.7737 -0.0845323 -0.596602 0.184472 -0.17677 -0.388821 0.108531
3928 4 13.9258 8.13662 37.1444 0.380504 -0.420829 0.0984639 0.0208843 -0.195571 0.122076
3929 4 13.3149 10.4119 37.3468 0.411847 -0.24222 -0.483084 0.106654 0.17452 -0.288374
3930 4 4.16381 27.1587 29.3746 -3.8061 3.17487 -11.22 1.29114 0.695698 3.56822
3931 4 0.590487 30.9445 36.9006 0.108229 0.164932 -0.689718 0.353037 0.0377212 -0.189831
3932 4 19.1161 1.35398 35.8192 -1.11585 1.9832 2.23529 -0.263881 0.337916 0.282249
3933 4 15.864 9.84453 38.0174 0.248592 -0.235507 0.118575 0.0764498 -0.0572605 0.0542415
3934 4 14.9933 12.3169 36.9394 -0.739963 1.07093 0.184893 0.0847208 -0.197147 0.0752292
3935 4 13.6967 14.4128 37.212 0.40554 -0.582414 -1.54159 -0.390914 0.136184 0.441864
3936 4 3.78683 23.3903 24.5235 -4.1878 7.3172 10.327 4.79424 0.446945 -0.381086
3937 4 21.2117 1.2558 37.0415 -0.0260088 1.85742 -0.566106 -0.125146 0.600847 -0.00071865
3938 4 23.3857 2.56847 37.1854 2.84473 -2.15885 0.0935299 0.465681 -0.456026 -0.138494
3939 4 21.2104 6.82932 38.3595 -0.961844 -1.2543 2.70041 -0.165107 -0.151325 0.362601
3940 4 20.0352 9.27457 37.622 0.142795 -0.449954 0.130451 -0.0584967 -0.136133 -0.0156373
3941 4 18.1613 12.4729 37.572 -0.231845 0.330967 0.122819 -0.0560627 0.0330575 0.0705229
3942 4 17.6518 14.8362 36.7478 0.135855 -0.757248 -0.984502 -0.0263995 -0.128504 -0.23454
3943 4 30.0605 0.818044 38.6472 -3.30889 3.91493 -0.959097 -1.06473 1.99672 -0.401026
3944 4 5.80873 27.9909 23.0117 -8.77538 -0.613948 4.45298 0.814742 2.5025 -0.416735
3945 4 26.4269 3.02718 37.2514 1.27521 0.147301 0.505713 0.186787 0.00749764 -0.323915
3946 4 24.4011 5.09498 37.0368 -4.59206 1.48337 -0.652075 -0.626465 0.0893337 -0.109992
3947 4 27.7331 4.98309 36.5411 -1.37712 -1.57982 -3.57328 -0.178927 -0.153191 -0.506712
3948 4 20.8054 16.2337 37.0367 -0.00866638 0.351763 -0.100969 -0.0693705 -0.153403 0.0325343
3949 4 19.0274 25.1058 38.9221 -5.75857 -0.142674 1.53003 5.01746 2.60076 -0.338692
3950 4 17.0657 29.0854 36.7857 1.39146 -1.66281 -2.80478 0.503545 0.144533 -0.113775
3951 4 13.8607 31.9514 37.0314 4.10139 3.60838 -1.02576 0.226284 0.730741 0.324238
3952 4 28.8241 9.38987 37.0061 4.71361 -1.83849 -3.43571 0.674191 -0.325701 -0.638695
3953 4 25.899 12.4708 37.3452 -0.756474 0.616634 -0.214294 0.199421 -0.00423301 -0.217404
3954 4 22.6058 17.2997 38.8158 0.13262 0.448196 -0.119006 0.0283292 0.0871533 0.111664
3955 4 21.7142 18.7089 36.8539 0.109431 -0.672117 0.471847 0.206089 -0.287819 0.135943
3956 4 17.8275 31.4022 37.3637 2.86547 1.37557 -1.26365 -0.0229851 -0.419138 0.0909914
3957 4 33.6334 2.02902 37.1215 -0.012932 -0.241293 -0.274053 0.00665701 0.141553 -0.0357258
3958 4 -4.70146 8.21021 37.3381 0.0784615 0.268645 0.146036 -0.0364336 0.0498894 0.0962011
3959 4 30.9097 10.2191 37.9325 1.08481 1.84437 0.503248 0.0820745 0.332205 0.0938997
3960 4 28.4487 13.1523 37.6821 -0.023401 0.064939 0.0789417 0.140281 0.0568081 0.0346327
3961 4 22.349 25.0782 38.1545 2.05032 -0.161724 -1.77759 -0.0258648 -0.126182 -0.153715
3962 4 21.1266 27.7096 38.126 0.508305 -0.579989 0.192633 0.301083 -0.155846 0.0881997
3963 4 -3.95575 10.4214 36.833 0.234475 0.0377099 -0.0435906 -0.0242139 0.0157033 0.000795933
3964 4 -5.95957 12.8807 36.8439 -0.1164 0.185113 -0.0152181 -0.127052 0.0988393 -0.11655
3965 4 -12.2246 25.2472 38.4008 -0.132547 -0.818593 0.775127 -0.0752238 -0.00315746 0.11598
3966 4 -13.2449 27.4681 37.2779 1.07318 -1.043 0.366242 0.312037 0.0135628 0.163148
3967 4 -0.490459 12.0665 42.0554 0.0816952 0.0708243 -0.00697766 -0.102374 0.0568629 -0.0355528
3968 4 -3.21661 14.7173 39.1673 -0.624496 1.38251 0.0755156 -0.320348 0.187073 0.0886198
3969 4 -5.53906 19.3107 39.7193 0.280282 0.00672476 -0.239356 0.088526 -0.0248444 0.0396613
3970 4 -7.92155 23.1237 39.3746 0.0281478 -0.333255 -0.44836 0.0889826 -0.0946683 -0.0576594
3971 4 -9.49045 27.2339 41.9216 -0.0692683 -0.255027 -0.197141 -0.064089 -0.0410335 -0.103574
3972 4 -10.9192 29.3658 41.5793 -0.386593 -0.0379547 -0.113634 -0.216852 0.0788552 -0.112124
3973 4 5.06932 5.97218 40.6867 -0.0337229 -0.598612 -1.25319 -0.0333985 -0.191322 -0.297783
3974 4 3.49999 9.46251 40.2098 0.244525 0.0854156 -0.247635 0.0704667 0.028271 -0.238473
3975 4 3.01731 11.7056 41.2014 0.20508 -0.324053 0.236595 0.0189147 -0.133348 0.0730638
3976 4 0.597741 13.8168 40.4924 -1.38485 -0.470638 -1.86816 -0.41253 -0.122695 -0.676366
3977 4 -1.65275 19.2557 41.5692 -0.568845 -0.111692 0.222649 -0.114242 -0.183809 -0.0145788
3978 4 -6.45065 26.4771 41.4248 -0.100516 -0.105707 0.408968 -0.049059 0.101241 -0.0133004
3979 4 -8.26584 29.4173 41.6751 -0.0259704 -0.213167 -0.185986 -0.140238 -0.0169262 -0.108155
3980 4 -8.5833 32.0167 41.7393 0.00806233 -0.0977158 -0.0154406 -0.00150989 -0.0559383 -0.0775942
3981 4 7.35666 6.05041 39.2103 0.173178 0.00318151 -0.18723 0.0409308 -0.0504091 -0.0552276
3982 4 6.17487 8.33848 39.8391 0.186422 0.0580318 -0.843484 -0.0368061 -0.0922276 -0.283768
3983 4 2.84006 14.4455 41.2076 -0.14821 0.132162 3.7397 -0.351222 -0.216463 0.614085
3984 4 -4.13704 24.3648 40.0857 -1.20881 -0.757209 -2.99354 -0.114558 -0.281978 -0.888073
3985 4 9.0775 1.86579 42.4439 -0.0357574 -0.0051081 -0.193365 0.00142856 -0.043941 -0.113255
3986 4 10.8235 6.52302 40.5568 -0.0766979 -0.160988 0.78399 -0.0406527 -0.119938 0.192727
3987 4 8.8417 8.74259 38.6335 0.638422 0.96452 -1.00505 0.0697218 0.203889 -0.157652
3988 4 1.26679 20.8319 39.438 -1.99947 0.836225 0.204872 0.141067 1.00275 0.105729
3989 4 11.879 8.79149 40.4732 -0.129807 0.209417 0.298643 -0.0821693 -0.157781 0.0729211
3990 4 6.23429 16.6378 33.6083 0.0880917 4.79546 -0.511917 -0.653376 2.34846 0.568378
3991 4 4.99341 19.0825 29.5787 8.96225 -2.29505 -7.76246 2.86495 2.05064 4.06067
3992 4 15.4208 17.7526 30.3257 -1.40475 0.328079 -5.31985 -1.51261 3.24302 -0.993174
3993 4 16.3451 18.6454 32.433 -5.52194 -6.57482 -2.8237 -1.71672 1.10108 -0.276804
3994 4 7.73936 24.1101 28.4594 -0.856769 4.85819 -0.606517 -0.117204 -4.68848 1.28067
3995 4 1.19601 29.2454 41.2314 -0.475926 -1.53358 0.315748 -0.149448 -0.840224 -0.0628186
3996 4 1.76671 31.9869 39.1743 -2.10183 1.10786 -1.05294 -0.776237 0.0453812 -0.311969
3997 4 16.7253 10.8887 40.5171 -0.0574352 -0.27133 0.0517272 -0.144878 0.00812099 0.0456543
3998 4 14.9954 13.5199 40.0159 -1.34394 -0.829423 -2.02243 -0.419064 -0.498116 -0.635917
3999 4 4.06808 20.5044 31.6618 2.03339 -6.46939 10.9169 1.90676 -0.113497 -0.165275
4000 4 6.34482 22.6948 24.8172 -4.32775 1.55714 0.268142 -1.23774 4.57109 0.95634
4001 4 2.80911 25.3295 34.968 -4.59534 -6.37756 6.62361 -0.977238 1.53802 -2.81
4002 4 22.3615 0.0381318 40.9503 -0.0451275 -0.0964006 0.494097 -0.0418816 0.0188167 0.106022
4003 4 22.4162 2.69077 40.3066 2.27639 3.14144 4.2531 0.15381 0.344557 0.563283
4004 4 17.6707 13.6829 40.3984 -0.685397 -0.6056 0.00982555 -0.0585451 0.245864 -0.336035
4005 4 17.0435 15.2086 42.2786 0.315196 1.54682 -0.45368 -0.248649 0.274582 0.0444193
4006 4 16.0178 18.2499 38.516 0.435518 -0.805475 -0.246259 -0.86539 0.605656 -1.34461
4007 4 10.2493 29.7659 19.0361 8.10575 -4.97995 13.5122 5.1233 2.40169 2.08364
4008 4 2.51019 23.6849 45.412 9.45482 3.6287 -1.87482 0.200158 2.28636 -2.60174
4009 4 24.8538 2.47692 39.5113 0.923347 0.141426 1.81894 -0.496216 0.614691 0.695545
4010 4 25.837 3.66829 41.406 0.247184 0.236976 0.163675 0.104247 -0.00980299 0.0233804
4011 4 18.7573 16.2648 39.5428 -0.700227 -2.13969 -0.0548663 0.122295 0.0332397 0.242452
4012 4 15.064 15.8856 39.1552 0.235155 -4.34902 -0.198171 0.791596 -0.95475 -0.544221
4013 4 4.93155 29.7291 29.6816 13.5603 9.62829 11.9214 2.98714 -1.96129 -5.25146
4014 4 7.49675 18.5743 45.7273 -10.9387 20.9685 4.91714 0.00650706 -1.7201 -0.102631
4015 4 29.5712 4.06376 42.3403 0.316962 0.545094 -0.268622 0.0396799 0.250363 -0.0785813
4016 4 24.915 11.2419 39.3476 1.57311 -0.66565 -0.032349 0.215746 0.113313 -0.134294
4017 4 21.8265 15.8322 40.8995 0.709359 -1.28007 -1.38817 0.284518 -0.16143 -0.292019
4018 4 19.1145 22.9735 41.1595 3.95053 4.36808 2.29839 0.751276 -0.255017 1.00929
4019 4 18.7971 30.6048 39.848 0.00455632 -0.084443 1.40494 0.595478 0.614969 -0.293888
4020 4 7.77935 18.4492 28.1578 1.65532 -13.8002 2.07826 -0.454869 -2.52537 4.27718
4021 4 31.621 4.68558 41.137 -0.486703 0.465976 -0.148767 0.013945 0.122155 -0.0860196
4022 4 30.7525 7.25254 41.5276 -0.489245 0.502799 -0.309023 0.0730784 -0.00963836 -0.0587016
4023 4 27.8303 9.9725 39.7925 -0.514208 0.740449 0.033132 -0.157731 0.239237 0.0646236
4024 4 28.7619 12.6746 41.279 -0.310223 0.954608 -0.571074 -0.195513 0.259798 -0.271545
4025 4 24.0105 19.3376 39.2433 0.198522 0.303019 -0.708713 0.0796173 0.039596 -0.0231746
4026 4 15.8086 32.2092 38.6257 0.50972 1.47056 0.672796 1.03925 0.275955 0.403585
4027 4 33.6182 1.96888 40.5981 1.19256 -2.61991 0.442045 0.647492 -0.598433 0.502457
4028 4 -2.30037 4.29626 39.1532 0.3248 -3.42227 -0.989507 -0.805029 0.318924 -1.04603
4029 4 33.3757 6.40212 39.6272 0.562187 -2.29317 -1.2689 -0.555142 -0.176647 -0.274857
4030 4 31.3263 9.8594 40.7048 -0.326418 0.142139 -0.163364 -0.226013 -0.0177148 -0.0433364
4031 4 -6.26208 11.9771 42.048 -0.0395451 0.379254 -0.618627 -0.0985061 0.352713 -0.290676
4032 4 -4.05595 8.5637 41.6806 0.105159 0.761798 -0.35429 0.0547339 0.164234 -0.218323
4033 4 -3.10512 12.4532 41.7373 0.203706 -0.694774 0.300869 0.00656916 -0.173771 -0.0511134
4034 4 -10.9288 22.9769 39.0759 0.355222 -0.817322 -1.57196 0.15378 -0.141067 -0.312691
4035 4 -12.1876 26.663 41.5452 -0.0560385 0.131391 -0.468111 -0.0299453 0.079202 -0.249485
4036 4 5.45721 2.51104 42.9631 -0.0336415 -0.36508 0.00298296 0.0174175 0.00264651 -0.141144
4037 4 -3.61795 19.0187 43.401 -0.150698 0.261115 0.227214 -0.284839 0.222729 -0.0894955
4038 4 -5.38436 20.922 41.9506 0.659801 2.56274 -2.86313 0.128744 0.322366 -0.129279
4039 4 -7.31256 23.071 42.5666 -0.717974 -1.00417 -1.4314 -0.170319 -0.197897 -0.26737
4040 4 -7.80165 25.6015 43.1472 0.0923201 -0.524664 0.24438 -0.0912217 -0.139548 -0.0368748
4041 4 5.57163 5.01778 43.0583 -0.332507 -0.0138102 -0.438931 -0.262893 0.108107 -0.166738
4042 4 0.961956 13.8671 43.4363 -0.0389728 0.404335 -0.23214 0.0522247 0.380266 -0.353034
4043 4 10.2143 5.22985 43.9375 0.216423 -0.0461779 -0.415538 0.013503 0.0523619 -0.317477
4044 4 7.10897 7.15755 42.2391 -1.39769 0.376 -1.18268 -0.369427 0.151077 -0.385888
4045 4 5.14241 13.2501 42.4584 2.43485 0.747055 1.87015 0.176201 0.0970103 0.165073
4046 4 3.2175 16.4976 43.2861 -0.433436 0.304293 -1.52923 0.0774153 0.0949279 0.454565
4047 4 0.100789 21.0671 42.1895 -0.541862 -0.59559 0.0202283 0.0720933 -0.0653703 -0.202338
4048 4 -0.893361 23.9348 41.7454 -0.0125341 -0.145251 0.204757 -0.0841535 0.0354432 0.0945112
4049 4 -5.27479 29.5224 43.0267 -0.131769 0.247679 0.459339 -0.213105 -0.211404 -0.240472
4050 4 12.4082 0.826083 41.8106 -0.560421 0.541903 -0.706289 -0.0923436 0.0680558 -0.114166
4051 4 12.6976 2.64293 44.0724 -0.448335 -0.00536891 0.29666 0.0468506 -0.0341095 0.0109865
4052 4 11.7447 7.11443 43.3425 -0.081395 -0.17167 -0.177787 -0.200519 0.0130693 -0.44504
4053 4 5.74635 15.7835 42.7885 0.373353 3.51042 -0.561148 -4.64187 -1.53249 0.0471368
4054 4 2.495 19.8646 43.351 -0.250733 -1.19307 0.285857 -3.57214 -3.11273 0.232592
4055 4 1.95803 23.7307 42.5407 1.79849 0.106884 0.202457 0.447866 -0.0747493 0.0280545
4056 4 -2.26037 30.3137 42.3568 -0.132549 0.353581 -0.27444 -0.255291 -0.0431834 -0.173946
4057 4 15.3731 0.656434 42.2812 -0.543317 0.254947 -0.0226014 -0.0263744 0.00820292 -0.0214906
4058 4 14.9015 3.41467 43.206 -1.65122 -1.59158 -0.745932 -0.252824 -0.0741079 -0.11367
4059 4 11.8169 10.9652 41.7962 -0.416983 1.38428 -0.031474 -0.185783 0.0646741 0.0106704
4060 4 11.7095 13.6474 42.3154 9.06099 7.35533 1.85068 1.60991 1.1147 0.577148
4061 4 9.12323 14.3199 42.5634 0.96896 1.65922 0.917264 0.163106 -0.257058 0.016254
4062 4 1.23858 19.6556 47.1197 0.0581644 0.92882 -0.690011 -0.298557 0.280913 -0.338164
4063 4 12.36 16.3932 41.7761 0.368395 -4.55964 7.16137 -0.272627 -0.35546 -0.704705
4064 4 15.7424 27.4838 20.5418 0.845065 5.31386 8.42866 -3.17169 -4.2694 0.950291
4065 4 18.126 0.457027 42.3033 0.304998 0.300327 0.0234961 0.0580609 0.133125 -0.170285
4066 4 19.5033 2.75118 42.0383 0.145437 0.534784 -0.281703 0.104327 0.48452 -0.0362481
4067 4 16.2573 5.37408 41.6818 -0.410383 -0.50063 -0.915254 -0.111148 -0.157193 -0.180988
4068 4 16.0544 7.64582 43.3087 0.0897739 -0.329144 0.153624 -0.0335743 -0.0679289 0.0750594
4069 4 16.3332 18.913 40.9355 0.711085 -1.93569 2.32626 -2.93647 -2.62682 3.5918
4070 4 2.65586 18.1523 39.772 3.0791 -0.18945 4.12842 1.32148 0.147758 0.447478
4071 4 4.50842 27.7727 38.1049 -13.2089 -4.99209 9.71682 -2.13322 1.435 -0.0146621
4072 4 2.50063 31.5681 43.1158 -2.49569 -0.266844 0.696969 -0.452594 -0.813179 -0.449878
4073 4 19.0564 9.48639 42.6294 -1.382 1.9007 -3.93645 -0.327838 0.0952538 -0.795073
4074 4 5.82724 32.0565 42.2704 -1.1857 -1.13472 -2.06205 0.0363514 -0.0346965 0.0449032
4075 4 24.8663 2.95797 43.5436 0.487258 0.437354 -0.175635 0.0541431 0.214236 -0.0930103
4076 4 22.8583 7.70097 44.247 -0.0505554 0.0867704 -0.132677 0.218197 0.141943 -0.194447
4077 4 17.2875 24.6373 37.6439 -4.49022 1.23925 8.49685 -1.40162 -1.16337 -3.17256
4078 4 27.6089 3.01746 43.438 -0.199723 0.460937 -0.16211 0.164193 0.406141 0.149615
4079 4 25.3662 5.62892 43.0283 -0.226491 0.317316 0.0183444 -0.0817526 0.0491628 -0.10535
4080 4 24.803 8.21497 42.9067 -0.177874 -0.237349 -0.364435 -0.0340636 -0.0513463 -0.0730459
4081 4 22.1011 11.8678 43.1537 -0.0265147 -0.120478 -0.0469495 0.0279838 -0.0754077 -0.108104
4082 4 18.8514 18.2225 41.5378 1.03315 -4.29436 -1.04043 -0.235317 0.147505 -0.037993
4083 4 16.6267 27.4332 38.5114 0.101177 -0.427663 1.94181 -1.01036 1.84444 3.64408
4084 4 31.1055 1.07218 43.2669 1.06819 -0.518094 -1.35208 -0.243243 -0.0896541 -0.140866
4085 4 27.2152 11.5193 42.7032 0.730467 0.278389 -0.534994 0.151594 0.257883 0.00547687
4086 4 23.9627 12.9358 41.8115 -0.071341 -0.120572 -0.0288809 -0.0479692 -0.072504 -0.0574194
4087 4 23.6072 17.1058 43.1261 0.294084 -0.132453 -0.443121 -0.0359645 -0.102346 -0.175061
4088 4 21.3008 20.7872 42.5581 1.49702 0.728703 -2.04647 -0.126239 0.255925 -0.886807
4089 4 19.3443 26.7975 41.6976 1.76646 -0.447739 1.47779 1.42608 -0.554131 -1.34737
4090 4 33.4013 3.84876 42.6338 -0.337576 -0.266124 -0.244712 -0.0371837 -0.0118462 -0.0295081
4091 4 25.5088 18.1265 41.6567 -0.0435263 -1.15854 -0.446694 -0.0286596 -0.34815 -0.141022
4092 4 20.8994 24.6653 41.5239 3.39789 2.31854 0.746169 0.113659 0.338426 -0.376003
4093 4 -0.769858 4.11934 41.8742 -0.0230024 0.491993 -0.373507 0.14308 0.324052 -0.259998
4094 4 -2.23813 6.55673 41.6938 -0.0124401 2.17566 -1.14156 0.0516352 0.404431 -0.335845
4095 4 -14.3269 27.0839 43.1504 -0.404615 -0.583901 0.0317699 -0.120922 -0.113767 0.0378261
4096 4 19.3246 30.3837 43.7512 -1.57366 0.246249 -0.238683 -0.427114 0.000788104 0.105389
4097 4 1.92575 3.47559 42.697 0.752515 -0.294037 -0.53705 0.00803722 -0.136186 -0.213233
4098 4 0.413529 6.34914 42.3502 0.0842186 0.0363381 -0.137562 -0.0142578 0.153742 -0.184997
4099 4 -5.57203 15.7677 43.1197 0.143329 1.11313 -2.48313 -0.153487 0.420975 -0.51091
4100 4 -7.29911 18.5722 41.9283 -0.190668 0.580201 0.234333 -0.0104469 0.151492 -0.0128128
4101 4 -7.84574 19.4869 44.239 -0.227142 -0.24941 0.117034 -0.0610303 -0.208524 -0.0899354
4102 4 -9.47617 22.1925 41.6194 -1.06618 0.343955 -1.17097 -0.246632 -0.0083324 -0.224869
4103 4 -14.6413 30.1438 42.649 -0.266834 -0.125451 -0.0990081 -0.153099 0.0450312 -0.224339
4104 4 4.08217 0.537426 42.3319 -0.330249 -0.0565494 -0.591923 0.0273436 -0.039667 -0.470361
4105 4 3.62021 2.69238 44.7033 0.174818 0.0592434 0.00547827 0.0945088 0.0560337 0.00131409
4106 4 -1.3505 9.42632 44.2451 -0.097467 -0.103055 0.19814 -0.230521 -0.0952143 0.0738376
4107 4 -2.34889 12.4549 45.2268 0.602065 0.494957 0.13756 0.361914 0.0461534 -0.0898117
4108 4 -4.01377 14.4006 44.7233 -0.754657 0.00752927 -0.504522 -0.0602076 -0.156383 -0.25318
4109 4 -5.23094 18.0286 44.9175 -0.153423 -0.162798 -0.154183 -0.115693 -0.18816 -0.194732
4110 4 -9.89281 21.6646 44.2367 0.992452 -2.18507 -2.0216 -0.026874 -0.240413 -0.394654
4111 4 -9.33364 24.7185 44.811 -0.0814365 0.184246 0.182664 -0.0988846 -0.0589672 -0.0757132
4112 4 -12.7463 29.2444 44.418 0.324637 -1.63516 -0.003443 -0.081268 -0.234193 -0.24134
4113 4 -13.3176 31.8493 45.6458 -0.0261181 -0.130516 -0.406693 -0.0845177 0.118562 -0.176046
4114 4 -6.34998 24.0207 44.681 0.647395 -2.82689 -1.07066 0.207027 -0.617003 -0.380296
4115 4 7.73186 4.76607 44.7056 0.180484 0.092836 -0.582512 -0.0141766 -0.00457783 -0.205083
4116 4 6.14621 6.95745 44.5756 0.342354 0.0688561 -0.300198 0.147847 -0.0325569 -0.241839
4117 4 3.89578 11.949 44.3366 -0.32451 0.340392 0.147073 0.061937 0.136257 0.0188609
4118 4 1.26753 16.0111 44.8557 -0.0207 0.024894 -0.145362 -0.0724656 0.0618549 -0.0253146
4119 4 -8.12093 31.474 45.0639 0.374814 -1.70838 -1.54315 0.104168 -0.263525 -0.221193
4120 4 8.04465 8.53822 44.388 0.492465 0.367605 -0.619122 0.176404 0.114041 -0.475738
4121 4 4.58191 14.3509 44.8141 1.16427 0.882156 0.224364 0.52597 -0.00538511 0.163416
4122 4 -0.502008 21.317 44.5355 -0.0306754 -0.259378 -0.38831 -0.350368 0.0291679 -0.0627678
4123 4 -1.93286 23.7811 44.1238 -0.257159 -0.804445 -0.36087 -0.104889 -0.352634 -0.123347
4124 4 -3.65126 26.484 43.8709 -0.236847 -0.180763 -0.461549 -0.188086 0.0500881 -0.222802
4125 4 -3.71843 29.2528 44.9658 4.40758 -6.93002 -4.8813 0.67079 -0.685878 -0.942598
4126 4 -5.89672 31.8092 43.9232 0.650624 0.892034 -1.11958 0.117446 0.038051 -0.211924
4127 4 7.52871 13.3488 44.8113 0.160974 1.15427 -0.609109 -0.0239592 0.205953 -0.236484
4128 4 6.60354 16.1172 45.4139 -0.894523 1.8523 2.69354 0.156532 0.481746 1.02401
4129 4 0.661958 25.0965 44.7651 -2.67079 -4.19676 0.485862 -2.2066 0.315644 -0.516796
4130 4 -0.832059 29.5424 44.3364 0.437273 -0.152708 -0.229305 0.164703 0.192823 0.0197428
4131 4 -2.3072 31.86 44.5799 0.891282 0.157297 -0.760503 0.000471244 -0.00643198 -0.161016
4132 4 17.8268 2.23024 44.1632 -0.594338 0.453982 -0.397583 -0.0428752 0.138483 -0.0323858
4133 4 16.351 5.13438 44.2489 -1.12745 -1.83481 -2.39593 -0.0994373 -0.120403 -0.380338
4134 4 14.2808 6.18363 45.1756 0.0460335 0.00460434 -0.0370132 -0.0814368 0.111806 -0.049976
4135 4 13.1827 10.0701 44.1491 -0.325586 -0.257522 -0.290712 -0.158221 -0.158913 -0.0363841
4136 4 12.3252 12.4017 44.4007 0.157648 -1.07235 -1.24262 -0.307912 -0.488117 -0.292621
4137 4 10.8471 14.3329 44.673 -3.08436 1.38339 0.31595 -0.0259127 -0.0842686 0.182035
4138 4 2.94264 21.5883 45.5214 2.01023 11.8666 7.64363 3.6233 -4.52446 -1.94899
4139 4 1.80834 27.5173 44.6471 -0.0410843 -1.32131 -0.829471 0.119076 -0.431659 0.132413
4140 4 19.7203 7.96867 44.7192 0.436175 0.539827 -1.66937 0.197238 0.197769 -0.249171
4141 4 16.9223 9.99267 44.6341 0.3641 -0.280997 -0.451809 0.284469 0.124839 -0.287315
4142 4 15.423 11.9435 44.0441 -0.412537 0.192951 0.24619 -0.0801599 0.207628 -0.0613037
4143 4 12.1678 15.9738 46.0792 -0.0562123 2.25999 -1.09841 -0.358872 0.94876 -0.666248
4144 4 14.461 17.3838 34.9612 -2.91022 -8.17141 -3.14376 -4.29621 -5.41687 -0.908231
4145 4 4.62095 31.197 44.1665 -1.89377 2.77159 -0.802701 -0.255654 0.566957 -0.636752
4146 4 23.0519 4.8839 44.2712 -0.709492 -0.100846 -0.244951 -0.407743 0.177082 -0.264291
4147 4 17.818 17.0763 44.8917 2.42175 0.922911 -2.07122 -0.397559 0.0890916 -0.167867
4148 4 15.8468 18.2352 43.3805 -5.18683 0.246801 2.66301 -3.40496 2.94421 -1.11413
4149 4 13.9227 16.8996 27.0784 6.76533 0.403141 3.22856 1.21328 1.77181 2.2501
4150 4 26.5994 0.818175 44.6562 -0.604759 1.12063 0.162297 0.327054 0.241518 -0.302186
4151 4 27.9821 4.20656 45.7205 0.0736114 0.544716 0.329314 0.0499134 0.137575 0.0880713
4152 4 26.3919 9.49831 44.4679 -0.359602 0.1169 -1.13459 -0.0214082 -0.0546621 -0.278808
4153 4 23.7135 12.0516 45.401 -0.137499 -0.342893 -0.329795 0.0146434 0.0156814 -0.18741
4154 4 20.6093 16.7066 45.1989 0.525422 -0.260457 0.0472051 0.116573 -0.133929 0.0755074
4155 4 20.2994 20.8374 45.1834 -0.233975 0.168031 -1.42895 -0.109141 0.0540204 -0.836718
4156 4 17.1715 29.2995 40.9649 2.95604 5.37238 0.256775 1.32453 -0.368973 -2.14481
4157 4 14.608 30.9529 43.9944 -0.207568 -2.02222 -1.3308 -0.516808 0.275482 -0.695198
4158 4 29.606 0.528208 45.3473 -0.293322 -0.368219 -0.721215 0.155104 -0.207902 -0.438889
4159 4 27.0776 14.0389 43.9783 -0.0338154 0.102502 -0.170248 -0.0328558 0.0402721 -0.108102
4160 4 23.7643 19.539 44.2158 0.920225 0.0315308 -0.816769 0.051505 0.00488503 -0.230024
4161 4 32.4117 7.22537 43.7879 0.678214 -0.233484 -0.540565 0.0664626 0.0538498 -0.141524
4162 4 21.1416 23.8194 44.1846 -3.10988 0.125261 -1.41195 0.332241 0.476822 0.243541
4163 4 20.3981 28.1596 43.5163 -0.440612 0.621513 0.166285 -0.142031 0.0364248 0.11361
4164 4 0.064623 2.38597 44.0787 0.363885 0.488687 -0.289125 -0.0122482 0.280672 -0.101888
4165 4 -2.37276 7.25727 45.2435 -0.223012 -0.482882 -0.232972 -0.00318427 -0.174465 -0.0698631
4166 4 -3.74744 10.2104 43.9345 0.064952 0.167113 -0.305001 -0.0880344 -0.0125186 -0.264642
4167 4 -13.3203 27.2333 45.9713 0.281098 -0.562736 0.359417 -0.00579054 -0.0662234 -0.0878024
4168 4 -16.1565 29.7422 45.4075 1.23919 1.74421 0.359503 0.136237 0.487888 -0.166514
4169 4 0.782244 0.374077 45.4298 0.370623 0.586884 -0.0940031 0.293412 0.323062 0.187489
4170 4 -0.052742 11.1069 45.9575 0.777605 0.0962205 -0.331977 0.20218 0.0308236 -0.34527
4171 4 -2.23652 14.7101 46.5908 -0.647222 0.215629 -0.291249 -0.291451 0.0243812 -0.345308
4172 4 -3.54847 17.1987 46.9527 -0.364905 0.377149 -0.228446 0.0131983 -0.0204973 -0.135651
4173 4 -7.50477 21.6108 45.9598 -0.239355 0.115668 -0.459941 -0.170262 -0.126061 -0.260335
4174 4 -8.15905 23.9808 47.0009 0.129437 0.182274 -0.637609 -0.0485714 0.240013 -0.240024
4175 4 4.96371 7.80163 47.1516 -1.41048 1.18954 -0.497081 -0.525817 0.459164 -0.436812
4176 4 2.84331 8.23775 45.4315 0.0745035 -0.398023 -0.541916 -0.0171926 -0.112067 -0.232816
4177 4 2.43341 10.4125 46.1941 0.281802 -2.54788 2.33811 0.221465 -0.313215 0.17837
4178 4 0.851778 13.7251 47.4583 -0.0749398 -0.173395 -0.401795 0.00579734 0.0745971 -0.318676
4179 4 -5.74872 23.9669 47.0339 0.155111 1.04081 -0.596092 -0.357487 0.529124 -0.585229
4180 4 8.92266 0.13629 46.9212 1.67428 0.474209 -3.99247 0.25104 0.0341416 -0.623391
4181 4 7.18247 9.71498 47.3942 -0.229771 -0.479627 -0.618761 -0.0765122 0.00909136 -0.231998
4182 4 3.00455 12.9762 46.6248 -0.606518 -1.31743 0.455535 0.120222 -0.132778 -0.185065
4183 4 1.8017 15.9286 48.2952 0.0242928 -0.465302 -0.522256 0.14557 -0.338178 0.142208
4184 4 -3.37093 23.9522 46.3722 -0.413706 -1.00108 0.0330963 -0.0766034 -0.239947 0.223516
4185 4 -4.17796 27.1675 46.4577 -2.98085 0.526287 -1.60177 -0.904259 0.415852 -0.841673
4186 4 -5.76885 31.9151 46.5616 0.497052 -1.83149 -1.6097 0.0589095 -0.343345 -0.364543
4187 4 10.4651 1.99684 46.2401 0.26871 0.682021 -0.639974 -0.116305 0.193848 -0.158157
4188 4 4.18773 15.1694 47.3914 -0.307059 -0.192591 -0.27086 -0.00723667 -0.0656725 0.125051
4189 4 -0.378742 26.5403 46.5584 1.09438 0.0559631 -0.403378 0.330087 0.238632 0.0718301
4190 4 -1.86272 30.8165 47.1164 2.87169 5.67538 1.47874 0.542155 1.03742 0.0956922
4191 4 16.4391 5.48419 46.7841 4.61375 6.32509 -4.29132 -0.288053 -1.91031 -0.165179
4192 4 14.284 9.23418 46.6991 0.68049 -1.29755 -1.74017 0.0448729 -0.464543 -0.445766
4193 4 13.3625 11.6075 46.4758 0.352531 -0.51854 0.475909 0.152354 -0.0159982 0.0867802
4194 4 13.938 17.07 44.4675 -3.78022 1.75742 -3.07023 -1.58753 2.24333 1.49773
4195 4 1.34291 26.6538 41.0342 -0.95852 -6.38048 -6.8698 0.604611 -0.462824 0.199157
4196 4 2.40093 32.0167 46.8082 0.73454 -0.219977 -0.213245 0.149796 0.121244 -0.164129
4197 4 19.4282 1.66523 45.8854 1.2939 -4.5868 -1.97029 0.39315 -1.65527 -0.907201
4198 4 17.5442 12.3062 45.7333 -0.00544659 0.219707 -0.633667 0.131367 0.0460665 -0.340445
4199 4 14.4207 14.7785 47.3224 -0.0407597 -9.31961 -0.148894 -0.623053 0.389624 -0.496879
4200 4 16.9126 27.4292 43.9608 10.1781 11.1252 -4.71926 -1.82079 -0.548291 5.58229
4201 4 3.3192 28.8783 31.355 1.4747 1.07353 -2.4282 0.0948843 0.149694 0.41875
4202 4 6.24579 22.0528 32.9503 11.0423 -5.18539 -1.65984 -1.17509 -1.85882 -1.1949
4203 4 21.2771 2.21359 47.6017 -0.496002 0.215318 -0.80283 -0.205391 0.0294183 -0.301274
4204 4 23.6653 3.93176 46.9374 0.758559 -0.0416962 -1.58204 0.240891 0.0776377 -0.53369
4205 4 16.1659 15.7659 46.0979 -3.24376 -4.11057 1.46223 0.0127352 -0.0672265 0.200486
4206 4 4.77268 20.5179 34.6866 -3.4666 -4.27168 -3.78191 0.402968 -4.80355 -0.595455
4207 4 26.1746 5.0796 48.0059 -0.13866 -0.330617 -2.20338 -0.0456817 -0.121063 -0.410371
4208 4 18.4414 19.102 46.7738 3.42851 -0.607089 1.29161 -0.514307 -0.156593 0.011136
4209 4 10.3648 31.1039 41.3567 -7.90165 13.8198 -0.216787 -10.9736 -6.3657 7.38183
4210 4 11.0614 30.611 35.4165 -13.2725 -0.856022 -1.03853 -0.476193 3.80846 3.3512
4211 4 24.954 0.170492 46.3399 -0.302814 0.156752 0.0564662 -0.206334 0.301148 -0.13923
4212 4 28.205 6.75632 46.9576 2.68869 0.846754 -0.101255 0.385252 -0.0677647 -0.0867435
4213 4 20.8944 18.705 46.726 -0.916865 0.0507777 -0.461222 -0.0483904 0.186607 -0.451261
4214 4 18.8737 24.3982 43.3115 1.55463 -0.487307 -0.430915 1.04281 -0.142315 -1.49079
4215 4 14.8768 26.4146 41.7141 -3.76963 17.1241 -5.2189 0.948876 -0.0704877 -0.341494
4216 4 32.8687 2.36809 46.3859 -0.17113 2.31692 -1.49352 -0.135089 0.156722 -0.269951
4217 4 29.679 2.56044 46.6786 -0.589586 0.269765 0.297248 -0.028441 0.00841322 0.0120918
4218 4 30.2229 6.26688 45.078 0.395448 0.208161 -0.321491 0.0187419 0.181747 -0.131803
4219 4 29.5677 9.77844 47.3378 -0.267634 0.291304 -0.606234 -0.0680125 -0.0754654 -0.128417
4220 4 24.9654 14.172 45.2929 0.0703665 -0.188146 -0.183247 -0.0518943 -1.11676e-05 -0.0507834
4221 4 24.3862 16.3897 46.2888 -0.711194 -0.239211 -0.238295 -0.266146 0.116533 -0.107814
4222 4 31.4276 8.74724 45.7048 0.891007 1.49029 -3.38397 0.0643368 0.399431 -0.648927
4223 4 -12.8242 24.8578 45.4709 0.017295 0.182376 -0.288477 -0.102745 -0.113582 -0.251821
4224 4 21.7923 25.4243 46.1902 -0.294499 0.322454 -0.1429 -0.0789065 0.0898268 -0.215922
4225 4 0.897424 4.76932 46.7968 -0.0440418 0.0848021 0.0472051 0.129934 0.0279074 0.0339752
4226 4 -2.46204 10.2086 46.7446 -0.372366 1.46594 0.641118 0.0839163 0.711987 0.48191
4227 4 -5.06679 11.5204 45.673 0.017244 0.0130731 -0.229839 -0.142385 0.0686538 -0.225769
4228 4 -6.98215 13.933 45.3248 -0.357532 0.629275 -1.15071 -0.0784567 0.0720588 -0.51646
4229 4 -6.07876 17.4372 47.2842 -0.635432 -1.02127 -0.0270644 0.0780757 -0.206829 0.0845039
4230 4 -11.3745 21.3722 46.3245 0.426943 0.127876 -0.863231 0.122093 -0.0183006 -0.222084
4231 4 -10.8345 23.8976 46.5345 -0.31049 0.405225 0.110144 -0.125086 0.126133 0.039452
4232 4 -11.282 26.2585 47.7529 0.0233621 0.496491 -0.0124065 -0.0287544 0.152221 -0.0343141
4233 4 -14.2916 30.0882 47.12 -0.240878 0.387704 0.333055 0.0715353 0.0400671 -0.525384
4234 4 2.22276 1.99108 47.033 0.379576 0.474966 0.30116 0.2507 0.165883 0.207784
4235 4 -4.80188 19.6057 47.8523 -0.857975 -0.0330204 -0.865101 -0.303317 -0.059688 -0.436092
4236 4 -10.7886 30.3536 48.3062 0.167291 1.36985 -0.756272 -0.0324672 0.16901 -0.292948
4237 4 6.39141 6.28084 49.8188 0.255763 0.579853 -0.428645 0.537859 0.225058 -0.330349
4238 4 5.0999 8.5762 49.5545 -1.02731 -0.607924 0.666695 0.272999 0.316497 -0.336082
4239 4 -0.146572 17.5111 48.9585 -0.898329 -2.18535 0.215847 0.252564 0.176492 -0.881023
4240 4 -4.79719 25.7571 48.8166 0.972272 0.151229 -2.59222 0.0722531 0.170069 -0.613755
4241 4 -8.31762 31.0134 48.9852 0.180379 0.220056 -0.590819 0.0867299 0.0981833 -0.203979
4242 4 9.12759 0.997923 49.4677 0.612683 -1.43152 -2.91985 0.163234 -0.106211 -0.436096
4243 4 10.9034 4.37372 47.2542 -0.30488 0.0722657 -0.159265 0.269566 0.365196 -0.550219
4244 4 8.40091 7.53171 48.0408 0.566271 -0.0275959 -0.515941 -0.0273303 -0.03946 -0.0942579
4245 4 6.56216 11.8394 48.7482 0.0340167 -0.348546 -0.740459 -0.0172279 0.0148723 -0.365809
4246 4 2.3211 18.2776 49.6575 -0.455272 -1.40691 -1.90544 -0.222211 -0.0200767 -0.422759
4247 4 -0.0167444 19.9408 49.3817 -1.86709 -3.99995 -2.82189 0.114038 -0.0353928 0.236933
4248 4 -2.25819 25.5027 48.2176 0.456921 -1.91235 -2.90789 0.211054 -0.444394 -0.280386
4249 4 -3.75101 28.3491 48.9794 1.78007 -0.47325 -2.41926 0.312272 -0.016066 -0.624471
4250 4 11.9504 1.27357 48.2901 3.93853 1.81555 -4.54808 0.52471 0.160217 -0.809567
4251 4 12.7512 3.73 48.6946 2.44473 2.67452 -4.47146 0.456829 0.130432 -0.931878
4252 4 8.56791 10.4888 49.6732 -0.894461 -3.24565 -1.75603 -0.0976433 -0.203783 -0.234906
4253 4 3.29584 17.8332 47.1313 -0.117962 0.783138 -0.473187 0.311355 0.159527 -0.193772
4254 4 3.35905 30.1363 39.8015 -2.19756 3.07899 1.17887 -1.29267 -1.24963 1.34708
4255 4 -0.340287 28.8274 47.6673 -0.37006 0.504909 0.524056 0.000724538 0.0641373 0.02493
4256 4 14.4738 5.77416 48.6421 3.69655 0.745637 -5.00708 0.0437835 -0.308181 -0.585905
4257 4 9.79586 13.0148 49.3718 -0.2431 -0.265444 -0.659733 -0.00370487 -0.0241544 -0.133915
4258 4 8.17766 15.3459 49.4529 -0.350021 -0.330102 -0.0766838 -0.0315589 -0.0556527 -0.452564
4259 4 19.6899 4.00908 46.9272 -0.414357 -1.28963 -0.496039 -0.101312 -0.390029 -0.513101
4260 4 10.3819 14.7176 47.6838 -0.159418 -0.309638 -0.275657 -0.233405 -0.114912 -0.345053
4261 4 -1.02477 21.8704 50.5504 -12.7348 -8.40662 -7.38339 -0.0558963 1.05339 -2.00235
4262 4 2.53444 29.0953 50.5943 -3.73515 -2.48228 7.25228 0.202756 0.11918 -0.243462
4263 4 3.07198 31.2328 49.5919 3.22639 -2.30599 1.61669 0.272957 1.206 -0.618477
4264 4 20.297 1.03916 49.765 3.76636 -1.99921 -2.01014 -0.195299 0.338705 -0.0715463
4265 4 22.2823 3.70493 49.471 -3.11815 -1.32313 0.0553321 0.715253 0.00974718 -0.544228
4266 4 16.2797 12.6633 48.1899 -0.264682 0.0912611 -1.57168 -0.148901 0.213732 -0.916551
4267 4 14.2065 14.532 49.8927 0.647523 -0.379335 0.965025 7.7197e-07 0.244969 0.0729893
4268 4 19.3433 25.6015 49.0268 1.13133 1.16639 -1.10139 0.0663597 0.242544 -0.243455
4269 4 10.9264 21.1301 34.0157 6.56516 -3.45035 -8.57077 0.15626 -1.58465 -0.0742462
4270 4 16.9083 24.3252 33.2008 -6.57586 -4.36934 4.85738 -0.275203 -3.96706 -3.19158
4271 4 23.1983 1.28647 49.0075 -1.10367 -0.640756 -0.438709 -0.0772904 0.0615814 -0.242522
4272 4 21.3727 8.42034 49.3448 0.10625 -0.0659668 -0.186862 0.0735254 0.111937 -0.120544
4273 4 20.5036 10.2465 47.3946 -0.00276447 -0.0862333 -0.42459 0.042676 0.0545762 -0.175019
4274 4 18.6888 13.041 49.1136 -2.07878 2.93005 -2.24797 -0.324917 0.491007 -0.449263
4275 4 18.3503 16.0796 48.9842 -1.80281 0.252219 -0.749324 -0.650627 0.0943308 -0.794289
4276 4 17.3197 18.5465 49.1144 1.3738 0.223098 -0.0583217 0.198364 -0.43112 0.546137
4277 4 23.0254 10.2395 48.6355 -0.282464 -0.353345 -0.892071 0.0720319 -0.0905071 -0.213327
4278 4 22.6194 13.0722 49.0942 0.735283 -0.616762 -0.171227 0.107356 -0.135301 -0.106488
4279 4 18.2461 20.1261 43.4385 3.36674 -3.09656 2.64536 5.71745 -7.69545 0.173747
4280 4 9.96741 22.4275 31.9683 3.2913 -4.70875 -7.4997 -1.3165 -0.226974 -1.72249
4281 4 3.56387 29.1201 43.7309 0.391852 -0.180928 1.80866 -0.037788 0.103049 0.831573
4282 4 29.3604 2.09466 49.2361 0.219113 -0.0171425 -0.223666 -0.0703015 -0.120086 -0.00219719
4283 4 29.0949 5.37626 48.6973 -0.269063 -0.142183 -0.0279863 -0.114955 0.298928 0.337527
4284 4 27.2622 9.04498 48.3705 -1.27302 1.00296 -1.27005 -0.0697712 0.392745 -0.120473
4285 4 23.1398 15.5864 48.6963 -0.264478 -0.63048 -0.385662 0.0238566 -0.21027 -0.0542227
4286 4 18.7723 28.6992 47.3138 -0.873226 0.231459 -0.93839 -0.165278 0.190604 -0.415048
4287 4 18.2899 29.0209 49.6428 0.385989 0.483128 -0.0523884 0.0556951 0.14457 -0.0655277
4288 4 33.3029 0.0429894 47.2431 5.98592 2.25755 -4.80489 0.312042 0.385916 -1.28375
4289 4 31.9109 1.95203 48.6667 -0.314354 -0.0388055 -0.430862 -0.0315299 0.0149006 -0.443916
4290 4 30.6509 7.92736 48.5892 4.4185 2.61648 -3.71734 0.426186 0.371329 -0.317267
4291 4 26.4222 15.325 47.4513 -0.831052 -0.10783 -0.360586 -0.0660343 0.00470418 -0.127023
4292 4 24.8709 18.3425 48.7935 0.018558 -0.747866 0.0597233 -0.335614 -1.2306 -1.69065
4293 4 24.0107 20.5552 47.751 0.401552 0.092665 0.0885644 0.287592 -0.127895 0.0260389
4294 4 -1.536 4.55904 48.8559 0.660771 0.372575 -6.07645 -0.538121 0.173072 -1.35005
4295 4 -8.77847 16.4921 47.035 -3.41907 2.01832 -4.79812 -0.432655 -0.267457 -0.323089
4296 4 -11.0971 21.3076 49.0729 0.669295 0.780094 -0.860605 0.350526 0.258002 -0.229859
4297 4 -12.4786 23.4808 48.4762 -0.325991 -0.0364384 0.0228022 -0.0996574 -0.0711262 -0.0719989
4298 4 1.85293 0.807504 49.281 -0.0103537 0.172917 -0.397335 0.0506421 -0.194239 -0.0224962
4299 4 2.47627 4.1001 48.6613 -0.0360436 1.09947 -0.111522 0.113082 0.330925 0.0133229
4300 4 -0.286134 6.60562 48.2339 -0.0201818 0.915438 -0.145169 -0.0783613 0.27441 -0.108398
4301 4 -2.4595 7.17885 49.5496 -0.968731 0.458574 -1.09623 -0.315054 0.0999542 -0.385718
4302 4 -4.95122 14.8366 48.1664 0.663496 0.637845 -2.84354 0.189006 -0.0694521 -0.586113
4303 4 -6.79247 17.5319 49.6484 -3.06837 -0.422065 -0.616146 -0.967966 -0.39371 -0.255342
4304 4 -9.96724 23.8289 49.038 -0.153246 0.71672 -0.86877 -0.194832 0.0150846 -0.134268
4305 4 -12.3598 28.4629 47.975 0.143098 0.685658 0.0839377 -0.0905209 0.258403 -0.0936779
4306 4 10.9138 16.1852 39.0378 -10.3731 -6.27944 -2.41715 -0.321849 0.187146 0.0507115
4307 4 1.40283 24.6914 37.4055 6.70606 -1.48116 -5.07217 -2.47681 2.35761 -1.24686
4308 4 13.0068 29.6683 37.1769 0.0143858 -7.40291 1.72066 -4.52525 -0.976826 -1.73416
4309 4 6.64443 16.4686 38.0362 0.60511 -0.56396 -5.36083 -0.159547 0.0239696 -1.60664
4310 4 0.0156748 14.6603 59.5048 -15.2815 -9.22168 4.91121 0.70361 0.31618 -0.729434
4311 4 13.164 27.9466 28.1871 13.6099 -3.80554 -6.00487 -2.04213 -2.36512 -0.543438
4312 4 2.70251 27.5702 25.8412 8.56896 2.41787 5.55996 -0.0123491 -0.0352112 1.5058
4313 4 9.87527 22.058 26.6957 -2.64612 -12.0345 -4.97438 0.00858499 -1.9262 1.28651
4314 4 12.4944 16.0982 33.4397 0.708558 -0.0680217 2.78393 -0.541889 0.410134 0.0606483
4315 4 16.0124 23.4049 35.6844 0.48514 3.3868 -0.300798 1.82915 -1.21597 0.751294
4316 4 11.3443 32.2282 29.2715 0.343992 10.0764 -15.5428 -2.11462 3.09683 -5.85661
4317 4 4.67147 17.2042 23.1954 -4.4575 -9.01213 -3.27076 -1.67945 -2.8298 -0.924563
4318 4 7.32233 18.3614 17.5832 4.59079 -4.46166 -4.51029 -2.72051 -0.149983 -0.504385
4319 4 8.80119 21.909 13.9112 1.07262 -3.75369 2.81112 2.70194 0.729385 0.124193
4320 4 13.7836 20.7516 11.8508 -1.03186 2.57622 1.73434 -21.457 0.925751 29.1745
4321 4 7.15666 22.9038 30.7196 8.93271 -8.44962 6.09878 1.00299 0.414149 -2.45956
4322 4 12.7395 20.3261 18.1063 -6.35901 0.650631 -7.6699 5.00895 0.276436 1.55573
4323 4 17.5584 23.1339 18.5154 -1.03861 -1.57588 0.440412 -1.8179 1.04947 -11.0164
4324 4 5.07758 19.2038 40.9211 1.92074 -5.1276 3.89008 -2.86995 -0.545146 0.994981
4325 4 12.72 17.3793 23.5681 3.83901 5.72891 1.9382 6.04757 -0.763184 0.856221
4326 4 5.8894 20.4607 18.1617 -2.89671 0.880767 2.19691 -2.88062 -0.123129 -0.468392
4327 4 13.0152 16.6826 37.6634 -0.309883 5.89421 1.75647 0.141451 0.831895 -1.22922
4328 4 15.185 26.304 36.6181 1.55864 -5.79941 2.96756 -1.72975 -1.24516 3.34831
4329 4 4.24373 20.0184 25.0375 -10.5279 -8.28802 -0.229579 -1.12282 -0.0154217 -0.380527
4330 4 2.90956 25.1331 27.2656 11.0148 -2.53926 9.25387 0.374471 -2.5728 4.7162
4331 4 6.7844 29.6885 12.5116 -2.35011 5.65185 -2.87084 1.9241 0.0194559 -1.10413
4332 4 9.32376 21.0959 11.5365 0.722039 3.57193 -0.453761 -12.7899 7.96528 10.5432
4333 4 11.0043 17.1025 21.8836 -4.21577 0.444115 -8.15125 -5.00847 1.76453 -0.0360921
4334 4 3.48059 24.3589 31.432 4.31383 -1.54844 -1.16274 4.63034 4.62244 0.35534
4335 4 8.20839 17.516 20.0905 -8.23377 11.1738 -3.95621 -7.17019 -5.27416 -2.30567
4336 4 10.9504 26.1125 27.7535 -24.4497 11.8758 -5.61361 -2.67548 7.71511 1.5731
4337 4 9.0245 15.9316 37.135 -0.503643 1.95102 -3.16531 0.376227 0.0245801 1.27339
4338 4 10.9759 17.9687 29.3823 -4.70442 -8.15755 0.662246 0.0749305 -8.01589 3.28911
4339 4 4.91917 28.3189 19.9259 -8.9329 3.91147 1.59027 -0.414086 -1.70835 0.995094
4340 4 17.9178 28.1553 34.5601 -1.11162 4.28858 5.74871 -0.409161 0.0924013 0.176897
4341 4 19.0402 22.9574 47.3896 -0.432315 0.391551 -0.811966 -0.291042 0.0617117 -0.266711
4342 4 12.659 20.445 15.9522 -11.0393 2.40745 3.66053 -5.27571 -1.45466 -3.74306
4343 4 16.5345 24.5396 41.7391 -7.58761 1.21526 1.30585 -7.88835 -6.55764 -1.83967
4344 4 7.78252 27.0651 24.6798 -2.47706 -5.75388 -11.2067 -0.781815 1.5905 2.0733
4345 4 8.76023 23.2538 17.7887 -3.41408 -4.28143 -2.55432 -0.90754 4.78072 0.0451757
4346 4 7.87538 20.1848 34.8446 -7.95505 7.37862 -3.75666 2.09485 2.1472 1.15586
4347 4 16.0335 23.1389 39.4653 -3.06413 -0.978023 7.29998 -1.00035 1.07765 0.151287
4348 4 12.5271 26.56 13.2037 0.489099 5.99427 3.92001 -0.233991 -1.41204 -1.95154
4349 4 3.54165 24.6911 38.1468 -11.1962 -6.9475 4.73283 1.20546 0.836293 3.74738
4350 4 4.54863 23.7257 33.5628 9.21955 -5.30498 10.9441 -1.61211 2.1121 -0.436936
4351 4 18.3077 26.5282 46.1816 0.762363 0.556217 0.511051 0.0816537 0.43893 -0.595482
4352 4 12.1605 30.5951 22.8778 -3.8065 -8.37785 -12.4592 2.35514 -4.02426 0.148987
4353 4 17.1334 24.3978 27.5319 -2.4168 7.21719 -11.3478 3.28438 -1.60577 -1.66326
4354 4 2.94587 29.0389 35.9872 0.901936 0.3538 0.468492 1.6642 -0.00478654 -0.290206
4355 4 15.3812 28.154 25.5234 -19.7463 -1.12353 11.632 -0.836563 -5.46584 -0.384801
4356 4 9.18678 24.7172 30.4421 5.93191 -25.2394 -13.1138 0.290264 0.373077 -0.396763
4357 4 10.5439 26.7971 20.1887 -4.61909 5.24363 -3.71289 4.39501 0.0629464 2.19795
4358 4 8.54538 17.4958 26.1696 -1.06523 2.19262 5.15814 2.00775 -0.963827 -3.2889
4359 4 15.4831 25.4536 44.4927 1.81558 -1.06588 -13.1893 1.09483 0.0543999 -1.09376
4360 4 2.42124 15.7413 57.0109 -7.73844 -6.65674 1.36002 -0.219833 0.0733325 0.00459619
4361 4 16.322 19.9507 26.5999 -7.62479 2.66512 8.08334 -4.35802 -3.0705 -1.13987
4362 4 12.5158 30.2449 45.5347 -2.99422 7.78361 -1.90302 1.24174 1.97888 -0.0722977
4363 4 10.1012 16.6944 32.008 2.00972 -11.7309 -5.7828 -3.63741 0.824864 -1.5548
4364 4 17.5521 23.3241 44.9136 -3.66187 -1.50236 -5.16756 0.237426 4.49765 0.0910746
4365 4 11.4299 20.4471 13.1013 -3.05746 1.63479 1.69422 -1.26077 1.66026 0.206727
4366 4 19.152 23.0094 63.5596 15.5437 -13.1556 18.7011 0 0 0
4367 4 7.54095 20.2809 20.1888 6.2029 4.51639 0.255266 1.9571 -1.09375 0.327756
4368 4 5.61632 29.7825 39.2115 -13.9922 -5.11028 3.6178 3.98138 0.747989 -3.82004
4369 4 18.1055 25.6445 30.2458 -0.241962 -3.84689 0.490103 -0.537873 -0.761471 -0.0564468
4370 4 9.03413 18.8293 23.993 -2.149 5.87279 1.64814 0.0035989 -14.2637 -5.05692
4371 4 8.01604 29.6651 19.0073 18.1374 1.07173 0.0210397 -0.259216 1.89069 -0.315605
4372 4 9.48602 19.7354 22.1602 -3.17017 -8.51799 1.54701 1.54951 -0.0242921 -5.92633
4373 4 2.52137 17.4057 52.7106 11.7535 -24.1799 1.77514 0.27664 -0.137729 0.124104
4374 4 18.56 25.2537 54.5777 11.9833 -12.802 22.0192 0.0958393 -0.127665 -0.702401
4375 4 8.81619 31.8226 37.2846 -1.51481 3.36707 13.4337 2.39279 1.34288 -2.59943
4376 4 12.8781 22.6148 13.4346 0.568369 1.28511 -3.48894 5.57137 -0.811089 2.68682
4377 4 9.72948 27.7163 14.7346 8.38318 3.42686 -2.06009 -1.23031 -2.50602 1.73941
4378 4 14.6349 25.223 14.9 3.15072 1.60418 -2.22145 -2.78436 0.929712 -2.08143
4379 4 8.16514 17.1695 35.3193 -12.0116 3.43654 -7.5453 1.11299 3.94434 -2.69827
4380 4 6.74752 16.6178 40.4963 1.57978 -1.60309 -0.588871 -1.69039 -0.76614 0.0184243
4381 4 7.37585 24.043 14.1339 0.495205 -3.85159 5.58576 -3.92996 -1.90341 -4.03814
4382 4 12.2625 28.3058 19.9267 4.84182 2.14658 6.33618 4.80515 2.15438 -1.69882
4383 4 12.7038 18.6906 33.4464 0.49525 3.34547 -0.678147 -0.619386 -0.654025 -0.0434094
4384 4 12.9839 17.2238 30.3359 2.87253 8.80229 13.4355 1.18156 8.63073 2.55917
4385 4 12.2272 31.1382 26.2376 -8.89306 13.0492 -4.24785 0.26087 1.43657 0.00494585
4386 4 4.72929 21.0839 27.1548 -1.71833 -7.99255 -1.5555 -5.35218 0.885195 -7.28467
4387 4 5.06155 28.4517 41.7835 -8.05095 -1.7204 4.17008 -2.24673 3.13975 -1.55983
4388 4 6.76651 19.42 26.1527 3.91271 10.5622 6.15151 -2.1337 0.463532 -4.40538
4389 4 14.6597 17.0363 80.1503 7.67484 -11.5221 38.6911 3.55271e-13 -7.10543e-13 0
4390 4 8.36495 26.8372 20.5162 -10.7083 -1.75723 6.12358 0.0384612 5.3142 0.50192
4391 4 9.46605 24.6612 15.0525 2.02558 -5.06146 -1.22611 2.15449 -5.35004 -2.99264
4392 4 14.8695 29.5971 35.6736 1.3686 -2.66469 3.03955 -0.615603 2.13013 -2.98767
4393 4 16.3225 20.6677 39.6023 -2.46339 7.55118 -4.44632 -1.02233 3.4891 -5.4307
4394 4 18.234 22.5904 50.4929 1.06966 -5.33672 2.58521 0.0448536 -0.126732 -0.714472
4395 4 13.0882 23.4218 19.3862 10.212 5.52449 9.27855 -1.1782 -5.38841 -4.80698
4396 4 13.4163 25.7415 19.2761 13.3921 -2.12439 4.33337 -1.47801 1.603 0.43053
4397 4 3.38822 22.9474 28.7825 2.80448 2.09939 -1.06366 1.91683 -2.22927 -0.0658155
4398 4 18.9107 24.8044 52.0247 -0.870351 -19.8813 23.7793 0.00304606 -0.445124 -0.671693
4399 4 5.52456 22.2665 20.3116 18.5857 -4.40874 1.71906 -0.589289 2.41598 -0.232074
4400 4 13.6023 20.806 35.9079 -3.15086 -5.35333 2.03265 1.75545 -0.877152 -1.89675
4401 4 13.3128 21.0866 20.282 7.59985 10.1133 -16.115 -2.47468 0.29526 2.09705
4402 4 12.8887 26.5209 25.076 -5.02194 9.35075 -1.41307 6.43271 3.23989 -0.0835049
4403 4 16.7901 21.953 25.5662 -6.22735 -12.1676 1.95858 5.3321 -3.51624 2.26907
4404 4 12.5613 31.0259 32.1551 -1.45921 7.3508 0.822508 4.05842 -6.04651 5.48466
4405 4 15.7096 28.8201 42.4682 6.58095 -0.331549 6.53321 -6.29767 -2.55699 0.0846309
4406 4 11.1112 24.1905 17.3746 -7.60529 3.77646 -0.237155 0.0997553 3.31281 -0.551451
4407 4 16.0027 21.3641 33.3002 2.50805 5.35737 6.46387 -2.23821 -0.660187 -0.706714
4408 4 10.3186 21.3288 17.7917 -1.84217 -1.68413 -7.08779 1.20845 -2.21623 0.433158
4409 4 11.8739 20.6491 31.2396 -10.2964 9.12973 -5.33559 -0.144471 -0.996433 -0.210339
4410 4 12.0084 30.9557 40.0889 1.87747 2.66339 -8.21603 8.56643 -0.918373 -6.08566
4411 4 16.6182 26.0005 34.8492 -3.04786 3.57913 4.67381 2.99604 0.780295 -3.20132
4412 4 13.2518 28.2437 39.232 5.19124 -0.511262 -7.08469 2.06614 -0.119998 0.826598
4413 4 14.3127 23.1819 25.4097 -5.65957 0.342928 4.84629 -5.98431 1.38292 1.56339
4414 4 13.6588 19.6211 29.4961 -3.68834 1.18276 2.56904 -1.87066 2.30566 0.692804
4415 4 6.06088 26.3682 20.4031 3.83193 3.97317 -4.10894 0.215138 2.64929 0.546129
4416 4 12.0482 28.9458 33.9747 -7.58036 -1.98488 12.376 0.95065 -0.86055 -0.199132
4417 4 17.2518 27.7739 30.879 -1.02522 1.01584 4.5422 -1.74226 0.916381 -1.82052
4418 4 9.2865 19.9831 31.0688 -3.28583 12.61 -5.08161 4.66772 -2.76004 4.04099
4419 4 16.4364 16.5049 51.3917 -0.253996 -19.6777 14.7343 0.0315286 -0.109772 -2.40303
4420 4 8.0141 26.195 27.7906 4.5949 -6.18301 -0.508683 4.04 2.34552 0.690123
4421 4 3.81356 16.8357 54.9947 -23.6705 -5.688 15.9953 -0.853084 -0.1757 -0.0854069
4422 4 8.00369 18.347 39.1937 5.2877 -2.42849 1.308 0.300904 -1.12107 0.995381
4423 4 13.9434 29.8655 26.7181 -15.1343 -2.86105 -9.33359 1.19563 0.546279 4.02772
4424 4 15.4203 19.5165 23.6172 4.41841 4.81863 -6.32848 1.23682 0.632497 -0.0531265
4425 4 16.592 20.7315 35.4937 4.84642 -6.93282 -5.2012 -6.93884 0.430741 5.96042
4426 4 6.69752 29.8012 33.6288 0.338066 -33.185 -10.3374 -2.43758 -1.09176 2.30454
4427 4 14.4374 29.6685 29.2358 -14.2591 7.67488 -8.37327 -0.906236 4.34278 5.50298
4428 4 7.26448 22.3951 22.5167 -3.06268 -4.22913 -13.9076 -1.41303 -1.84509 -2.05716
4429 4 7.28869 24.6907 21.7523 -1.5491 4.83271 -7.18787 -1.29711 -0.598332 1.83472
4430 4 15.0546 30.8088 40.4328 -6.06505 4.57993 -1.71237 1.66874 -0.519852 4.47049
4431 4 15.5373 27.4433 22.7885 -9.12653 -12.8047 0.0801967 -2.8823 -0.685697 4.70981
4432 4 16.0032 26.215 28.4705 6.04633 -1.60467 5.11965 0.529088 4.1451 0.0853661
4433 4 13.7386 28.6715 31.7416 -0.862787 1.08196 1.52753 0.687177 -1.54794 -5.49626
4434 4 15.2338 24.1435 19.5399 2.97388 11.9216 -0.350402 11.1891 5.47714 -10.0982
4435 4 11.8076 21.5032 28.5922 3.96189 -10.4224 14.4663 0.624472 0.70801 0.940472
4436 4 5.9419 19.319 32.556 5.51933 7.6634 -1.51336 -0.92381 1.03617 -0.296636
4437 4 6.27338 31.0229 27.185 -1.50114 -18.261 -1.21374 3.69517 -13.6159 2.83909
4438 4 8.26389 29.5146 22.3902 -9.48543 7.04534 -0.71764 12.2692 -2.5202 1.54001
4439 4 11.254 25.1974 25.0069 22.6958 -2.76377 -3.17196 -0.168203 -3.62353 0.247949
4440 4 8.93321 21.9581 24.4296 2.42367 -6.00458 2.02336 -6.86159 -2.23292 2.63491
4441 4 3.67251 21.7575 37.4862 5.81756 -0.832663 -5.7645 3.54624 -1.51016 0.694883
4442 4 7.88715 31.0797 31.9823 -4.60859 2.49177 -20.8136 3.69796 1.69558 -6.54282
4443 4 10.2565 23.5006 23.5998 4.16195 6.81208 -0.00791783 2.47833 -4.11182 -3.76078
4444 4 5.94317 26.8439 31.1847 -6.52484 -16.1171 -18.3196 -4.13149 -1.24415 4.86623
4445 4 10.3815 18.7799 35.3919 -9.2801 -1.98642 -10.0687 -0.251535 3.22819 0.226999
4446 4 7.74731 16.6828 42.8448 -4.56305 16.394 -21.2689 5.48898 1.76428 0.575929
4447 4 7.87205 20.9795 28.325 7.63175 -8.45311 9.5089 0.121811 -1.34537 0.154312
4448 4 5.4821 19.4005 37.9122 4.09698 -8.11607 -0.529654 -3.22961 -1.09292 0.541805
4449 4 9.1849 24.8207 25.9567 -14.894 -4.00401 7.78628 2.37867 -0.574234 -2.35924
4450 4 12.5445 19.0294 37.1189 -11.2376 15.0664 10.5264 -0.204538 -2.45065 -0.920853
4451 4 9.96921 29.1452 24.2533 7.51261 15.7996 9.33872 -0.944336 0.767374 0.790215
4452 4 12.5892 19.4502 22.1069 -7.26426 1.06705 -1.65922 -1.49484 0.420809 0.714336
4453 4 15.7404 25.1882 24.4372 -4.08775 2.98479 -6.39482 0.569711 1.5222 -1.53412
4454 4 11.8957 25.1308 22.5187 -15.8826 -0.2737 7.63058 -5.00923 8.83199 -7.43469
4455 4 8.57318 27.2162 36.3035 27.4875 -22.5447 21.2349 0.81696 1.35878 0.897125
4456 4 10.2996 27.2145 22.7251 -1.77331 -2.58191 -2.48424 13.2103 4.5584 0.324869
4457 4 15.419 22.7799 44.4413 4.80585 6.6985 0.681956 -3.11813 -1.93691 -1.77601
4458 4 8.54834 29.44 38.1318 0.186934 7.7746 -12.8295 -14.3417 23.609 -22.6295
4459 4 9.21212 28.3918 39.1461 -6.1112 -35.9989 -87.3698 15.0931 -22.4058 21.0138
4460 4 6.59312 28.3318 60 0 0 -105.316 0 0 0
ITEM: TIMESTEP
4000
ITEM: NUMBER OF ATOMS
4460
ITEM: BOX BOUNDS xy xz yz pp pp ff
-1.8642987430510001e+01 3.7285974861020001e+01 -1.8642987430510001e+01
0.0000000000000000e+00 3.2290601434510997e+01 0.0000000000000000e+00
-1.0000000000000000e+01 1.0000000000000000e+02 0.0000000000000000e+00
ITEM: ATOMS id type x y z vx vy vz fx fy fz
1 2 18.5461 32.2699 3.94166 0 0 0 0 0 0
2 1 0.0316457 1.74732 2.06017 0 0 0 0 0 0
3 3 1.1639 0.795549 0.610904 0 0 0 0 0 0
4 1 0.188269 1.85961 5.55948 0 0 0 0 0 0
5 1 -1.41434 2.75991 7.84307 0 0 0 0 0 0
6 1 0.0108142 0.20403 17.4971 -2.8942 0.871065 0.284477 -9.83797 -5.09495 -10.8021
7 1 1.75291 1.03022 15.0297 -2.82564 -1.74383 1.47757 8.30413 15.2464 2.0665
8 3 0.561235 2.0166 16.6016 1.65902 -0.730218 -2.57876 -2.08967 4.39983 -0.752671
9 2 -1.48356 2.59233 3.85583 0 0 0 0 0 0
10 1 -0.740025 4.48517 10.7253 1.29557 -0.810336 0.94702 -3.34451 1.30772 -3.72763
11 3 -1.53772 5.66225 9.27466 1.29605 -3.05489 0.444663 -4.02295 -7.16664 5.61474
12 3 0.274166 3.76233 7.18554 0 0 0 0 0 0
13 1 -1.37158 2.78332 17.0389 -0.998591 -4.56532 0.796336 -3.40294 7.93822 6.67234
14 2 -0.0894347 5.58289 12.7921 -1.54834 -1.14183 3.92216 -9.24626 10.9884 8.90976
15 3 -1.60258 4.61922 16.1837 -4.64515 1.02116 1.28528 -5.58207 2.16781 -4.14544
16 1 -3.10716 7.17569 2.22916 0 0 0 0 0 0
17 3 -1.72972 6.28201 0.783527 0 0 0 0 0 0
18 1 -1.45515 7.06475 10.6602 0.825856 0.467545 -1.75027 1.3671 4.40751 -11.6083
19 1 -2.579 5.34888 17.5629 -2.38873 2.18608 1.79934 -7.11817 15.2447 -9.52755
20 2 -1.57455 7.99545 13.0365 2.19 3.59035 -4.52122 4.94147 -7.15237 12.4923
21 1 -1.55802 6.34951 15.0222 -1.99245 0.731982 -1.35364 -17.8565 -4.55348 14.2651
22 3 -3.18029 6.90438 16.5129 -2.77344 -1.59706 -10.4508 -3.65606 -0.785953 -1.18753
23 2 32.404 8.40592 3.98447 0 0 0 0 0 0
24 1 -4.51214 9.87322 1.90885 0 0 0 0 0 0
25 3 -3.10065 8.8433 0.797443 0 0 0 0 0 0
26 1 -4.73977 9.96332 5.93089 0 0 0 0 0 0
27 1 31.0481 10.4673 8.41442 -1.3352 -1.45163 -0.30007 14.8275 2.1355 -4.21295
28 3 -4.81025 9.44159 9.13689 -3.72537 -1.25693 2.49695 -3.10904 0.433996 -4.53258
29 1 -4.70133 10.9177 10.5029 2.09465 -2.00547 4.12637 13.6069 11.0625 8.96266
30 1 29.5229 13.0275 8.29095 -1.747 -1.912 1.79288 10.171 -6.84272 -6.94755
31 3 -6.32663 12.0149 9.52202 5.5042 9.80708 0.307794 -8.10936 -6.92949 -1.30806
32 3 -4.78769 11.4643 7.35678 0 0 0 0 0 0
33 1 -6.0934 11.1514 17.0776 0.0286445 3.051 2.74587 10.7425 -18.3722 1.6963
34 3 -6.31364 12.9378 16.0889 -4.22634 -0.300116 10.7984 -0.533237 6.23025 -4.16119
35 1 -7.46816 15.3411 5.85453 0 0 0 0 0 0
36 3 -6.25912 14.3866 7.299 0 0 0 0 0 0
37 1 -7.70921 13.4077 17.282 0.654251 2.70919 -1.3754 -0.993077 12.9199 -10.9909
38 2 28.0911 15.8469 3.85373 0 0 0 0 0 0
39 1 -9.40118 17.7369 2.14695 0 0 0 0 0 0
40 3 -7.923 16.9077 0.797968 0 0 0 0 0 0
41 1 -9.22138 17.7239 5.50015 0 0 0 0 0 0
42 2 -8.06001 18.9721 13.0493 0.559073 3.96383 1.72885 11.2506 8.57286 10.024
43 2 26.2268 18.7913 4.18862 0 0 0 0 0 0
44 3 -9.27699 19.6887 0.608713 0 0 0 0 0 0
45 1 -10.8751 20.6301 6.07086 0 0 0 0 0 0
46 1 -9.50591 19.9624 11.1795 0.0358975 -0.815468 -2.22654 -12.2342 6.23163 14.2035
47 1 -12.2442 21.791 8.55273 1.36956 2.62559 2.28854 -11.9061 -10.2197 -17.2853
48 3 -11.0698 20.9252 10.024 -7.80319 -1.37583 4.05124 -6.47883 -8.91741 3.60316
49 1 -10.7396 19.1511 17.69 3.36574 0.815245 -3.25034 5.53929 8.99699 -14.3597
50 2 -8.91309 21.5528 13.0581 0.868561 -0.907529 5.0713 -12.581 -8.43717 -3.18961
51 1 -9.53229 19.5653 15.0679 -0.953401 -0.724395 -1.91368 10.6502 -8.78586 -14.6102
52 3 -10.9223 20.6486 16.4769 -5.09937 6.64667 1.0516 6.01805 8.43234 -3.03905
53 2 -12.3967 21.528 4.0999 0 0 0 0 0 0
54 1 -12.5785 23.5438 2.09611 0 0 0 0 0 0
55 1 -12.238 23.3236 5.89478 0 0 0 0 0 0
56 1 -10.9672 22.4864 11.1465 -0.124468 -0.908944 0.603854 0.23141 -5.5215 -11.1583
57 1 23.1983 24.1058 8.42679 -3.04764 -0.493456 -0.859943 -4.36536 -14.8772 -16.5788
58 3 -12.6903 23.2082 9.99218 3.83095 -6.39433 -12.2552 -3.00749 1.18737 -2.44029
59 3 -10.7389 22.4838 7.18478 0 0 0 0 0 0
60 2 -13.9178 24.3562 4.04052 0 0 0 0 0 0
61 3 -12.4823 25.1664 0.812998 0 0 0 0 0 0
62 1 -13.8514 26.1517 6.15981 0 0 0 0 0 0
63 1 -12.6273 25.0193 10.8889 0.789439 3.00339 -3.38989 -9.087 -10.3986 10.566
64 1 -15.4264 27.2908 8.69975 1.59895 -1.62582 -1.31368 -13.0948 14.4591 12.3277
65 3 -14.179 25.8668 9.5506 -6.75373 1.55997 -1.65905 -5.8123 6.1024 0.431457
66 3 -12.4938 24.9462 7.15575 0 0 0 0 0 0
67 1 23.2389 23.8712 17.6155 -1.40965 -2.76854 1.05879 -1.08937 4.98173 -1.61672
68 2 -12.3363 26.3417 13.1127 -8.22762 4.27063 1.94869 14.597 8.8844 0.564014
69 1 -12.3999 24.9368 15.1271 0.568414 -2.53359 2.14356 11.748 -11.4626 12.2501
70 3 -13.9468 25.7733 16.2406 6.65139 0.779278 -0.20716 -4.12117 -7.1213 -9.61255
71 1 -15.311 29.066 2.18021 0 0 0 0 0 0
72 1 -15.467 28.7039 6.11813 0 0 0 0 0 0
73 3 -13.9143 27.9367 7.25335 0 0 0 0 0 0
74 2 20.2213 29.5545 4.17429 0 0 0 0 0 0
75 1 -17.5227 30.9896 2.1771 0 0 0 0 0 0
76 3 -15.5498 30.6153 0.827037 0 0 0 0 0 0
77 1 -17.1727 31.5221 5.78393 0 0 0 0 0 0
78 2 3.72017 0.37942 13.384 2.1459 -6.39452 -2.35413 -9.1359 7.15564 -9.92752
79 3 -17.3014 31.7108 16.1918 0.472772 -5.67983 5.08898 1.13315 -8.22516 -1.79041
80 2 -15.4473 32.018 4.00546 0 0 0 0 0 0
81 1 2.85535 1.02431 1.78348 0 0 0 0 0 0
82 3 4.73202 0.88585 0.917102 0 0 0 0 0 0
83 1 3.12089 1.84871 5.32028 0 0 0 0 0 0
84 1 4.22499 1.06505 11.0427 3.61172 -1.97955 -1.68752 0.14012 -14.402 8.1397
85 1 1.78569 2.60201 7.99621 0 0 0 0 0 0
86 1 -15.3484 32.183 17.5045 1.56519 -1.30794 2.68873 -4.44984 -14.5004 -3.56385
87 2 3.68083 3.12124 12.3919 -4.03868 1.82119 -1.59135 3.0988 -11.8276 0.243492
88 1 5.02065 0.627421 15.4413 -3.30551 2.60275 -3.8065 -14.5838 -9.63372 -8.71258
89 3 3.3418 1.52456 16.4702 0.0508049 2.12425 6.84885 -3.33956 4.15051 4.18
90 2 1.51902 2.91549 3.72958 0 0 0 0 0 0
91 1 1.5365 4.69757 5.83644 0 0 0 0 0 0
92 1 0.164272 5.28864 8.38083 -1.64031 1.86262 -0.685015 -0.0988703 -9.71941 16.4483
93 3 1.5557 4.4206 9.62986 2.24693 -0.453397 -7.39353 1.71293 4.63827 2.61457
94 3 3.20492 3.72175 6.98616 0 0 0 0 0 0
95 1 1.83451 2.49346 17.9562 -1.66338 -1.75076 -2.39855 8.95153 -7.8431 11.289
96 2 -0.0687399 5.52084 4.11024 0 0 0 0 0 0
97 1 -0.0262304 7.14265 2.21229 0 0 0 0 0 0
98 1 0.102835 7.2497 5.91248 0 0 0 0 0 0
99 1 1.60931 6.1475 11.0121 1.75347 0.840449 3.23974 15.8128 -4.31172 2.19597
100 3 1.50104 6.39571 7.19363 0 0 0 0 0 0
101 1 0.230896 5.46479 17.0586 1.55082 -3.00524 2.10732 -2.20688 12.4661 12.3604
102 2 1.70709 7.74302 13.0429 -1.80528 4.34166 -1.22821 16.1096 -7.72154 13.4456
103 3 -0.0542849 7.43002 16.4113 -2.58031 0.197694 1.44839 -8.7258 4.80054 10.5747
104 2 -1.55358 8.07265 4.15001 0 0 0 0 0 0
105 1 -1.61206 9.84437 2.31049 0 0 0 0 0 0
106 3 -0.216987 8.74103 0.459978 0 0 0 0 0 0
107 1 -1.60712 9.92508 5.95387 0 0 0 0 0 0
108 1 -3.20696 10.7072 8.33727 0.190773 -0.442101 0.839092 -8.2161 -4.81894 -11.2771
109 1 -1.6031 8.09057 17.5449 -2.69143 0.433243 -1.18163 2.45176 -19.0625 -11.1935
110 1 0.165204 8.7364 14.8754 3.78251 0.614826 -1.28019 -13.7699 -7.24646 6.74865
111 2 -3.11231 10.7664 4.08062 0 0 0 0 0 0
112 1 -3.0301 12.5504 2.22434 0 0 0 0 0 0
113 3 -1.55358 11.6605 0.961352 0 0 0 0 0 0
114 1 -3.10424 12.4412 5.9325 0 0 0 0 0 0
115 1 -4.86094 13.1806 8.45796 -3.26919 0.0366391 0.979663 -10.822 -2.05413 -10.2513
116 3 -3.34932 12.4452 9.69074 1.06287 -1.07365 6.02564 -3.68582 -3.32471 4.9923
117 3 -1.51478 11.6077 7.33764 0 0 0 0 0 0
118 3 -3.57259 12.7726 15.7158 -3.17774 -1.09458 -0.500088 1.60317 0.822994 -3.83206
119 2 -4.60693 13.44 4.19633 0 0 0 0 0 0
120 1 -4.52237 15.0679 2.13623 0 0 0 0 0 0
121 3 -3.03821 14.3163 0.903122 0 0 0 0 0 0
122 1 -4.56535 15.103 6.15388 0 0 0 0 0 0
123 3 -3.25625 13.933 7.36069 0 0 0 0 0 0
124 1 -4.58269 13.6687 17.3857 -1.91911 -0.555664 1.87292 -8.22809 8.07963 -3.53068
125 1 -3.05557 14.4752 15.0002 -1.83765 0.160538 1.76302 -14.7876 5.53706 4.25811
126 3 -4.36749 15.5545 16.3354 -2.82807 -2.94407 -4.2345 2.87306 2.20182 -7.17153
127 2 -6.12786 15.944 3.836 0 0 0 0 0 0
128 1 -6.47647 17.7575 2.01192 0 0 0 0 0 0
129 1 -5.93432 17.9123 5.35998 0 0 0 0 0 0
130 1 -7.89794 18.8542 8.49897 -3.65412 -1.7047 -2.11398 4.6577 11.2791 -15.9834
131 1 -5.98202 16.2156 17.5374 -1.00796 -2.76258 0.985066 -13.6571 -16.2717 -14.9711
132 2 -4.28765 19.3684 13.087 -1.5992 -4.47893 -2.00073 5.03035 -5.33709 -1.45346
133 1 -4.40921 17.1262 14.8755 -1.79286 -1.27984 2.61017 -7.73891 -10.5568 5.71308
134 3 -6.14458 17.7897 16.1063 10.6685 -9.42266 2.56748 4.28403 -7.1077 -2.97997
135 2 -7.70746 18.9989 3.97811 0 0 0 0 0 0
136 1 -7.63519 20.4452 1.93185 0 0 0 0 0 0
137 1 -7.77434 20.6438 6.02942 0 0 0 0 0 0
138 1 -6.20537 19.5723 11.2347 1.29016 3.02115 -0.352164 -2.27221 3.08837 15.4438
139 1 -9.35135 21.3535 8.53576 -0.795344 4.35094 -0.00230836 9.2177 15.2984 11.9301
140 3 -7.81562 20.2519 9.76785 1.44462 -0.341974 3.40737 -4.85773 4.58271 -3.91268
141 3 -6.18961 19.8618 7.19662 0 0 0 0 0 0
142 1 -7.75569 18.9424 17.3357 0.471907 0.488635 -1.30314 15.9853 -4.02975 -1.81511
143 2 -6.12642 21.3618 13.0065 -0.577562 6.42963 1.03142 -3.49824 6.7787 -13.7693
144 1 -6.13675 19.5202 14.7906 -1.90847 -3.96302 2.31376 -6.6192 2.90295 -4.82047
145 3 -7.76452 20.4495 15.9555 -10.2978 -2.76731 -5.18876 -1.22128 2.19996 -8.19739
146 2 -9.2342 21.6503 4.16458 0 0 0 0 0 0
147 1 -9.2879 23.3912 6.01879 0 0 0 0 0 0
148 3 -7.81624 22.4012 7.25838 0 0 0 0 0 0
149 1 -9.16655 21.9352 16.4559 -0.247984 2.59547 -1.45433 -7.37088 9.34562 14.9214
150 2 -10.8505 24.1177 3.97677 0 0 0 0 0 0
151 1 -11.2725 26.1631 2.17682 0 0 0 0 0 0
152 1 -10.956 25.9766 5.64764 0 0 0 0 0 0
153 1 -12.6369 26.8987 8.58821 -1.04386 -1.57296 -0.922355 -0.812756 -16.7861 11.0569
154 2 -9.41242 26.9749 13.1278 1.29079 0.683735 0.223913 -2.3784 -5.03898 -1.64648
155 1 -9.31869 25.3628 15.0854 -1.32754 -3.71243 -0.0526917 16.8911 -4.84212 12.0041
156 2 -12.5756 27.0863 4.10496 0 0 0 0 0 0
157 1 -11.9858 29.0074 2.22934 0 0 0 0 0 0
158 3 -10.8922 27.8008 0.94548 0 0 0 0 0 0
159 1 -10.8554 27.7402 11.1824 -2.84072 -1.01047 1.65229 10.605 14.574 -10.675
160 3 -12.2621 28.6433 9.92179 -6.39699 4.33945 -7.4828 -3.66344 -9.07038 -7.45648
161 2 -11.0876 29.8818 12.993 -1.84049 -2.60519 8.44832 -8.85305 11.1414 -3.16528
162 1 -11.1401 27.9939 14.6234 1.79963 3.06787 1.13336 1.80424 -0.502287 5.41016
163 1 -13.6081 31.4421 2.34435 0 0 0 0 0 0
164 3 -12.4149 30.5331 0.896531 0 0 0 0 0 0
165 1 -12.4774 30.4914 10.9631 1.47282 -2.09067 1.27239 -9.50916 -11.5575 -12.8184
166 3 -11.9469 30.0929 6.96351 0 0 0 0 0 0
167 2 6.23374 0.0348674 12.763 -3.30526 -0.00250831 1.57118 6.84164 -2.77087 7.2835
168 1 -13.1668 30.5056 14.2239 2.23552 1.51607 0.240491 4.57222 13.1196 2.52449
169 3 -13.4614 31.1432 16.3155 -1.23054 1.25306 3.44134 -4.02085 -3.31292 5.66358
170 3 7.67288 0.832675 0.878057 0 0 0 0 0 0
171 1 6.18319 1.80777 5.92967 0 0 0 0 0 0
172 1 7.37086 0.958992 10.6043 -0.887773 4.47903 -2.8727 -15.6979 13.169 7.24874
173 1 4.6228 2.61763 8.07245 2.04851 1.44438 -1.53 8.01101 9.26588 15.9116
174 3 5.67581 1.64478 9.54327 11.9 -0.184956 -5.30453 0.163257 3.09706 6.78351
175 3 8.06318 0.846277 7.04307 0 0 0 0 0 0
176 3 6.29629 1.61758 16.4421 -1.67378 5.92763 -2.83648 7.10725 -1.35315 6.58163
177 1 4.87291 4.86663 6.17476 0 0 0 0 0 0
178 1 5.37324 3.57244 10.7602 1.56561 0.492035 -1.45626 1.75992 14.7736 -10.8857
179 1 2.891 5.28261 8.34178 -1.10376 -1.3432 -1.46247 -6.29054 -8.34651 11.4084
180 3 4.60947 4.35629 9.04734 -1.70991 -4.65295 -4.46345 3.64617 -6.09825 -3.22172
181 3 6.11696 3.51345 7.12843 0 0 0 0 0 0
182 1 4.73473 2.90089 17.5054 -0.47495 -1.8272 1.036 -14.5193 -12.7857 4.21208
183 3 4.13985 4.65798 16.4583 -2.02138 -8.67229 3.54663 -3.85048 -7.69478 -5.05137
184 2 3.12415 6.03286 3.78904 0 0 0 0 0 0
185 1 3.06515 7.18273 6.08097 0 0 0 0 0 0
186 1 5.07172 6.2538 9.32604 4.27689 -2.67971 -0.15122 13.9659 -15.9783 1.21855
187 3 3.03989 6.96386 9.48165 -2.40092 -0.163706 4.20815 -3.20046 3.75578 2.20144
188 3 4.39302 6.40995 7.46943 0 0 0 0 0 0
189 1 1.22182 9.71605 1.58577 0 0 0 0 0 0
190 3 3.10716 8.96961 0.961352 0 0 0 0 0 0
191 1 3.26108 8.56251 10.7923 -0.290129 -3.8009 0.903148 -18.5104 -0.881853 1.51623
192 1 -0.0364578 10.5636 8.63631 -2.43927 0.676073 0.994893 12.1329 8.89463 -1.52038
193 3 1.68391 9.55611 9.61499 -6.09797 6.19183 6.04447 -5.38229 5.69163 -6.31577
194 2 2.98918 10.3405 12.8283 1.06115 -0.698104 -0.46275 -9.77482 -4.49109 1.55946
195 1 3.20284 8.67556 14.8839 3.26482 0.566249 -1.04421 -15.2236 -12.0898 -5.7274
196 3 1.78191 9.65245 16.0888 -6.84601 2.09976 -2.85618 -3.19872 -0.499469 3.26398
197 1 1.7241 11.4814 10.8717 1.01273 -0.616719 -0.328651 -13.176 -13.6686 13.1942
198 1 -1.58593 13.3855 8.5906 0.234172 -1.52393 2.30607 5.00833 10.9648 16.041
199 3 -0.0633235 12.3756 9.81287 4.88504 1.41604 3.09569 -3.63236 3.76663 6.22596
200 2 1.83059 13.3641 13.0355 0.627796 3.73459 1.85901 -0.0727343 7.57814 -8.01009
201 1 1.39925 11.449 15.1122 0.400797 -1.91997 0.704474 6.55136 -13.4155 5.14038
202 3 -0.227124 12.2357 16.6613 -3.6912 -4.89427 -3.65677 -1.03798 6.63276 3.09819
203 1 -1.55358 15.2483 2.22916 0 0 0 0 0 0
204 1 0.304122 14.2843 10.8461 -4.36239 3.31206 3.76464 -11.0857 -5.32957 -13.7988
205 3 -1.35471 15.2763 9.81548 -3.58424 -8.37631 5.077 10.8512 -8.34358 5.30703
206 3 -0.0242833 14.3636 7.32159 0 0 0 0 0 0
207 1 -1.23253 13.8365 17.66 1.38706 2.95842 -0.346896 -11.588 -1.95222 -10.1214
208 1 -0.18669 13.6693 15.0734 2.16538 -1.41769 0.706272 -17.8686 -7.10899 -3.7975
209 3 -1.43475 15.1648 15.9281 0.434222 2.75767 0.357582 3.28982 3.30022 -9.31085
210 3 -1.55358 17.0423 0.961352 0 0 0 0 0 0
211 1 -0.782845 16.9102 11.3501 -0.665042 -2.23926 1.43276 -8.68724 7.85885 -6.4815
212 1 -2.67043 16.1601 17.2934 -2.05185 1.31354 0.217823 2.72733 15.4753 -9.98651
213 2 -1.52376 18.7576 12.9593 -3.26381 -1.80769 0.883432 7.12813 -4.25572 10.1249
214 1 -1.1934 17.0045 14.8288 -0.237465 1.49015 -2.02168 -4.15519 -13.9896 2.82684
215 3 -2.96423 17.9251 16.1882 -2.39566 8.9096 -7.12478 -3.46748 5.98363 5.41168
216 1 -3.15107 19.0646 10.7939 0.973078 6.18297 -0.962329 15.5887 11.5131 4.73071
217 1 -6.32908 21.3766 8.56782 2.00276 -0.352315 1.039 -1.33205 7.90633 -14.3369
218 3 -4.79259 20.0676 9.52934 -2.63663 -5.23566 4.86159 -2.00304 -6.51996 4.36357
219 1 -4.83711 18.6553 17.3056 -0.816943 -1.97946 -1.12642 14.7595 12.2935 13.1568
220 1 -3.05324 19.6841 15.2343 1.52645 2.53699 -4.68228 9.46336 0.686959 6.13646
221 3 -4.56761 20.3733 16.5249 4.77616 -4.28221 1.49372 1.12842 6.98428 4.14187
222 2 -6.20439 21.5388 4.03501 0 0 0 0 0 0
223 1 -5.97445 23.4323 2.15749 0 0 0 0 0 0
224 3 -4.72521 22.3883 0.877806 0 0 0 0 0 0
225 1 -6.21656 23.1221 5.96563 0 0 0 0 0 0
226 3 -4.75435 22.3678 7.51299 0 0 0 0 0 0
227 1 -6.28439 21.621 17.242 -2.84925 -3.11295 1.82504 8.93341 2.87834 -8.82844
228 3 -5.68378 23.3111 15.9847 2.64131 1.63931 1.58451 -1.8069 3.15903 3.29783
229 3 -6.30941 25.0101 0.858699 0 0 0 0 0 0
230 1 -6.35284 25.288 10.9506 -0.115196 -1.39834 -1.11896 19.2535 12.3806 7.78587
231 3 -6.22183 24.8435 7.11661 0 0 0 0 0 0
232 1 -7.01785 24.2814 17.3139 -1.38804 -3.05083 3.48918 -7.24996 1.57781 -2.96675
233 2 -6.39665 26.8775 12.9838 4.29262 2.38879 -2.37691 -8.14007 -13.9207 9.52384
234 1 -6.45008 25.1616 15.0007 0.704201 2.91998 2.57832 5.97707 -14.4403 -8.25512
235 3 -7.7485 25.9853 16.3147 -5.56391 -0.0280819 -5.94402 -1.1062 7.1818 5.02001
236 1 -9.17115 28.2018 2.19509 0 0 0 0 0 0
237 3 -7.64601 27.7718 0.86196 0 0 0 0 0 0
238 1 -7.83484 27.9125 11.2021 -4.27698 0.825885 -3.14141 -0.220672 13.0474 -1.25163
239 1 -10.8284 29.5684 8.57012 -2.02508 1.83081 -3.28592 6.90051 0.250382 4.77272
240 3 -9.36493 28.8416 9.86475 -3.01034 0.560356 -3.25489 5.33764 6.91193 -7.09566
241 2 -8.11862 29.6321 13.2513 1.52638 -1.23039 -3.04437 2.08482 -11.6221 7.72536
242 1 -8.01725 28.0264 15.2035 1.9616 0.366312 -1.21637 15.1689 -16.0884 6.94149
243 3 -9.63338 28.927 16.5242 -8.78484 -3.36835 2.14145 -7.21194 -5.14162 3.68103
244 1 -9.38932 30.6436 10.9998 0.0118144 1.03199 -1.80662 -6.81617 4.18072 -9.16009
245 1 -12.2281 32.179 7.96985 -0.0980708 1.46942 -0.486723 0.601297 0.676827 -0.776962
246 3 -11.0891 31.3626 9.59916 -2.86531 -3.78162 -1.09506 12.0735 7.65159 -7.59242
247 3 -9.12289 30.5267 7.48934 0 0 0 0 0 0
248 2 -9.11875 32.0901 13.2015 -2.65785 0.305741 -3.32287 -7.01188 2.05438 -11.3188
249 1 -9.76648 30.6156 15.2026 1.19306 -4.98209 -1.31911 9.55236 13.7342 19.0525
250 2 9.46087 0.362618 3.89774 0 0 0 0 0 0
251 1 9.00822 1.93617 2.01271 0 0 0 0 0 0
252 1 9.53153 1.81751 5.95271 0 0 0 0 0 0
253 1 10.7382 0.991323 11.1595 -3.12031 -7.20876 -3.96721 7.66736 -13.3113 13.8887
254 3 10.9466 0.944556 7.38381 0 0 0 0 0 0
255 2 7.66526 2.69429 4.12638 0 0 0 0 0 0
256 1 7.56152 4.48155 2.03961 0 0 0 0 0 0
257 3 9.33238 3.61181 0.790335 0 0 0 0 0 0
258 1 7.77331 4.62081 5.85886 0 0 0 0 0 0
259 2 9.47396 5.54856 12.9631 1.70217 1.15353 3.16914 7.09074 -7.65401 -11.0842
260 2 6.17531 5.48368 4.13582 0 0 0 0 0 0
261 1 6.25461 7.31137 2.23258 0 0 0 0 0 0
262 3 7.69541 6.29398 0.840511 0 0 0 0 0 0
263 1 7.70262 6.09121 10.6541 1.72904 3.14588 3.85002 -9.63435 4.2517 -0.59726
264 3 6.91227 7.01822 9.01732 -4.19373 -0.351775 1.68682 -1.99083 6.2439 2.84728
265 1 5.85899 5.47606 17.5367 -0.552131 3.11621 1.8549 15.0259 7.30693 3.23542
266 2 7.62782 7.95233 12.6053 -3.4498 -4.56309 -5.12777 4.04889 -12.435 -7.28848
267 1 7.90345 6.16363 14.854 -1.95398 -0.122471 -2.65695 -0.325181 -12.6884 -10.0943
268 3 6.61293 6.99084 16.222 1.52846 0.455585 0.953891 4.02189 7.51509 -1.73431
269 1 4.98085 9.9416 2.05363 0 0 0 0 0 0
270 3 6.31948 8.90142 0.86437 0 0 0 0 0 0
271 1 6.28229 8.56152 10.366 -2.66689 0.165325 1.08057 -13.2048 -3.32793 0.166695
272 1 2.98773 10.4788 8.60463 0.179945 5.12577 -1.03679 0.697331 16.8547 12.6645
273 3 4.60236 9.55397 9.42499 -2.98273 4.8396 2.73618 6.74812 0.707266 7.93856
274 1 5.08531 8.03484 17.0707 -1.98346 0.165314 -0.529263 15.9106 -10.0526 -9.42115
275 1 6.50278 8.57295 14.8649 3.00868 2.89254 1.06133 -13.5409 13.9917 -0.446659
276 3 4.92138 9.61538 15.9576 -0.755202 2.70877 6.43892 3.11286 -5.05302 3.41375
277 3 4.65929 11.6682 0.95644 0 0 0 0 0 0
278 1 4.77402 11.2037 10.8067 -0.760437 4.52511 -3.06077 -15.0368 -1.02987 16.7768
279 1 1.51229 13.1289 8.30187 0.285764 3.92209 -0.901921 -7.87981 8.91134 -0.686492
280 3 3.32166 12.3871 9.6425 1.35146 0.0709919 4.83725 -2.78652 0.664413 1.97636
281 1 3.36373 10.362 17.3724 1.87432 -2.87939 -1.31437 6.83375 1.81251 3.67846
282 2 4.28653 14.5555 13.1629 -0.398585 0.968818 0.618422 -4.99678 3.11692 -3.84515
283 1 4.42706 11.2138 14.8388 -0.987488 -1.74881 0.460119 17.9463 -18.9813 -1.02938
284 3 2.84107 12.2725 16.3475 2.15918 -2.82945 -0.000188007 11.6455 2.7383 -0.813147
285 1 1.53576 15.2374 2.20755 0 0 0 0 0 0
286 3 3.10716 14.3514 0.961352 0 0 0 0 0 0
287 1 1.51187 15.2459 6.0236 0 0 0 0 0 0
288 1 3.18756 14.3464 10.7993 0.374214 -0.582066 0.953558 5.78139 -12.6158 -6.91612
289 1 -0.0849015 16.1508 8.41073 0.401519 -1.28642 3.60208 -11.7383 13.2665 13.9023
290 3 1.58133 14.756 9.36578 5.27354 0.529099 -9.64346 3.82512 9.17284 5.52689
291 3 3.0637 14.3659 7.2547 0 0 0 0 0 0
292 1 1.34987 13.0437 17.7372 3.60269 -0.433313 -1.98485 -10.6362 10.5377 7.55982
293 1 2.43035 14.5262 15.2361 0.0723491 1.81351 1.30895 4.74467 -6.01581 -3.24322
294 1 0.030201 17.8082 2.18656 0 0 0 0 0 0
295 3 1.55364 17.0409 0.95884 0 0 0 0 0 0
296 1 -1.41414 18.9669 8.51265 2.56315 0.874973 1.1692 -2.32744 8.16279 -2.93726
297 3 -0.0608299 18.017 9.69354 1.64474 2.12325 9.96239 7.35817 0.237133 -4.3751
298 3 1.50278 17.0021 7.31861 0 0 0 0 0 0
299 1 -1.42914 20.346 2.23517 0 0 0 0 0 0
300 3 0.0401593 19.7087 0.914631 0 0 0 0 0 0
301 1 -0.0744361 19.872 11.1995 0.342301 -0.458603 1.81999 -7.43243 4.17961 1.57765
302 1 -3.30147 21.6637 9.05808 -1.02268 2.84131 -1.36825 -7.03431 -1.77873 -6.98415
303 3 -1.67985 20.474 9.90253 3.70614 2.94729 -2.3537 3.58299 -0.879692 5.97599
304 3 0.160797 19.8511 7.58297 0 0 0 0 0 0
305 2 -0.448798 22.0098 12.5922 2.76264 2.09419 -4.88665 5.52093 -8.5751 7.80332
306 1 -0.241311 20.156 14.5829 -3.76568 2.52255 -0.895261 -14.1615 -5.29973 -4.54531
307 3 -1.6923 20.9304 15.9595 -6.49303 -1.36141 -9.8408 -7.13225 0.468911 -7.51262
308 1 -3.13308 22.7258 2.15821 0 0 0 0 0 0
309 3 -1.49831 22.3915 0.882305 0 0 0 0 0 0
310 1 -3.25028 23.2018 6.29535 0 0 0 0 0 0
311 1 -4.84886 24.147 8.45564 0.639306 -2.71691 2.02412 -14.4231 15.39 10.7487
312 3 -1.91697 21.8414 7.17835 0 0 0 0 0 0
313 1 -1.84162 22.6736 14.9609 -4.97296 -0.457276 0.912649 -2.70291 -5.6613 -3.44006
314 3 -3.51246 23.2558 16.0663 -5.35653 -0.0440817 0.326049 -6.17635 10.0686 5.93795
315 2 -4.6049 24.1417 4.12101 0 0 0 0 0 0
316 1 -5.20348 26.301 2.04135 0 0 0 0 0 0
317 1 -4.67642 25.9807 6.33759 0 0 0 0 0 0
318 1 -3.19313 25.4523 11.0101 3.81167 4.7133 -1.0278 -0.636308 -1.34013 9.05949
319 1 -6.13512 26.7767 8.53734 1.41998 -1.08348 -1.39373 -2.08673 -16.0968 4.19115
320 3 -4.73944 25.7143 9.66108 -0.0939359 1.76032 -1.31236 -9.10548 -5.62371 5.63905
321 3 -3.37393 25.0508 7.65176 0 0 0 0 0 0
322 2 -3.1478 26.8049 13.2179 -1.75304 1.72137 -0.222252 1.71028 6.14913 11.0569
323 1 -3.10921 25.2721 15.8156 2.36032 4.13374 -2.87665 -0.353258 -13.1578 -9.04665
324 3 -4.95105 26.1203 15.8276 0.14686 -1.88335 -4.34626 -2.00673 -2.19411 4.59731
325 2 -6.65502 26.9487 4.1769 0 0 0 0 0 0
326 1 -6.35092 28.9864 2.25281 0 0 0 0 0 0
327 3 -4.7366 27.8649 0.766804 0 0 0 0 0 0
328 1 -6.21433 28.7028 6.07086 0 0 0 0 0 0
329 1 -7.68948 29.6396 8.70925 -0.719 1.71571 -1.28361 -8.29549 -0.0438205 -13.342
330 3 -6.27807 28.5679 9.82843 -0.224465 0.0985819 9.3375 -4.28917 4.72363 9.30017
331 3 -4.71733 27.8528 7.35722 0 0 0 0 0 0
332 1 -6.04545 26.9921 17.355 1.07132 0.0173162 6.9153 -4.50084 12.6383 -14.3247
333 3 -6.38689 28.9975 16.4807 -6.34355 0.445634 -3.57587 -7.21715 -5.34966 7.02452
334 2 -7.86058 29.6431 4.17031 0 0 0 0 0 0
335 1 -7.64296 31.2669 6.24429 0 0 0 0 0 0
336 1 -9.35553 32.2323 8.47518 -0.919624 1.70989 -2.19109 14.7672 3.55123 -8.25741
337 3 -7.91421 31.5939 9.65524 -5.40046 4.43465 2.53659 3.07493 -4.07069 -0.477806
338 3 -6.18151 30.3934 7.42303 0 0 0 0 0 0
339 1 -7.84526 29.3607 17.7003 4.89968 0.117114 -0.277423 8.79987 3.81205 7.4481
340 2 -6.23165 32.1171 4.36823 0 0 0 0 0 0
341 1 11.9146 2.03523 1.67283 0 0 0 0 0 0
342 3 14.1161 0.958878 0.661661 0 0 0 0 0 0
343 1 12.4569 1.79385 6.07179 0 0 0 0 0 0
344 1 13.9093 1.00077 11.3771 0.57639 -1.21282 3.04183 17.1364 11.2781 -9.08857
345 3 12.4262 1.77956 10.104 -8.61981 -2.87765 -2.42555 4.64885 -4.2929 5.64853
346 3 13.9827 0.902217 7.3416 0 0 0 0 0 0
347 1 -6.44395 32.1326 17.0122 -2.9218 0.467026 0.143575 -5.40586 0.438543 -11.7335
348 2 13.6311 2.8813 13.0929 -2.00925 -6.77069 1.79884 8.25729 7.47241 9.85984
349 1 14.2572 0.959376 14.58 -3.53412 3.07802 0.369811 -3.85896 10.6765 -11.2731
350 3 12.3321 0.798699 15.1822 -7.56928 2.52031 -0.191882 2.9886 4.62865 7.44705
351 1 10.6679 4.66545 1.98945 0 0 0 0 0 0
352 3 12.4824 3.81687 0.783101 0 0 0 0 0 0
353 1 12.4266 3.83321 10.9487 -3.88341 -2.27913 3.23633 -3.18105 -10.39 -6.72245
354 2 12.3599 5.19841 13.0898 0.298065 2.08146 6.65012 -11.4577 8.4068 3.01902
355 1 11.9736 3.18445 14.8954 -1.07544 -1.6281 4.25006 12.5371 10.4498 -8.44346
356 2 9.10383 5.25629 3.84386 0 0 0 0 0 0
357 1 9.17863 7.18096 2.15326 0 0 0 0 0 0
358 3 10.8846 6.39664 0.873975 0 0 0 0 0 0
359 1 11.0473 6.29565 11.0763 -0.825611 -0.639814 2.24959 8.51293 10.5975 14.1304
360 3 9.48976 6.83593 9.60037 -5.54156 1.45538 -0.156902 -2.50466 6.19692 -3.17753
361 2 10.9844 7.87937 13.0348 1.86403 -2.56551 6.15062 -3.87896 9.84532 -6.49089
362 1 11.17 6.22591 14.8756 1.76952 -1.10136 -0.796066 -4.52913 -12.5355 15.6565
363 3 9.58623 6.8751 16.1718 -4.40413 1.97767 -8.03393 -6.04372 10.2195 8.72107
364 1 7.90493 9.81724 2.13639 0 0 0 0 0 0
365 1 9.37843 8.66548 10.7571 1.29079 0.296064 -0.00663425 -14.9242 7.63886 15.3911
366 1 6.07078 10.3915 8.05807 -1.1262 -3.08442 -2.87318 16.4475 13.2531 1.68103
367 3 7.73731 9.44169 9.25545 -2.96885 -0.64019 -4.30822 3.42491 -5.03961 5.20563
368 3 9.61544 8.86137 7.38546 0 0 0 0 0 0
369 1 8.02485 7.899 17.4347 -2.7454 1.95484 -1.32567 5.01342 -3.59327 3.03152
370 1 9.45528 8.60862 14.8804 -2.61483 -1.90411 2.17479 -9.25631 16.0227 15.3906
371 3 7.82896 9.50173 16.0013 -2.17495 6.69859 -8.01511 12.5409 -0.549802 -3.69175
372 2 6.219 10.9343 3.99764 0 0 0 0 0 0
373 1 6.21455 12.6218 2.15575 0 0 0 0 0 0
374 3 7.71381 11.666 0.866204 0 0 0 0 0 0
375 1 6.01718 12.5305 5.90796 0 0 0 0 0 0
376 1 4.72928 13.4363 8.35692 2.93137 -1.39274 -0.280891 1.4764 -14.6159 16.2515
377 3 7.87963 11.1796 7.15653 0 0 0 0 0 0
378 1 6.50287 10.7652 17.0326 3.78157 -0.0751355 -2.903 13.2413 10.1204 -17.7978
379 3 6.00446 12.5082 15.7679 3.06651 3.0344 -7.5127 -6.98298 0.699061 -10.1646
380 2 4.61426 13.4694 4.06823 0 0 0 0 0 0
381 1 4.66075 15.2483 2.22916 0 0 0 0 0 0
382 1 4.48749 15.2537 5.82173 0 0 0 0 0 0
383 1 3.02658 15.9761 8.32006 -1.64644 -1.57908 -0.40522 4.01517 -5.30615 7.14947
384 3 4.68373 15.4739 9.48426 -3.21346 -2.1705 0.604142 -4.48679 -3.47593 -6.78967
385 1 4.56054 13.3189 17.3626 1.02457 1.36453 -0.532926 -10.9188 -18.6499 0.630937
386 2 6.71041 15.4418 12.5405 -1.5686 -1.37466 -1.33033 -10.8247 8.85496 -7.0498
387 1 5.95581 14.5782 15.0516 3.82289 0.0432981 1.28839 -1.36619 -5.70454 -8.69864
388 3 4.31939 15.0577 16.3009 0.57961 4.64283 2.75242 4.97256 1.35373 2.84812
389 2 3.02714 16.1344 3.99796 0 0 0 0 0 0
390 1 3.15998 17.8699 2.20784 0 0 0 0 0 0
391 1 2.91742 17.8083 5.84736 0 0 0 0 0 0
392 1 3.77657 17.5743 10.2036 -0.861096 2.00492 -0.71504 1.88446 -16.9878 7.38954
393 1 1.61101 18.7443 8.58127 -1.54317 -1.5934 -1.63682 -13.9108 -9.82343 -15.3453
394 1 2.6873 15.9239 17.5593 0.63254 -3.74457 1.64592 -13.9647 4.52487 -0.967874
395 1 4.95775 17.0057 13.8 0.242225 -1.7307 0.758308 5.39151 -6.01753 -14.8198
396 2 1.48164 18.7026 4.01076 0 0 0 0 0 0
397 1 1.70985 20.4135 2.2066 0 0 0 0 0 0
398 3 3.16285 19.7061 0.911766 0 0 0 0 0 0
399 1 1.52368 20.3832 5.8578 0 0 0 0 0 0
400 1 -0.0601586 21.5396 8.66471 -0.87183 2.36701 -2.42342 6.44766 -3.48073 -8.26958
401 3 1.78318 20.6129 9.73209 2.30687 -5.07685 -10.31 9.69658 -0.401335 1.72135
402 3 3.00321 19.4883 7.1043 0 0 0 0 0 0
403 2 1.92799 20.4565 13.0763 -2.13335 2.90395 0.461601 11.8803 -5.86163 5.40814
404 1 2.77271 19.2877 15.3108 0.0741723 -1.18813 1.47109 -6.65377 -12.2382 -8.31423
405 3 1.06605 19.662 16.4621 5.76636 1.81449 -5.69668 -11.236 3.02708 7.6523
406 2 0.0522192 21.2852 4.0122 0 0 0 0 0 0
407 1 0.11985 22.8689 2.0831 0 0 0 0 0 0
408 3 1.69696 22.3681 0.838062 0 0 0 0 0 0
409 1 -0.345701 22.6256 6.08088 0 0 0 0 0 0
410 1 1.70852 22.4637 10.9299 -0.542341 -1.04572 -0.423779 11.3694 -14.7884 -6.48723
411 1 -1.70181 23.9352 8.52083 -3.70244 -5.32282 1.75434 14.8207 4.18785 17.5533
412 3 0.0359664 23.3429 9.72405 0.634509 -4.27411 7.40112 7.35215 3.47885 -9.2417
413 3 1.48522 22.3841 7.0635 0 0 0 0 0 0
414 1 -0.233607 21.1861 17.34 1.53859 -3.30436 -0.527015 -7.30663 13.0682 11.568
415 2 1.00906 24.2585 12.7353 1.2662 -1.41203 1.63883 -5.48616 -0.96023 -5.76275
416 1 1.14245 22.4494 14.5364 1.14335 -0.690137 -4.1354 -11.435 -10.2934 18.0422
417 3 -0.0597169 23.0548 16.1755 3.90486 -1.9018 3.94014 5.42617 10.7434 -7.67305
418 1 0.0283292 25.33 10.7271 -2.55284 -2.15421 1.64037 13.8813 -3.08613 -2.30961
419 1 -3.22717 26.9268 8.60702 -2.2008 -3.2689 -0.782032 -17.6991 13.512 -10.815
420 3 -1.67208 25.9585 9.63226 -0.0256034 -2.34682 1.72904 7.00238 -5.94453 2.10608
421 3 -0.596782 24.4278 7.06931 0 0 0 0 0 0
422 2 -0.358334 26.962 13.0413 -1.27709 -3.59675 4.14768 -3.03661 -10.1209 -2.56741
423 1 -0.272814 25.079 14.8374 0.5252 1.13065 -1.17982 18.2289 -13.2733 5.03041
424 2 -2.53917 27.651 3.9919 0 0 0 0 0 0
425 1 -3.33646 28.8358 1.94375 0 0 0 0 0 0
426 1 -3.27074 28.8078 6.08022 0 0 0 0 0 0
427 1 -1.59846 27.8886 10.9139 2.92425 2.43164 -3.05068 10.3759 -0.119598 -12.5311
428 3 -1.82089 28.0773 7.36577 0 0 0 0 0 0
429 2 -1.5271 29.5183 13.0789 -1.62164 -1.53686 -3.14631 -11.4857 14.6848 7.30705
430 1 -1.74201 27.8271 15.0885 2.90874 -3.06566 -0.227065 -0.458987 6.10529 3.66722
431 2 -4.79557 29.5489 4.1335 0 0 0 0 0 0
432 1 -4.76472 31.3767 1.66733 0 0 0 0 0 0
433 3 -2.96003 30.516 0.793338 0 0 0 0 0 0
434 1 -4.71678 31.3433 6.30918 0 0 0 0 0 0
435 1 12.4141 0.0906678 8.65882 -0.712105 -0.337573 0.940173 -7.67881 7.77864 -12.7595
436 3 17.4076 1.00732 0.44149 0 0 0 0 0 0
437 1 17.312 1.2371 11.3578 0.585289 1.45745 0.479664 2.32484 10.3168 -10.2417
438 1 14.0944 2.62569 8.77185 -1.55835 -1.09291 1.14464 18.319 -14.611 6.5976
439 3 15.607 1.82888 10.1224 2.27475 -3.99604 -2.18216 9.00769 -8.55533 -7.24017
440 1 15.5961 0.170538 17.289 0.090256 -0.0247209 0.886798 1.05426 13.7773 16.1848
441 2 17.6209 3.04274 13.1895 -2.22752 3.93341 0.486794 -4.41059 12.3314 -1.82339
442 1 17.3174 1.08442 14.903 -0.696076 5.29681 -3.92322 -4.38013 5.54992 17.5022
443 3 15.7006 1.81659 15.9461 -0.63818 -4.88444 -2.62658 -5.20979 5.7269 -8.12926
444 1 14.0381 4.05305 2.3062 0 0 0 0 0 0
445 3 15.5849 3.51458 0.957677 0 0 0 0 0 0
446 1 15.4218 3.46302 11.4597 -0.673054 -0.523849 -2.81646 7.96683 -10.9898 -1.54704
447 1 12.9651 5.30681 8.70817 0.984578 4.22535 0.12825 3.44479 -7.08719 18.2551
448 3 14.2707 4.47274 10.0059 0.786681 3.08186 5.17615 -2.30361 -4.28134 7.1378
449 3 15.5377 3.58435 7.3388 0 0 0 0 0 0
450 1 14.2106 2.44154 17.0864 4.13091 0.694059 -1.9983 2.09287 -3.40859 3.40881
451 1 15.4771 3.58043 14.7992 5.08071 -0.915391 0.337615 4.60798 -15.5943 2.79422
452 3 13.4777 3.97695 16.2229 -1.80702 9.16559 1.55065 0.542314 6.546 -0.69737
453 1 12.8124 6.62976 1.64992 0 0 0 0 0 0
454 3 14.3205 6.05876 0.350737 0 0 0 0 0 0
455 1 10.9246 7.7345 8.29145 3.46799 0.442899 2.54321 2.24074 4.29931 4.21476
456 3 12.2895 7.08047 9.44991 -2.89669 4.81228 3.18778 -5.85866 4.44233 1.97537
457 3 14.1948 6.15843 7.23501 0 0 0 0 0 0
458 3 12.399 6.83719 16.7175 1.652 -3.69667 5.58406 -3.06322 4.38293 -0.676631
459 1 10.6533 10.0727 6.0649 0 0 0 0 0 0
460 1 12.4962 8.68188 10.8671 2.46145 -0.937184 2.51288 -9.12114 14.3845 8.3097
461 1 9.4367 10.5061 8.49601 1.12327 1.35021 -3.83041 7.50231 2.38881 -0.0851121
462 3 10.9991 9.7276 9.76529 7.04655 -0.478757 -4.71203 -6.33265 -3.35435 3.60622
463 3 12.5138 8.70878 7.25948 0 0 0 0 0 0
464 1 10.9195 8.21798 17.3301 3.58812 0.493264 3.46784 12.0705 -6.23754 -3.84437
465 3 10.7538 9.75497 16.1347 -6.59861 3.45571 -0.165255 1.31872 -0.469613 4.3335
466 2 9.18232 10.9782 3.94047 0 0 0 0 0 0
467 1 9.26865 12.6524 6.06834 0 0 0 0 0 0
468 1 10.7896 11.6837 10.6675 2.85565 -1.15941 3.82141 -17.8844 -10.8461 -2.16396
469 3 10.9436 11.6389 7.40925 0 0 0 0 0 0
470 2 7.66684 13.5007 4.17255 0 0 0 0 0 0
471 1 7.89753 15.2575 5.93166 0 0 0 0 0 0
472 3 9.63225 14.2303 7.47688 0 0 0 0 0 0
473 2 9.75844 15.6675 12.5829 -1.43403 -3.15304 0.178109 -2.43181 6.54291 -8.4777
474 3 7.66681 15.2141 16.1456 5.0862 -4.80424 -8.14737 -4.91956 6.83778 2.95016
475 2 6.1959 16.0598 4.18897 0 0 0 0 0 0
476 1 8.0178 17.0731 11.0505 3.53119 0.230077 -3.01926 1.26011 4.82087 -6.59849
477 1 5.85068 15.8411 17.4234 2.25161 -1.86609 1.09785 3.06963 10.1607 7.10918
478 2 5.66638 18.1857 11.5231 -2.96065 -1.95446 0.85298 3.01844 -1.99783 -8.90046
479 1 8.13253 16.3855 14.2503 -3.70393 -4.12112 2.02124 -3.12085 -9.89188 10.0194
480 3 5.95524 18.5828 19.3885 -4.42357 -24.6115 11.5833 -0.277644 -0.727855 -0.203653
481 1 2.90674 21.3112 8.06028 -1.54856 3.36185 7.38705 3.02118 10.9804 13.1498
482 1 4.61379 18.4929 17.7857 1.19277 -7.31178 10.8548 0.759364 -0.172174 -1.59766
483 2 3.22581 18.1976 12.6359 0.186903 1.39021 4.64125 -7.72808 3.23155 -5.03024
484 1 4.86574 19.9415 13.2216 7.06819 8.17513 2.82372 -1.34461 1.16536 -1.95088
485 3 3.62892 20.1165 16.8153 5.03304 3.11582 5.98274 1.00255 2.18283 0.433222
486 2 3.07809 21.3234 4.14489 0 0 0 0 0 0
487 1 3.13555 23.2531 5.97168 0 0 0 0 0 0
488 3 4.50606 22.2502 7.17516 0 0 0 0 0 0
489 1 2.30653 20.4064 18.2523 0.00854303 0.253177 -5.48479 -1.12396 -3.29399 3.34206
490 1 3.14465 22.7039 12.9071 -1.07468 2.68908 -13.8603 2.9465 -2.56774 0.833993
491 3 2.88321 23.3372 15.6828 -4.33262 -10.6515 7.54673 -1.9319 2.46403 0.104654
492 1 -0.310346 27.1349 8.39898 -3.80343 -0.890873 3.28472 7.51617 -10.1653 4.19797
493 3 3.09826 24.5735 7.78622 0.239275 0.0503111 0.654306 0.325258 0.0895839 -0.0753383
494 1 1.64239 23.8962 17.037 3.01437 -1.14103 0.90616 -13.4142 -7.65576 -11.9007
495 1 2.66548 25.4587 14.7106 -6.12832 -0.82349 -5.78028 0.949777 -2.69111 -3.9465
496 3 1.46915 25.8817 16.0226 -1.2466 8.13393 7.71754 -7.47526 -1.65097 -6.70765
497 2 0.208907 26.7291 3.43399 0 0 0 0 0 0
498 1 0.282017 28.6223 1.80775 0 0 0 0 0 0
499 3 1.73074 27.8789 0.528383 0 0 0 0 0 0
500 1 -0.354073 28.7873 5.82488 0 0 0 0 0 0
501 3 0.623294 28.3348 10.0359 -3.36523 -3.68207 5.18993 3.88276 -7.62947 -7.12179
502 2 1.46021 29.4621 13.0394 -1.7828 -0.111828 2.09252 3.22206 11.3083 0.707405
503 1 1.26561 27.9387 15.1077 1.34612 2.73093 1.20638 -18.4495 -8.98431 -1.01008
504 1 -1.38177 31.0033 2.17586 0 0 0 0 0 0
505 3 0.114397 30.4542 0.851814 0 0 0 0 0 0
506 1 -0.0809233 30.3712 11.0579 -2.91092 -1.75169 0.192628 15.3833 4.81381 -9.56922
507 1 15.5451 0.138904 8.77934 2.61085 -1.35972 -0.209255 16.2236 17.8715 -13.9177
508 2 18.6366 0.0626241 13.0859 1.27798 1.01701 2.79916 1.25137 -11.7624 6.25105
509 1 -0.357493 30.6062 15.0264 1.08999 -3.65585 3.63088 -11.3733 -3.23788 -1.56943
510 3 -2.02941 31.4277 15.8687 4.2969 -5.78897 5.79419 -0.897618 -1.34939 0.946708
511 3 20.2711 0.91151 0.921965 0 0 0 0 0 0
512 1 20.2379 0.533763 10.7598 -2.06891 -1.70108 -0.306923 -14.8286 7.14085 -9.69057
513 1 17.0133 2.58818 8.54662 0.681416 -2.25067 -1.9789 13.1509 5.02486 -18.1198
514 3 18.6792 1.70701 9.67412 9.85478 5.03409 3.85499 -0.263278 -6.18301 6.55208
515 3 20.1966 0.896961 7.33867 0 0 0 0 0 0
516 1 16.8709 4.77301 2.13431 0 0 0 0 0 0
517 3 18.6977 3.64939 0.867532 0 0 0 0 0 0
518 1 17.0895 4.4661 6.05747 0 0 0 0 0 0
519 1 15.8039 5.31656 8.65139 0.971371 1.89006 0.791046 -9.43361 -4.5225 -10.7977
520 3 18.643 3.58784 7.33867 0 0 0 0 0 0
521 1 16.7508 2.87855 17.3766 -0.42969 -0.618439 3.55229 -6.05964 15.8675 9.14274
522 3 16.4665 4.79592 16.1271 6.36231 -8.23568 3.16563 -1.05099 -5.45356 5.56852
523 1 15.5627 7.38646 2.31017 0 0 0 0 0 0
524 3 17.1869 6.29165 0.76214 0 0 0 0 0 0
525 1 14.1472 7.92707 8.49816 2.80737 -3.00722 -0.964747 -5.47667 8.92208 16.4712
526 3 15.8107 7.27356 9.63298 -1.12549 6.2044 -3.31204 6.08129 3.88856 -0.16795
527 3 17.0998 6.149 7.26411 0 0 0 0 0 0
528 1 14.9993 5.25116 17.3292 -0.407619 -3.72646 -1.28004 -8.78449 6.37348 7.39776
529 1 16.3538 6.71669 15.2621 -0.768495 -2.66868 -0.587207 10.6119 -15.6775 14.0621
530 3 15.5344 8.96708 0.961704 0 0 0 0 0 0
531 1 14.1358 9.5902 5.85872 0 0 0 0 0 0
532 1 15.7593 8.83364 10.9628 -1.32791 1.84007 -5.25087 4.41494 14.1358 -12.7859
533 1 12.5411 10.395 8.39083 -1.81889 -2.37095 2.88361 2.94683 6.05966 -6.78001
534 3 14.1708 9.5542 9.85249 2.90585 6.53613 1.54897 6.1546 -3.5755 -2.33611
535 3 15.7523 8.72321 7.21595 0 0 0 0 0 0
536 3 13.6102 9.91581 15.9131 -2.4601 2.21157 -10.5966 6.66931 -4.15347 6.83398
537 2 12.1253 10.7529 3.905 0 0 0 0 0 0
538 3 14.0107 11.4953 0.691211 0 0 0 0 0 0
539 1 12.2296 12.5266 5.80799 0 0 0 0 0 0
540 3 14.1224 11.1279 7.24564 0 0 0 0 0 0
541 1 11.9884 11.1043 17.0807 0.689955 0.256963 -0.349202 10.849 5.96502 15.7618
542 2 13.9489 13.5833 12.9792 -2.46473 0.403699 5.19078 -12.4728 2.81292 6.63539
543 1 14.1294 11.5697 14.9086 -3.61026 -2.01819 0.613086 1.54267 -2.82333 14.0136
544 3 12.6408 12.5887 15.8028 0.678997 10.1487 0.328908 -0.19782 -10.1941 -4.94884
545 2 10.6991 13.5058 4.09533 0 0 0 0 0 0
546 1 10.8265 15.1403 5.98024 0 0 0 0 0 0
547 1 8.80077 16.4373 8.16015 -0.500566 2.91433 -1.768 -8.2171 10.2266 -5.05466
548 2 12.9198 16.3476 13.0903 0.275509 5.04964 4.93238 -0.949548 10.1451 3.09718
549 1 12.5125 14.4864 14.8883 -1.50528 -0.324804 -0.178942 -14.9754 3.0784 10.8527
550 2 9.1947 16.0411 3.94731 0 0 0 0 0 0
551 1 9.27291 17.9475 5.77881 0 0 0 0 0 0
552 1 11.3193 16.6315 10.899 4.86682 1.93798 -4.40258 -7.92269 -1.68852 -6.4907
553 3 9.81389 17.2729 9.76934 -5.55328 1.13579 -6.92797 -9.3325 -2.99752 -3.4293
554 3 10.5984 16.9284 7.00066 0 0 0 0 0 0
555 2 6.94966 18.4669 13.6404 4.4826 -2.34346 0.62121 -0.434573 -0.0363575 2.95801
556 2 7.67873 18.5585 3.6687 0 0 0 0 0 0
557 1 7.76791 20.6301 2.22916 0 0 0 0 0 0
558 3 9.34937 19.7718 0.872721 0 0 0 0 0 0
559 1 7.50262 20.3005 5.44887 0 0 0 0 0 0
560 3 9.2587 19.4711 7.42446 0 0 0 0 0 0
561 3 6.80062 20.5635 16.1944 -10.8841 3.47259 15.251 -2.28633 -1.73174 -0.721806
562 2 6.01634 21.5282 3.86204 0 0 0 0 0 0
563 1 6.1342 23.2191 2.0287 0 0 0 0 0 0
564 3 7.76791 22.424 0.961352 0 0 0 0 0 0
565 1 6.22269 23.0023 5.8667 0 0 0 0 0 0
566 1 7.67301 22.981 10.7325 -0.660572 -0.382328 -0.171189 -16.2801 1.59906 3.83026
567 3 6.6132 24.4626 10.1694 -3.3935 -4.12353 0.956409 5.03643 4.30814 -7.38228
568 3 7.37446 22.5479 7.52658 0 0 0 0 0 0
569 1 5.17666 21.4596 16.1136 5.7821 1.06735 -10.5791 -0.597788 -0.66414 4.19165
570 2 5.55902 21.7204 11.4456 1.26739 -6.01808 -5.6994 -3.87683 16.1476 -14.5773
571 1 5.68178 22.447 13.581 -18.9955 -2.23382 0.669536 0.515516 1.63281 1.11845
572 3 5.70181 23.1751 15.407 15.4033 -9.83969 7.2353 3.16088 -0.0624654 2.97067
573 2 4.35679 23.9686 3.80323 0 0 0 0 0 0
574 1 4.7641 25.8033 1.8979 0 0 0 0 0 0
575 3 6.31495 25.0748 0.734974 0 0 0 0 0 0
576 1 4.90145 25.6026 5.6109 0 0 0 0 0 0
577 3 6.18641 25.2507 7.21517 0 0 0 0 0 0
578 1 4.24315 24.2662 16.7599 -7.37228 -4.28698 -6.75687 -0.909033 0.981872 0.508213
579 3 5.81074 25.5807 13.3696 2.16226 -3.14015 10.1904 -0.716635 -1.14581 1.85825
580 2 3.47763 27.0557 3.63307 0 0 0 0 0 0
581 1 3.2747 28.6165 1.69474 0 0 0 0 0 0
582 3 4.77586 27.8267 0.502439 0 0 0 0 0 0
583 1 3.45648 28.611 5.65407 0 0 0 0 0 0
584 1 1.46687 29.5887 8.55449 2.24185 -1.12485 3.39075 -1.16558 15.8303 -5.98955
585 1 3.48071 27.0375 16.7585 5.92072 4.62817 -1.79026 -0.875664 -3.4528 -1.22097
586 3 2.8192 28.9957 16.5387 -1.99302 0.82693 3.51661 -0.0303439 7.48875 5.78057
587 2 1.54604 29.5396 4.09326 0 0 0 0 0 0
588 1 1.88154 31.1496 2.15841 0 0 0 0 0 0
589 3 3.2679 30.4728 0.777022 0 0 0 0 0 0
590 1 2.91834 30.313 11.1075 1.55302 -2.55597 -2.94704 8.72712 -3.71818 -5.35161
591 1 18.674 0.0158542 8.71104 2.24394 -0.525795 -1.57715 -2.47342 15.094 12.9701
592 3 1.51511 31.2012 9.64058 4.64186 2.28068 -4.65223 -9.50518 -2.04817 7.47567
593 3 2.98215 30.4364 7.1287 0 0 0 0 0 0
594 2 21.5472 0.00309074 12.7147 -3.35703 -1.08307 0.563347 -1.47727 3.3705 -4.48284
595 1 2.34312 30.7379 15.1319 1.14359 -1.92604 -0.965862 -0.33283 7.19781 -8.26249
596 1 21.6286 1.79843 2.22948 0 0 0 0 0 0
597 3 23.221 0.847713 0.881811 0 0 0 0 0 0
598 1 23.2993 0.540154 10.9303 -3.33343 -2.72976 1.35403 -9.84269 -15.945 -2.13077
599 1 20.2371 2.42499 8.35664 -1.45366 1.30703 3.78161 16.1821 11.8131 -17.3806
600 3 21.8356 1.59848 9.66268 4.15836 -4.8251 -1.57432 8.07155 0.52136 4.35434
601 2 23.1707 2.70859 12.8152 1.18858 3.61984 -3.08249 13.1283 12.6227 -11.2873
602 1 23.0914 0.955916 14.8046 2.05302 -3.58045 -1.80557 -4.78118 -14.0476 -4.77055
603 1 20.1728 4.46868 2.20003 0 0 0 0 0 0
604 3 21.7502 3.58784 0.961352 0 0 0 0 0 0
605 1 20.0992 4.17916 5.8441 0 0 0 0 0 0
606 1 21.5502 3.35715 10.8025 -2.16198 0.0609006 -7.36752 15.1957 11.7052 6.36412
607 3 21.7452 3.58523 7.33159 0 0 0 0 0 0
608 1 22.0751 3.82109 14.8183 2.73064 -4.05462 0.553877 -5.19042 5.90888 14.5896
609 3 19.9939 4.60106 15.8293 -2.76449 -8.61808 -9.614 -9.12339 6.34621 -4.64568
610 2 18.643 5.38177 4.15001 0 0 0 0 0 0
611 1 18.4791 7.2193 2.08806 0 0 0 0 0 0
612 1 17.2468 7.96989 8.46625 0.327078 -2.66499 -0.462168 -15.5583 8.72531 -6.06979
613 1 18.2318 5.44846 17.0214 -0.0918787 -5.8136 -1.41207 0.138815 -9.45804 -14.2863
614 2 20.3272 7.55109 12.4315 -3.13663 2.10056 -2.45816 -10.1506 4.5129 -2.75906
615 1 20.1683 6.26042 14.7287 -2.92756 0.452208 -1.69433 15.5257 3.56473 -0.0670009
616 3 18.4211 7.11372 15.5884 -6.06175 -1.43267 -0.176082 2.59436 -5.03783 6.51259
617 2 17.2097 8.20574 3.99852 0 0 0 0 0 0
618 1 17.0217 9.92131 2.17475 0 0 0 0 0 0
619 1 17.0976 9.70926 5.98879 0 0 0 0 0 0
620 1 19.0117 9.46387 11.179 -1.22395 -0.47984 0.0136741 -1.61632 -17.084 9.46724
621 1 15.6725 10.6246 8.63825 0.886735 -0.523161 -3.97734 -2.89048 5.12278 -15.721
622 3 17.2735 9.76272 9.84678 -0.155367 0.218115 -6.92191 6.16821 3.38114 7.46145
623 2 18.9584 11.005 13.2494 2.40943 2.85066 -0.839814 -12.4813 -11.494 3.0646
624 1 18.2413 8.70954 14.2702 -1.34646 -3.56881 4.8603 1.07101 -15.7637 -9.20465
625 3 18.3096 9.70866 16.2482 -0.375663 -1.47798 -2.63565 9.4403 -4.33232 -7.28149
626 2 15.5224 10.6879 4.02717 0 0 0 0 0 0
627 1 15.4477 12.5295 2.13346 0 0 0 0 0 0
628 3 16.9506 11.4787 0.606679 0 0 0 0 0 0
629 1 15.3313 12.296 5.92765 0 0 0 0 0 0
630 1 17.2156 11.8221 10.8899 2.22577 1.54361 -0.00798406 -1.65393 11.3464 -15.7119
631 3 15.6236 12.8298 9.55727 -1.27445 5.14298 -4.35334 -3.23072 -5.42617 -4.03951
632 3 17.1175 11.3467 7.25636 0 0 0 0 0 0
633 1 15.0502 10.1869 17.255 -1.41018 2.38887 4.79546 4.54649 9.87678 10.6086
634 2 16.9519 13.2429 13.1861 1.79832 1.91915 0.35557 -6.54498 -8.09352 3.8572
635 1 17.2703 11.5316 15.2921 0.539048 1.70447 3.45486 -1.24261 -2.01431 -15.3624
636 3 15.5982 12.226 16.4345 4.15531 -1.08678 1.22827 -5.68585 6.07485 -0.235093
637 2 13.6076 13.2917 3.6393 0 0 0 0 0 0
638 1 13.9208 15.2332 2.10088 0 0 0 0 0 0
639 3 15.5413 14.3544 0.953738 0 0 0 0 0 0
640 1 13.9984 13.1704 17.4266 -2.36871 -2.53465 3.16766 7.51854 8.97071 9.36299
641 2 15.6967 15.8904 12.7184 3.48129 -0.742214 2.42569 11.1523 10.1707 8.77017
642 1 15.4341 13.9746 14.9656 5.18487 -2.36332 -1.21567 -13.4849 3.87939 16.2705
643 3 14.041 15.0231 16.2608 -10.6716 -1.0645 -1.81794 9.19261 -1.11375 8.15872
644 2 12.371 15.9573 3.9197 0 0 0 0 0 0
645 1 12.2528 17.6619 2.0991 0 0 0 0 0 0
646 3 13.9814 17.0419 0.960716 0 0 0 0 0 0
647 1 12.3302 17.643 5.76116 0 0 0 0 0 0
648 1 14.0575 17.0741 10.9576 -0.438559 0.16043 -3.46244 -11.1813 -10.4465 -15.4145
649 1 10.9315 18.4674 8.38055 -0.839864 1.8823 2.72535 -12.7464 -5.05633 -1.87131
650 3 12.521 18.0335 9.77862 6.36802 -2.42155 2.70637 2.37015 7.19023 5.63684
651 1 12.6547 15.8175 17.6141 -2.09797 -5.65557 -1.40858 -16.7582 14.4199 2.1726
652 2 15.5276 19.8919 13.7628 12.9338 -2.8693 -9.29886 -2.40961 1.89236 -2.67579
653 1 14.7214 16.7199 14.9383 0.5298 -0.287053 1.4596 -6.48197 2.94375 -18.1446
654 2 10.8977 18.8563 4.11492 0 0 0 0 0 0
655 1 10.8858 20.6076 2.18712 0 0 0 0 0 0
656 3 12.2403 19.7166 0.590709 0 0 0 0 0 0
657 1 12.2984 19.667 10.8764 0.729954 -3.50094 0.709603 17.4478 -5.7432 -2.04547
658 3 12.6827 19.0103 7.2759 0 0 0 0 0 0
659 1 9.2513 23.2321 2.21448 0 0 0 0 0 0
660 3 10.8751 22.424 0.961352 0 0 0 0 0 0
661 1 10.6913 22.5292 10.6754 1.78114 2.13073 3.32777 5.05545 -15.2787 8.97399
662 1 7.8273 24.472 8.49164 -3.2678 5.64027 1.80615 8.46165 -18.7696 6.20286
663 3 9.40011 24.0376 10.054 -5.46708 9.87268 -2.73379 -1.20175 -4.05104 7.71095
664 2 11.5322 28.5411 10.9406 -1.98246 1.81864 0.676139 2.90284 7.78437 -1.46159
665 1 7.78888 28.0861 14.0046 2.92421 4.61413 -0.530536 -0.106063 2.25918 1.92464
666 3 7.2476 22.1027 12.3599 -7.04524 0.648958 -1.09675 2.3237 0.409268 3.97693
667 2 7.30782 24.2699 3.9889 0 0 0 0 0 0
668 1 7.77069 26.078 6.03604 0 0 0 0 0 0
669 1 9.40878 25.7829 10.8292 -0.955946 1.90453 0.357742 -5.49172 9.94661 -11.1426
670 1 6.16609 27.0781 8.38488 -0.432362 1.07137 1.66337 12.9408 -6.02336 -14.9949
671 3 7.80255 26.4552 9.54542 4.21835 3.7973 4.19622 -6.28105 -6.31862 -9.02047
672 3 9.32743 25.2951 7.1549 0 0 0 0 0 0
673 2 4.21288 26.297 12.3794 -5.10557 2.86073 11.4026 -0.563674 -2.85899 0.759936
674 1 7.54907 25.6197 12.2535 1.98089 -9.88018 -0.887183 -2.00869 -2.15265 3.1228
675 2 6.37151 27.0602 4.21495 0 0 0 0 0 0
676 1 6.35086 28.7699 6.06625 0 0 0 0 0 0
677 1 7.33638 28.1215 10.8097 -3.98201 1.47238 3.6624 9.89468 3.8789 -17.3956
678 3 5.49635 28.3823 9.93178 6.57509 -0.98089 -5.46834 0.260173 -0.37176 7.33109
679 3 7.77012 27.8317 7.30188 0 0 0 0 0 0
680 2 5.91378 27.4518 12.874 -6.65045 -7.48881 9.31229 3.1924 3.55427 1.06291
681 2 4.81671 29.6772 3.85203 0 0 0 0 0 0
682 1 4.7978 31.3665 2.01348 0 0 0 0 0 0
683 1 4.60468 31.2899 5.93259 0 0 0 0 0 0
684 1 5.93232 30.326 10.6177 -0.648398 4.35679 2.96759 -12.9403 11.1994 6.95882
685 1 3.17547 32.1301 8.45276 0.22925 0.716958 -1.23206 4.84825 -8.69161 7.78212
686 3 4.21556 30.5961 9.69746 -0.715896 3.92359 -7.23069 11.1117 4.7239 -0.0804739
687 3 6.33395 30.716 7.36639 0 0 0 0 0 0
688 1 4.83955 30.2857 16.6161 0.432226 -8.36533 -17.0539 0.880435 -3.5527 -0.339525
689 2 24.8435 0.0561378 12.893 -1.06738 -0.315335 -1.49407 0.63503 -9.70429 10.691
690 1 4.666 30.6047 13.473 0.268894 -4.09082 -3.29345 -12.8311 -19.776 16.2613
691 3 4.22032 31.3803 15.3932 0.323212 7.57333 -5.96575 0.733872 -8.01958 6.97976
692 2 6.20555 32.2818 3.86218 0 0 0 0 0 0
693 1 24.5555 1.78939 2.15482 0 0 0 0 0 0
694 1 23.2878 2.66796 8.54269 -0.346172 -0.343777 -5.97306 2.52791 -15.3332 -12.2664
695 2 25.8406 2.61551 12.9113 4.47788 -1.70511 -0.985699 11.3164 0.0352765 -3.81563
696 1 26.4824 1.07145 14.7547 3.74917 -1.54328 1.10925 -16.3413 -12.5166 4.26688
697 3 24.7522 1.39573 15.8668 -0.663521 -2.20325 4.04588 1.28264 2.56871 7.12059
698 1 23.2831 4.47233 2.20388 0 0 0 0 0 0
699 3 24.8573 3.58784 0.961352 0 0 0 0 0 0
700 1 22.9732 4.73266 5.92209 0 0 0 0 0 0
701 1 24.7818 3.67129 10.901 0.118132 -0.558992 -0.32346 3.30503 5.77974 -0.355903
702 1 21.7897 5.2428 8.48317 0.000829565 3.10081 -1.09582 -3.22625 5.8427 10.5539
703 3 23.1224 4.47082 9.76361 2.43614 1.99329 0.700146 2.42572 -4.81844 7.82604
704 1 23.4548 2.6814 17.3783 3.60332 -2.59723 -2.5101 2.69199 0.821712 -14.5269
705 2 24.8873 5.19776 13.0286 4.7822 -4.09852 1.09368 8.52151 5.11941 -5.09649
706 1 25.0658 3.52976 15.1459 -0.398743 1.04335 0.982157 3.43767 -1.72218 -17.2673
707 3 23.4217 4.53939 16.2604 8.65177 2.32832 -4.22914 -2.24023 6.45249 6.51525
708 2 21.6172 5.4848 3.9651 0 0 0 0 0 0
709 1 22.9229 6.22254 11.2806 5.24955 2.55853 1.32389 19.6388 8.88077 6.26738
710 3 23.3037 6.26507 7.36261 0 0 0 0 0 0
711 1 21.6886 5.39965 17.4042 -1.81902 1.79653 -0.856125 -12.6447 0.859344 -15.6198
712 2 23.4666 8.0198 13.0577 -0.548043 1.64413 1.13687 5.70968 7.91534 11.677
713 1 23.478 6.33596 14.8844 0.958728 1.0396 3.86445 -11.8816 15.6853 8.60309
714 3 21.6544 7.42544 15.9135 0.206638 4.30741 7.20666 -1.04404 -4.37653 2.84375
715 2 20.1344 8.03496 4.35922 0 0 0 0 0 0
716 1 20.284 9.94802 5.95675 0 0 0 0 0 0
717 1 21.8208 8.94671 11.0703 -5.05264 4.26812 0.135984 12.9277 9.44382 5.94334
718 1 18.7893 10.6054 8.46851 1.91546 -0.00533735 1.46445 17.2399 -1.7236 -9.82587
719 3 20.338 9.16015 9.23424 3.33372 0.586992 -4.63462 -7.63269 -4.24622 -6.40415
720 3 18.4961 12.5133 9.37201 4.37586 -2.42841 1.89283 3.86964 10.2992 8.00174
721 3 20.2865 11.5613 7.25502 0 0 0 0 0 0
722 1 18.1532 11.2103 17.921 -2.05436 3.79939 -1.00496 10.8303 -2.7685 -7.11958
723 1 20.1214 10.9911 15.6456 6.27414 0.75577 1.0626 4.81433 -14.4851 -2.20538
724 3 18.7467 12.4069 16.625 -0.752574 -3.7059 -5.18356 3.84393 2.61143 -10.0743
725 1 17.0086 15.1253 2.23301 0 0 0 0 0 0
726 3 18.5397 13.8475 6.85271 0 0 0 0 0 0
727 1 17.1041 13.6298 17.3368 0.0444686 1.71415 1.59683 -10.9704 -7.8184 0.169806
728 1 15.5292 17.6784 2.18297 0 0 0 0 0 0
729 3 17.0272 17.0204 0.913614 0 0 0 0 0 0
730 1 16.9724 16.964 10.7088 -2.45188 -2.21588 2.66152 13.3364 11.583 -8.86442
731 1 13.9904 19.3212 8.86842 3.8665 1.31875 3.66585 -13.9037 -0.336631 -7.38903
732 3 15.5171 18.3789 10.014 -0.34725 -0.416034 -2.99093 1.78233 5.89721 6.95812
733 1 15.5212 15.8704 17.6191 1.22798 3.23914 3.36204 -18.5635 9.15006 5.08679
734 2 17.4443 18.7227 12.6543 -1.66125 5.88777 -0.0482042 -8.76847 -6.0706 5.46123
735 3 15.6374 17.5755 16.4662 8.96541 -7.50388 2.45034 4.36085 3.15051 1.19756
736 1 13.8384 20.3986 6.25203 0 0 0 0 0 0
737 1 15.7404 20.0147 11.1378 -1.89737 1.7658 -4.94362 -4.70262 -16.1624 8.46984
738 1 12.4279 21.7358 8.70368 -2.68478 -3.64684 -2.30969 4.10977 -10.2728 7.26341
739 3 14.016 21.0282 9.91603 9.84228 2.34835 7.69678 3.43728 6.10182 0.7578
740 3 15.3854 20.0317 7.57883 0 0 0 0 0 0
741 1 14.0518 18.1368 17.3278 -10.2907 -0.421805 -17.3945 -0.966528 -0.326702 1.87622
742 1 12.3889 23.3479 2.23036 0 0 0 0 0 0
743 3 13.7091 22.687 0 0 0 0 0 0 0
744 1 13.6917 22.7708 10.9241 -3.11738 -0.88542 -2.87583 10.8204 -11.6068 -9.37373
745 1 10.7553 24.703 8.83194 1.44064 -0.301621 1.31242 -2.27928 -0.0609806 17.7859
746 3 12.2975 23.4127 9.56537 -0.0677115 0.71884 -2.74241 5.76364 -6.21198 -4.12604
747 3 13.9182 22.5339 7.33087 0 0 0 0 0 0
748 2 10.4515 25.45 13.2294 4.33516 8.00824 -0.706283 -0.266543 5.09366 -5.50097
749 3 9.12052 29.2746 13.4221 13.4517 -4.79102 -0.0998337 0.569116 2.46417 2.59367
750 3 12.4287 25.1149 0.961352 0 0 0 0 0 0
751 1 9.21768 26.9336 8.29158 0.467081 2.59535 3.53091 -0.511547 4.32328 -4.91864
752 1 13.1279 18.7162 13.214 -4.49071 2.68092 6.99966 0.0843203 3.05772 -1.91577
753 2 14.6422 29.5487 14.5326 2.69925 -2.49385 1.49028 -0.104324 -2.99041 4.39681
754 1 12.6479 25.2211 17.9626 -7.17031 4.51186 -9.95384 0.38562 0.535568 -1.89433
755 3 11.2784 26.6322 11.7037 -8.162 -5.93469 1.14792 2.70325 -5.00087 -8.05137
756 2 9.26437 27.1685 3.63807 0 0 0 0 0 0
757 1 9.27511 28.7611 5.92039 0 0 0 0 0 0
758 2 11.8741 30.4021 16.7821 -20.8723 5.61106 -3.78063 -1.68255 0.660842 2.74568
759 1 13.6212 28.9274 12.4816 -2.22868 2.48828 -6.25414 -0.500022 -1.51826 -1.02865
760 2 7.75775 29.6638 4.10351 0 0 0 0 0 0
761 1 7.52699 31.4445 5.83856 0 0 0 0 0 0
762 2 27.973 1.62535 12.5834 0.200741 3.50639 -1.55025 -8.23679 9.89327 10.1625
763 1 7.97814 30.8096 14.503 -4.80936 -2.40838 0.41239 1.7385 -2.56736 -3.5121
764 3 9.85492 30.7953 16.6984 -3.33425 6.43507 5.12096 1.75105 1.34364 3.40211
765 2 9.14556 32.2689 4.12546 0 0 0 0 0 0
766 3 29.4531 0.935918 0.799955 0 0 0 0 0 0
767 1 27.9811 1.82837 5.79118 0 0 0 0 0 0
768 1 26.5871 2.99612 8.20091 1.23066 5.91193 0.860889 -3.57585 -10.0574 -0.143719
769 3 29.4587 0.920401 7.31456 0 0 0 0 0 0
770 2 29.6407 3.35599 13.031 -0.221581 -0.10757 -1.53809 -10.0335 -5.47865 -1.93976
771 1 29.1965 1.69883 14.8723 -2.01353 -0.843249 2.34098 10.9274 1.04611 14.575
772 3 27.5947 2.00627 16.5325 5.29979 -2.89811 -1.94153 6.4757 -2.57169 6.10912
773 1 24.8305 5.30142 8.58723 3.07197 0.30693 -1.48475 0.984544 -0.431365 5.59774
774 3 26.5338 4.44489 9.64849 -3.09881 4.83139 -0.950726 6.8009 3.61606 -2.9704
775 3 28.193 3.80048 7.04569 0 0 0 0 0 0
776 3 26.9308 4.13892 16.7791 6.14165 -6.23552 -1.4208 0.537492 3.10564 -5.69995
777 2 24.7571 5.3381 4.02374 0 0 0 0 0 0
778 1 25.4422 6.69611 2.04365 0 0 0 0 0 0
779 1 24.9061 6.93184 5.94002 0 0 0 0 0 0
780 3 26.4109 6.30971 7.29692 0 0 0 0 0 0
781 1 25.0414 5.34283 17.5565 1.56272 1.47563 -2.98999 -6.24141 -0.614918 -1.1116
782 3 25.0244 7.21669 16.1335 -2.77297 -2.26987 3.46505 -9.50468 -7.40502 6.00574
783 2 23.2993 7.9567 4.32634 0 0 0 0 0 0
784 1 23.1809 9.91366 2.23762 0 0 0 0 0 0
785 3 24.7873 8.933 0.825166 0 0 0 0 0 0
786 1 23.2723 9.92921 5.85695 0 0 0 0 0 0
787 1 24.6417 9.29394 11.2562 0.634578 -4.20004 -1.916 -16.1655 -4.91577 15.3503
788 1 21.8027 10.4443 8.28326 -1.47048 4.37266 3.05702 -2.55558 1.36192 5.93936
789 3 23.1383 10.1556 9.92868 2.74761 1.1428 7.69641 4.29829 8.88788 -6.37254
790 2 24.6803 11.0523 12.9988 0.0670109 8.13716 -2.7322 -8.77666 -1.56882 12.7582
791 1 24.5351 9.21944 15.0559 4.60626 -4.35703 0.32029 -10.3726 -1.97691 -0.977388
792 2 21.7225 10.7616 4.08506 0 0 0 0 0 0
793 1 21.8277 12.4599 6.14225 0 0 0 0 0 0
794 1 23.0109 11.8058 10.9876 3.35994 0.355774 2.39697 9.41459 -6.05248 0.565097
795 1 19.9785 13.5028 8.21984 2.69034 -0.216139 0.827985 13.027 15.7532 -18.801
796 3 23.3093 11.6243 7.32323 0 0 0 0 0 0
797 1 21.9276 10.9793 17.8568 -3.56171 -0.539126 1.38653 17.7308 17.5168 5.33146
798 1 23.1988 11.6104 15.1354 1.23216 -3.11354 2.58876 -14.8197 8.61768 -1.55661
799 3 21.7956 12.4632 16.3854 5.30715 1.43744 2.61604 3.68615 5.29109 -0.167139
800 1 18.6907 16.1407 8.65703 -2.17811 1.09141 1.33461 14.5433 -4.40202 -3.9417
801 3 20.2055 15.3064 9.31498 -3.28143 -3.55335 -4.23893 0.941597 4.65066 4.26701
802 3 21.7566 14.3127 7.21121 0 0 0 0 0 0
803 1 20.4004 13.3348 17.6874 -2.43347 -1.15288 -2.12597 -9.26055 -9.1575 5.60101
804 1 21.5156 14.4058 15.4567 2.07397 -1.59354 -0.943342 6.06127 -13.7479 -1.60293
805 2 18.6387 16.2032 4.18434 0 0 0 0 0 0
806 1 18.6542 17.5483 2.08081 0 0 0 0 0 0
807 3 20.1291 16.9831 0.741545 0 0 0 0 0 0
808 1 20.5609 16.8333 10.4906 -1.07564 -0.819702 -0.934475 -12.8941 -7.98257 8.65232
809 1 17.184 19.0286 8.67419 -0.715803 4.75661 0.482464 -13.6422 11.3123 -7.8815
810 3 18.9095 17.8627 9.69354 0.687353 -8.70075 0.804208 -4.41888 -0.459157 -6.96247
811 3 20.0828 17.0544 7.22911 0 0 0 0 0 0
812 2 20.8397 18.5437 12.6474 4.37691 0.768718 -2.52432 -5.80933 -9.61255 -11.7133
813 1 21.0052 16.9964 14.6524 -0.418935 0.272716 1.7064 4.73963 -13.9599 -13.9462
814 1 19.0996 19.5612 10.9881 -0.566023 2.66614 -2.60147 -14.7531 9.24758 11.1605
815 1 15.6448 21.8215 8.61662 -1.08181 0.0676392 -0.168337 -3.09381 -9.6518 2.32897
816 3 17.3805 20.7468 9.80211 9.44843 5.0045 -0.979744 8.81 -7.99548 0.236709
817 3 18.7579 19.6391 7.29098 0 0 0 0 0 0
818 2 15.6058 21.3493 4.13383 0 0 0 0 0 0
819 1 15.9455 23.4768 1.58643 0 0 0 0 0 0
820 1 15.4564 23.1795 5.93052 0 0 0 0 0 0
821 1 13.9336 24.3627 8.33787 -0.683065 -0.852519 1.76819 -18.0557 8.99158 10.8738
822 3 15.0715 23.6341 9.78632 -2.61212 -9.21987 -2.86835 -5.69144 2.99808 5.05761
823 3 17.2791 22.1744 7.06639 0 0 0 0 0 0
824 1 16.5672 19.5569 16.2633 -0.397458 -3.7644 4.35668 -9.59336 2.37206 10.3388
825 3 13.457 23.7231 16.092 -10.9877 -31.4316 -1.0005 0.586909 -5.63492 -2.81565
826 2 14.2374 24.2301 3.99564 0 0 0 0 0 0
827 1 13.9459 25.941 2.12908 0 0 0 0 0 0
828 3 15.4068 25.2832 0.729 0 0 0 0 0 0
829 1 15.2972 25.4515 10.7917 -1.6397 1.40122 0.246134 5.56122 3.60168 16.668
830 3 15.9159 24.7354 7.21751 0 0 0 0 0 0
831 1 15.5325 22.1273 13.1944 1.68504 1.68442 7.84067 1.38604 -0.388889 -1.4803
832 2 14.8597 26.7791 12.8374 1.78673 2.1988 13.6629 1.92672 -0.600433 3.21739
833 1 16.8613 24.8195 13.3188 13.4113 -3.48953 -17.2759 -4.7018 0.366378 -1.50386
834 3 16.1534 21.2823 15.0003 -20.1066 -10.5847 14.6202 1.34934 1.25578 0.115279
835 2 12.5526 27.0117 3.90296 0 0 0 0 0 0
836 1 12.4225 28.7826 2.14761 0 0 0 0 0 0
837 3 13.7147 27.9043 0.464103 0 0 0 0 0 0
838 1 12.1923 28.7543 5.66028 0 0 0 0 0 0
839 1 9.23143 29.9416 11.6486 -0.209127 3.4635 -4.91073 11.9209 1.02425 4.69555
840 2 13.9867 31.3665 12.4564 2.16277 0.28731 -1.26923 6.53354 0.762 -8.29719
841 2 10.7025 29.7318 3.91118 0 0 0 0 0 0
842 1 10.9359 31.3864 2.05589 0 0 0 0 0 0
843 3 12.441 30.4896 0.951965 0 0 0 0 0 0
844 1 10.7748 31.5537 5.88772 0 0 0 0 0 0
845 1 10.5035 31.9781 18.6831 14.9865 5.95877 -6.49973 -4.05394 -5.91091 -0.876767
846 2 30.5153 0.68508 12.3717 0.472404 -3.25093 -0.727611 1.12826 -3.50296 5.25283
847 1 13.0755 31.3794 14.6255 1.99725 -7.69864 -5.75412 0.902979 -4.06636 -2.84642
848 3 11.582 31.8295 15.43 -13.8456 4.34186 2.07391 -3.40825 -2.3975 0.531783
849 2 30.7239 0.242276 3.95981 0 0 0 0 0 0
850 1 31.3273 1.78928 2.09516 0 0 0 0 0 0
851 3 32.4671 0.962875 0.531889 0 0 0 0 0 0
852 1 30.8954 2.09599 5.70241 0 0 0 0 0 0
853 1 32.4487 0.774888 10.5706 0.0791933 1.01511 -1.66983 6.40476 -11.7975 7.22823
854 1 29.6084 2.8742 8.36226 -1.5908 3.26505 0.210502 -5.21152 -19.283 -14.3806
855 3 31.0557 1.75761 9.38761 -12.9508 -6.29057 3.033 2.38422 4.75797 -6.21474
856 3 32.8527 1.3224 7.07472 0 0 0 0 0 0
857 1 31.3351 0.527844 17.028 3.67253 -1.47723 2.73894 1.03486 10.1816 -3.61597
858 3 30.7271 2.32589 16.3814 0.922908 1.98371 1.4332 1.45817 -9.53911 1.90155
859 3 31.0846 3.54481 0.915378 0 0 0 0 0 0
860 1 31.1659 3.66791 10.7496 -0.564596 -3.14094 -1.59303 18.48 3.42912 -1.35007
861 1 28.0289 5.42505 8.37951 0.290699 -0.0378024 -0.348344 0.0342798 15.196 18.984
862 3 29.465 4.56074 9.82773 0.170755 2.39965 -0.454193 -7.55673 -4.09521 -1.44452
863 3 31.129 3.65358 7.26012 0 0 0 0 0 0
864 1 29.3912 2.82096 17.6409 3.50672 -0.0588462 0.468605 -1.70195 16.2311 9.21265
865 2 31.6554 4.93176 12.9731 2.70008 1.95869 -3.07218 -7.71408 10.2866 1.74665
866 1 31.4899 3.36782 14.9591 -1.19642 0.62007 1.32373 5.74885 15.3597 -8.6603
867 2 27.9558 5.46779 4.00523 0 0 0 0 0 0
868 1 28.3215 7.19518 2.22584 0 0 0 0 0 0
869 3 29.5832 6.23256 0.895531 0 0 0 0 0 0
870 1 28.1079 6.96551 5.99722 0 0 0 0 0 0
871 1 30.0654 6.33161 10.968 -1.50449 2.07502 1.80784 -12.5206 -3.20641 0.599599
872 3 29.5542 6.34946 7.34508 0 0 0 0 0 0
873 1 28.3078 5.48292 16.8449 -2.75404 1.33731 -2.7299 2.94145 -2.15816 -10.8716
874 3 27.7479 6.87383 15.4723 -7.63338 4.43245 2.12161 -1.92094 -4.94993 -8.39789
875 2 26.4109 8.07265 4.15001 0 0 0 0 0 0
876 1 26.1691 9.74207 2.13829 0 0 0 0 0 0
877 3 27.7966 8.82473 0.772027 0 0 0 0 0 0
878 1 24.6708 10.7769 8.6147 1.92631 1.71222 -1.87345 -4.08804 0.0472089 10.9577
879 1 26.6837 7.85536 17.0318 2.98587 -0.741016 -5.58028 6.68008 -7.71948 5.54257
880 1 28.0538 8.99818 14.8442 -0.760213 -2.95292 -1.65031 11.5097 10.8479 -10.4004
881 3 26.4172 9.67806 16.1183 -0.0416282 0.695386 -3.91409 -1.66446 2.51624 -7.25276
882 2 24.8643 10.6386 4.06908 0 0 0 0 0 0
883 1 25.2585 12.5404 1.97421 0 0 0 0 0 0
884 3 26.5981 11.5085 0.778882 0 0 0 0 0 0
885 1 24.8878 12.3711 5.86699 0 0 0 0 0 0
886 1 26.4053 11.792 11.1236 -4.96229 0.731854 0.670102 -11.6509 -14.4096 5.63706
887 1 23.2668 13.4372 8.47774 1.33419 -4.30495 0.122375 -4.43889 8.13097 -7.99274
888 3 24.7547 12.5721 9.82573 -0.734742 1.98964 2.3888 1.91989 5.07925 6.01863
889 1 24.8944 10.8503 17.2206 -1.48769 -2.01792 2.96214 10.698 11.1223 3.09144
890 2 26.6142 13.7159 12.9454 1.31866 0.504188 1.98935 -2.66202 -10.6305 -11.85
891 1 26.6128 11.3222 14.5758 1.10339 0.801323 -2.16677 4.17868 5.65968 7.40923
892 2 23.367 13.2132 4.0747 0 0 0 0 0 0
893 1 23.3666 15.2223 2.17112 0 0 0 0 0 0
894 1 23.209 15.2391 5.52553 0 0 0 0 0 0
895 1 24.7497 14.5342 10.9465 1.56385 -0.119102 -4.92038 -18.5862 -3.91918 17.1153
896 1 21.418 16.077 8.03259 0.208193 -3.52605 1.55254 -10.4252 10.2296 -1.17212
897 3 25.151 13.9711 7.15495 0 0 0 0 0 0
898 1 23.4738 13.6375 17.3497 3.80417 -2.26228 -0.641511 16.3407 7.98828 -11.5178
899 2 24.7112 16.1753 13.0538 -7.95958 -1.39274 7.43668 -8.06991 5.97175 7.86846
900 3 22.9436 15.4219 16.5593 6.48378 -2.13669 2.3541 -7.7358 7.21442 -2.28233
901 2 21.5637 15.9125 3.75459 0 0 0 0 0 0
902 1 21.6124 17.6901 2.00183 0 0 0 0 0 0
903 3 23.252 16.9105 0.524327 0 0 0 0 0 0
904 1 21.7561 17.8201 5.35412 0 0 0 0 0 0
905 1 22.8001 17.1861 11.7902 -0.940257 1.8786 4.99093 11.0958 -15.6153 -10.2977
906 1 20.5541 18.8087 8.41445 -2.37284 0.293157 -1.1561 1.91815 17.6618 14.8022
907 3 22.109 17.3842 9.46633 1.55997 3.19626 1.62748 -4.74969 6.29689 6.72004
908 1 21.7859 16.2994 17.8924 2.02186 1.38871 3.57714 -14.6757 13.1723 1.23381
909 2 23.5691 19.0867 13.1101 2.55228 2.33928 3.74019 10.6665 -1.26122 -3.29933
910 1 23.6302 17.0558 15.3251 -1.6047 0.0017475 1.67462 13.9432 14.8885 4.48098
911 3 22.0304 17.9207 16.2863 5.63962 0.681626 9.27742 -0.908449 -6.81821 -4.0586
912 2 20.0185 18.7907 3.84652 0 0 0 0 0 0
913 1 20.6629 20.4596 1.97377 0 0 0 0 0 0
914 3 22.0052 19.5286 0.701105 0 0 0 0 0 0
915 1 20.0465 20.5661 5.90389 0 0 0 0 0 0
916 1 18.9042 21.4139 8.29066 -1.9306 0.787789 1.12568 5.07048 4.21914 2.26671
917 3 20.496 20.709 9.57184 -6.16827 -4.72998 2.47375 7.77055 -5.99935 -0.806662
918 3 21.7427 20.0335 6.96577 0 0 0 0 0 0
919 1 20.6195 18.8559 17.3498 -0.117125 1.24846 -2.82371 15.9069 -11.3639 12.2577
920 1 21.7556 19.7504 14.8923 0.613687 -0.959203 0.883408 -12.2703 6.07852 4.05514
921 3 20.1286 20.5142 16.0261 -6.16648 6.73181 7.94366 -9.91542 -3.58197 1.11654
922 2 18.6583 21.4076 3.96957 0 0 0 0 0 0
923 1 18.7945 22.9549 2.01468 0 0 0 0 0 0
924 3 20.2988 22.3709 0.716897 0 0 0 0 0 0
925 1 18.5663 23.3373 5.7419 0 0 0 0 0 0
926 3 20.4322 22.6257 6.91042 0 0 0 0 0 0
927 1 18.7955 21.4605 17.3889 -1.80304 -4.25327 -2.43873 0.484375 16.5148 11.2211
928 1 20.3097 22.4507 15.0288 2.64279 0.926816 -0.184102 10.8209 3.63197 -3.95782
929 3 18.7003 23.2349 16.1776 2.573 -0.109767 -0.645036 6.52845 -1.30452 2.10926
930 2 17.1718 24.0125 3.76092 0 0 0 0 0 0
931 1 16.9989 26.207 1.68022 0 0 0 0 0 0
932 3 18.4865 25.1659 0.445911 0 0 0 0 0 0
933 1 16.7099 26.0706 5.09692 0 0 0 0 0 0
934 1 15.4787 26.7887 8.14434 1.02316 0.0583347 3.18448 -7.3679 7.66568 13.9445
935 1 16.842 24.5122 17.2247 -16.7656 -1.31626 -9.04287 -0.0144081 1.51297 -1.77206
936 2 18.2689 26.7116 12.9051 0.127333 3.16076 -8.0139 7.57169 -0.574964 11.6186
937 1 18.8211 25.2284 15.103 -2.26448 -0.0509076 0.81151 -11.9963 16.0974 10.1684
938 3 16.6245 25.4251 15.2802 -21.0323 -1.6669 -20.5617 -0.0590374 -0.487717 3.1537
939 2 15.4371 27.4477 3.44826 0 0 0 0 0 0
940 1 16.7817 27.8061 11.0923 4.08331 1.32237 1.14373 -15.6666 1.36248 9.55634
941 1 14.2625 29.9321 8.09769 -0.557551 -3.28598 0.16851 -11.165 14.1171 -10.2973
942 3 15.1507 28.5911 9.56013 -4.81613 -3.03704 -2.65417 1.29299 1.98278 -6.87833
943 3 16.757 27.9959 7.2737 0 0 0 0 0 0
944 2 16.5809 29.5316 13.012 1.9093 -3.52748 4.13363 -12.3791 3.66766 1.70198
945 1 16.5835 27.4028 14.7542 -14.7346 -1.41939 -8.46069 2.28647 4.00131 -0.205719
946 1 13.9217 31.3239 2.13783 0 0 0 0 0 0
947 1 13.765 31.4104 5.42202 0 0 0 0 0 0
948 1 15.4765 30.5861 10.6728 0.753869 -4.48576 -0.292874 -2.2222 14.5847 9.32442
949 1 31.3134 0.215061 7.90694 0 0 0 0 0 0
950 3 14.0059 31.5397 9.21415 -8.66103 1.75225 -0.439972 5.55909 2.04197 -2.70069
951 3 15.3055 30.4689 6.43629 0 0 0 0 0 0
952 2 33.6514 0.572443 3.7762 0 0 0 0 0 0
953 1 34.2573 2.07473 1.87611 0 0 0 0 0 0
954 1 33.744 2.61573 5.26886 0 0 0 0 0 0
955 1 32.7745 2.80753 8.50478 -0.623121 1.14207 1.61532 -7.74161 18.0407 -3.69466
956 3 34.132 1.78347 9.90593 -9.6968 4.18613 3.55747 5.48731 -3.63769 0.578768
957 1 33.7861 3.40857 11.4475 -0.546252 -0.100049 0.216147 -0.679945 15.8635 -2.64004
958 1 30.9906 5.43568 8.66113 1.79721 -3.21291 1.52242 -3.62828 -5.4953 -7.93608
959 3 32.7489 4.65392 9.70699 -1.6979 0.928926 -7.65011 -9.66646 -6.09584 -7.42981
960 3 34.2065 3.87992 7.33207 0 0 0 0 0 0
961 1 32.4562 3.0319 17.601 4.04366 2.15456 -0.262549 -13.6794 -9.1298 -15.9547
962 2 -2.55677 5.3731 12.5869 5.89392 -1.50546 -0.899693 -2.99756 -5.80285 -2.02497
963 1 31.2483 7.16678 2.15053 0 0 0 0 0 0
964 3 32.6414 6.28262 0.899177 0 0 0 0 0 0
965 1 31.021 7.3002 6.00445 0 0 0 0 0 0
966 1 32.8587 6.27587 11.2959 0.384772 -1.20172 0.815202 -5.53785 -2.96578 7.12743
967 3 31.8148 7.06229 9.85515 -3.99622 -0.32724 -0.458408 -0.192395 -8.13405 -5.25311
968 2 32.4631 8.07689 13.0208 5.84969 3.05776 0.203941 -8.61506 1.95785 -11.4632
969 1 32.9804 6.1947 14.6762 -1.71413 4.0196 -3.74791 9.86479 -8.3291 -5.54684
970 2 29.4748 8.13649 4.23039 0 0 0 0 0 0
971 1 29.0773 10.0126 1.93424 0 0 0 0 0 0
972 3 31.0535 8.8983 0.819899 0 0 0 0 0 0
973 1 31.0715 8.82092 10.8492 -1.14561 0.195691 -0.32285 11.3155 -4.21516 -5.65691
974 3 31.0742 8.91225 7.30319 0 0 0 0 0 0
975 2 -5.82676 10.748 12.8307 -2.53996 -1.71198 1.31069 -7.95413 -14.8962 -8.25429
976 1 30.9822 8.81657 14.8972 1.03151 -1.98891 1.40082 -13.8631 -8.8316 -6.05983
977 3 29.5656 9.91302 16.0965 -0.0571569 4.44771 -4.72279 -6.44681 0.36245 5.71395
978 1 29.7344 11.8358 11.2645 1.33032 -2.26949 -5.91671 0.969742 13.414 15.5223
979 1 26.5191 13.24 8.55157 -1.22109 -1.16347 4.26502 -7.2743 -8.04888 -1.4165
980 3 28.1091 12.254 9.75741 1.50312 0.0559362 -5.86014 4.30485 -1.04835 -0.603955
981 1 27.9806 10.5792 17.379 1.34894 -0.0171574 0.760947 -8.02344 11.7644 -3.60946
982 2 -7.32863 13.6871 12.8895 -0.995545 1.26125 2.71658 6.72689 -9.00393 -4.29935
983 1 29.7586 11.6241 14.6371 0.35431 -1.71332 -4.5171 -9.13362 -5.8021 -14.4516
984 2 26.5548 13.1625 4.01552 0 0 0 0 0 0
985 1 26.3247 15.2595 2.18053 0 0 0 0 0 0
986 3 27.9576 14.25 0.769481 0 0 0 0 0 0
987 1 26.5826 15.0376 5.67171 0 0 0 0 0 0
988 1 28.0752 14.228 10.975 0.929598 0.459569 0.550482 3.52551 17.391 6.76354
989 3 28.0531 13.8678 7.07135 0 0 0 0 0 0
990 2 -8.85462 16.4271 12.3077 -2.49344 -0.672529 2.55219 12.5391 12.7594 7.05659
991 3 26.3709 17.0225 0.927972 0 0 0 0 0 0
992 1 26.2701 17.1182 11.2726 -1.95092 -1.22452 1.72918 1.12715 2.76972 9.44138
993 2 26.3627 18.8544 13.029 2.39692 0.205655 -2.48759 -6.59247 -0.60424 -1.80521
994 1 24.6721 19.4235 10.6311 -3.16363 -0.234214 0.279235 -12.5764 12.7266 9.98191
995 1 21.8342 21.4756 8.14321 3.70808 1.43167 -6.49341 -15.4994 3.46671 2.72572
996 1 23.4129 18.9803 17.5551 0.423858 0.827533 -1.22347 11.6189 13.5695 -13.4241
997 1 24.8144 19.9443 15.1882 1.28392 -0.09221 -1.74712 0.221627 1.15591 -19.4581
998 3 23.082 20.6815 15.9709 -2.99209 -3.60979 2.61546 -2.15055 -4.64878 -0.438412
999 2 21.8182 21.6337 3.88126 0 0 0 0 0 0
1000 1 21.8131 23.151 1.89448 0 0 0 0 0 0
1001 3 23.4331 22.3663 0.870733 0 0 0 0 0 0
1002 1 22.1208 23.3496 5.95497 0 0 0 0 0 0
1003 1 23.145 22.3452 10.971 1.43632 -0.919588 0.242049 -12.2647 -8.45057 -0.356556
1004 3 23.4761 22.3563 7.16539 0 0 0 0 0 0
1005 1 21.7348 21.4737 17.3841 0.146988 -1.678 1.33292 -11.7899 12.77 0.558542
1006 2 23.1357 24.1501 12.8834 2.25403 -0.247009 -1.07415 7.22833 2.68207 4.40575
1007 1 23.3575 22.6139 14.9451 -0.302831 -1.46969 -2.41032 -15.7918 13.4832 -2.93427
1008 3 21.8426 23.3142 16.275 -0.533143 -6.9245 -3.88559 5.48718 2.92955 -8.48767
1009 1 21.722 24.9895 10.9343 0.847284 0.616637 0.861455 11.8057 -10.5234 6.76094
1010 1 18.7743 27.4693 8.41461 -2.17056 0.838303 2.40715 -16.6059 13.7499 6.99024
1011 1 20.2018 24.2461 17.5449 -3.73699 -1.05968 -3.87773 8.39215 13.6053 8.58965
1012 2 -15.2378 26.5935 12.8854 -1.21691 -1.4779 5.81686 -6.24642 -1.76133 -0.49125
1013 1 21.7914 25.1153 15.1358 -2.31124 3.187 -5.47455 4.1441 -8.11623 1.47128
1014 3 20.1724 25.9786 16.4388 -1.76082 -2.71071 3.47818 3.07634 -3.07859 9.4648
1015 2 18.3984 27.0759 3.55659 0 0 0 0 0 0
1016 1 18.9004 28.4974 6.01058 0 0 0 0 0 0
1017 1 20.0398 27.4286 11.4297 -4.51137 0.954237 -1.3074 -2.77397 2.72809 6.32872
1018 1 17.0525 29.3765 8.69552 -0.158161 -3.41181 1.15943 14.0577 2.76751 -14.0735
1019 3 18.6439 28.7109 10.1215 3.88923 2.20822 5.2996 8.60584 -0.828424 -3.97166
1020 3 20.5479 27.2691 7.11085 0 0 0 0 0 0
1021 2 -16.6828 30.7665 13.0659 -1.02552 -0.773717 1.48986 -2.61407 0.819549 12.2607
1022 3 18.4256 28.6201 16.1238 -7.59129 3.80511 0.760375 -1.58376 3.49663 1.82253
1023 1 18.5329 30.3911 11.5905 5.0825 -0.866648 1.63468 -2.65084 10.8503 10.4879
1024 1 15.6481 32.2486 8.18599 2.69616 2.15501 0.953577 12.9159 -7.17528 6.6013
1025 3 19.071 29.7042 7.68477 0 0 0 0 0 0
1026 2 0.0435631 0.196511 13.0801 -1.27054 -2.12722 2.21656 -1.99275 -6.448 -0.258766
1027 1 18.3958 30.7354 14.8575 -5.03602 1.63264 0.534057 -15.4347 -6.78657 -15.8567
1028 3 16.6772 31.8823 16.295 -3.60347 -1.44289 -0.0782574 -9.40785 -5.46054 -0.526653
1029 3 1.69156 0.870892 19.0722 -1.46303 -1.26957 -0.750703 -0.481093 -0.140569 -0.36591
1030 1 35.5023 2.26006 26.2486 1.1714 2.31382 -3.36646 -0.132487 -0.586947 -1.56013
1031 3 1.19691 1.16787 25.3553 -0.247132 -0.331448 0.00935562 0.0906202 -0.056415 0.128952
1032 2 35.3535 3.00235 21.8734 8.6629 -6.54633 1.40848 0.535315 0.156413 0.0984278
1033 1 -1.14666 4.2658 19.7121 -0.794159 0.346308 0.046035 0.472988 -0.564247 0.453738
1034 3 0.220611 3.82843 18.1873 0.957756 -0.0408267 1.62323 -0.406679 -0.134863 0.141831
1035 1 -0.649318 3.9535 23.8607 -0.697664 -0.787958 -1.06638 0.445326 -0.320228 -0.390096
1036 1 -0.0594191 3.33417 28.8664 -0.117336 0.070061 0.710223 0.207875 -0.0846017 -0.50731
1037 1 34.287 4.96739 26.0606 0.16164 -0.185607 0.0328939 -0.087604 0.48154 -0.147167
1038 3 -1.63105 3.84557 27.3803 -0.507158 0.0155183 0.225598 -0.0919035 0.354103 0.116762
1039 3 -0.074553 3.23552 25.5419 0.989798 2.74179 -0.860807 0.224065 -0.153054 -0.143012
1040 2 0.548083 4.65161 30.975 0.482177 -0.043966 0.289959 -0.425345 0.153072 -0.0420444
1041 3 -1.13499 6.23206 18.5766 1.25821 -0.657389 -0.870262 -0.199657 -0.683324 -0.375555
1042 3 -1.26441 5.47831 24.8458 0.947462 0.0461596 -0.847918 -1.16523 -0.0527638 0.147162
1043 1 34.206 5.31096 35.0765 -0.130791 -0.580492 -0.264103 0.476121 0.346818 0.030474
1044 1 -1.45423 5.92091 32.4623 1.74407 -0.0430827 -0.175278 0.0369178 -0.105441 0.137228
1045 3 -3.04451 6.80724 33.7859 0.618351 -0.397281 -0.466222 -0.0186507 -0.12543 -0.0157118
1046 1 -4.73099 10.1974 19.9752 -1.43829 0.581418 -0.734073 -0.42192 0.622211 -0.0874121
1047 1 30.8336 11.0635 26.4539 0.0857916 -0.127017 0.304081 -0.0877683 0.144419 -0.0773125
1048 3 -4.83212 10.0153 27.5268 0.296784 -0.00287972 -0.201194 -0.0223719 -0.0343838 -0.0304258
1049 1 32.6568 7.75922 35.1997 0.0516972 -0.126644 0.360553 0.231017 -0.189097 -0.00600508
1050 3 -4.68728 9.67804 34.9641 0.272051 0.0808458 0.45291 0.038901 -0.0277997 -0.0369802
1051 2 -6.26302 10.9595 21.8652 -1.37301 1.98594 -0.0154941 0.0395252 -0.3527 -0.0168412
1052 1 -6.23764 12.7412 19.8661 0.604214 -0.164295 0.0881016 0.175779 -0.104768 0.166342
1053 3 -4.66333 11.8701 18.6348 -1.97913 -2.1836 1.99035 0.573619 0.879044 -0.344056
1054 1 -5.74741 13.5418 23.0465 0.531236 -0.299097 -0.394055 0.209254 -0.0649547 -0.28298
1055 1 -4.38592 11.7208 28.607 -0.973178 -0.511382 0.27087 0.121346 0.0164974 -0.185959
1056 3 -5.91777 12.6381 27.6779 -0.371831 0.170594 0.159881 -0.0755457 0.0171364 0.0229913
1057 3 -5.16794 12.2415 24.5853 3.50794 -5.20208 0.0814044 0.297063 -0.0595573 0.485611
1058 1 -6.11078 10.7759 35.7443 -0.127131 -0.107882 -0.216831 0.0738754 -0.0761522 -0.0423231
1059 2 -4.79952 13.3111 30.5835 2.59108 -0.147079 -0.955408 -0.195519 0.0585371 0.0301611
1060 3 -6.30288 12.493 34.6944 -0.525119 -0.441073 -0.162578 0.0834392 0.0596514 0.0940665
1061 2 29.2871 13.5362 21.8521 0.0932569 1.24684 -0.437964 -0.00933006 -0.07004 0.149496
1062 1 -7.98188 15.2632 19.6587 0.000250052 -0.440935 -0.267309 0.051891 -0.317515 0.156967
1063 3 -6.42315 14.2872 18.4418 2.94642 5.28699 0.832031 1.51728 3.01035 -1.83854
1064 1 28.8834 14.5294 24.4073 0.836994 -0.209883 0.0637921 -0.258544 0.0847618 0.0973555
1065 1 -6.08355 14.5843 28.6806 -0.173253 0.934539 -1.07769 -0.0696013 -0.140434 0.044749
1066 3 -7.70541 15.6682 27.729 -0.0708482 -0.011252 0.0438895 -0.0245854 -0.0289467 0.0119547
1067 3 -6.34979 14.4938 24.7195 -0.539181 1.3461 0.0709063 0.0678766 -0.0227534 0.00567982
1068 1 29.4516 13.3044 35.5813 -0.159616 -0.264609 0.5417 0.149326 0.0384852 0.273539
1069 2 -9.06577 15.9921 21.9884 -0.405771 0.584088 -0.188982 -0.0839771 -0.0413956 -0.0982332
1070 1 -9.11807 18.1995 20.4991 -0.610419 0.319751 0.742485 -0.997122 0.176347 -0.977357
1071 1 -9.149 17.7401 23.9419 0.925726 0.364662 0.471764 0.409871 -0.282534 0.292313
1072 1 -7.5503 17.2419 28.8803 0.104872 0.0213693 0.135914 -0.0879388 -0.166278 0.0457171
1073 3 -9.11382 17.9416 27.8125 -0.231203 0.244378 -0.0275448 0.0071178 -0.122671 -0.105588
1074 3 -7.76175 16.502 24.8738 -0.87313 0.534061 0.207102 0.0974957 0.0519299 -0.0296389
1075 2 -7.7965 19.0571 30.7771 0.67328 1.5075 -0.816637 -0.00270505 0.341517 -0.0137469
1076 2 26.417 18.6568 22.2925 -0.002846 1.0499 0.630748 0.0681318 -0.131271 0.14271
1077 3 -9.20728 19.4826 18.7702 3.54414 4.25798 -1.18052 0.195468 -1.00454 -0.067867
1078 1 -10.2752 20.5384 24.1468 0.0505852 -0.356821 0.00241694 -0.10247 0.0896168 0.0350336
1079 1 -9.38181 19.6556 28.8441 0.505105 -0.102488 -0.225948 -0.102469 -0.221327 0.0306732
1080 1 -12.2085 21.6325 26.3117 -0.218417 0.376156 0.357084 -1.05292 0.0610526 0.341234
1081 3 -11.0217 20.3892 27.5726 0.323472 0.155282 -1.29751 -0.0526594 0.0945633 0.0713936
1082 3 -8.47368 19.639 24.7542 -0.0231699 -0.235425 0.638763 -0.0452752 0.0680699 -0.192254
1083 2 -9.62136 20.9574 31.1718 -2.7096 0.607471 -1.08208 -0.180078 0.108377 0.0248751
1084 1 -12.042 23.2962 23.8448 0.107421 1.08033 2.13981 -0.276788 0.0760213 -0.617198
1085 1 23.2749 24.0325 26.0406 -2.78558 0.402172 1.89039 0.377396 -0.114744 -0.666685
1086 3 -12.4683 23.398 27.3607 -0.61193 -1.73476 -2.26086 0.0664243 -0.107171 0.200208
1087 3 -10.4374 22.7141 25.1577 -0.249186 0.200838 -0.267444 0.00830033 0.200325 0.0891793
1088 1 -12.1309 21.3908 35.0441 -0.620636 2.23136 0.628071 0.208107 0.160556 0.486284
1089 3 -12.5879 23.287 34.0613 -0.457947 -0.593437 -0.0488057 -0.0166329 -0.00137517 -0.0944078
1090 2 -14.088 24.4079 21.9342 1.01462 1.15272 -0.041682 0.17638 0.306337 1.11669
1091 1 -13.827 26.2606 20.0359 -0.459091 -0.659419 0.818999 -0.297109 -0.221856 0.0572464
1092 1 -13.8897 26.0548 24.0256 -0.662349 1.32447 -1.26576 0.0443122 -0.456506 0.0886529
1093 3 -12.3667 24.9167 24.8649 -0.579237 0.333073 0.0352975 0.171018 0.0899475 0.0945953
1094 1 23.204 24.1834 34.976 -0.497248 0.0846895 -0.0139115 0.0285807 0.0934271 0.0460152
1095 1 -12.6669 25.0261 32.9168 0.736255 0.759789 0.853327 -0.104956 -0.265821 -0.421543
1096 3 -14.1646 25.9805 33.8611 0.0397308 0.791945 -0.535016 -0.214608 -0.0368458 0.178111
1097 2 -15.2793 27.1189 22.1135 -1.65612 0.874632 0.620374 0.564247 -0.324117 1.26151
1098 1 -15.1306 29.0636 20.0346 -2.74378 0.552022 2.15399 -0.0653342 0.318534 -0.167517
1099 3 -13.837 27.9705 18.6945 0.243452 0.127878 -1.27038 -0.183374 0.128595 -0.301372
1100 1 -15.5931 28.2075 24.4286 1.30343 0.820893 -0.742181 -0.18025 -1.03385 -0.0166929
1101 2 -14.1377 29.348 30.819 -1.45331 -0.0152647 0.113581 -0.249971 -0.0569442 -0.15479
1102 1 -14.3457 28.0209 33.1302 -0.445116 -0.113808 0.18851 -0.180909 0.00299358 -0.0190237
1103 3 -15.6513 29.2295 33.9417 -0.137351 -0.545857 -0.864196 -0.134886 -0.0800065 -0.233378
1104 2 -16.518 29.5909 21.9737 -2.59935 0.399888 -1.35998 -0.494193 0.826475 -0.604007
1105 1 -17.0667 31.412 20.1133 -0.898429 -1.81237 0.246711 0.659502 0.265618 0.0280438
1106 1 -15.2311 31.0057 29.263 -0.937823 -0.00113136 -0.336191 -0.373812 -0.0552075 0.110001
1107 3 -16.5148 30.6666 27.47 -1.74979 -1.69806 0.227502 0.725446 -0.25511 1.28554
1108 2 2.78525 0.71687 30.8052 -0.0179551 0.373781 -0.020824 -0.158395 -0.2974 0.0444896
1109 1 -15.5618 30.826 32.541 -0.335314 -0.126633 -0.52663 0.166517 -0.135343 -0.554966
1110 3 4.87566 1.10222 18.5234 -0.369287 1.44613 -0.743519 -0.907142 -1.89272 0.539842
1111 1 4.61213 1.13546 28.4741 -0.48385 0.490587 0.166466 0.0294292 0.17306 0.395369
1112 1 1.8175 2.92315 26.0565 -0.496245 0.774092 -0.0523404 0.0582099 0.152254 0.086485
1113 3 3.19429 2.00132 27.2022 0.315213 0.435042 -0.0113045 0.117926 0.121045 0.0156301
1114 3 4.88042 0.782563 25.0647 1.50906 -1.33735 0.749689 0.394956 -0.201147 0.00637851
1115 2 4.52467 2.7267 30.4616 2.15861 -1.17726 0.0318564 -0.479201 0.109436 0.109303
1116 1 4.80858 1.18931 32.5567 0.262442 0.327942 -0.470039 0.159799 0.131204 -0.202416
1117 1 1.54254 4.77079 19.5322 1.09546 0.143005 -0.0307914 0.146611 0.394818 0.232676
1118 3 3.09707 3.42993 19.0875 1.92876 -1.81576 -0.139967 -0.500297 -1.74824 -2.26509
1119 1 3.81729 3.97207 28.2412 0.129214 0.567788 0.436328 -0.0172374 0.116183 0.16817
1120 1 -0.0752206 5.12931 26.5801 0.336591 0.91727 1.00061 -0.60525 0.0749207 0.842802
1121 3 1.64288 4.32858 27.6495 0.761329 -0.574562 1.33461 0.261606 -0.24312 0.294758
1122 3 3.09097 3.67895 24.7377 -0.00467761 -0.142791 0.525661 -0.126798 -0.168169 0.138095
1123 2 3.2564 4.96991 30.6939 -1.46306 -3.44363 0.0947758 0.0071026 0.0942935 0.00543425
1124 2 0.191344 5.32369 21.802 0.562172 0.151777 0.0599635 -0.0396177 0.0544233 -0.173395
1125 1 0.213486 7.29115 19.8009 -0.8192 -0.703561 -2.02379 -0.246053 0.441768 -0.468096
1126 3 1.58643 6.3125 18.3976 1.08985 1.71978 1.76716 -0.44583 0.405471 -0.681416
1127 1 -0.00675238 6.9879 23.8956 0.128988 -0.372897 0.00138581 0.452619 0.00143426 -0.0662429
1128 1 1.67081 6.21557 29.0878 0.612171 0.534705 -0.252035 -0.0341522 -0.0953331 -0.0951768
1129 3 -0.00040377 6.97345 28.0209 0.293708 0.486443 -0.357418 0.111601 0.147411 -0.411843
1130 3 1.08621 6.54713 25.6009 -1.09463 0.120646 -1.30627 0.209881 -0.206316 0.111447
1131 2 2.36685 8.09104 30.9496 4.36985 -4.53773 -1.55009 -0.107662 0.433976 0.098842
1132 1 1.91342 6.30213 32.4441 1.28716 0.429144 -0.240248 0.0628172 -0.110233 0.10009
1133 3 0.118378 7.07938 33.4946 -0.0127167 0.20145 0.114037 -0.0139261 -0.123358 0.0472428
1134 2 -1.18952 8.26785 21.8644 0.130197 -0.424666 -0.106355 0.0833252 0.0365093 0.0268672
1135 1 -1.56311 9.99008 20.02 1.64047 0.272202 -1.31505 0.209396 0.0858066 -0.0825917
1136 3 -0.240702 9.23317 18.7473 2.64235 0.604318 2.90282 1.12783 1.48025 -0.0383563
1137 1 -1.43616 7.82093 34.8743 -0.405243 -0.0518462 0.791431 -0.0603984 -0.272895 0.0254974
1138 2 -2.99276 11.0069 21.7859 -0.782668 -0.645016 -0.597012 0.195269 0.0646852 -0.0772638
1139 1 -2.90499 12.5989 19.749 -1.05984 0.157774 -1.9123 -0.17009 0.216456 0.340949
1140 1 -2.94388 12.315 24.2331 -0.10938 0.142082 -0.0766305 -0.106367 0.0687417 -0.0280537
1141 1 -4.7129 13.6511 26.0371 -0.000917138 0.0180171 -0.0372663 -0.153916 -0.121487 -0.159004
1142 3 -3.10004 12.7951 27.255 0.309435 -0.520163 0.654753 0.0987609 0.205978 -0.0672539
1143 1 -3.04424 10.7655 34.8249 -0.107804 0.106893 -0.0650808 0.0346277 -0.0109507 0.0103052
1144 3 -2.93242 14.4493 18.6461 -3.32305 1.24169 -1.95362 2.39412 -0.197339 -0.604332
1145 1 -3.27195 14.378 28.4209 0.0278958 0.344075 -0.462459 -0.658014 -0.205182 -0.567749
1146 1 -6.1765 16.2603 26.1115 0.242068 0.41333 -0.109869 -0.0152767 -0.0629871 0.00487784
1147 3 -4.65031 15.3847 27.2033 1.19051 2.18498 1.8974 0.111193 0.0899721 0.0507863
1148 3 -2.79811 14.3632 25.0003 -0.168231 -1.05225 -0.745449 -0.0452394 -0.22938 -0.154796
1149 1 -4.74657 13.7971 35.0133 0.118973 -0.6723 0.631967 0.0834077 0.0757623 0.202982
1150 3 -4.78681 17.4663 18.8367 1.7445 0.16299 -2.16041 0.936432 0.599458 -0.730582
1151 1 -4.70173 17.1215 28.3564 0.482461 -0.0323971 0.480902 -0.130462 0.03055 -0.108291
1152 1 -7.69993 18.551 26.2427 0.391043 0.725422 0.128785 0.119131 0.114388 -0.0921681
1153 3 -6.23658 18.0257 27.5001 0.132777 0.612389 0.409945 -0.135567 -0.258096 -0.168697
1154 3 -4.47562 17.5207 25.1287 -0.267425 0.0213548 -0.132696 0.0369866 0.0541552 -0.00437251
1155 2 -7.29803 18.1284 22.175 0.345463 -0.0893872 -0.211645 -0.154676 0.0320468 -0.0913621
1156 1 -8.03827 20.8264 19.4857 0.623675 1.32535 -1.33962 0.204581 2.19804 -0.643956
1157 3 -6.23815 19.8738 18.5158 2.49666 2.15546 6.24382 0.20894 1.68992 1.59003
1158 1 -6.93589 20.1359 23.635 -0.39016 -0.989119 0.378994 0.000247431 0.343812 -0.241569
1159 1 -6.52139 20.022 28.3619 -0.205867 -0.584552 -0.237675 -0.288791 -0.134297 -0.246412
1160 3 -8.37025 20.3828 27.399 -0.337804 0.678679 -0.134168 0.118929 -0.228293 0.0501337
1161 3 -5.64294 19.5375 25.4541 0.0232285 -0.608852 0.0650975 -0.0813311 0.15963 -0.0968169
1162 2 -5.85233 20.94 30.6155 1.74298 -1.70651 0.364084 -0.700511 -0.201654 -0.342505
1163 1 -6.56304 19.8295 33.0568 -1.58298 1.02758 -0.465486 -0.901671 0.551052 -0.273466
1164 2 -9.01409 20.5533 21.7775 1.42926 -0.347216 0.869741 -0.0726806 -0.00169152 0.614853
1165 3 -8.19769 22.7081 18.3281 1.81503 1.78447 -1.40427 -0.139893 -0.394247 1.13707
1166 1 -11.1267 24.4973 26.3494 0.137525 0.0266969 -0.0407148 -0.237848 -0.36328 0.309881
1167 2 -10.8509 24.512 21.8316 2.19875 -1.0049 0.775054 0.287 -0.368617 0.156577
1168 1 -10.5547 26.7047 20.4375 -0.429974 0.0909698 0.412016 0.0673239 -0.111858 -0.268994
1169 1 -10.7225 26.3058 23.6992 -0.294667 1.09148 -1.17332 0.141372 0.0107039 0.136083
1170 1 -9.1184 25.5584 28.6585 0.531089 0.10219 -0.808876 0.35874 -0.0931519 -0.300047
1171 3 -10.7409 26.2517 27.5839 -0.256856 -0.253768 0.0888334 0.0959002 -0.00784076 0.0983346
1172 1 -11.344 24.4614 35.6254 -0.618518 -1.72211 -0.758569 0.108018 -0.204118 -0.0870714
1173 3 -11.4177 26.0883 34.0735 0.204085 -0.102811 0.217246 -0.115067 -0.149221 -0.18261
1174 2 -12.4713 27.1186 21.9991 -0.624773 0.171368 0.399689 -0.317615 0.252703 -0.148274
1175 1 -12.2823 28.9924 19.7073 0.885303 -0.0444857 0.0680995 -0.343773 -0.0649452 0.00907101
1176 1 -12.3322 28.8158 23.9484 -0.923345 -0.591292 -0.25837 -0.112067 0.152786 -0.0193052
1177 1 -10.6938 27.6863 29.1474 -0.190594 0.482455 0.898359 -0.377899 0.444973 0.361544
1178 3 -10.408 28.158 24.8616 0.204588 0.190032 0.651998 -0.249608 -0.238515 -0.382285
1179 1 -12.8915 26.9615 35.1451 -0.902758 0.462471 0.583821 -0.309052 0.140619 -0.0541961
1180 2 -10.8651 29.6564 30.7744 0.737741 -0.560626 0.0796505 0.132181 -0.0448988 -0.228309
1181 1 -11.2889 27.7902 32.555 0.110804 0.159289 -0.206782 0.0436547 -0.0697178 -0.24097
1182 3 -12.788 28.8188 33.9088 0.0219802 -0.764057 -0.0584068 0.0311016 -0.34451 0.0165929
1183 2 -13.4685 30.0024 21.7814 0.429913 0.761918 -0.112247 0.106945 0.0984622 -0.0334647
1184 1 -13.7786 31.7522 19.8418 0.0589451 0.420486 0.65203 0.237117 -0.901664 0.37565
1185 1 -13.9534 31.6988 23.605 0.964266 0.397957 -0.394897 0.118917 -0.0805956 -0.374649
1186 1 -12.3508 30.4797 28.6352 0.577544 -0.650194 -0.100542 0.326939 -0.401723 -0.0168474
1187 1 -15.5573 32.2578 26.1938 0.266741 -0.0413893 -0.089569 -0.00147796 -0.0506804 -0.013711
1188 3 -13.8859 31.597 27.457 -0.565917 0.181569 -0.474073 -0.0679551 -0.0226849 0.0743643
1189 1 -14.2224 30.1503 35.0098 1.53576 -0.469827 -1.25038 -0.102322 0.0389739 0.303766
1190 2 -12.8809 32.2168 30.45 -1.8243 0.150149 -0.217115 0.150505 0.0314836 -0.0486106
1191 1 -12.704 30.6067 32.5741 0.692748 -0.291779 0.354386 0.260328 -0.0275161 -0.130252
1192 3 -14.271 31.7346 33.8223 0.735789 1.06623 0.407496 0.177735 0.138234 0.0170044
1193 2 5.73329 0.630651 21.7759 -0.598905 -0.199423 0.0681363 0.206195 -0.0354454 0.0320941
1194 1 6.43076 1.94632 19.6735 -0.600571 -0.531627 -0.591576 0.196813 -0.13566 0.52117
1195 1 6.61228 1.53182 23.893 1.6375 -1.35608 -0.479978 0.192216 -0.21434 -0.167212
1196 1 7.70523 0.888152 28.7601 1.41089 -0.282114 -1.19718 0.0466263 0.186351 -0.0831991
1197 1 4.63103 2.61383 25.8741 0.381865 -0.0346279 -1.53228 0.0365776 0.0940555 -0.457471
1198 3 6.35956 1.94983 27.22 0.567814 -0.436743 0.555709 0.037473 -0.0850763 0.0833496
1199 3 8.11905 0.665449 25.1554 0.22174 0.0817204 0.0604307 -0.0496269 -0.0303779 -0.0423093
1200 2 7.60749 2.61563 30.675 1.66092 -2.78183 0.642273 -0.102315 0.404987 0.0291396
1201 3 6.92358 3.75748 18.328 -1.27018 1.62809 -0.713018 -0.639507 0.0952771 0.676378
1202 1 2.7557 5.45229 26.1367 -0.538063 0.887453 0.991228 -0.174549 -0.180665 0.145027
1203 1 4.44624 2.54065 34.9136 0.234381 0.2957 0.290257 0.203473 0.36599 -0.0872171
1204 1 5.69906 4.15921 32.2185 0.0830549 -0.196751 -0.144827 -0.262706 -0.0130541 0.187255
1205 3 4.7389 4.30966 34.0351 0.146732 0.483239 0.957433 -0.102038 -0.326431 0.501554
1206 3 4.72541 6.73788 18.5514 1.36748 0.0995512 2.61358 -0.430468 -0.401624 1.14766
1207 1 1.37296 8.23423 26.6841 1.00163 0.235717 -0.357097 0.37529 -0.13724 0.0895972
1208 3 2.92112 7.38034 27.3728 0.384535 0.527614 -0.0741145 0.24598 -0.0567657 0.0490785
1209 1 2.94276 4.961 34.3539 0.594332 -0.412165 0.164626 0.145014 -0.0318607 -0.00135053
1210 3 3.183 7.00459 34.0806 0.209039 0.934813 -0.00707321 0.0274544 0.0750403 0.00996266
1211 2 1.38539 8.07576 21.9933 -0.537758 0.593814 -0.497956 0.0644112 -0.166807 -0.053377
1212 1 1.40214 9.95461 23.7569 1.50831 -0.843212 -0.698527 0.235877 0.2346 -0.145926
1213 1 3.18211 9.13766 28.8427 -0.30502 0.152179 -0.706525 0.250319 0.17269 0.395488
1214 3 2.00002 10.1672 27.6432 -0.176006 -0.223467 -0.640765 -0.0358861 -0.0891837 0.14715
1215 3 2.92669 9.36407 25.1862 0.0552952 0.477365 -1.56507 0.278108 -0.144668 -0.09452
1216 1 1.61853 7.87292 34.9116 0.234463 -0.00852998 -0.220687 -0.0627024 -0.0416953 -0.0234696
1217 2 3.04651 10.9154 31.2184 -0.881745 0.465025 0.0453038 0.0774719 0.091965 -0.0302951
1218 1 3.79453 8.88486 33.1124 1.11176 -0.291821 0.15128 -0.0102648 0.473344 0.000212266
1219 3 2.13148 9.83403 34.4104 0.0452946 0.141543 0.291909 -0.11897 0.0311789 -0.100539
1220 2 0.0123979 11.0339 21.8344 0.765778 0.870252 -0.777766 0.151673 -0.0860805 -0.0176824
1221 1 0.17525 13.0326 23.5421 -0.62174 1.24535 0.280425 0.271773 -0.0916702 -0.100316
1222 1 1.52065 11.7633 28.8639 0.393754 -3.52339 7.93772 0.32584 -0.22379 2.0323
1223 1 -1.40018 13.7016 26.3988 0.0188256 0.610774 -0.445513 0.0968008 0.528046 -0.355825
1224 3 -0.550754 12.0743 27.6416 -0.99982 0.479334 -0.171728 0.186452 0.266026 -0.0217441
1225 3 1.38451 11.8116 24.8147 -0.247897 0.268617 0.143935 0.133897 -0.202474 0.11947
1226 1 0.299247 10.6745 35.5717 -0.699599 0.383053 0.627343 -0.0373672 -0.161577 -0.113467
1227 2 1.3055 13.7095 30.8692 0.936093 2.34147 0.403412 -0.104904 0.427523 0.270255
1228 1 1.60957 11.4238 33.3079 -3.06641 1.06356 2.74615 0.250885 -0.0451014 -0.333217
1229 3 0.310572 12.5991 34.5651 0.215231 0.826732 2.58309 -0.0678489 -0.0720077 -0.0211971
1230 3 0.0638796 13.7975 19.2784 -0.76415 -1.41929 -3.67708 0.4525 -0.625174 -1.39857
1231 1 -0.287166 14.0007 28.8824 -1.49123 1.46342 -0.433623 -0.16252 0.181752 0.43549
1232 1 -2.91913 16.2992 26.2003 -0.444984 0.286844 -0.00940501 -0.0345847 0.259731 0.120293
1233 3 -1.54504 15.348 27.6457 -0.821379 0.238354 -0.035947 0.283854 0.0344204 -0.101736
1234 3 0.586917 13.9838 25.4903 1.29136 0.61738 -0.577737 -0.314654 0.0542739 0.446245
1235 1 -1.38988 13.5289 35.4474 -0.366266 0.0342296 0.946332 0.0511876 -0.060163 -0.247552
1236 2 -0.467947 15.8387 31.1774 -0.81285 -0.330132 0.341337 -0.253644 0.454921 0.432302
1237 1 0.19223 14.3872 33.2226 -0.549594 -0.693001 0.364491 -0.392964 0.00444257 0.155456
1238 3 -1.9974 14.8419 33.8063 -1.6526 -0.630788 2.34684 -0.218755 -0.130033 0.465706
1239 3 -1.57193 17.6937 18.1794 0.310539 -0.417089 0.487281 1.88141 1.2622 0.324063
1240 1 -2.13744 16.5926 29.4067 1.55288 0.916663 -1.61103 -0.159264 1.55238 0.0648579
1241 3 -3.05255 17.8464 27.9522 -0.424935 -0.386476 0.160383 -0.0794057 -0.0308788 -0.0831098
1242 3 -1.15654 17.2541 25.5973 -0.775717 1.3494 0.385036 0.105911 0.332881 -0.0884454
1243 1 -2.85373 16.2383 35.3083 -0.0711495 -0.306081 0.19424 -0.158113 -0.362497 0.120636
1244 2 -1.61914 18.8106 30.6247 -0.574203 -0.577786 1.16413 0.150785 -0.711565 -0.29059
1245 3 -3.10421 17.8638 34.0932 -0.253241 -0.340137 1.33444 0.0402896 -0.0295385 -0.211103
1246 1 -4.72314 20.9965 19.6276 0.0356795 2.32107 -1.08166 -1.18753 0.485869 -0.373015
1247 1 -3.7878 19.5512 29.477 -0.289632 -1.71563 0.152616 1.23913 -0.200199 0.331029
1248 1 -4.44914 18.7619 35.3097 -0.476587 -0.183203 0.121755 0.198594 -0.404437 -0.0318617
1249 2 -3.38465 21.6194 30.9575 -1.60003 2.60954 0.603013 1.99323 -0.219554 -1.25146
1250 1 -3.07884 19.5872 32.588 -2.00377 -0.884051 1.94291 -2.5395 -1.7379 1.37409
1251 3 -4.66581 20.4788 33.9848 0.203292 -0.914283 -1.1858 -0.154227 0.0727867 0.10263
1252 2 -6.52942 21.6622 21.5929 1.34143 -0.146211 0.145077 -0.233163 -0.104279 0.173409
1253 1 -6.51703 23.4527 19.8832 -0.712411 -1.20617 -0.0324265 0.511807 -0.709324 0.646497
1254 3 -4.73056 22.6915 18.5561 -3.0477 -2.98846 -2.98507 -0.704057 0.523202 0.19188
1255 1 -4.58146 22.5748 28.6343 0.020633 -0.112038 -0.252721 -0.043913 0.099072 0.00137296
1256 3 -5.97748 23.3365 27.2116 -0.149847 0.0467262 1.4028 -0.0406042 0.073878 0.152855
1257 1 -5.84566 21.8186 35.2815 -0.497351 -0.103929 0.0555362 0.301807 -0.0712885 0.201613
1258 2 -5.01067 24.0854 30.7081 1.60909 2.68201 -0.581012 -0.274224 0.260399 -0.213913
1259 1 -5.06792 22.281 32.6796 0.282937 0.568252 0.123746 0.158687 0.751845 0.780094
1260 3 -5.55168 23.6125 34.257 -0.830862 -0.443721 1.40202 -0.0788774 -0.0221405 0.228025
1261 2 -7.74297 24.3249 22.1124 1.49968 -3.20793 4.02854 0.372357 0.0250055 -0.12658
1262 1 -7.85765 25.8309 19.7739 0.416077 0.282187 0.0485592 -0.585272 1.02294 0.0415313
1263 3 -6.12921 25.2986 18.8632 0.548663 -0.150826 -1.8704 0.409631 -0.910612 0.780521
1264 1 -6.366 25.0415 28.2451 0.069163 0.258751 -0.227609 -0.103852 -0.0510671 0.263661
1265 1 -9.52176 27.1928 26.4548 -1.3916 -2.0987 -0.956659 -0.266978 -0.499849 -0.193262
1266 3 -7.71018 26.352 27.1676 -0.48373 -0.755252 -0.611933 -0.0796577 0.224563 0.208432
1267 1 -7.38459 24.1669 35.1918 0.568471 0.0888612 0.625339 0.154715 0.0734233 0.442215
1268 1 -5.77206 25.1452 32.8507 -0.21364 -0.905625 2.56272 -0.413998 -0.227475 0.44948
1269 3 -7.78987 25.5492 33.7599 -1.49865 -0.984633 1.78464 0.191979 0.287722 0.104053
1270 2 -8.65531 26.7463 22.2345 1.02742 -2.02467 -0.668204 -0.105419 -0.0598662 -0.0672046
1271 1 -8.40066 28.574 20.506 0.173968 0.20421 -1.31495 0.433945 -0.266076 -0.618671
1272 3 -6.96704 27.7608 19.0709 3.19146 -0.481684 -1.77236 -1.4461 1.77632 2.05272
1273 1 -9.00557 29.1202 23.7455 -0.267793 -0.21898 0.654264 -0.103547 -0.102497 0.200595
1274 1 -7.60781 27.934 28.2616 0.292314 -0.945497 -1.12629 -0.159429 -0.160403 -0.0239052
1275 1 -10.6197 29.8002 25.9848 0.326535 -0.181362 -0.30284 -0.0983916 -0.0157082 0.187372
1276 3 -9.46621 28.7757 27.5927 -1.0376 0.783634 -0.748323 -0.018424 -0.236922 0.123574
1277 1 -9.52573 26.7358 34.9562 -0.0639199 -0.441267 -0.351329 -0.118435 -0.113398 0.0382652
1278 3 -9.67228 28.5136 33.8937 0.219984 -0.0481181 -1.29536 -0.221428 0.0139562 -0.213059
1279 2 -10.6195 29.1766 21.7129 0.208976 0.708389 0.00175139 -0.226495 -0.332117 -0.199695
1280 1 -10.9999 31.3543 23.5338 0.984938 1.01371 0.076537 0.242095 0.13394 0.140372
1281 1 -9.15627 30.4258 28.6774 -0.466597 0.650322 -0.0831687 -0.132069 -0.107594 -0.0960948
1282 1 6.37931 0.293099 26.3285 0.0744121 0.0180664 0.20471 -0.0526556 0.17166 -0.0983686
1283 3 -9.20227 30.7102 25.2345 0.260149 0.134365 -0.0639195 -0.0230888 -0.0661263 0.0622041
1284 1 -11.2498 29.3107 34.9354 -0.212333 -1.02115 -0.200864 -0.0556306 0.201204 0.191589
1285 2 8.94858 0.431743 21.5861 -5.44685 -3.03053 -1.41614 -0.0403871 0.156565 0.138462
1286 1 9.37971 2.28223 19.9233 0.594419 -0.707816 0.187582 0.113064 0.291044 0.395743
1287 3 10.5934 1.00056 18.1378 0.0210065 -0.367821 -0.387531 -0.290574 0.103475 0.288133
1288 1 9.30439 1.83961 23.9657 -0.278682 0.722036 -0.580321 -0.0795624 -0.06943 -0.0224206
1289 1 10.9736 0.917347 28.0232 -0.993343 0.493535 -0.00200443 -0.0405831 0.119345 -0.0557245
1290 2 10.8675 2.70916 30.38 -0.0137645 -1.04373 -0.164849 -0.299573 -0.0379702 0.0755365
1291 2 7.71752 2.7559 21.89 0.168596 0.436758 -0.458421 0.0630671 0.0732133 0.0854295
1292 1 7.0818 4.71135 20.4261 -0.259798 2.3468 -0.874501 0.093206 -0.118368 0.328389
1293 1 7.85539 4.50614 23.7316 -0.155388 -0.0866427 -0.505417 0.103088 0.340027 -0.498977
1294 1 9.22581 3.54536 28.7113 -0.0365984 0.365678 -0.539723 0.0293399 0.0376311 -0.153083
1295 3 9.29343 3.76094 24.9901 0.631536 -0.30197 0.133494 -0.0984765 -0.0873842 0.163665
1296 2 9.12243 5.08749 30.7515 0.281946 -0.614501 -0.264519 -0.161099 -0.0435197 0.105198
1297 1 9.04951 3.38856 32.6477 -1.21694 0.223423 0.135641 0.330937 0.160761 0.213552
1298 3 7.53917 4.49059 33.5426 -3.45298 0.349565 -2.09372 -0.0914617 -0.0371572 0.0470289
1299 1 6.17961 7.37008 19.6909 0.00425845 -2.14702 -1.89031 -0.41649 1.61262 0.798411
1300 3 7.60481 6.19198 18.9062 -3.87448 -1.36464 -2.10601 0.212205 0.0886939 0.412605
1301 1 4.41871 8.57582 26.4349 0.0396573 0.0444207 0.3197 0.213655 0.0730926 0.00335369
1302 1 6.15216 5.28341 34.9791 0.0643913 -0.559228 0.912372 0.0516417 0.0734959 0.0366854
1303 3 6.38492 8.9599 18.2755 -2.75524 0.215518 2.34933 -0.854834 -0.772481 -0.750789
1304 1 4.95254 9.90987 24.0082 3.26976 -2.39297 -0.223334 0.133019 0.0164982 -0.156482
1305 1 6.22713 9.21743 29.0158 0.784326 0.683676 -0.917331 -0.268803 -0.265596 0.360583
1306 1 3.05062 11.0298 26.1402 1.03329 0.596034 -0.12697 0.00606426 -0.0755156 0.024764
1307 3 4.59687 10.0905 27.6453 0.656367 -0.288233 -0.172853 0.0146539 0.351649 -0.0167784
1308 3 5.07237 11.5211 18.1677 1.48291 -3.2981 0.19963 1.57829 0.146687 2.40424
1309 3 4.79229 11.7773 25.2149 0.559975 -0.08324 0.37818 -0.0915534 -0.140357 0.128648
1310 1 3.35878 10.8591 35.6104 -0.30115 -0.455851 0.257528 0.182639 -0.0576196 0.0262757
1311 2 5.03728 13.3587 30.4866 0.504194 2.81289 2.76255 0.0668861 0.301298 0.0368591
1312 1 5.61354 11.0502 31.4648 -1.88986 0.277161 -0.216435 0.374291 0.165069 0.175454
1313 3 3.16698 12.5669 34.43 0.292367 -0.247936 -0.760919 0.0271546 -0.0488003 -0.0917354
1314 1 1.38826 15.1648 19.957 -0.542025 -1.61891 0.0743608 -0.586568 -0.933454 -0.91203
1315 3 2.88261 14.2684 18.5917 0.130714 -4.27172 0.494885 -0.273163 0.72292 0.538791
1316 1 1.47596 15.3312 24.1593 0.195752 1.81796 0.655747 0.467133 0.0894594 0.277877
1317 1 2.99221 14.1742 29.0108 1.59646 1.27375 0.326281 0.714618 0.355936 0.172848
1318 1 0.234625 15.9329 26.5785 0.392046 2.13797 1.56376 0.537836 0.841379 0.464612
1319 3 1.22798 14.5321 27.789 0.00315075 -1.08861 4.45729 0.178938 0.237271 0.410411
1320 1 1.72766 13.36 35.492 0.920285 -0.985348 1.0751 0.167779 -0.402736 -0.213054
1321 2 3.63173 15.9129 30.9224 0.591281 -1.69282 6.60365 0.362283 -0.808504 1.56802
1322 1 3.29398 13.2998 32.3825 3.0041 2.50569 -2.11466 -0.744801 -0.435777 -0.309692
1323 2 0.0796241 15.2397 22.1699 0.458252 0.127317 -0.0122695 -0.0504782 -0.185522 0.182795
1324 1 -0.747593 17.0396 20.0854 1.88646 0.315689 0.381306 0.513887 -0.335888 0.00405303
1325 3 1.0787 16.8205 18.7348 -1.8873 -4.21004 0.354562 -0.793406 0.64226 -0.416963
1326 1 -0.323549 17.3747 23.6298 -0.132157 -0.242318 -1.00889 0.225208 -0.669458 0.215667
1327 1 1.25045 16.2934 29.4355 -3.72939 -1.40621 3.26872 -0.580554 -0.0705193 1.29133
1328 3 1.5408 16.8721 25.3292 3.15963 -0.362132 1.2551 -1.11055 0.425763 -0.266315
1329 2 0.87056 18.071 31.4196 -0.622125 4.79542 1.52318 -1.39965 0.487608 0.02319
1330 2 -2.04071 18.4328 21.8857 -0.702748 -0.541164 0.0933619 0.43324 0.0580517 -0.242491
1331 1 -1.77661 19.967 19.8418 2.67682 0.502443 -0.703424 1.94418 2.62181 1.35963
1332 1 -2.0473 20.2053 23.7336 0.579701 -0.199081 -0.112001 1.09964 0.0155409 0.352964
1333 1 -1.49446 18.5807 35.1368 2.01444 -0.431143 1.06011 -0.053571 -0.279992 -1.02238
1334 2 -0.8694 22.0584 30.5626 -2.02689 3.24774 0.511523 -0.269231 -0.314657 -0.537774
1335 1 -0.242668 20.1578 32.1562 -1.0552 0.960078 2.0708 1.34871 -0.375298 0.561089
1336 3 -1.60233 20.3799 33.8536 -5.76794 -5.48629 -5.69994 0.455605 0.484278 0.612978
1337 2 -3.47446 20.9655 21.8269 -1.1648 -2.24002 0.438354 0.40999 0.3149 0.0892948
1338 1 -3.47024 23.0212 23.6809 -3.3617 0.709858 -2.1743 -0.0759654 -0.190877 0.362439
1339 1 -4.84452 24.6159 25.9669 -0.790475 0.894241 0.664408 0.293555 -0.45814 -0.129038
1340 1 -3.0658 20.992 35.3731 -0.316267 -0.714305 -1.82309 -0.0962352 0.0703132 0.399845
1341 2 -2.14528 24.4092 30.9185 2.69419 3.46153 -0.419834 0.128144 0.492748 -0.151743
1342 1 -2.041 22.5024 33.0143 -3.35893 0.183365 0.658866 -2.84716 0.372921 -0.0299307
1343 2 -5.20442 24.1131 22.2757 0.390917 1.11576 -0.73935 0.246654 0.0964236 -0.205137
1344 1 -4.07586 26.0352 23.4572 2.71153 2.04207 -0.528424 -0.878457 0.35869 0.79092
1345 1 -3.61318 25.266 29.0343 0.287976 0.440832 0.855768 0.32936 -0.263746 -0.00245386
1346 1 -6.08645 27.1349 25.9949 0.438637 -0.516129 -0.277988 -0.538619 -0.598515 -0.232628
1347 3 -4.67624 26.1196 27.3951 -0.591595 -0.941413 3.05735 0.0317834 0.138763 0.62597
1348 3 -2.90204 24.7841 25.0234 -1.43642 -1.3973 0.0449549 0.346335 0.0728159 -0.0535807
1349 1 -5.60806 29.1287 19.6354 0.625507 -1.56279 -0.688796 -0.185503 0.0550316 -0.198906
1350 3 -4.66887 28.6112 18.0266 -0.848439 -0.927267 -1.2731 1.17389 0.924099 0.695973
1351 1 -4.57503 27.971 28.4256 -0.195449 0.106454 -0.44966 -0.111521 0.143242 0.335061
1352 3 -5.95236 28.6776 27.3421 0.0723599 3.99114 3.04045 -0.164881 0.553724 0.618511
1353 3 -4.11792 27.3916 25.1246 2.3439 -1.50691 -3.13384 -0.177162 -0.18977 0.274314
1354 1 -6.63019 26.9159 34.8235 0.163104 0.402526 -0.294913 -0.0805052 0.179074 0.174926
1355 3 -6.54032 28.8252 33.6008 0.790989 -0.819468 0.0325239 -0.0245471 0.0934397 0.0899032
1356 1 -7.99766 31.6595 19.5705 1.05588 -0.245275 -0.445662 -0.138957 0.729861 0.0960304
1357 3 -6.57291 30.7442 18.5278 -1.78281 -0.174994 0.416086 -1.09011 -0.755606 0.291548
1358 1 -6.17739 30.5903 28.2306 0.131117 -0.23212 0.0558292 0.169474 -0.181718 -0.0669927
1359 3 -7.89754 31.3212 27.1889 0.0336188 0.423617 0.192572 -0.0563333 0.0656005 -0.0230766
1360 1 -7.90801 29.5775 34.793 -0.21775 0.15006 1.42699 -0.103261 0.191364 0.220923
1361 2 -6.00506 32.2493 30.292 3.60888 0.892177 -1.48723 0.0267663 0.244232 0.0180089
1362 1 -6.43062 30.7664 32.4117 0.598899 -0.568488 0.289693 -0.159554 0.159744 0.0649209
1363 1 12.226 1.81519 19.0884 -0.917617 -0.346933 0.975163 -0.15428 -0.605863 0.306679
1364 3 13.7549 0.772673 18.1233 -0.258809 6.22575 -3.05123 0.243354 0.685783 -0.409604
1365 1 10.582 3.07584 26.3183 0.0882373 -0.660058 -0.395222 0.0384488 -0.105228 0.0172184
1366 3 12.093 1.73851 26.3177 -1.07526 1.80987 0.0109796 -0.119235 0.178201 -0.0567891
1367 1 12.7224 0.00479755 34.7834 0.166547 0.0617802 -0.0394146 0.0449381 -0.0381466 0.122379
1368 1 14.2494 0.852184 32.3626 -0.249171 -0.00917509 0.254036 0.101388 -0.0920276 0.122074
1369 3 13.0486 1.89297 33.9126 -0.686608 1.39149 0.437439 -0.174417 -0.392571 -0.29801
1370 1 10.9114 4.75508 24.0898 0.184564 0.800707 0.841624 -0.379854 -0.249066 0.126244
1371 1 9.32362 5.84892 26.3733 0.771231 -0.845204 0.834296 0.121462 -0.213452 0.0215479
1372 3 10.5762 4.88152 27.5522 0.350849 -2.09106 0.565938 0.179674 -0.157604 -0.00969098
1373 3 12.4073 3.92928 25.6247 -0.220384 -0.0715713 0.260957 -0.002504 -0.0437 -0.00398806
1374 1 11.7569 3.35365 34.7142 -0.00958037 -0.304247 -0.134277 -0.568574 -0.196971 0.501608
1375 2 12.3558 5.62861 30.4273 1.08163 0.171233 -0.182543 -0.176345 0.155676 0.0752163
1376 3 10.5622 4.42265 33.5127 -0.0269344 0.0527419 -0.0440152 0.141383 0.0119641 -0.0344094
1377 2 9.34408 5.51197 21.9518 -0.373384 0.251155 -0.0628786 0.174401 -0.0329931 0.0302648
1378 1 9.21737 7.21804 20.2386 -0.157105 -0.2736 -0.138905 -0.285148 0.285058 0.285003
1379 1 9.54451 7.38134 23.6976 -1.25242 0.333819 0.115483 -0.169415 -0.258522 -0.108723
1380 1 10.3649 6.42743 29.133 0.758842 0.448916 -0.318787 -0.0472938 -0.305536 0.0509963
1381 3 10.1889 7.68894 27.6164 -1.22984 0.921889 -1.37519 -0.0445504 0.0720153 0.0741723
1382 3 10.947 6.52378 25.1905 0.265257 1.50182 -0.446356 0.0365669 0.0415529 -0.016429
1383 1 9.34964 5.43548 34.7792 -0.070556 0.0627141 0.051389 -0.119703 0.136935 0.039385
1384 2 11.4149 8.40593 30.5123 -0.120734 -0.144678 -0.440296 -0.0536784 0.0805389 -0.0844247
1385 1 10.9272 6.23144 32.4615 -0.772274 1.38167 -1.80039 -0.362526 0.082507 0.359145
1386 3 9.50787 7.33305 33.7312 0.285992 1.6346 0.264984 -0.0872288 -0.364793 -0.0859522
1387 2 8.0282 8.54101 21.8386 0.477659 1.21494 0.0552029 -0.106916 -0.238106 -0.0670608
1388 1 7.50302 9.81631 19.6264 -0.484343 0.418599 -0.551249 0.44645 0.680484 0.900233
1389 3 9.33639 8.65137 18.8982 -0.206723 3.80141 1.98832 1.3269 -0.931378 -0.943616
1390 1 7.80777 9.98405 23.8945 0.0430572 0.259192 -0.0625539 0.122953 -0.5518 -0.100858
1391 1 9.13605 8.85882 29.478 -2.24882 -1.52466 -0.708547 0.176069 0.561164 0.468215
1392 1 6.33255 10.914 26.6717 3.04646 -1.37258 2.48295 -0.488018 0.536221 -0.476057
1393 3 7.91417 9.44573 27.7635 0.23777 -0.0987705 0.135508 0.164183 0.138419 -0.374858
1394 3 9.47047 9.20768 24.611 -0.988779 2.57443 0.303698 -0.0921038 0.158433 0.0130608
1395 1 7.83787 8.09695 34.8965 -0.454324 -0.0719758 0.846681 -0.124898 0.0238219 -0.0673031
1396 2 10.024 11.0084 30.7494 -0.552354 0.319348 -0.118251 0.0196862 0.241686 0.254784
1397 1 9.48023 9.22259 32.5996 0.52358 1.14879 0.889317 0.152971 0.0100407 -0.353406
1398 3 8.10298 10.0275 33.9579 -1.08419 0.864265 0.933682 0.195234 -0.0526298 0.0440574
1399 2 6.67084 11.0466 21.8466 0.725894 1.97603 -1.21979 0.023477 0.103341 -0.472143
1400 1 6.63172 12.4448 19.5046 -0.532014 -0.236297 0.0151542 -0.209026 0.270257 -0.875178
1401 3 7.88892 11.5345 18.4132 -6.68249 -0.344272 0.396533 -0.00921336 1.26868 0.646508
1402 1 6.34963 12.4811 23.904 0.81296 0.505123 -1.09737 0.17102 -0.286834 0.472235
1403 1 8.43445 11.2107 28.7631 -0.692492 -0.809242 0.254307 -0.450421 0.476911 -0.165206
1404 3 7.85862 11.5576 25.2648 -0.469283 -0.812291 -0.225832 -0.283718 -0.309929 0.050915
1405 1 6.24368 10.6143 34.8266 -4.38329 -0.627548 -1.1181 0.952213 0.236221 0.208133
1406 2 7.79633 12.6939 30.5879 0.449221 -0.525516 0.387674 1.13271 -0.612403 -0.113041
1407 1 8.06821 11.5629 32.7117 -0.495164 -0.339959 4.45829 -0.434181 -0.774882 -0.649669
1408 3 6.26718 11.6761 33.1799 -0.088718 -0.711408 -0.571658 0.0981249 0.138425 0.0839101
1409 1 4.26709 14.8906 20.011 -1.39154 -3.93928 -1.18469 0.726372 -2.62181 -0.591019
1410 3 5.81786 14.2633 18.9181 1.9915 -1.45076 -0.887863 1.67213 -0.125248 -0.999046
1411 2 6.419 15.6442 31.1366 -1.75541 -1.75053 -0.824209 0.101606 -1.52431 -0.853595
1412 1 6.34652 13.6011 32.9062 0.684778 -4.25218 -0.560245 -0.805897 1.42874 1.19756
1413 2 3.16393 15.5104 22.3086 1.49566 -3.02085 -0.177754 -0.176801 -0.324842 -0.0341327
1414 1 2.21567 17.8963 19.678 0.354685 0.406415 -0.771336 -0.105402 0.0429299 -0.860464
1415 3 4.0174 16.8032 18.6471 8.70735 -5.10231 -1.22084 -1.86831 -1.08295 0.692432
1416 1 2.62694 18.0552 24.0377 -0.614139 5.62457 0.965027 -2.23165 -1.50807 0.647806
1417 2 3.28825 18.464 31.0255 1.41662 -2.57834 -5.8481 -0.176307 -6.42104 1.22578
1418 1 4.60595 15.422 33.042 -0.274153 1.4809 -1.08713 1.79737 1.56093 2.27392
1419 2 0.959121 18.8665 21.6829 -4.71367 0.0400245 -2.72727 -1.91777 -0.510623 0.327883
1420 1 0.546835 20.315 23.7114 0.295689 2.74498 -0.266423 -0.49115 1.26052 0.614911
1421 3 2.0279 20.0224 25.3281 -3.81246 -0.606324 -0.409664 -3.47482 0.104379 0.0448303
1422 2 1.99961 20.7366 30.8424 15.8506 -5.81183 -2.76945 12.13 2.07175 5.66961
1423 1 2.42744 19.2813 33.2589 -0.768587 -1.9435 2.82849 -2.39195 -0.652958 1.27451
1424 3 1.26958 20.9119 33.8741 -7.01355 4.39831 3.30246 -2.24735 -4.9063 3.08691
1425 2 -0.807289 21.2963 21.6419 0.0489058 1.70807 -1.15684 -0.505506 -0.501125 -1.20064
1426 1 -0.49874 23.0059 19.7195 1.89049 0.97061 -0.29788 1.36727 0.488198 -0.306595
1427 3 1.10505 22.2397 18.2973 13.2664 -7.60711 2.88332 1.60569 -0.267736 2.0887
1428 1 -0.11131 23.117 23.1384 -1.81848 1.03265 4.48425 -0.473539 -2.01255 -0.191331
1429 1 1.03253 22.1264 29.127 -0.670003 -0.0373133 -3.54379 0.795441 -0.284746 -0.241731
1430 1 -0.295947 21.685 35.1095 -2.70211 1.16844 0.386833 -0.279795 3.21711 0.0135337
1431 2 0.335788 24.4548 30.0992 -0.807836 2.11002 0.768489 1.07688 -0.199742 -0.296517
1432 1 0.444967 22.7018 32.4538 4.39195 -0.648094 1.93159 0.586554 2.04847 1.76236
1433 3 -0.460128 23.4909 33.9999 -0.235103 1.60685 -0.713896 -0.22044 0.273017 -0.475433
1434 2 -2.11045 23.8606 21.6336 3.19781 4.41052 0.62592 -0.234985 -0.51601 -0.0200863
1435 1 -1.3717 25.4116 23.7471 -0.162469 -0.507933 2.57246 -0.308609 0.415585 -2.00468
1436 1 -2.75484 26.6669 26.3416 1.05276 0.764515 2.36629 0.176689 0.542586 -0.290488
1437 1 -1.24145 25.3372 33.1639 -1.47677 -1.66326 1.49356 0.0665079 -0.227177 0.228791
1438 2 -4.18684 27.8393 21.5412 1.10254 -0.167412 1.33603 -0.313331 -0.106447 -0.164227
1439 1 -2.75787 28.3224 23.6695 2.51425 -0.0726463 -0.566849 -0.921834 -1.01833 0.00620208
1440 1 -4.63356 29.4396 25.8484 0.195524 -0.485856 -0.30351 -0.0367637 -0.136365 0.228757
1441 3 -3.23907 28.735 27.0086 -0.275331 -3.0551 -0.940971 -0.1207 0.23981 0.340981
1442 3 -0.999795 27.5935 25.0848 -0.522083 1.28008 1.71154 0.144227 0.040013 0.298326
1443 3 -2.99612 28.8491 33.4412 -0.448495 -0.16601 0.315332 0.0986455 -0.0959465 0.0860884
1444 1 -4.71356 31.6042 19.5781 -0.806018 -0.496238 0.864443 -0.743293 -0.761775 -0.613787
1445 3 -3.0422 30.8312 18.4818 -3.47044 4.49183 -3.73013 0.852477 0.289806 1.22885
1446 1 -2.68174 30.2913 28.2694 0.179928 0.545405 -0.232488 -0.386085 0.0207574 0.75393
1447 3 -4.32833 30.8637 27.3629 0.0964033 0.61238 -2.8356 -0.150979 0.146715 -0.145912
1448 3 -3.10769 30.2621 24.5857 0.402989 1.94103 0.845076 0.126172 0.757494 0.358986
1449 1 -4.70471 29.3644 34.6226 0.0711382 -0.21079 -0.146002 0.0246972 0.0301942 0.0264992
1450 2 -2.79378 31.9708 30.3282 -1.58315 0.462627 -0.227498 0.0232271 0.0796181 0.0262667
1451 1 -3.18345 30.5607 32.3272 1.15813 -0.267163 0.314007 -0.209743 0.524711 0.127521
1452 3 -4.73569 31.244 33.4659 0.634087 1.50424 -1.38699 -0.0262836 -0.08705 0.155982
1453 2 15.46 0.238667 21.6186 0.471215 -0.176928 0.432745 -0.182661 -0.094185 -0.389467
1454 1 15.375 1.81877 19.6556 -0.108819 -0.261291 4.92651 0.190028 -0.326866 -0.50448
1455 3 16.9015 1.09999 18.6829 2.9203 -3.08206 0.896418 1.24012 -0.596462 0.930265
1456 1 16.0104 2.01359 23.9206 -1.29632 -2.93723 -2.04367 0.460772 1.32251 -0.00103396
1457 1 17.3536 0.782706 28.4326 0.272637 0.00862801 1.45166 -0.0459246 0.0601072 0.113515
1458 3 16.7745 0.38795 24.6089 -2.62086 -0.709691 0.937938 -0.3096 0.20495 0.221587
1459 1 17.1503 0.862293 32.4039 1.19235 0.0665884 0.0493446 0.0674284 0.00228618 -0.288515
1460 2 13.8845 2.41831 22.736 -2.77613 -0.979871 1.62737 0.88429 -0.604634 -0.786235
1461 3 15.3297 3.64184 18.5846 3.13313 2.05037 -1.13152 0.395568 -0.264315 0.202968
1462 1 13.9733 4.53363 24.2363 -1.42482 1.3776 -2.47477 0.310383 -0.078507 0.214054
1463 1 12.355 5.64172 26.581 0.0698497 0.100183 -0.432207 0.135269 0.174961 0.0660963
1464 3 15.7145 3.81483 25.167 4.13086 -5.41602 -7.74658 0.311123 -0.275255 -0.175689
1465 2 12.5225 4.75633 22.1552 -2.29585 -4.82343 -0.88187 0.109575 -0.307735 0.122309
1466 1 12.5671 7.31975 23.7918 0.920602 -0.612123 0.164279 0.170644 0.0279115 -0.0181956
1467 3 13.9587 6.44996 25.3357 0.106088 -0.380633 0.951642 -0.17446 -0.152567 -0.111012
1468 2 14.442 7.74718 30.2874 0.240377 0.039854 0.239626 -0.140101 -0.0652052 -0.0456716
1469 1 13.7031 6.71577 32.436 -0.515838 -0.201837 0.611431 0.0579809 -0.20211 0.11332
1470 3 12.3874 7.39268 33.8473 0.252219 -0.262677 -0.461246 0.0393219 -0.181085 -0.035178
1471 2 11.082 8.30673 21.7889 3.09476 -1.01278 0.00375217 0.0840846 0.0680261 0.0578934
1472 1 10.8458 9.8568 19.6381 -1.08411 0.630055 0.11124 -0.68055 0.169356 -0.950617
1473 1 11.1389 9.96585 23.8447 -0.811688 1.80321 -0.0966441 0.0183868 0.205023 -0.0194359
1474 1 9.3423 10.2887 26.3875 0.624467 -0.0677182 -0.00173715 -0.25176 -0.42713 0.0901308
1475 3 12.8376 9.25176 24.7223 -0.41659 -0.0126496 -0.011111 0.016799 -0.0496136 0.0673404
1476 1 10.7713 7.94989 35.1276 -0.212627 0.46657 -0.918186 -0.0901098 0.267695 0.0139075
1477 1 12.2476 9.06302 32.9071 -1.56045 -0.145015 -1.42124 -0.413051 -0.20227 -0.669852
1478 3 10.8089 9.70584 34.1638 -0.147577 0.783889 0.772637 0.196155 -0.058332 0.301132
1479 3 10.4633 11.6214 18.687 2.58866 -2.08151 -3.0368 -0.158099 0.19385 0.578469
1480 1 9.42196 12.148 23.9847 -0.395565 -0.405755 0.0346832 0.103913 -0.118101 -0.171625
1481 1 8.08568 13.3218 26.2067 4.05824 1.24972 0.920082 -0.696741 -1.96614 0.386269
1482 3 9.32156 12.2303 27.1341 0.92145 -2.34915 -0.475521 -0.103921 -0.0916767 0.433864
1483 3 11.0594 11.0029 25.5795 2.02809 -2.47021 2.07604 -0.0944029 -0.288379 0.53796
1484 1 9.39167 10.6284 35.3765 -0.140315 0.768536 0.660523 0.022388 -0.0939311 0.253354
1485 2 8.11131 13.0953 21.6317 0.612974 -2.59571 -1.03385 -0.166549 -1.27992 0.276283
1486 1 7.5911 14.9347 20.0177 -3.49474 1.41948 -2.38978 1.38468 2.00071 -0.456213
1487 1 7.76534 14.74 23.3989 1.52626 -1.96453 -0.450505 1.38501 -1.24025 0.884684
1488 1 9.28505 13.6872 28.5557 1.42903 0.829042 -0.0471797 1.12741 0.524185 1.15853
1489 3 9.5196 13.969 24.8871 -0.393404 -0.0592883 0.987418 0.118802 -0.45521 0.061864
1490 2 9.01067 15.1947 30.6018 0.754157 0.190886 -3.61434 -1.89119 -2.35404 0.0952622
1491 2 6.23077 15.9118 21.8064 1.29676 -0.625146 -1.6951 1.86899 -1.60418 -0.540925
1492 1 4.50004 17.3802 20.7518 1.20847 1.00611 1.61261 -3.02087 -2.73519 4.55163
1493 3 12.0335 18.3719 16.0652 -0.979498 0.191835 7.75411 2.5723 0.508647 1.65048
1494 1 8.25831 17.0313 22.2196 -17.7136 1.15006 3.40021 4.89878 -0.787771 -2.38428
1495 2 5.32696 21.3389 23.7975 -10.1554 4.07979 -2.39063 6.54254 -2.24313 -2.80114
1496 1 8.12383 15.7852 32.9902 -1.21873 3.81278 -10.3754 1.6705 7.38238 1.8488
1497 3 4.26191 16.1958 35.1424 5.39911 -5.66497 -3.93782 2.02302 0.259547 1.10763
1498 2 4.74744 19.6723 22.458 -5.80014 -5.46751 -8.27566 -4.71028 -9.9709 2.13072
1499 1 2.51349 20.8706 21.0472 -3.94313 3.59828 4.20625 -0.996321 3.31009 4.22245
1500 1 14.2966 23.0494 17.6871 -25.989 17.6982 4.4384 0.666208 -0.0171606 0.634919
1501 1 2.82617 21.6828 24.6577 -8.12973 -5.68524 -8.92019 4.61784 0.289198 -0.689712
1502 3 2.90057 23.0242 25.9269 13.9049 23.3287 -5.14898 -9.81822 0.719572 3.35782
1503 3 5.76519 21.0511 21.6426 20.2668 -2.64426 33.2555 2.79419 3.03138 1.85325
1504 2 4.91162 17.6622 25.4489 -5.48292 -1.26325 10.4072 -11.7686 10.7705 -13.2906
1505 1 3.84057 17.3476 28.9389 -9.26866 -0.779017 -2.15514 -6.53198 -3.7077 2.81989
1506 1 5.59914 21.7376 35.3171 -7.96275 -1.6915 18.7057 -0.34255 -0.588628 0.782453
1507 1 0.823522 23.952 26.508 16.1248 -10.492 -6.4691 2.17888 2.15927 2.21931
1508 3 1.5822 23.8897 28.6269 5.77015 2.34426 8.34854 -3.30253 -0.296266 -1.66251
1509 3 1.81841 22.1031 23.1515 2.26081 -9.00928 -4.80224 0.619496 1.21399 4.51771
1510 2 0.419425 25.1232 21.5858 -9.8185 -4.75675 2.33838 -9.90692 -2.94534 0.954517
1511 1 1.27435 26.2045 19.1732 -8.30141 5.29212 -10.7979 -0.810049 0.926701 -1.34427
1512 3 3.31242 27.3422 18.7869 4.09848 18.0313 0.10051 2.9071 -2.8459 -0.058774
1513 1 0.859879 26.5851 24.3122 -1.67351 4.25358 -0.177698 1.88216 0.536046 0.744938
1514 1 3.14767 25.1621 29.3525 -0.35419 -0.572068 -1.33273 -6.65002 -0.782237 9.92754
1515 3 1.46425 25.7822 26.0342 6.91673 8.86723 -0.449976 1.70637 -1.33573 -0.304423
1516 1 0.706442 24.5903 35.2894 -0.679099 0.683128 -2.36816 0.750975 1.89561 -2.02813
1517 2 1.83219 27.2018 30.3345 0.947122 4.17701 -5.52282 -1.34481 -4.38931 1.01187
1518 1 1.43129 25.1987 32.2192 6.55183 -0.328808 1.67671 16.3284 -6.00924 -5.97365
1519 3 0.571466 26.2785 33.6525 0.12727 1.27792 -0.916735 0.980314 -1.45716 -1.72846
1520 2 0.419029 27.5556 21.6941 -2.78777 2.52144 -0.660963 -8.75431 7.68072 3.84755
1521 1 0.286123 29.0015 19.4655 -1.16723 0.740193 0.639772 -0.937203 0.375946 0.605305
1522 1 -0.196845 29.1144 23.4208 -3.81072 1.10107 2.77271 0.678167 -2.14269 -2.58014
1523 1 -1.55438 29.7076 25.8676 -2.46236 0.142605 -0.588393 0.977791 -0.595737 0.64252
1524 3 1.68112 28.3048 23.7034 -3.12866 -1.76953 -1.34572 1.81531 0.404095 -0.160376
1525 1 0.752984 28.2227 32.5707 5.51021 0.931916 0.381967 -0.609312 1.02192 -1.46927
1526 3 -0.241839 29.5125 33.7548 7.80876 3.35186 -1.70976 -0.867085 -1.36693 0.938375
1527 2 -1.75452 28.9886 21.3364 0.382447 -1.24995 -0.301366 3.09502 -0.487073 1.35581
1528 1 -1.71698 31.2185 19.8815 -0.477438 0.720855 -1.67388 0.0235772 0.501287 0.174074
1529 3 -0.172873 30.7289 18.7308 2.44427 -0.476049 1.67365 -0.0465134 0.120017 0.267546
1530 1 -1.66565 31.2001 23.243 -0.323914 -1.83923 2.58254 -2.06699 2.49708 -0.578615
1531 1 -3.33858 32.0061 25.9555 0.849805 -0.807544 0.150048 -0.0190087 0.101844 0.393523
1532 3 -1.6876 31.6411 26.9499 -0.871 -3.68374 -2.56999 -0.335295 -0.0307472 -0.0739899
1533 3 -0.254076 30.882 24.7121 -1.0199 0.0848802 0.511868 0.275836 -0.481987 -0.408955
1534 2 0.0608117 32.0279 30.2812 -0.110228 -2.47804 -0.853929 0.300435 0.34885 0.223085
1535 1 0.100606 30.9992 32.5464 2.29909 -1.77011 -2.47535 -2.39283 -0.110177 0.0955845
1536 3 -1.78332 31.3472 33.3841 1.4918 0.128038 0.781997 -0.0442926 0.0768839 -0.153036
1537 1 17.1291 3.66474 26.4173 0.78079 -0.149573 -0.28689 0.429503 0.0643115 -0.257924
1538 3 18.1643 2.25381 27.0667 -0.465294 -0.177527 -0.275838 0.136436 -0.168739 0.00317679
1539 3 20.0062 1.36786 25.0031 -0.865436 -1.66932 0.748864 1.00736 -0.744162 1.88702
1540 2 18.1798 2.35031 30.4868 0.1684 -0.851016 -0.010359 -0.0376199 0.131656 0.00756418
1541 1 19.7453 1.35471 33.443 -1.76111 0.353225 1.29783 0.253425 -0.368168 -0.596879
1542 3 17.9806 2.05744 34.1595 0.655337 -0.725816 -0.0247595 0.382057 0.129094 0.0353146
1543 2 16.4566 2.96378 21.6756 -0.465688 0.128939 1.08741 0.138385 0.0562268 -0.307994
1544 1 16.6239 4.86064 19.9557 -2.50768 -1.50661 0.83588 -0.49236 0.0642158 -0.423449
1545 1 17.1024 4.71659 23.7318 0.734249 -0.0748991 0.359863 -0.118699 -0.238206 -0.0177528
1546 1 18.6916 3.78167 28.4894 -1.11964 0.725042 0.444602 -0.316135 0.183222 0.597609
1547 1 15.742 5.99448 26.3153 -0.125624 0.338194 -0.350844 0.16007 -0.134629 0.123843
1548 3 16.4139 4.7343 27.911 -0.614068 -2.70561 3.72238 -0.939814 0.706524 0.44808
1549 3 18.6489 4.49334 25.2621 0.670167 -0.0461474 0.432463 0.401957 -0.194679 0.148512
1550 2 19.0632 5.14002 30.6364 0.281592 -0.33105 0.171252 0.0819161 0.34134 -0.0122127
1551 1 17.9863 3.704 32.7847 -1.32792 -1.2799 0.666767 0.911708 -0.187284 -0.325896
1552 3 16.514 4.83297 33.8482 -0.135181 0.284515 0.340349 0.34462 -0.0377305 -0.232354
1553 2 15.2871 5.60253 21.9859 -1.56206 0.373377 -0.0798343 0.0460689 0.00972175 -0.0226132
1554 3 16.6265 6.39985 18.495 7.21706 3.17168 -2.64474 -1.45491 -1.47441 1.39451
1555 1 15.4414 7.45418 23.9114 -0.808162 -0.0546464 -0.429996 0.00354962 -0.263188 -0.000937001
1556 1 17.4003 6.1669 28.8988 1.10171 -1.56454 0.33419 0.224909 -0.347161 0.371656
1557 3 16.9503 7.50887 27.2178 -2.54663 0.356105 0.258868 -0.147772 -0.0987052 0.098605
1558 3 17.0547 6.62606 24.9541 -0.102808 -0.0939987 -0.276992 0.136964 0.00794379 -0.155614
1559 2 17.6122 8.17177 30.4377 -3.72342 -0.222945 0.513905 0.280686 -0.134288 -0.0615578
1560 1 16.8755 6.15415 32.1734 -0.154429 0.44533 0.0872164 -0.063383 0.310794 0.257122
1561 3 15.4695 6.92601 33.6882 4.75251 1.64965 1.91318 -0.00394332 0.261802 0.249874
1562 2 14.334 8.37697 21.5886 4.3255 4.32903 2.78506 -0.0323591 -0.436561 -0.524525
1563 1 13.5751 10.2801 19.9764 0.502747 1.47751 -0.935569 -0.489916 0.0558929 0.506459
1564 1 13.8233 10.2755 23.2789 0.949394 -0.902481 0.673288 -0.0182292 -0.0837563 -0.840589
1565 1 15.9834 8.63396 28.4266 0.464316 -0.701218 -0.934371 0.00753595 -0.145722 -0.155532
1566 3 15.1284 9.43912 24.5491 -0.145092 0.738481 -0.0338848 0.0788561 -0.107732 0.115388
1567 1 14.1132 7.71534 35.0071 -0.291022 -0.16851 0.0356739 -0.0115785 0.271331 -0.122242
1568 2 15.7871 10.5281 30.5752 1.45804 -0.39324 -0.69707 -0.195673 -0.421861 -0.00633505
1569 1 15.5632 8.82354 32.5406 1.27748 1.83365 -0.556135 0.296857 0.537035 -0.14521
1570 3 13.9654 9.84278 33.7631 -0.500652 -0.375009 0.131784 -0.196954 -0.0293728 -0.11415
1571 3 13.699 11.2108 18.1788 4.19848 6.1463 2.16984 1.67353 -0.832423 -0.532142
1572 1 11.0501 12.9124 26.2269 -0.945103 -1.66146 -1.62138 0.461514 0.544755 -0.266207
1573 1 12.1299 11.3462 34.3443 -0.288831 1.82846 1.75207 -0.496548 -0.716814 -0.240545
1574 1 14.3916 11.6372 32.6769 -2.49589 -1.92456 -1.81774 -0.309879 -0.477887 -0.472703
1575 3 12.8034 14.1954 18.673 -1.80428 0.561294 4.23723 0.626415 0.821949 -0.0704179
1576 1 11.1097 14.3832 23.694 -0.582082 0.347109 -1.03899 0.207844 1.20238 -0.169139
1577 1 12.2209 13.8681 29.2031 -1.15153 -0.198265 -1.64491 -0.301231 0.390998 2.10681
1578 3 11.1205 14.4774 27.4719 0.476208 -1.8739 -0.898254 -0.866852 0.699138 -0.203884
1579 3 12.7413 13.4779 25.2188 -0.412313 -1.134 0.413507 0.377951 0.23757 0.322695
1580 2 12.7182 15.3709 31.1427 1.30941 2.31853 0.557288 -4.99648 -0.219863 -2.15807
1581 2 9.74486 15.2717 21.3885 -7.86957 -3.70887 1.5662 0.73103 1.30627 -4.10242
1582 1 10.0294 17.1626 19.3986 7.76833 -6.51931 8.68973 7.19525 -3.77629 -0.51702
1583 1 9.07824 21.037 19.3416 1.83604 3.50127 2.61716 7.96133 0.500116 2.01614
1584 3 11.4311 15.9331 24.7355 -5.16708 -1.46645 -3.73647 -1.57501 2.22508 1.03929
1585 2 5.23665 15.8382 26.9576 -5.96112 -4.29596 6.48789 -3.9805 5.40928 5.55281
1586 1 10.7813 14.7935 32.3745 -3.50591 -2.73128 -2.58478 1.8216 -6.37984 0.695578
1587 3 6.02086 19.1748 24.0532 -26.3773 16.2403 -33.0962 -1.19764 2.99295 -4.9251
1588 2 10.5268 17.3442 16.9687 -10.3317 -9.53083 -3.13163 1.18824 -1.30192 -4.15794
1589 1 10.8151 17.2891 14.2547 0.0121139 -13.7547 5.7377 0.865654 -2.19753 -0.935336
1590 1 5.73214 24.2432 19.4412 -3.96518 5.83587 17.6315 -1.21623 -3.5929 0.22772
1591 1 2.42698 24.1026 22.4758 3.87254 4.98251 -0.272544 4.73406 0.476511 2.16413
1592 1 6.27315 16.1898 35.7295 3.09377 -5.6484 0.473235 0.738361 2.43009 4.48978
1593 2 9.13878 19.0285 18.1901 0.806992 2.37348 3.73119 -5.62888 -2.25142 3.83367
1594 1 9.89035 15.5241 26.0663 3.98688 -4.12148 0.588599 -1.06826 0.267659 -1.40824
1595 3 4.1165 21.1052 30.6969 11.6657 7.80052 -17.5145 -3.22231 1.68104 -5.18587
1596 2 7.53491 22.3436 15.5787 6.05408 3.74077 4.82652 -0.903571 1.64451 0.10462
1597 1 2.25341 29.1479 21.9963 -0.627544 -5.03116 1.76892 2.1055 0.393757 0.359889
1598 1 4.88541 30.3891 22.3113 0.0411813 5.80176 -0.021898 -4.58552 2.70103 -1.05709
1599 1 3.00774 25.4664 24.9177 -1.17904 -3.31123 13.8189 7.39325 0.526329 4.03241
1600 3 2.26688 25.2541 20.8507 34.7358 17.9549 -9.31696 6.52027 -1.62565 -5.46541
1601 3 4.51376 24.6053 21.3405 -1.19968 -28.3717 -3.13044 -1.51419 0.156729 1.65329
1602 1 5.06567 21.036 38.9356 19.6488 10.0279 -7.15618 -0.144093 -1.19365 1.14054
1603 1 5.49867 26.5459 18.7878 4.3665 8.98828 4.23296 0.223078 6.9919 2.68358
1604 3 5.39136 25.9571 17.0051 -13.9815 10.7779 8.13661 -4.67592 2.71668 -2.02004
1605 1 3.64826 27.6042 24.1222 10.1668 -1.27086 0.508827 6.64345 -1.51851 -2.23191
1606 1 0.579995 27.3465 26.8782 0.0691039 -1.50772 0.713694 3.06457 1.80292 0.240447
1607 3 2.38446 27.1083 28.4051 7.42904 -3.18169 1.67424 -3.18308 1.33346 -0.911237
1608 2 10.6107 25.9242 18.8726 -22.183 1.75365 -0.302735 -4.81172 -3.1136 -3.44373
1609 1 2.65972 29.1031 18.6007 1.63262 -2.47446 -5.72508 4.59301 6.8778 4.79483
1610 3 6.56638 28.1538 18.5297 -11.4823 -1.54074 3.87477 4.64952 -0.381306 -0.896236
1611 1 2.7801 28.9884 29.007 5.99766 1.17592 -2.20759 3.216 1.91137 -3.83749
1612 3 1.77373 29.1763 27.1764 -1.98403 -1.21603 1.42599 1.02441 1.24431 0.156821
1613 1 1.8802 27.3184 34.8863 -2.34089 4.83126 -0.0357126 -0.603603 0.507355 -2.24563
1614 2 3.09086 31.1663 30.1169 -3.71381 -2.40546 -8.05451 -0.391932 0.250514 1.84811
1615 1 4.15101 27.32 27.2473 -10.1112 11.906 -11.872 -1.90294 -1.17076 2.52866
1616 3 2.36694 28.8935 33.6275 -6.0916 -4.74019 6.39207 0.312911 -0.645821 2.47607
1617 3 4.06772 30.4382 18.2948 3.32951 0.648615 -7.14956 -0.775551 2.03811 2.6373
1618 1 18.2843 0.503629 25.7879 -0.537952 -1.61305 0.33421 -0.000660556 0.162361 -0.103358
1619 3 2.14555 30.9471 25.4166 -0.992236 1.35952 -2.77925 2.52883 -2.12464 1.85824
1620 1 1.33203 30.0607 34.9829 1.49321 -1.8253 -2.06639 3.05845 -1.36028 -0.107124
1621 1 3.24317 30.697 32.8169 -3.48769 7.96177 -0.495371 -21.8928 -1.02031 -4.50573
1622 3 1.64012 31.6809 33.7428 0.746113 2.60185 -1.27851 1.82462 -0.894765 -3.47916
1623 2 2.45466 31.6614 21.6186 -1.26661 0.0258044 -0.145551 -0.0269873 0.374148 -0.295478
1624 3 21.986 1.29472 17.8885 5.35687 -2.72346 -2.03778 -6.92187 7.23212 4.85664
1625 1 21.6659 2.22901 24.1362 -1.21923 -0.32216 0.427085 -1.10611 -0.231041 -0.21957
1626 1 19.8808 3.04065 26.1373 0.0777577 -4.66194 1.7772 1.72628 -0.786041 -0.637295
1627 3 23.1353 1.22487 25.1773 -2.3217 -0.511043 -1.42293 0.956435 -0.638901 1.06928
1628 1 21.4123 0.168749 35.1297 1.50197 4.98281 -1.0979 0.09932 -2.33545 3.11474
1629 3 21.0222 1.88661 34.9383 -4.17499 1.08816 2.12248 -0.36168 0.817274 0.023595
1630 3 22.1253 3.62958 18.7646 -3.73199 0.229877 3.07546 -1.40447 0.584429 -0.216983
1631 1 19.9217 4.29207 23.7446 -1.7002 -3.37032 5.19105 0.0366054 1.0622 -1.75162
1632 3 21.6522 3.97933 24.9737 0.626277 -1.07511 -0.0979563 0.135864 -0.134625 0.0142844
1633 1 19.892 3.32325 35.1746 0.555238 2.61948 -2.30757 -1.51038 -0.890525 0.0781824
1634 2 21.7886 4.95954 30.8304 0.168321 -0.0503437 0.0969302 -0.184196 0.0813583 -0.0407987
1635 1 21.7135 4.12456 33.2357 1.33258 0.172142 1.16509 -0.0729118 0.778972 -0.0732658
1636 3 19.649 4.62758 33.7397 0.00850432 -0.224062 -0.766425 -0.698454 -0.103303 0.0797573
1637 2 18.4424 5.8692 21.6304 -0.617573 -0.15164 0.178723 -0.411254 -0.103362 0.0114988
1638 1 18.6267 7.2845 19.2472 -0.15746 0.5097 0.27122 0.4257 -0.627671 -0.746812
1639 3 19.6669 5.43254 18.5534 2.59919 -0.27943 0.0967358 -1.04358 0.349381 -0.00235287
1640 1 18.5466 7.32818 23.7108 -0.260081 1.32659 -0.315959 0.0791892 -0.452115 0.033922
1641 1 18.1616 5.5628 35.0156 -0.629407 -0.116612 -0.92508 0.200335 0.136989 0.534841
1642 2 20.812 7.30369 30.0086 -0.29373 -0.523105 0.818908 -0.0163165 0.0458021 -0.237296
1643 1 20.2184 6.22033 32.5387 0.63733 0.624715 -0.262559 0.192949 0.206482 -0.296893
1644 2 18.2739 8.58217 21.4854 5.88442 -1.8996 -1.11327 -1.29266 0.36599 -0.00102087
1645 1 16.7807 10.0061 23.2858 -0.322566 0.173865 1.40164 -0.110397 -0.016814 0.262615
1646 1 15.5308 10.8512 25.9523 -0.463356 -1.03637 -0.101931 -0.189341 -0.587035 0.156411
1647 3 16.7187 10.0507 27.1023 -0.011333 0.212421 0.161367 -0.00306835 0.0907335 0.131228
1648 1 16.9038 7.91763 34.9873 -0.331479 0.244814 0.139051 0.260459 -0.184152 -0.25063
1649 2 18.3538 11.2846 30.6289 2.20974 1.81654 0.706802 -0.133413 -0.118516 0.617152
1650 3 16.7998 9.85424 34.0731 0.164975 0.675059 0.169567 -0.0943387 -0.22422 -0.00632367
1651 2 15.3207 11.3935 21.4949 1.32772 -2.42636 -1.77933 0.137192 -0.0565448 -0.0165026
1652 1 15.8294 12.7581 23.9092 0.28119 0.353229 0.340044 -0.170568 0.175045 -0.0893291
1653 1 16.8116 11.5914 28.5028 -0.910749 0.636107 -2.22795 0.0060971 0.538039 0.458387
1654 3 15.0873 12.3571 27.2804 0.24228 -0.0952695 -0.322534 0.0800008 0.0575878 -0.174733
1655 3 17.1043 11.3789 24.7562 2.13191 -0.385285 0.0555352 0.68476 -0.109183 0.159053
1656 1 15.2259 10.5668 35.3215 -1.73543 -0.479173 1.34557 0.055061 -0.199746 -0.027934
1657 2 16.9142 13.2816 30.6256 -1.60764 -1.94023 -0.175258 -1.07209 0.535104 -0.0017097
1658 1 17.3003 11.5996 32.908 -1.25415 -2.62733 -0.719327 -0.125839 -0.577133 -0.77332
1659 3 15.7832 12.3158 34.177 1.43016 0.845418 0.42203 -0.170401 -0.383583 -0.346273
1660 1 14.1551 14.8416 19.9098 0.189818 0.56836 -0.108849 -0.120296 1.50712 -0.323037
1661 3 15.5084 14.011 18.6736 -5.14152 -3.49518 -9.21438 0.14 2.00907 2.18574
1662 1 15.9239 13.9729 28.1983 -1.66283 3.90488 -1.07586 -0.783834 0.945627 1.05552
1663 1 12.7742 15.2508 26.2042 2.39008 -0.64734 1.105 1.72015 -1.25546 0.144775
1664 3 14.1046 14.8675 27.745 -0.227682 4.80277 -5.51487 0.73109 -0.34534 1.84723
1665 1 14.3196 13.4808 35.1596 -0.0778739 -2.79477 -1.35749 0.376856 -0.16397 -1.00513
1666 2 16.2702 15.7761 30.9364 1.13439 1.69245 -0.602402 -0.0507581 -1.34639 0.767914
1667 1 15.9438 14.0989 32.901 0.171279 -1.09472 -0.0134057 0.564893 -0.772431 -0.55689
1668 3 14.4894 15.3166 34.0049 -2.05416 1.51251 -1.71255 -0.150957 0.242344 0.0447553
1669 2 12.3925 15.1552 21.7996 3.1749 -2.24933 -1.06571 -0.122905 -1.10604 -1.6775
1670 1 12.6894 17.722 20.7609 -3.49011 4.22575 -0.0483284 3.6953 -4.61464 -2.65669
1671 3 14.238 16.7656 19.0097 6.69689 2.371 -9.82727 -2.73542 -0.422673 -2.11476
1672 1 10.6988 17.5791 24.1295 -1.49753 5.1405 6.92751 3.91916 6.69981 -0.139851
1673 1 14.4472 16.1677 29.1343 1.05619 -0.623746 0.789474 2.06954 -1.69114 0.923099
1674 3 14.2768 16.457 25.0384 -0.291562 1.50084 0.598425 1.42077 -0.0384573 -1.20059
1675 1 13.1415 15.8291 35.5946 1.13999 -10.5139 0.842908 -2.97732 -0.42283 -2.17704
1676 2 6.85899 17.2753 24.1594 -11.1515 2.68805 -3.15248 1.49778 -1.09732 3.12441
1677 1 14.5197 17.1018 32.5735 1.5416 3.92751 -5.53022 4.47004 4.02791 3.44958
1678 3 10.9718 15.8537 30.1915 -0.385333 2.91005 0.75207 -1.52192 0.423464 -0.301651
1679 1 10.0858 22.1188 15.7484 -6.01074 2.22644 -5.48416 -3.06391 0.503472 -0.797217
1680 2 11.3237 19.4714 19.6323 -23.0214 -0.848425 11.8843 -5.09375 2.70111 3.62917
1681 3 9.42562 18.7866 20.2723 29.8983 9.2022 -2.22964 1.54171 4.28684 -3.53462
1682 2 10.4725 19.3036 15.3883 6.31191 -15.377 6.51246 0.580012 5.47016 5.0847
1683 1 8.83833 19.7826 13.8833 -9.22753 -3.235 8.02948 -0.119731 -0.741695 -2.11834
1684 3 7.18655 19.2394 15.5869 9.77153 5.35856 -1.49816 -0.924404 -0.186798 -5.42454
1685 1 3.96339 26.6874 20.9173 -5.78125 -8.95348 -5.88023 -1.2146 -4.60501 -6.21028
1686 1 11.8912 24.5428 15.3008 -7.52818 -5.97484 10.9701 0.839161 1.39784 -3.34687
1687 1 12.4481 22.0899 22.8311 3.3811 1.08731 2.85987 0.313143 -4.94398 1.25074
1688 3 7.66516 29.321 22.9906 17.7046 8.93807 -9.85023 -1.66019 -8.3484 -8.46255
1689 1 14.3853 21.4586 15.7129 -14.1572 2.01333 10.5046 -2.46267 1.32031 -0.421418
1690 2 29.2705 0.0813259 26.8093 6.71828 -7.36666 17.5005 -0.989627 -0.144332 4.07479
1691 2 3.22714 23.5214 20.3462 -6.72724 1.87009 -1.20933 5.16481 -2.24716 -3.71737
1692 1 6.6661 24.6178 16.5284 -14.1893 8.22144 -0.507442 2.26828 -5.77886 -4.70407
1693 1 11.7643 24.9021 21.0388 -4.81177 -3.6902 -10.4973 -0.191511 -2.07938 -5.55357
1694 3 4.25409 28.2663 22.0689 -13.3725 20.7013 -5.67802 -0.826828 3.82997 3.7245
1695 3 7.17578 30.4945 23.2985 -7.97215 -28.4435 -27.0353 -3.93755 6.91425 -1.21569
1696 2 6.76954 27.4232 30.5551 -2.96743 -13.1435 7.01875 2.47298 -2.8351 3.4347
1697 1 5.96249 30.0474 19.3044 -3.37367 13.6157 2.34346 2.44584 3.99252 -6.98757
1698 1 8.40878 31.9754 28.1457 32.8676 -20.1494 -7.21385 -0.481259 -8.56274 1.36206
1699 1 3.38762 29.8254 26.2271 -4.25424 -1.07959 -3.12862 11.6968 -7.36278 0.585675
1700 3 12.2554 28.5831 21.8343 1.82914 -45.0897 4.8659 8.38373 2.90906 -3.97624
1701 2 23.1337 0.174426 31.6645 3.33363 -3.5673 -5.80559 -1.1613 1.07868 3.55614
1702 2 25.2849 0.186184 18.8259 -8.11745 3.26903 -7.51601 -0.388932 -1.75791 5.48613
1703 1 4.06235 32.1749 19.2863 -3.60278 -4.26538 -1.23835 -0.652024 -2.26172 -1.02743
1704 3 6.70961 30.9964 17.5792 -12.1921 -21.1632 -9.78439 -2.37384 -3.96176 -2.96532
1705 1 3.52078 31.7739 23.953 -2.08713 0.887846 -1.3309 -3.49073 2.09253 -2.78218
1706 1 4.90235 31.5978 28.4756 -3.30457 -0.561164 7.9844 -2.02023 4.25877 1.35448
1707 1 21.406 0.436932 26.2469 0.429809 -1.0332 1.56581 -2.22629 2.54872 -0.533013
1708 3 4.32063 31.5081 26.4659 -3.36915 -6.98283 0.471416 0.244958 -1.19221 1.05289
1709 3 4.99354 28.5848 25.8212 22.9103 -20.3634 -5.56909 -3.69416 0.389636 -0.958102
1710 1 4.44881 30.6118 35.7612 5.44995 11.0607 -0.666922 7.14635 2.98242 3.21578
1711 2 23.4043 0.566894 21.56 -1.79269 0.166239 0.362599 -1.39836 3.17137 2.02625
1712 1 24.3368 2.10075 23.7232 -2.93017 1.85616 5.27896 3.27679 1.50882 0.134559
1713 1 23.1727 3.30023 26.133 0.556039 -2.2263 -1.32301 1.93506 -2.52253 0.313384
1714 3 26.0639 1.08374 24.3447 -8.2595 -9.99107 -6.23649 -4.01624 3.43963 -0.953265
1715 1 25.0452 0.890819 35.6341 -0.165755 -0.307331 -1.65812 2.01448 1.79698 2.60302
1716 2 26.6202 2.99561 30.5775 -0.090606 -0.854569 2.5991 0.0535952 0.190844 0.368212
1717 1 27.3262 1.40857 32.5671 -1.50503 4.24492 0.171964 1.3091 -0.507558 0.571091
1718 3 25.2035 1.73693 33.896 -1.48732 3.96054 -3.35028 -0.584182 1.48655 0.474494
1719 2 22.6418 2.98033 21.8962 -3.21985 2.64507 -0.583046 0.779525 -2.36178 -0.345042
1720 1 23.5336 4.44202 20.0227 0.87067 2.38977 -0.620555 -0.389857 0.0744109 -0.569795
1721 3 24.7279 3.49416 18.7687 1.3679 -0.161686 1.18895 -0.940368 0.156285 0.652041
1722 1 23.3129 4.98074 23.3289 1.21791 -0.288043 1.88643 0.0668948 -0.383398 0.534264
1723 3 24.6818 3.92494 24.6738 0.898402 1.13357 0.00547947 0.29978 0.0140781 -0.0313641
1724 1 23.0822 2.57298 34.9019 0.595603 -1.90626 -3.97533 1.14316 1.48976 -0.125377
1725 2 25.1141 4.95591 30.5874 2.2236 -1.89714 -0.72541 1.04358 -1.19424 -0.152319
1726 1 25.5101 3.63915 32.839 0.0405177 1.56134 -1.26742 -0.975462 0.295472 0.943942
1727 3 23.8471 4.3212 33.7573 -0.930607 -0.0617012 1.0957 0.112744 0.306456 0.0858742
1728 2 21.0908 4.92728 21.5595 -4.65859 8.36508 -1.78888 0.737612 -0.530704 -0.337626
1729 3 23.4416 6.18529 19.0033 -4.94666 -0.905535 7.74335 -0.465227 1.09257 -0.241021
1730 1 23.4164 6.19812 29.3422 -0.216332 0.116437 -0.232675 -0.2753 0.0258192 0.264971
1731 3 22.8386 6.08397 25.3045 0.121841 0.483817 -0.00977809 -0.113792 -0.243779 0.0212566
1732 2 22.9576 8.38745 30.8236 -0.278441 -1.03261 -0.00228467 -0.147156 -0.0014509 0.0669283
1733 1 23.5561 6.02888 32.4393 0.788902 0.575312 -0.322426 -0.664192 -0.225474 0.840874
1734 1 19.9082 10.0003 20.0627 0.244193 -0.201798 0.793599 -0.349052 0.443986 -0.635828
1735 1 21.7119 9.52784 29.0246 -0.369441 -0.521969 0.651496 -0.0389504 0.0726909 0.0612945
1736 1 18.4917 10.5036 26.0757 -0.290201 0.67827 -0.211548 0.0170229 0.0673604 0.140355
1737 2 21.8438 11.0927 31.0145 -3.50212 0.858084 0.191575 0.127525 -0.00916789 0.128884
1738 2 18.0837 11.2923 21.3696 -0.775023 -1.21139 -0.243903 0.0122042 0.165515 -0.154165
1739 1 18.7622 13.217 19.894 -1.41764 -0.322408 0.815668 0.252474 -0.26045 -0.00250351
1740 3 20.1681 11.7062 18.8548 2.18386 -0.364479 0.217284 -0.320913 0.11491 -0.0407283
1741 1 18.7207 12.3095 23.673 0.135542 0.956205 0.800598 -0.0513306 -0.0694326 0.190648
1742 1 20.0445 11.5861 28.9107 -0.179189 0.003524 0.398828 0.266104 -0.288278 0.0760408
1743 3 18.7448 11.7209 27.4963 -0.258023 -0.431551 -1.69138 0.0118608 -0.0582609 -0.94922
1744 3 20.1073 11.697 25.2211 0.763876 -0.0487742 0.453854 -0.0321696 0.104722 0.138778
1745 1 15.6832 15.8215 26.3207 2.01497 -1.62851 -1.49084 0.524187 -0.63551 0.242833
1746 1 17.0128 13.1266 35.5864 1.92687 -0.568109 -1.04862 0.190294 -0.19569 1.09578
1747 3 17.477 14.7052 34.279 -3.53648 2.56129 3.74435 0.0683267 -0.186585 -0.550265
1748 2 16.8253 15.7819 21.8511 0.476065 1.44967 -1.74843 0.850272 1.19648 -0.753991
1749 1 16.0194 17.4329 20.2116 -0.828899 1.94169 3.60652 1.54873 2.91204 0.420264
1750 1 15.471 17.2865 23.3403 2.77401 1.44176 -3.97944 3.7031 1.59045 1.0689
1751 1 17.3582 17.5084 29.4256 0.0471554 -5.15512 -3.67023 -0.865123 0.45729 -0.716207
1752 1 13.8661 18.1968 25.2618 -4.44171 11.6318 -11.0639 -3.81843 3.3883 -2.16853
1753 3 15.8709 17.2346 27.8478 0.123093 2.88165 -0.244579 4.44482 -0.103963 0.192628
1754 1 16.1116 15.9467 35.3777 -0.00177925 -4.7593 -3.65493 -0.153862 0.995007 0.0211186
1755 2 18.5188 18.7628 31.9637 5.32623 -3.75284 -0.77692 -0.27316 0.493835 -1.17871
1756 2 14.7517 20.8855 22.2091 -9.69685 -30.2587 -2.06188 -5.7508 6.18984 -4.56837
1757 1 15.2159 20.3186 18.4771 9.7141 -6.76931 9.32785 3.05557 4.74299 -2.76584
1758 3 17.9304 17.3791 19.0346 -1.71265 -2.47085 -1.47582 -0.490143 0.0315355 0.356904
1759 1 11.9138 19.1318 31.3196 6.10981 3.70339 -11.159 1.738 0.00400002 1.50411
1760 3 10.9243 19.5079 17.5415 20.9504 -9.90489 18.0395 2.40502 -2.0553 -4.89176
1761 3 17.5762 22.5803 23.6771 2.05835 -0.844539 13.5323 -0.853228 -1.60302 1.92836
1762 2 12.1022 22.5697 16.8918 -17.4001 -9.2908 -9.58506 6.26899 1.0729 -3.87647
1763 1 12.879 25.1057 12.4303 -12.697 -2.74726 -6.069 1.57656 1.44136 3.29815
1764 3 14.7066 19.8008 16.7322 12.488 -5.15485 -13.5603 1.05077 3.09368 9.66465
1765 1 16.4896 25.7321 26.8963 -9.33922 -9.40152 1.66405 9.3393 2.5398 -2.91378
1766 1 14.5659 27.1241 18.4555 -1.1457 -6.02604 -9.3432 2.59268 -3.49308 5.9576
1767 3 11.6624 22.646 14.9725 -12.0402 20.3582 0.207343 5.907 -5.2646 6.44554
1768 2 11.1411 23.1664 13.2424 -3.11838 -8.9651 2.13889 -3.58603 1.67577 -11.1144
1769 1 10.6304 27.9959 13.0116 1.38676 -3.48906 9.66819 3.82618 2.0058 1.62505
1770 3 13.7005 20.8082 13.8131 -19.6128 -25.7321 -30.236 2.36095 -2.8919 3.97942
1771 1 8.66404 27.7687 18.0856 12.8116 11.0069 -8.85794 -2.99915 0.698691 7.36936
1772 1 6.82661 24.5674 26.4193 6.38774 1.24103 -11.1417 1.83734 4.40002 -3.50906
1773 3 10.4081 31.8609 21.6909 33.1848 -13.3535 1.94468 -1.70351 -8.38855 7.00036
1774 3 17.3415 26.6804 21.9002 1.25708 -5.91304 7.04262 -3.11261 -5.15861 1.49241
1775 1 4.17466 28.2752 33.4399 -11.0558 15.7453 -13.9483 2.20448 1.80958 2.93764
1776 2 14.8773 31.9039 30.1083 -0.793124 0.608611 1.70895 -1.26846 1.18749 -1.70898
1777 1 18.0987 20.9456 27.2498 1.7587 1.83156 -0.920617 -3.29027 -1.40925 1.53401
1778 3 12.9414 32.08 30.5265 0.206535 6.18674 1.71136 -3.53811 -1.7104 -0.0359684
1779 2 9.01597 25.8231 16.5972 -2.49701 -1.35801 -5.64908 -0.309338 -0.00896779 -0.238292
1780 1 6.33879 27.6698 16.5756 -1.55678 2.7166 -6.80231 1.26445 1.21818 -2.54736
1781 3 8.31306 27.6141 16.2334 -16.9002 31.3617 7.70298 -1.40636 -2.71144 -2.97141
1782 1 27.9101 0.216537 23.182 10.4154 -12.6101 3.73757 -3.04703 3.79752 1.67797
1783 2 30.6694 1.57429 30.8807 0.200914 -0.923191 -1.97877 0.510455 1.84614 0.954808
1784 1 32.1679 0.505664 32.6471 0.864383 -1.24777 -2.10548 -2.39078 -1.80703 0.109693
1785 2 27.5955 0.117515 20.5161 4.45992 9.54113 8.1348 -2.18819 -2.88837 0.26011
1786 1 6.18933 25.4686 24.0727 -2.82647 -10.1507 10.7573 0.745203 2.87445 -1.69652
1787 1 8.66456 27.3881 22.8403 2.98746 6.74094 19.35 -2.20974 2.23994 0.109278
1788 1 24.7094 0.0323737 25.6909 -0.32836 -2.165 2.8561 2.09586 1.21746 9.56207
1789 3 25.3473 0.513273 27.5739 -5.39894 3.60599 -14.6447 0.875756 0.0174834 -1.18277
1790 2 27.8993 0.818646 30.2963 -1.27867 2.75012 1.77342 2.53016 0.131239 3.22403
1791 1 14.6138 29.6094 33.7968 -2.85625 -0.2985 -1.70475 3.42799 -2.29512 -2.9098
1792 3 30.0646 1.21182 18.559 6.01058 2.1923 -2.5188 -0.31151 -0.514201 -0.0939836
1793 1 29.003 1.99969 28.2579 -2.82381 2.11861 3.15156 -1.81061 -4.35163 0.907738
1794 3 27.6616 2.86898 26.8574 -4.29107 -0.908786 -5.11649 1.3242 -1.84977 -1.24792
1795 1 28.9193 0.553714 34.8968 -2.35774 -1.3434 1.00389 -2.8519 -1.64467 2.14168
1796 2 29.1616 3.74634 29.9996 0.754361 0.241637 1.95703 0.60828 -0.621399 -0.147423
1797 3 28.7697 2.34284 33.8563 2.21607 1.21202 -0.670412 -0.0998769 -0.254313 -0.107391
1798 1 26.5294 4.54812 23.6341 0.501624 -0.205466 0.513026 0.612749 0.0791185 -0.206161
1799 1 26.8207 4.03358 28.3087 -1.10049 -1.52014 -0.773389 -1.55688 0.202426 -1.42019
1800 1 24.7739 5.52637 26.1182 0.510881 -0.706929 -0.812683 0.389204 0.165308 -0.415231
1801 3 28.4471 3.91782 25.1508 -2.29401 -4.92017 3.60979 0.507722 -0.89659 0.250074
1802 1 27.2063 2.86588 35.0338 -0.167711 1.19261 -1.61292 -1.05364 1.1133 -0.733369
1803 1 28.2836 4.09423 32.4084 -0.77705 0.175082 0.990316 0.245342 0.108238 -0.225005
1804 3 26.8792 4.70707 34.0569 1.20041 -3.70744 -1.07857 0.340607 -1.74421 0.526035
1805 2 25.4731 5.6684 21.3945 -0.295071 0.23243 0.160701 -0.109425 -0.113517 0.0465927
1806 3 27.1729 6.15151 18.0887 -0.091903 2.11438 0.303267 0.494168 -0.589548 -0.355016
1807 1 23.465 8.06595 26.1805 -0.169164 0.852438 -0.259216 0.120804 0.202959 -0.260829
1808 3 24.6828 7.1659 27.5179 -0.0930294 -0.495915 -0.253926 0.0915104 -0.253319 -0.0514018
1809 3 26.5916 6.24669 25.079 0.825899 0.154949 -0.34384 0.142567 -0.0533559 -0.0107039
1810 1 25.1524 5.51689 34.9108 -0.47203 0.559829 0.218938 0.139466 0.434512 0.403475
1811 1 26.5202 6.28983 32.57 0.282964 -2.35149 -0.684121 -0.00442728 0.614269 0.0766234
1812 3 24.9386 7.22986 33.73 -1.27686 -0.8007 -0.311219 0.156248 -0.10117 -0.180131
1813 1 24.6316 8.73921 28.9906 1.14052 -0.595926 -0.351113 -0.352671 0.00139195 -0.0980721
1814 1 21.9233 10.9982 26.2547 0.0168898 -0.49853 0.193021 -0.18281 0.0672946 -0.188686
1815 3 23.331 9.84909 27.5453 0.321346 0.398289 0.40606 -0.0555763 -0.0908898 -0.126467
1816 3 25.0095 8.8706 25.0315 -0.123989 0.476126 -0.482609 -0.120548 -0.0625087 0.0176792
1817 1 23.5438 7.86525 35.2429 -0.629403 1.00251 -0.633044 -0.372042 0.231956 -0.103937
1818 2 24.4488 10.6885 30.7042 -1.69035 -1.08091 0.169406 -0.147045 -0.135976 -0.00526088
1819 1 24.7529 9.04121 32.5987 0.369824 -0.0782028 0.436861 -0.00217391 0.57165 -0.24046
1820 3 23.7956 9.81479 34.2003 -0.082119 0.228159 0.0957721 -0.119526 0.0822863 0.0301987
1821 2 21.2723 10.9408 21.9055 -1.07271 0.366682 0.969541 0.0229497 -0.126301 -0.11767
1822 1 21.8556 12.6886 20.2128 -0.466046 -0.495077 0.979731 0.0576603 -0.306942 0.188138
1823 1 21.7313 12.6975 23.7175 0.301034 -0.0475504 1.23366 -0.178821 -0.103663 -0.226277
1824 1 23.1561 11.6891 28.7826 0.702819 -0.408157 0.258212 -0.173431 0.00356064 0.422899
1825 1 19.793 13.2625 26.3045 -0.349061 -0.89507 -0.337481 0.0787863 0.396851 0.204285
1826 3 21.5634 12.5681 27.5422 0.08088 0.254168 0.0572912 0.0430366 0.0285928 0.0927112
1827 3 23.3484 11.9007 25.0098 0.103791 0.0428715 -0.0932502 -0.0204633 0.0474183 0.0366237
1828 2 23.7667 13.2845 30.7802 -0.59708 -0.110616 0.222715 0.0201884 -0.169128 0.0252632
1829 1 23.6416 11.7994 32.8311 -0.0915503 0.0398153 0.183455 -0.00753732 -0.0593256 -0.0324492
1830 2 20.135 13.6233 21.9343 0.233857 0.111779 -0.000613459 -0.0467221 -0.0750339 0.0387924
1831 3 22.2382 14.1765 18.6285 5.0616 1.52619 -0.146896 0.798196 0.484925 0.289728
1832 1 20.1436 15.4061 23.7625 -0.338089 -0.455371 -0.16832 0.0156001 0.192776 0.092424
1833 3 21.4649 14.3825 25.089 -0.117365 0.234615 -0.217424 0.0995756 0.0383559 0.0640869
1834 1 20.1188 13.0597 34.4234 -0.356563 0.561015 -0.263279 -0.373975 0.18791 0.135906
1835 3 20.576 15.211 33.6571 -4.79732 -3.6873 -5.31295 0.0269105 0.59898 -0.0208505
1836 1 19.7019 16.9387 30.4735 0.69281 -0.293372 0.310758 -0.573292 -0.164269 -0.616324
1837 1 17.677 17.9045 26.7535 -4.60267 5.55526 2.32114 -2.58291 0.0702719 1.18356
1838 3 19.2202 17.4821 28.0039 -1.58097 0.147132 -0.825178 -0.203924 0.142304 -0.0446349
1839 3 19.9335 17.421 24.3721 1.60362 -1.41102 0.997598 -0.0951053 0.8721 -0.25813
1840 1 19.1933 15.5871 35.1752 -0.333429 0.693837 -0.59782 -0.498066 1.04834 -1.36428
1841 2 20.9444 19.1046 31.0297 -2.2585 2.89162 1.76298 -0.287856 -0.261633 -0.349319
1842 1 20.4577 17.746 33.3427 5.80247 -0.998074 -1.75654 0.423826 0.0653429 0.0945995
1843 2 17.6388 18.206 22.2376 0.167394 -3.75055 -1.17268 -0.0259878 -1.16757 1.43613
1844 1 18.5882 19.0988 19.454 -0.0950702 -0.589248 1.05216 -0.97198 0.610558 -0.109447
1845 1 17.93 20.5687 24.1365 -6.50032 2.82714 0.285072 -4.51253 2.37126 -3.09445
1846 1 19.2757 19.3719 29.0626 1.21594 -0.760633 0.344001 -1.3636 0.0585886 0.171021
1847 1 18.4606 22.5947 21.8857 -2.03231 4.89866 -4.3758 0.251343 1.02683 6.23843
1848 3 17.1814 19.1527 28.1378 0.54768 1.89232 -2.19803 4.11389 -1.80854 1.15134
1849 3 18.2659 19.598 25.8186 2.23261 0.343869 -2.51414 1.39077 0.43963 -1.34747
1850 2 18.9773 21.1001 30.9941 0.194946 -0.812525 0.282732 -2.7954 -1.03505 1.47922
1851 2 19.1022 20.1704 21.7678 -3.29174 -1.39418 -1.4547 0.44325 -0.973028 -1.87908
1852 1 16.6445 25.2826 20.0296 -4.04846 -4.98364 10.2801 2.25664 4.27403 1.61966
1853 3 17.3321 20.3531 18.2705 12.4278 12.1084 -3.14848 -1.1757 0.309468 -1.37049
1854 1 18.4029 23.3155 25.2966 3.32083 -0.0777569 1.27195 3.61259 -2.63298 3.72948
1855 1 15.4434 22.87 23.7242 -23.0641 -10.7585 -4.34847 0.30788 -6.87077 -1.32936
1856 3 14.8092 25.1773 23.0766 -1.99394 -16.7565 41.3564 -4.79944 -2.04154 1.46996
1857 3 16.3905 27.871 18.334 -16.0748 13.4676 12.4761 -0.147392 1.14306 3.22389
1858 1 17.8252 22.5447 29.4197 0.360066 1.45006 -2.13876 -2.56306 0.990338 -3.3422
1859 3 17.5032 23.4944 20.5651 -23.5564 -42.2376 -7.94234 -2.62872 -0.649644 -2.61732
1860 1 17.9425 22.3667 32.8233 4.45703 -2.91887 1.12019 -1.22799 -0.826868 2.23503
1861 1 15.7328 21.0533 28.7173 -9.62359 11.5988 -0.19057 1.32102 -2.60278 0.668224
1862 3 13.0809 31.7876 24.6031 -14.814 -16.6437 -7.58787 -11.4483 2.10161 -1.91282
1863 2 15.2926 29.3819 17.5791 -5.49227 3.46825 -13.3272 -0.28429 -3.76695 0.783232
1864 1 10.5009 29.9046 14.9819 3.75695 12.3155 0.959634 -6.15461 -0.0698363 -3.26537
1865 1 11.6512 27.741 18.1118 5.00476 -11.1365 2.25934 -14.1929 -0.803329 5.9983
1866 3 15.9971 29.8795 26.289 4.6814 -10.1723 1.8575 2.31915 0.844387 3.46336
1867 1 7.34943 21.3643 17.9101 -6.60595 -0.102401 4.52624 -1.81944 1.68947 -2.85722
1868 1 10.37 20.7263 23.613 3.6503 -14.1642 6.5702 -5.49758 -0.24633 -2.76312
1869 3 3.24318 24.2319 32.5035 38.092 -27.169 89.7389 0.903834 1.08433 0.771678
1870 2 13.961 29.7519 21.3438 5.23092 10.469 -4.38624 -2.82284 -6.07997 3.26413
1871 1 13.8354 27.1945 15.4925 -1.48431 -8.9581 -4.82002 -1.14435 1.94206 0.0963418
1872 3 14.2903 29.188 19.3564 12.2098 -12.6756 1.2837 -0.525256 1.80058 -3.44874
1873 1 11.5913 30.2768 20.4759 11.0348 -8.53938 0.724437 -0.0575526 -1.25626 2.307
1874 1 13.21 31.6185 28.0587 -4.58706 0.579051 -7.26964 0.221008 3.8396 -1.13754
1875 1 27.0372 1.27203 26.169 4.50118 6.20002 -14.3563 5.20907 -2.69972 -3.00335
1876 3 29.091 0.868427 24.9541 10.1115 8.63542 -5.32215 -1.45765 0.324615 0.598794
1877 3 13.1099 31.6609 21.2495 5.5067 7.58706 2.24949 1.75865 2.11732 1.03124
1878 1 12.9255 31.9125 35.0095 2.9973 3.31114 -1.43451 -0.284237 -1.45175 0.453799
1879 2 32.2047 1.3268 21.993 0.287871 1.24224 3.57022 0.794148 -1.21043 -1.62128
1880 1 31.4572 2.06503 19.815 -3.37514 -4.10747 -1.58202 -0.745886 0.527439 0.0362427
1881 3 32.8713 0.990588 18.5867 -3.45522 -0.803657 -3.42301 0.566093 1.48658 -0.246568
1882 3 30.8918 1.15094 27.3275 2.32459 -2.58087 -6.31403 -1.43317 -1.34108 1.4924
1883 2 32.5669 3.20932 30.5327 -3.09214 -2.07029 0.835283 0.412419 0.939029 -0.0516408
1884 2 29.848 2.57363 21.8677 2.64501 -4.16424 -3.99459 -2.17015 -2.67708 0.504273
1885 1 30.3855 4.89671 20.875 0.813518 -0.324017 -0.60825 -1.34627 -0.08723 0.258528
1886 3 31.0016 3.94139 18.9191 2.23263 -3.18991 -1.46811 1.43503 -0.250989 -1.19389
1887 1 29.2241 4.48526 23.4338 -0.530169 0.642286 0.996702 0.676801 -0.20741 -0.569523
1888 1 31.1205 3.73538 28.2038 0.490973 2.45864 -1.06772 -0.982899 0.166373 -0.363255
1889 1 28.3464 5.63078 26.1618 0.441953 -3.01445 1.17897 -0.933659 -1.50526 0.397479
1890 3 30.2922 4.42812 26.1363 0.972149 1.20414 0.313355 -0.610496 -0.663671 -0.687235
1891 2 28.0425 5.76071 21.3275 0.29679 -0.501878 -0.541107 -0.149942 0.023545 0.246162
1892 1 28.9011 7.04036 19.1582 -0.740742 0.779297 -0.548594 -0.199271 -0.458282 -0.275324
1893 1 28.1909 7.06203 23.6544 0.287654 0.603024 0.457545 0.077397 0.43617 0.0606324
1894 1 29.5627 6.08267 28.9122 0.697305 0.259789 1.37735 -0.0334932 -0.0771319 -0.426086
1895 1 26.5334 8.02698 26.2563 0.664065 -0.613322 0.0763954 -0.0643049 -0.0661761 -0.159485
1896 3 28.289 7.20524 27.5356 -0.299127 -1.05673 -0.624878 -0.171271 -0.453772 -0.172539
1897 3 29.6511 6.21981 24.9924 -1.6932 0.605583 1.60979 0.162844 -0.152823 -0.121414
1898 3 28.0806 8.7861 18.5184 -2.53638 0.365896 0.211873 0.322908 0.246325 -0.11846
1899 1 24.8615 10.6909 26.1377 -0.439765 -0.314707 -0.312186 -0.285414 -0.0925261 0.108766
1900 3 28.2688 8.54637 24.8722 0.490356 -0.251114 1.03895 -0.153154 0.101723 0.0952724
1901 1 26.065 8.04646 35.358 -0.584942 -0.664741 -0.731095 -0.156561 0.0580351 0.088952
1902 3 26.3044 11.6736 18.5046 1.24095 0.659598 0.781646 0.466384 0.192841 0.288805
1903 1 24.8547 12.8172 23.7056 0.179455 0.377622 0.0771536 -0.0945524 -0.152844 0.01429
1904 1 23.0829 13.5131 26.1469 -1.12093 -0.897207 -0.750239 0.543474 -0.10881 0.462239
1905 3 26.2298 11.7729 24.7925 -0.0899529 0.0549289 -0.00937964 0.0192651 0.0227338 0.0729159
1906 2 26.6974 14.4951 31.0109 0.035768 2.74034 -0.516446 0.237478 -0.227586 -0.0352019
1907 2 23.0885 14.0785 21.9312 0.439142 0.124829 -0.0477825 -0.111127 -0.0170195 -0.0826852
1908 1 23.5333 15.5086 19.8816 -1.94235 -0.373779 -1.91049 -0.0866894 -0.0882501 0.0722274
1909 1 23.2894 15.5271 24.0175 -0.81266 0.272516 0.602214 0.354217 -0.12338 -0.371377
1910 3 24.7411 14.41 24.9208 0.0735207 -0.240067 0.150354 0.017706 -0.115861 -0.0491865
1911 2 24.5139 16.0076 30.778 -1.14657 -0.142296 -0.385399 0.0692407 -0.238408 0.0755506
1912 1 24.7755 14.4201 32.8776 -0.0827109 -0.159059 -0.0973254 -0.00785249 0.0146048 -0.0500715
1913 3 23.3817 15.627 33.9445 -0.0240855 0.307611 0.0893534 0.0177344 0.0770253 -0.16813
1914 2 21.8032 16.4195 22.0206 0.0612511 0.0245323 0.188969 -0.00513241 -0.22484 -0.0220525
1915 1 21.6937 18.4383 20.4113 1.3217 0.395412 1.8984 0.472857 -0.316946 0.194124
1916 3 22.9387 17.5009 19.1761 1.68126 0.859682 -1.15957 -0.716183 -0.54516 1.51094
1917 1 21.6768 18.4005 23.6877 -1.16672 0.236344 -0.000288329 -0.0849408 -0.246435 0.219647
1918 1 20.1802 19.0039 26.1458 -0.811256 0.0915845 1.22307 0.0210437 -0.606697 -0.151904
1919 1 21.8093 15.7961 35.1581 0.266237 -0.838581 0.11777 -0.275389 -0.0701119 -0.588609
1920 2 23.6868 18.9857 30.8107 -0.962732 -0.124815 -1.87989 -0.199884 0.186977 0.00318478
1921 1 23.2712 17.1643 32.5766 -0.458656 -0.409369 -0.574583 -0.166935 -0.24607 0.115908
1922 1 20.9002 21.2218 20.0514 4.10437 -0.888765 -0.263032 -0.308925 -0.281667 0.00634517
1923 3 21.7182 19.7311 18.6321 0.0388871 -2.58295 1.11905 0.53271 -0.494917 -1.79617
1924 1 22.0882 19.9734 28.7223 -1.11112 0.192504 0.0297422 -0.232313 0.185461 -0.157521
1925 3 20.2745 20.777 27.6141 5.89364 2.47095 0.801937 -0.795848 -0.301344 -0.014715
1926 3 21.2502 20.5796 24.456 -3.11604 -0.767419 3.14809 -0.083184 -0.101576 -0.500325
1927 2 22.41 21.6344 30.8596 1.03592 0.443487 2.30637 -0.147695 0.0290408 0.36808
1928 1 19.2719 23.5242 19.668 2.99097 8.23068 -1.56528 -13.848 -1.26395 5.53346
1929 3 20.1357 22.2816 18.4366 0.43896 -12.2473 -9.73529 -3.01866 1.91845 -2.16052
1930 1 20.5055 22.198 29.2392 3.16096 -1.8856 2.01722 0.602799 -0.259558 0.107553
1931 2 21.4035 24.3906 30.3073 1.81522 0.874355 1.68864 -0.116194 0.372643 0.557246
1932 1 20.6897 22.7171 32.4127 1.51877 0.87317 -0.376218 0.783386 -1.00191 -1.19902
1933 3 19.4069 23.1709 33.8819 1.16822 0.267045 2.47071 0.406519 -0.0885567 0.0754194
1934 3 18.3235 25.1015 18.7762 -2.65699 1.47937 8.2503 -2.71157 2.61575 0.681217
1935 1 19.3504 24.772 28.6918 -0.61388 -0.0067828 -0.144262 3.02787 0.516475 2.86972
1936 1 14.6551 23.5077 21.6164 3.90701 -15.5704 -23.3195 4.70302 -3.40397 -6.44322
1937 3 18.2466 26.4484 28.0038 -4.39774 1.75314 -6.32745 0.727955 -2.36961 2.13213
1938 1 18.1947 24.4394 34.8039 0.064943 4.50086 0.524686 0.226814 -1.75912 3.46408
1939 2 19.9107 26.9063 30.917 -3.62686 -1.25511 2.5045 0.0420955 -0.487291 -0.247019
1940 1 19.1115 24.9651 32.2795 3.09603 -2.19666 0.20807 0.310476 2.23716 0.329914
1941 3 18.6196 26.435 33.7404 3.2092 5.4297 0.267163 -0.759921 -2.61029 -0.505104
1942 1 16.6232 29.437 24.4335 -2.47171 3.68428 -5.72369 -2.52454 -3.48089 -2.24427
1943 1 18.5964 28.391 29.3245 3.74241 -0.0974909 -1.84215 -4.27477 -0.491091 -0.402765
1944 1 15.0778 31.6483 25.8279 4.87374 1.3428 8.54839 2.60306 3.34502 5.92965
1945 3 16.9882 29.7557 28.8935 -0.721905 4.12313 -4.52098 2.2563 -0.838838 -0.309662
1946 3 18.0911 28.3532 25.5423 1.85099 16.2807 -4.0137 -2.00136 3.74222 3.73302
1947 1 7.521 20.1052 22.117 0.414381 -7.79093 -1.06011 -3.93269 -4.03149 1.41528
1948 1 18.4812 28.4172 32.484 1.84872 0.145065 -1.00007 5.43702 2.11288 -3.49896
1949 3 14.6457 30.8914 31.8215 -3.32893 5.09999 1.34387 0.12905 -0.848059 -3.95937
1950 2 16.2444 29.394 19.7086 0.449617 -1.77769 2.69799 0.623844 -1.30326 0.683668
1951 1 14.8145 31.8145 20.3453 -2.0064 8.28813 2.59213 1.717 3.44249 -2.07019
1952 1 14.1636 31.6351 23.0277 2.26636 -5.07261 2.47972 -0.52775 0.705217 -1.222
1953 1 31.2443 1.03146 25.3979 -4.02216 4.40662 0.531947 -0.486418 -0.0685225 -2.64568
1954 3 15.8276 31.4003 24.2228 -6.79081 0.632883 -2.35679 -0.856335 -2.70327 -0.698975
1955 1 15.8239 29.5032 30.7124 5.86679 -2.15603 -0.804705 -2.27742 -0.703148 -0.0480337
1956 1 16.2582 31.7981 32.1382 2.65657 -2.58847 -0.0167256 0.396224 0.147674 -0.7651
1957 1 34.624 1.88244 19.5042 0.412895 -0.616804 0.09996 -0.0773726 0.217692 -0.278821
1958 3 35.4738 1.00856 17.9024 7.70662 10.2126 2.27722 -9.05212 2.7316 -2.96935
1959 1 34.886 0.643154 35.4511 -1.8416 2.81537 0.616185 0.74142 -0.276279 0.00808981
1960 2 35.5754 2.6673 30.6529 -0.635269 2.51876 0.441502 -0.182082 -0.382163 -0.201416
1961 1 36.1009 1.64324 33.0196 1.02717 -0.225101 -0.000296782 0.248846 -0.148702 0.152626
1962 3 33.9014 1.63483 33.7617 0.153025 1.56769 2.15937 -0.399466 0.0107853 -0.278483
1963 2 32.5035 3.87913 21.9477 -6.41823 2.27341 3.73473 1.03745 0.311623 -0.508342
1964 1 32.9989 4.79719 19.6301 -2.06095 2.20522 1.46378 0.0672178 -0.0465561 -0.866622
1965 3 34.4522 3.57291 18.3947 -0.522026 5.31385 1.28041 -1.50839 -0.405159 1.93045
1966 1 33.921 3.58269 28.5434 0.483716 0.725733 -0.825312 -0.0688543 -0.176737 0.176495
1967 1 31.4575 5.89946 26.1379 -0.476155 -0.697023 0.329823 0.0380781 -0.191028 -0.505907
1968 3 32.7107 5.01868 27.6049 4.60654 -0.482288 -1.15396 0.0151966 0.218689 -0.426678
1969 1 32.9139 2.8669 35.0519 -2.0394 0.153122 0.131025 0.390117 -0.456056 0.516482
1970 2 33.9671 5.40461 30.5742 0.700303 0.278224 0.336288 -0.242306 -0.155207 -0.00923425
1971 1 33.9853 3.46444 32.5539 -0.162513 2.38694 1.39529 0.211275 -0.188097 -0.400757
1972 3 32.7487 4.46925 33.8863 0.247817 0.348456 -0.541735 -0.777855 0.360059 0.0356797
1973 1 32.8251 6.6432 28.6663 0.311845 1.1243 -0.1926 0.108909 0.59607 0.00199099
1974 1 29.7028 8.08335 26.2768 1.09334 0.114288 0.171746 -0.304311 0.0307235 -0.157998
1975 3 30.8285 7.03169 27.7174 -0.364139 0.584743 -0.0794443 0.0216214 0.057252 -0.0651004
1976 1 31.1098 5.32276 34.955 0.575067 0.446247 0.213318 0.0782184 -0.331288 0.0963052
1977 2 31.4476 7.48037 30.7866 -0.278719 1.05258 0.129426 0.228333 -0.139851 -0.0919483
1978 1 32.5361 6.05691 32.6161 -0.446843 1.66926 -1.94269 0.0232826 -0.0347651 -0.0449752
1979 3 31.2524 7.22807 33.9295 -0.894179 1.02881 -0.0908364 0.161031 -0.342392 0.0506983
1980 2 29.9958 7.78859 21.6061 -0.6633 0.320549 -0.0718131 0.0404933 -0.108848 0.0709785
1981 1 29.237 9.99137 20.2616 0.720305 -0.0173955 0.988156 0.0567126 -0.21448 0.591564
1982 1 29.5257 9.91787 23.6451 -0.709698 2.17588 0.48527 -0.0392833 -0.164674 0.220613
1983 1 31.0941 9.01247 28.7336 0.247425 1.09949 -0.72841 -0.137178 -0.255029 0.196026
1984 3 29.5016 9.55625 27.7471 0.417956 -0.728881 -0.85389 0.159826 0.0706427 0.0857673
1985 3 31.0047 9.433 25.3147 0.00629345 -0.174156 -0.480615 -0.0149954 -0.0523578 0.0367145
1986 1 29.6249 8.0835 34.8423 -0.346194 -0.069597 -0.299782 -0.0198764 -0.0667295 -0.152601
1987 2 -5.524 10.5902 30.9982 -0.515176 1.96181 2.26925 -0.235195 0.179818 0.236646
1988 1 31.9842 9.11583 33.0301 0.414649 -0.342937 -0.485751 -0.0218278 0.200744 -0.0655989
1989 3 30.1607 10.0817 34.1536 0.497407 0.145507 -0.0443233 0.0334188 -0.170248 -0.0810592
1990 1 27.8385 12.7847 19.6009 0.696999 0.206444 -0.318228 0.414308 0.405492 0.460284
1991 3 29.5579 11.6559 18.5964 -1.21913 -1.36103 -0.66634 1.16724 0.424675 1.3724
1992 1 30.2595 12.0214 29.5865 0.839592 -1.63566 0.321076 -0.0666798 0.0796933 -0.0812355
1993 1 28.2308 10.8405 35.4244 0.527244 0.179502 -0.176474 0.10022 0.00905529 -0.0699405
1994 2 -7.30627 14.1104 31.1107 4.32363 4.60585 -2.34495 -0.433551 -0.474697 0.295665
1995 1 30.1052 11.8395 32.9175 0.479398 -0.328366 -0.030624 -0.0520442 0.233877 -0.00789769
1996 3 28.4026 12.4873 33.9642 0.182567 1.04348 0.316004 0.0179993 -0.172451 0.0741204
1997 2 26.0398 13.5888 21.3696 0.12334 0.113497 -0.0485557 -0.0347912 -0.14466 0.0706937
1998 1 26.4925 15.7622 20.0812 0.304892 -0.240194 0.111954 0.119661 -0.655415 0.0970202
1999 1 26.3271 15.0954 23.3758 -0.14735 -0.46643 -0.350222 -0.109411 0.188453 0.0432573
2000 2 -8.80424 16.5263 31.2043 0.300287 1.45174 -0.224401 0.0275532 0.0415377 -0.114367
2001 1 28.2285 14.5914 33.007 -0.518206 0.318931 0.223539 -0.00930689 -0.096387 -0.0605021
2002 3 26.2135 15.409 34.0403 0.0305637 -0.402653 -0.579286 -0.00543197 0.0258087 -0.0273796
2003 2 24.7319 16.4165 21.9983 0.209806 0.191327 -0.305587 -0.105868 -0.0267298 -0.0988821
2004 1 24.9191 18.0819 19.9814 -0.754504 1.14047 -0.605962 -0.721427 0.675401 -0.823221
2005 1 24.7792 18.1414 24.0623 -0.318798 0.512187 -0.426967 -0.221231 0.0997512 0.0158873
2006 1 24.6684 16.488 35.2363 0.0238056 -0.0555934 -0.70933 -0.319434 0.0718775 -0.127867
2007 2 26.4445 18.7082 30.8151 -0.986094 0.061179 -0.706699 -0.0456104 0.129452 -0.0661167
2008 1 26.2609 16.8032 32.4426 0.0832379 -0.0443049 -1.67302 0.13799 -0.00584587 0.111877
2009 3 24.6884 17.7583 33.7924 -3.59561 -0.832806 -2.11402 0.0379555 -0.0318788 0.0642175
2010 2 23.5629 19.0037 22.0281 0.154605 -0.241398 0.241801 0.0493324 0.246912 0.129672
2011 3 25.1207 19.7029 18.717 2.70124 -0.574194 -2.00557 -1.08887 -0.366735 0.293986
2012 1 23.2113 20.9586 23.6363 -0.0465365 -0.320057 -0.380905 0.150483 0.142998 0.383671
2013 1 24.9842 20.3099 29.0614 0.729942 -0.703302 -0.809887 -0.0197007 -0.257201 -0.118181
2014 1 21.7727 21.7313 26.3281 -2.17038 0.573904 1.03856 0.742132 0.105559 -1.09438
2015 3 23.3854 21.2853 27.6805 0.532086 0.373055 -0.296511 -0.229499 0.0637527 -0.0751978
2016 2 -12.2805 21.4074 31.42 -0.699283 -0.689934 0.678046 -0.214916 0.201508 -0.304476
2017 1 24.8713 19.5223 33.1991 -0.366271 -1.09781 -0.968285 -0.403888 0.059466 -0.388959
2018 3 23.2265 20.1307 34.7534 0.151427 0.743776 1.31292 -0.1986 0.137678 0.0327554
2019 3 22.9131 22.0648 19.1474 0.457499 0.710555 -2.34166 0.262349 -0.212508 0.931601
2020 1 23.6117 22.9114 29.0126 -0.374793 1.48305 -0.631073 0.24961 0.20504 0.0468187
2021 1 20.5393 23.8373 25.9422 1.70902 -3.56596 -4.78379 2.08096 2.86778 0.464301
2022 3 23.5957 22.2783 25.1385 -0.123851 0.854743 -1.69413 -0.186548 -0.114012 0.313851
2023 1 23.1583 21.8743 33.2638 -0.55306 0.121759 0.537828 -0.428017 0.383972 0.440444
2024 3 21.6283 23.5452 33.9574 0.35784 -0.176247 0.721265 -0.175422 0.0560366 0.428683
2025 2 20.5493 23.5519 22.0428 4.0275 -2.24301 -5.72198 0.917511 1.41622 1.08008
2026 1 21.027 25.3942 20.5932 -1.89362 1.66721 -0.37233 1.46924 1.25603 0.397482
2027 3 22.1144 25.25 18.5819 -2.08341 7.49472 2.14734 0.363257 0.574475 -0.228201
2028 1 20.1189 25.7723 23.7503 1.74584 -3.28453 -1.43281 0.761956 0.0688134 0.366239
2029 1 19.5764 27.301 26.7756 1.04532 0.886725 -0.391733 -3.66213 -0.345746 1.6752
2030 3 20.5494 25.2501 27.3062 -9.18294 1.65616 -0.884183 -1.69839 -1.72673 1.19825
2031 3 21.7555 24.801 24.7545 -1.29088 -0.127933 -1.57321 0.431421 -0.641095 -0.866351
2032 1 21.6225 25.6659 32.5286 2.23472 -0.000199062 -1.0596 -0.0627453 0.387127 1.01993
2033 2 19.2506 27.0756 21.7877 9.75198 9.62982 5.92175 15.2073 5.66173 -1.90528
2034 1 19.0359 28.9884 19.9841 1.93616 0.233538 1.43679 1.1531 -1.47303 -0.0561022
2035 1 19.1868 28.9838 23.8066 -2.3938 -4.02515 -2.48801 -3.40433 -0.952967 0.398235
2036 1 17.9215 30.229 26.7894 0.0577342 1.59902 -0.918957 3.72583 -1.62612 2.04424
2037 3 19.3811 29.0583 27.7891 3.44296 0.740676 0.71958 -1.24437 1.00718 -0.539783
2038 3 19.9852 27.3696 24.88 -4.60768 -0.826321 1.58139 0.688212 0.270061 -1.31392
2039 2 -17.2825 30.1729 30.8119 2.36347 0.482383 0.16726 1.22646 0.524248 0.142331
2040 3 18.9663 29.7398 33.8948 -3.09874 8.64816 0.444062 -0.163989 -0.395177 1.0147
2041 2 17.2888 28.6138 21.8898 8.42718 -18.0349 4.03517 4.86233 -3.78621 7.90358
2042 3 18.8359 30.893 18.7453 -1.49814 -2.33674 -5.23377 1.34036 1.71906 -0.225099
2043 1 17.3703 31.9046 23.679 2.16171 4.55021 -2.61351 1.77686 0.196148 -1.61177
2044 3 18.1867 30.494 24.7245 -7.12094 -1.75634 3.01679 -0.0790335 -0.0284085 -0.0231156
2045 1 17.409 30.3874 35.1268 2.89158 0.583191 4.70029 -0.290127 1.56755e-05 -3.34695
2046 2 37.0064 0.206121 30.8354 -4.09066 -0.371851 -0.00913403 -0.14254 1.14619 -0.745879
2047 1 19.0179 31.3061 32.9743 -1.51041 3.97134 -6.90833 -0.392017 0.0249413 -0.827857
2048 3 17.1991 31.9652 33.7934 1.14255 -0.295928 -0.0031853 0.0396877 0.0752386 1.09679
2049 2 0.707473 0.509779 39.2811 2.25066 -0.888242 -1.61412 -0.657777 -0.266916 0.845856
2050 1 0.131108 1.7404 37.0264 -0.351317 -0.277406 -0.0565291 -0.00977287 -0.278584 0.075408
2051 1 0.363817 2.13016 41.5548 -3.02868 0.71788 1.06631 0.601706 0.241071 0.190122
2052 1 35.3938 3.00072 43.4651 -1.22009 0.885674 -1.01089 -0.707839 -0.433187 1.17555
2053 1 -1.26562 4.43021 37.0949 0.0895956 0.342695 0.398107 -0.207525 0.23632 0.100272
2054 1 0.233529 2.78781 46.2691 -1.44048 -0.828559 -1.91474 -0.474442 0.0361309 -0.0901053
2055 1 -2.88567 5.45268 43.8403 -1.31259 1.11305 -1.89026 -0.88311 0.459229 -0.694413
2056 3 -1.12656 4.17082 45.0101 -0.664579 0.348855 0.466997 -0.166894 -0.0680973 0.0403929
2057 1 -3.02118 6.86631 37.4635 0.71382 0.116514 1.75869 0.463861 0.260549 1.15277
2058 3 -1.63158 6.29254 36.3271 -0.440902 2.55352 -1.01367 -0.0426206 -0.1271 -0.359872
2059 1 -0.98915 5.84139 46.2466 -1.58462 -1.0529 0.292563 -0.318613 -0.101815 -0.0349095
2060 2 -1.96154 8.00283 47.4343 -4.62423 0.632072 8.35441 0.26028 -0.312273 -0.142505
2061 3 -3.01458 8.73825 35.9576 -0.181473 0.331022 0.155086 -0.0323097 0.0336351 -0.0374014
2062 1 31.1765 10.4324 43.8202 -0.665333 -0.226322 1.51081 0.372625 -0.148214 0.0524896
2063 3 -2.9065 8.28016 43.3664 0.18603 -2.13177 -0.54735 0.0475572 0.680603 0.407306
2064 1 -3.53326 9.3012 48.7223 0.642578 -0.352757 -0.403122 0.0750841 -0.0569242 0.121742
2065 3 -4.42301 11.9858 35.6232 -0.399496 -0.625451 0.318754 0.0604367 -0.0139669 -0.047611
2066 1 29.4559 13.078 43.377 -0.37471 -0.502417 0.172103 0.415544 0.29683 0.202855
2067 3 -6.31404 12.291 44.2884 1.82857 2.60118 -0.344548 0.259372 0.201914 0.207894
2068 3 -4.61803 10.8382 42.1946 -0.387286 0.64687 0.213755 0.254799 0.104711 0.382912
2069 2 -3.94207 13.146 46.8679 0.798789 -0.566876 1.36209 -0.157688 0.339386 0.251913
2070 1 -4.80705 12.3734 48.9803 1.51726 0.359888 0.0287704 0.251111 0.237619 0.286863
2071 2 -7.41426 13.7205 39.5481 -4.07944 2.50364 0.135882 0.267251 -0.298116 0.0555617
2072 1 -7.67815 15.2754 37.5856 -0.0345233 0.469653 0.633888 -0.532643 0.436416 0.100123
2073 3 -6.27793 14.806 35.9358 0.11802 0.392024 0.0130788 -0.0919782 0.0675001 0.329384
2074 1 -7.44368 15.3416 41.5137 -0.804083 -0.0873268 0.217226 -0.0177394 0.00867419 0.164699
2075 1 -9.19094 16.0779 43.9194 0.244787 0.445347 -0.449835 0.128801 -0.39488 0.00738281
2076 3 -6.09888 13.8941 42.6471 5.62482 -3.25858 -1.60918 -0.0618408 -0.00500941 -0.617613
2077 2 27.9817 16.0364 39.4779 -1.09958 1.38837 -0.781193 0.104504 -0.0652579 0.189237
2078 1 -9.45239 18.0727 37.5083 0.193339 -0.59164 -0.128386 0.35548 -0.574962 -0.0600619
2079 1 -9.39677 17.9076 41.3528 0.166452 -0.584932 0.275827 -0.0303515 -0.0175874 0.20982
2080 1 -7.4911 17.4107 45.5452 -0.788573 0.74126 -2.16849 -0.954395 0.13191 -1.02485
2081 1 26.5285 18.5904 43.6273 0.0765426 0.482187 -0.252788 -0.145512 0.0992463 0.25162
2082 3 -9.33937 18.0088 44.9777 -0.337666 0.124238 -0.0511868 -0.00642314 0.337298 -0.0503775
2083 2 -7.98586 18.6572 47.8207 -0.0547076 0.138115 -0.110466 0.357739 0.355954 0.131822
2084 2 26.3225 18.6487 39.4652 -0.119995 0.913487 0.50287 0.112672 -0.0857824 -0.47114
2085 1 -11.0362 20.639 37.9211 0.959559 -0.493064 0.877294 -0.57309 0.216552 -0.180816
2086 1 -10.979 20.4175 41.2832 0.939743 4.04912 0.81304 0.25889 0.926221 0.684871
2087 1 -9.28814 20.0732 45.8755 -0.226254 0.117353 -0.21472 0.170104 0.500681 0.759453
2088 1 -12.3233 21.424 44.0254 0.595077 -0.204478 -0.167861 -0.259563 -0.00975776 0.393685
2089 3 -11.1283 20.0331 44.8001 0.163903 -0.510439 0.378146 -0.123396 0.368952 0.154149
2090 3 -9.34159 19.8513 42.5679 1.09732 0.668038 -0.931915 0.131856 0.136525 -0.123023
2091 2 -9.41202 22.0483 47.4642 0.125993 -0.221536 0.145049 0.117169 -0.286599 0.570457
2092 1 -8.89776 20.4389 49.2456 0.888225 -0.0174654 2.56548 -0.547612 -0.31771 0.99747
2093 2 24.6977 21.4694 39.5644 -1.70834 -1.20668 -0.776424 -0.0475788 0.0733572 0.0410094
2094 1 -12.626 23.1441 37.4975 -0.311491 0.677931 0.757541 -0.0142661 -0.256894 0.193419
2095 3 -10.9301 22.3996 36.521 -0.795497 -0.695555 -0.159577 -0.140677 -0.218519 -0.207853
2096 1 -12.3281 23.1365 41.5127 0.113364 -0.793923 0.443874 -0.548199 -0.271148 -0.431343
2097 1 -13.7811 23.9769 43.7328 -1.6743 -1.92511 0.971218 0.00243322 0.00731294 0.0149079
2098 3 -11.9398 23.0149 44.9511 -0.424637 0.227288 0.547132 -0.200346 0.0570015 0.143545
2099 3 -11.1915 22.1192 42.6581 -0.0512986 0.883103 0.324388 -0.147246 0.0351524 0.278881
2100 2 -13.7422 23.8888 39.6189 1.45374 2.89955 1.6819 0.0108049 -0.469637 0.127864
2101 3 -13.1742 25.205 36.5128 0.153354 -0.124748 -0.283158 0.0579895 -0.0981455 -0.191175
2102 1 -14.2285 25.6127 41.4461 0.541741 1.1501 0.450844 -0.675649 -0.348371 -0.0374714
2103 3 -12.442 24.961 42.7724 -0.489558 0.296442 0.271565 0.0538559 -0.149382 0.111779
2104 1 -12.0824 25.3762 49.7154 0.254686 0.208059 0.633055 0.136759 -0.126907 0.074687
2105 2 -14.0897 26.9033 39.3563 -1.04427 -1.29366 1.19005 0.369361 0.40724 -0.426768
2106 1 -14.7857 29.4149 37.754 1.38379 0.898439 -0.596706 -0.353133 -0.343047 0.0298263
2107 1 -15.3342 28.2948 41.2068 -0.0794175 0.415322 0.386048 0.30561 -0.106905 0.701346
2108 1 -13.6084 27.562 49.579 -0.959469 -0.911295 1.02935 0.0172486 0.127259 -0.295144
2109 2 -16.4867 29.5622 39.5091 1.29156 -0.490763 -0.142346 -0.954138 1.29933 -0.129271
2110 1 -17.2173 31.281 37.1571 3.20938 2.41803 2.82588 1.10541 1.13212 -2.13585
2111 1 -16.8354 31.4235 41.3201 -1.28087 -3.68076 -0.358999 0.205519 0.185335 0.318192
2112 1 0.0183969 0.19302 43.3331 -0.909364 -0.894704 -0.379246 0.0769685 0.525568 -1.24597
2113 2 -15.9159 31.9275 47.3247 -0.330242 0.674426 -1.30667 0.292603 -0.366479 0.754927
2114 1 -14.7776 30.2473 49.2259 0.433925 -0.164181 -2.35153 0.0775641 0.417683 0.968526
2115 2 -15.2971 31.9113 38.9102 -0.594233 -3.15243 -0.79995 -0.49449 0.414492 0.0516106
2116 1 2.9041 1.68241 37.5505 2.10514 -2.55579 0.213943 0.0145743 0.267934 -0.273673
2117 1 2.87453 1.62024 40.6315 2.01929 0.532578 0.172164 -0.0552335 -0.284636 0.532807
2118 1 4.31592 1.32389 46.41 0.435045 0.676678 -0.815115 -0.410366 -0.392079 0.278283
2119 2 4.71228 2.97325 48.2548 -0.589238 0.201482 0.0507825 -0.0199003 -0.365094 -0.0311085
2120 1 4.0772 0.739262 49.1961 0.823712 -0.165523 0.473429 0.317341 -0.337185 0.386977
2121 2 1.32772 3.01266 39.1469 0.212447 0.291772 0.487654 0.0495832 -0.253635 -0.0503428
2122 1 1.47351 4.80928 37.3911 0.130015 0.549255 -0.0507497 0.0647091 -0.0434492 0.0576066
2123 1 1.40356 4.78058 40.9713 -1.20613 1.07597 1.85559 -0.280595 -0.387752 -0.114719
2124 1 3.19544 4.01165 46.5104 0.187481 -0.64918 0.744068 -0.172851 -0.0158764 -0.0456256
2125 1 0.290023 4.75037 43.8474 -1.07922 1.94204 -0.103696 0.463303 -0.609753 0.044292
2126 3 1.7813 3.92103 44.9487 -0.374798 -0.157101 -0.151528 -0.164356 0.0236005 -0.00641884
2127 2 3.21302 6.2854 47.7601 -0.357155 0.153693 0.409938 -0.0144353 -0.20266 0.154456
2128 1 4.33546 5.0901 49.581 1.26008 0.0696089 -0.194135 -0.0844985 -0.175323 0.0203404
2129 2 -0.201598 5.58841 39.2964 -0.948617 -0.715592 0.944863 -0.0165547 0.140844 0.0606182
2130 1 -0.0752059 7.45059 37.6553 1.14896 -2.01567 3.50875 -0.410352 -0.266839 -0.739826
2131 1 -0.0541337 7.72925 40.666 -0.638748 -0.644165 -1.05169 -0.00567253 -0.0702353 0.4408
2132 1 1.8445 6.24849 45.6154 -0.888588 0.432704 -0.616657 -0.0140618 0.286075 0.351252
2133 1 -1.17302 7.45021 43.3652 0.732207 1.23404 -0.383114 -0.0168959 -0.182515 0.245478
2134 3 0.117368 6.77616 44.6942 -0.918965 0.591913 -0.299504 -0.184169 -0.0237312 0.216737
2135 3 2.45311 5.99207 42.3236 -1.53917 -0.358884 -2.20055 -0.281814 -0.0192807 0.317241
2136 2 1.38997 7.92906 47.4571 1.86149 0.434196 -0.999149 -0.711588 -0.0513358 0.366948
2137 1 1.61898 6.53674 49.5535 -0.15396 -0.0566871 0.7189 0.0388663 0.28903 0.342423
2138 2 -2.20936 8.13805 39.5427 -3.34786 -2.24614 4.88041 0.935094 0.825718 -0.954711
2139 1 -1.81847 9.61211 37.2131 0.631881 1.14017 -0.460942 0.0486431 -0.163929 -0.0715391
2140 3 0.0181346 8.69015 36.0622 1.05519 -0.273745 -0.213757 0.00212409 -0.0204184 -0.0247153
2141 1 -1.94784 9.74769 42.0165 -1.48259 0.0761601 -0.195328 0.301065 -0.275446 -0.335322
2142 1 -0.229323 8.6127 45.8839 -0.298545 0.555381 -0.481553 -0.00972375 0.0701319 0.220948
2143 3 -0.0405878 8.9756 42.5249 -0.239528 2.86303 -0.658275 -0.0081855 -0.0353225 -0.140168
2144 1 -0.271269 8.87395 48.9663 -0.387543 -0.168721 0.163984 0.132461 -0.089425 0.246597
2145 3 -1.71652 11.4395 36.1377 -0.386161 -0.105115 -0.977843 7.24311e-05 -0.0594706 -0.0709746
2146 1 -4.5189 12.6455 43.4348 -0.357231 -0.740101 0.495913 0.159739 -0.325115 0.641855
2147 3 -1.9264 11.3023 43.4502 0.440771 0.144615 -0.0486566 0.184704 0.29692 -0.122956
2148 2 -1.22293 12.7283 47.4144 2.12264 2.08355 -5.40542 -0.235593 -0.162767 1.12482
2149 1 -1.69961 11.253 49.2176 -1.89016 -1.19181 1.57246 -0.111734 0.425405 0.304841
2150 2 -5.02431 12.9773 39.0625 -5.02978 0.955746 0.917821 0.684224 0.0461927 0.119585
2151 1 -4.73516 14.9763 37.5138 -1.53594 1.05873 0.377271 0.195915 0.110007 0.0764386
2152 3 -3.06484 14.5709 36.2171 1.15247 -0.319599 -0.526936 -0.00383064 0.0614386 0.191071
2153 1 -4.79912 14.4252 41.0601 0.902535 0.589026 0.800936 0.680095 0.516694 -0.105861
2154 3 -3.47704 14.423 42.6038 1.22813 -0.537742 -1.34168 0.175154 0.0709021 0.302816
2155 1 -2.67147 14.3187 48.7179 -1.19973 0.568587 2.37158 -0.222056 0.224103 0.571508
2156 2 -6.02826 16.0841 39.4931 -0.326168 0.555299 0.438569 0.0632382 0.0312356 0.086269
2157 1 -6.14341 17.9367 37.7739 0.320638 -0.853836 -0.280632 -0.119375 0.0180761 0.0732477
2158 3 -4.64121 16.9271 36.4004 -0.637676 0.674997 -0.16977 -0.00784386 0.0723529 0.167469
2159 2 -7.84998 18.814 39.5513 -0.0920056 0.0803133 0.158595 -0.0814581 0.0211663 -0.0463482
2160 1 -7.77153 20.6483 37.7475 -0.833209 0.0499127 1.22362 0.883719 0.475353 -0.675179
2161 1 -7.7168 20.767 41.4247 1.08139 -0.547206 0.0535893 -0.12426 -0.359171 0.0834843
2162 1 -6.38633 19.6066 46.223 2.56631 -2.74401 -0.136839 0.31143 1.25468 0.160992
2163 2 -6.37518 21.5326 47.947 -0.157262 -0.568766 -0.489992 0.766198 0.163983 0.182651
2164 1 -6.43441 19.7501 49.5275 -0.0238123 0.456336 0.463997 0.115827 0.936648 -0.0514086
2165 2 -9.33566 21.2782 39.5273 0.236327 0.157237 0.558949 -0.0285013 0.0684615 -0.0654106
2166 1 -9.27428 23.2862 37.4943 -0.18091 -0.548044 1.37868 -0.366205 -0.0159722 -0.240559
2167 3 -7.52355 22.4928 36.5131 0.734677 2.21667 -1.49684 -0.0931426 -0.300066 0.237701
2168 1 -10.8458 23.881 43.5795 -2.52755 0.931103 0.898595 -0.282526 -0.167427 0.28578
2169 1 -7.76978 23.0906 49.096 0.811313 -0.624992 -0.0423371 0.208425 -0.608303 -0.0470537
2170 3 -9.17409 24.8554 36.0199 -0.834253 -1.64983 1.29712 -0.0743453 -0.062389 0.491931
2171 1 -9.36196 25.8313 46.7358 -0.900142 -1.36413 0.862881 0.309165 -0.348939 0.553576
2172 1 -12.301 26.6202 44.018 1.09643 -0.487689 -0.350913 0.0531313 0.190921 0.00864718
2173 3 -10.9867 26.0523 45.5191 -0.350666 0.477671 1.40813 0.0252262 -0.107088 0.126773
2174 2 -9.69847 28.1427 47.9587 -1.80235 -0.77572 -0.816767 -0.170089 -0.066842 -0.013432
2175 1 -9.37978 25.9736 49.2952 -0.674878 -0.339436 -0.0714991 -0.296612 0.577642 -0.00981653
2176 1 -12.0902 29.4674 37.2976 0.396979 1.4411 0.0567672 -0.357983 -0.942032 0.34339
2177 3 -11.3977 27.8015 36.1621 -0.54004 0.292548 0.791276 -0.165581 -0.0377081 -0.134546
2178 1 -12.9514 28.6584 42.2113 -0.165818 0.70605 -1.69248 0.219244 -0.0492743 -0.139573
2179 1 -11.1319 27.954 46.0023 -0.437204 1.09811 0.154067 0.447166 -0.11909 -0.0041678
2180 3 -11.1679 27.852 43.0549 -0.826268 2.03224 3.54029 0.0826935 0.093203 0.302698
2181 1 -11.0382 28.0084 49.9127 -0.370312 -0.14348 0.660474 0.411328 -0.224419 -0.107295
2182 2 -13.2223 29.1935 39.7375 0.863741 -0.847615 -0.523648 0.0743731 -0.0744023 -0.105601
2183 1 -13.2811 31.7982 37.2133 -0.689545 1.33412 1.7577 0.227964 0.114651 0.813417
2184 3 -12.5142 30.7608 35.6629 -1.26758 0.306288 -0.2635 -0.218671 -0.0634993 0.0840701
2185 1 -13.7308 31.2864 40.8853 2.4852 -1.17678 -2.96214 -0.0775197 0.142344 0.576018
2186 1 -12.1821 30.1654 46.4177 0.680021 1.05318 -1.90085 0.363079 0.339648 1.15066
2187 3 -12.4169 30.5591 42.6158 1.81037 0.455192 -0.330961 0.269725 0.101884 0.0289544
2188 2 -12.782 31.9579 47.9406 -0.71238 -0.700909 0.465831 0.217392 0.685002 0.0438438
2189 2 6.5516 0.00594471 39.286 -0.0205505 1.09203 -0.299283 0.076387 -0.452227 0.230067
2190 1 6.27626 2.02448 37.487 -0.806371 0.0258193 0.330032 0.156161 -0.27628 -0.0223161
2191 1 6.15352 1.7596 40.972 -0.315417 -0.43503 -0.958432 -0.0819938 0.0252636 0.506944
2192 1 7.15345 0.877335 45.9911 -1.14046 1.87227 1.39184 0.00187026 -0.0981488 -0.0826682
2193 3 5.74672 1.75159 44.8934 -0.00795188 -1.44282 -0.758488 -0.04538 -0.218199 0.0625463
2194 3 7.25174 0.89427 42.7016 -0.0797759 -0.56958 0.665836 -0.16915 0.129392 0.289985
2195 2 7.87691 2.23688 47.9099 0.37383 -0.401977 0.232234 0.0819939 0.277703 0.0459189
2196 2 4.58583 2.75844 39.1847 0.431276 2.34601 -0.311225 -0.0590311 0.616348 0.0766488
2197 1 4.43951 4.56293 37.177 -1.53142 -1.64254 -0.510115 -0.0341496 0.176726 -0.290583
2198 3 5.95692 3.55874 36.0635 0.565747 -0.0278214 0.39479 0.0347252 -0.00443294 0.242918
2199 1 4.17981 3.99943 41.3624 1.06171 -0.414592 -1.86985 0.612195 0.112092 0.208058
2200 1 6.18441 3.54887 46.1836 0.0901087 0.220249 0.34741 0.0926263 0.0946016 0.0580334
2201 1 3.35519 4.80296 43.6452 -1.87337 -1.35546 1.92261 0.0804027 0.329409 -0.327359
2202 3 4.841 4.4092 44.9283 -0.0153773 1.95642 0.62573 0.25754 -0.174705 0.549969
2203 2 5.90201 5.591 47.7098 -0.632878 -0.207482 0.0513309 -0.123724 -0.189065 0.00762677
2204 1 6.95318 3.99698 49.3343 -0.415176 -0.0418811 0.108258 -0.178219 -0.194358 0.164668
2205 2 3.14763 5.33322 39.2618 -0.275777 0.116461 0.832108 -0.0707316 -0.0345098 0.0394343
2206 3 5.0589 6.3045 36.5288 0.686134 0.555731 0.511771 -0.112717 -0.0511668 0.157064
2207 1 3.22124 7.23799 40.9541 0.426272 0.252235 0.968142 0.0695082 0.103902 0.365444
2208 1 4.57698 6.12745 45.7218 0.372167 -1.20744 -0.226679 -0.0986511 -0.178627 0.127775
2209 1 1.59598 7.81417 43.4469 0.679146 -0.0865636 -0.751703 -0.051307 -0.00862779 0.261924
2210 3 3.24355 6.5728 44.2773 0.391755 1.6324 0.69589 -0.178278 -0.410535 0.431143
2211 2 1.8435 8.20518 39.0367 0.811867 -1.23512 0.00794991 -0.0623296 -0.0961388 0.0959218
2212 1 1.40234 10.0017 41.2933 0.20204 0.604509 0.544137 -0.0624175 0.0263063 0.388288
2213 1 0.124198 10.8129 43.6833 -0.0534656 -0.261723 -0.819832 0.199739 0.276248 0.16751
2214 3 1.17463 9.55355 44.7382 0.405547 2.3113 0.60599 -0.126521 0.0956385 0.147685
2215 3 3.08878 8.89591 42.2659 0.634081 0.475284 -0.553899 0.0480428 -0.00489346 0.11401
2216 1 3.18208 9.05784 48.3697 -1.89291 -0.623687 -0.753189 -0.660049 0.0776038 1.10838
2217 3 1.7738 11.4349 36.6907 -0.128281 -0.158583 -0.0335168 0.0714212 0.201387 0.234095
2218 1 -1.84061 13.436 43.3278 0.0963469 -0.303705 -0.195338 0.25209 -0.00722704 0.149896
2219 3 -0.361801 12.6414 44.407 -2.13213 0.0225888 4.25988 -0.588358 0.118252 0.824648
2220 3 1.62282 11.7196 42.771 0.14317 -0.687692 0.161047 0.123486 0.0240178 0.0188101
2221 1 1.36622 11.5555 47.928 0.668909 -0.0516398 -0.0964022 -0.174303 -0.336437 0.382555
2222 1 -1.42323 15.0949 37.7234 -0.636784 -0.573804 1.08473 -0.0386742 -0.363837 -0.777095
2223 3 0.296706 14.6564 36.3597 0.789013 0.202678 0.313284 0.0385177 -0.0463757 -0.110471
2224 1 -1.87228 15.1972 41.0131 0.399902 0.46492 -0.38168 -0.436417 -0.0491419 -0.071671
2225 1 -0.183226 14.3157 45.5962 0.821272 0.150655 -1.44877 0.676907 -0.47057 0.0906366
2226 1 -3.43946 16.2536 43.5696 0.739599 -0.0933553 -0.200676 1.22991 0.0525706 -0.209363
2227 3 -1.88828 15.1017 44.6087 -1.95927 -1.73498 2.28249 -0.97659 -0.999712 0.636628
2228 3 -0.608055 14.283 42.1219 0.451432 1.23035 -1.22102 -0.0755977 -0.288503 0.253819
2229 2 -0.527197 15.6049 47.8189 1.23831 -1.84991 1.01242 0.337518 0.183085 0.171657
2230 1 -0.0873902 13.8116 49.4777 -0.176032 0.23116 1.4921 0.108531 0.327999 -0.0146689
2231 1 -3.17809 17.6407 37.6562 0.145446 -0.114671 0.207178 -0.388961 0.00462673 -0.0901375
2232 3 -1.62297 16.949 36.6541 -0.578738 -0.139351 0.775602 -0.000931637 0.0769914 0.400032
2233 1 -1.6201 16.7725 45.9632 0.808994 0.739927 -0.618437 -0.0385443 0.333821 0.630796
2234 3 -3.0238 17.6854 44.9274 0.0660691 -0.212651 0.561718 0.324158 0.351182 0.124777
2235 3 -1.96762 17.0262 42.3094 -3.63106 -0.653047 3.9194 0.301408 0.0902188 -0.159901
2236 2 -1.83138 18.6565 47.7803 -0.16659 0.667821 -0.45011 -0.0430608 0.135597 0.175439
2237 1 -4.7142 20.4722 37.7802 -0.0581445 0.383296 0.41072 0.0841946 0.303544 -0.0300996
2238 3 -3.06723 19.3608 36.5331 3.81387 1.1058 -0.463728 -0.326919 0.0365671 -0.108337
2239 1 -3.58832 19.3899 45.9108 1.17888 -1.16806 -2.23634 0.166169 0.163151 0.755794
2240 1 -6.58331 21.4926 43.9052 -0.472506 0.151452 0.30145 0.120877 0.140477 -0.0294139
2241 3 -5.15439 20.2058 44.6044 0.0883903 1.47907 -0.971448 -0.0590434 0.0582055 0.0416783
2242 2 -3.46981 21.4836 47.7477 0.301443 -0.0117878 -0.290266 0.142362 0.112155 0.138961
2243 2 -6.27096 21.509 39.5844 -0.27725 -0.326522 0.185521 0.0820272 -0.209743 0.209388
2244 1 -6.19089 23.3654 37.8009 0.553877 -0.835545 0.967983 -0.506713 -0.573402 0.76632
2245 3 -4.48855 22.2409 36.6737 1.09956 0.325588 -0.963406 -0.233215 0.156874 -0.0576558
2246 1 -5.65739 23.2369 41.2196 -0.0410765 0.284247 -0.10278 -0.403709 -0.284356 -0.400567
2247 1 -5.04462 22.1002 45.9176 0.889879 1.27384 0.240207 -0.2587 -0.09209 -0.016275
2248 3 -5.00427 22.7024 43.06 -0.0658714 0.562756 -1.14062 0.437123 -0.190896 0.220588
2249 1 -4.70917 23.3864 48.8084 -1.23299 0.922346 -0.961725 0.842303 -0.312664 1.24331
2250 1 -7.9141 25.9771 37.3458 -0.0432698 0.0867608 0.518159 0.103216 0.0803904 0.230377
2251 3 -6.38844 25.1956 36.4733 0.193713 -0.48628 -0.0877009 0.0311382 0.0942474 0.236995
2252 1 -9.37479 26.8814 44.0944 0.64574 0.557481 0.775739 0.177354 -0.104727 0.0985538
2253 3 -7.68698 25.8809 45.3167 0.0694603 0.120528 1.15351 0.0173063 0.252216 0.208138
2254 3 -5.8006 24.8554 42.7867 0.532402 -0.512569 0.0697755 -0.0132063 -0.174105 0.213379
2255 2 -5.83822 27.7932 47.9809 0.2545 0.85328 0.0765639 -0.00626797 -0.171391 0.280218
2256 1 -7.01127 25.6041 48.1927 1.41938 -0.31498 0.264482 0.616882 -0.267225 0.260697
2257 3 -7.80347 27.684 36.058 0.211594 0.674931 1.03127 -0.133645 0.0880287 0.208054
2258 1 -7.61391 27.8774 46.1687 0.593867 1.78171 0.832217 0.190257 0.343571 0.389288
2259 1 -10.7593 29.6983 43.8151 0.245248 -0.472402 -0.689782 -0.012813 0.0478784 0.167588
2260 3 -9.21663 28.7682 44.894 -0.572072 3.11417 0.402248 -0.0346438 0.193185 0.153425
2261 3 -7.55935 27.7538 42.8351 -1.52375 0.223255 0.698858 -0.0931309 0.0117491 0.146757
2262 2 -7.21325 30.1572 47.202 1.97179 -2.32534 -5.51946 0.0798809 -0.204172 -0.481621
2263 1 -7.75141 28.7242 49.2241 0.461386 0.393859 0.613264 -0.232946 -0.030123 0.279472
2264 1 -10.9506 31.5725 41.5274 -0.729955 0.0179375 -0.593959 0.101532 -0.444942 -0.0376093
2265 1 -9.51676 30.2583 46.3983 0.846954 -1.24741 -1.64247 -0.162969 0.017704 -0.060847
2266 1 -12.7761 32.2753 43.6526 -1.12646 -2.07543 0.237808 0.0620881 0.380096 0.136476
2267 3 -11.1375 31.3183 45.0934 0.0281105 -2.06854 -0.0670599 -0.0924221 -0.0880281 0.119182
2268 3 -9.47674 30.5727 42.87 -0.0240145 0.289343 0.164925 0.118643 -0.0043692 0.0516392
2269 1 7.47058 2.63563 43.8407 -0.5737 0.641174 -1.73815 -0.0894397 0.194468 -0.147813
2270 3 8.84476 1.78873 44.9092 -0.261003 -0.356589 0.138222 0.0532626 -0.0885107 0.141643
2271 3 10.9102 0.654173 43.4328 2.35155 -3.54588 -0.996757 -0.134042 0.422956 0.40264
2272 2 7.7301 2.98133 39.4133 -0.430754 0.586651 -0.0445114 0.0153076 -0.247886 0.088291
2273 1 7.459 4.66217 37.4504 -0.39859 -2.01935 1.31467 0.105184 -0.146918 0.0768042
2274 1 7.43539 4.72265 41.3319 -0.889191 -0.129572 0.100592 0.00284623 -0.116224 0.0142201
2275 1 9.05698 3.63759 46.1239 -0.188565 0.611182 0.659526 -0.0685339 -0.410213 -0.195424
2276 3 8.89275 3.96991 42.8948 1.62952 -1.22237 1.1644 -0.0280977 0.14467 0.0306254
2277 2 8.85833 5.20559 48.0987 -0.133249 0.129268 0.132185 -0.24086 -0.0389473 0.11227
2278 1 10.1216 2.98026 48.7374 -0.248908 0.524197 0.226154 -0.616808 0.241242 1.22269
2279 3 7.82762 6.07276 35.8099 -0.560697 0.541508 0.959397 0.349551 -0.411685 -0.0705349
2280 1 7.5699 6.52236 46.2286 -2.65794 -0.713029 1.83613 0.129644 -0.0588079 0.0774274
2281 1 4.38631 8.08369 43.7269 0.608337 -0.742914 -0.175549 0.0735174 -0.194047 0.237018
2282 3 6.12863 8.87028 35.6373 -0.818987 -0.179132 2.18868 0.390062 0.117107 0.290647
2283 1 5.19408 9.4514 41.6437 -1.04772 -0.791845 -1.28368 -0.174347 -0.393916 0.501695
2284 1 6.10274 8.94597 45.5936 3.91706 -2.80229 -0.346581 -0.306158 0.305651 0.129146
2285 1 2.84738 10.2971 43.6956 0.979225 -0.5 -0.208285 0.364846 -0.188518 -0.445447
2286 3 4.3345 9.78733 45.0687 1.20564 -0.0931068 -0.630243 -0.184861 0.15121 0.0824181
2287 3 6.18692 8.81794 43.4391 1.30675 2.50083 -0.883657 0.0937668 0.278959 0.0458334
2288 3 5.0238 12.03 35.5696 -0.560936 -0.0317139 0.869293 0.0276132 -0.00305446 -0.106643
2289 1 4.48899 11.28 46.5005 3.1635 -1.80977 -0.866637 -0.394193 -0.0704979 -0.0549013
2290 3 4.55158 11.1428 42.4361 -0.650332 -2.48388 -0.193527 -0.138289 -0.427215 -0.023613
2291 2 4.73766 13.0995 48.1672 -1.8867 0.436526 1.97504 0.380737 -0.174641 -0.320609
2292 1 4.36252 11.1216 49.3883 0.0687175 -0.335174 0.0930844 -0.0532757 0.038403 0.218598
2293 1 1.53451 14.2357 38.0112 -0.546617 -2.10249 -2.71287 -0.194386 0.052784 -0.791475
2294 3 3.17421 13.5823 36.6717 -0.106148 0.344848 -0.257935 -0.0544557 -0.141058 0.179209
2295 1 -0.604891 15.938 43.444 -0.369829 0.0827802 -1.05246 0.319797 -0.279934 0.724287
2296 1 2.71551 13.9479 48.9174 0.700743 -0.553614 -0.0694247 0.27893 0.470849 0.0550461
2297 2 0.519932 15.9025 39.5151 3.85702 -1.90609 -2.49624 -0.247394 -0.424676 0.108343
2298 1 -0.16562 17.5077 41.2496 0.123847 -2.00757 -0.863232 0.578738 0.0785755 -0.467059
2299 1 1.13482 17.2988 46.6694 -0.00835495 -0.0703914 -0.257783 -0.222792 0.389185 -0.635457
2300 1 -1.51173 18.5795 43.6878 -0.280943 -1.75513 -0.00990704 0.163341 1.36182 -0.0571044
2301 3 -0.166476 17.5944 44.9442 0.954923 1.82395 1.18413 0.589417 0.0265022 -1.28821
2302 3 1.24043 15.9271 42.6434 -2.489 -0.350446 1.75247 -0.79473 -0.0660997 0.354961
2303 1 -0.523503 19.5163 45.8633 0.217751 1.90333 -0.812765 -0.279626 -0.296402 0.591186
2304 1 -3.58963 21.2253 43.4997 0.218844 -0.000122664 -0.940923 0.434367 -0.479319 -0.678849
2305 3 -2.26285 20.2364 44.8073 -0.966264 -0.740971 4.75007 0.154999 0.539087 -0.674939
2306 3 0.251694 19.0606 42.5872 -0.33212 -0.678169 0.982603 0.134845 0.322255 -0.442234
2307 2 -0.759448 21.3044 47.746 -1.25629 -0.0253281 0.454651 -0.361114 -0.0327265 -0.136618
2308 2 -3.7803 21.5581 40.016 -0.925456 0.944431 -0.568508 -0.204684 0.399189 -0.00472688
2309 1 -2.95931 22.7617 37.9911 -2.44303 0.410199 -1.24509 -1.26675 -0.459477 -0.368893
2310 3 -1.97106 22.6716 36.1122 -0.486059 -0.120781 0.255418 0.156633 0.0257429 -0.203186
2311 1 -2.99913 23.1393 41.7177 -0.70601 -0.133564 -0.736764 0.0706085 0.140669 0.168971
2312 1 -2.04983 22.1986 45.8398 0.666781 0.596773 1.08878 -0.0204446 -0.00441713 -0.824111
2313 1 -4.26049 24.2656 44.0458 0.591121 0.849766 -0.496668 -0.354408 -0.364522 -0.220198
2314 3 -3.59519 22.5955 44.7572 -2.5485 0.28532 0.171017 -0.271168 -0.0881134 -0.0158537
2315 3 -1.72723 22.0526 42.8494 -2.35053 2.04595 -0.0191177 -0.29134 0.411276 0.242052
2316 2 -0.786624 24.1138 46.8275 -1.48161 0.177392 -1.35114 1.06904 0.212484 0.574296
2317 1 -2.08541 23.2005 48.8071 1.05548 0.769133 0.141919 1.06349 1.17798 0.623818
2318 1 -4.44758 25.8102 41.7656 -0.150619 0.345922 -2.46804 -0.162976 -0.111162 0.407853
2319 1 -6.08213 26.6429 44.016 0.14903 0.552749 -0.9547 0.164271 0.085039 0.457623
2320 3 -4.89171 25.4203 45.489 -0.232677 -0.536643 -0.837281 0.225607 0.296357 0.151524
2321 3 -3.01144 24.817 42.6634 -0.897772 -0.816532 -0.158248 0.0485769 -0.171474 0.225759
2322 1 -6.12997 28.7001 37.0631 -0.265047 0.72501 -0.123505 -0.139146 0.013143 0.194465
2323 3 -5.01139 27.5229 35.7577 -0.345406 0.878212 -0.365044 -0.0161521 -0.00567269 0.343688
2324 1 -6.22595 28.6568 41.2395 -2.51483 1.15841 -3.85503 0.476045 -0.364185 0.906722
2325 1 -7.54585 29.6396 43.788 0.811207 -0.328969 -0.533002 0.0162659 0.217594 0.272449
2326 3 -5.86869 28.508 44.8469 3.14303 -0.433953 -3.02009 0.16566 0.0767216 0.0522571
2327 3 -4.89609 27.5562 42.5633 0.636775 -0.0720399 0.57763 -0.143819 -0.0110118 0.0416467
2328 2 -4.32881 29.902 47.2623 -0.134184 -1.25617 -4.69763 -0.990558 -0.412577 0.346403
2329 3 -6.05997 30.3884 35.8225 -0.664278 -0.400121 -0.243627 -0.156776 0.157574 -0.131482
2330 1 8.92356 0.035545 43.8532 -0.479129 0.0538519 0.118619 -0.101995 -0.0530768 0.0252189
2331 3 -6.71373 30.8286 42.1388 -0.74044 1.96421 -1.77449 -0.0617342 0.222057 -0.00295555
2332 1 -5.79758 31.2989 48.7928 0.183107 0.814616 1.31196 -0.160211 -0.0489121 0.0637043
2333 2 12.6715 0.295686 39.4092 -2.80966 -3.01924 0.363928 0.400021 0.109478 -0.0326849
2334 1 12.7162 2.02916 37.2889 0.433988 0.308308 0.806548 -0.287737 -0.121217 -0.117663
2335 3 14.1038 0.679964 36.1079 0.382378 -0.255019 0.501869 -0.0187269 -0.0698041 0.166351
2336 1 14.1502 0.983289 45.1864 -0.244903 -0.324165 0.454055 -0.0931608 -0.0303684 0.201823
2337 1 10.5121 2.59766 43.9245 0.127979 0.165877 0.316914 -0.153288 -0.392759 0.786099
2338 3 11.9807 1.08564 45.2457 -1.04819 -1.67617 0.868737 0.0432038 0.135357 -0.22793
2339 2 14.6114 2.47183 47.6186 4.17614 6.45133 2.92828 -1.20773 -0.304676 -0.224203
2340 1 14.0317 1.12062 49.5405 0.0170353 -0.416595 0.238403 0.308385 0.039435 0.224405
2341 2 11.0152 2.76267 39.2474 -0.200283 0.255919 -0.544157 0.106687 0.166303 0.246707
2342 1 11.0861 4.6063 37.3248 -0.178351 1.17893 -0.0914578 0.0517616 -0.102717 0.286399
2343 3 12.732 4.26399 36.0757 0.420234 0.736548 -0.845752 -0.119452 -0.266717 0.357775
2344 1 10.7517 4.40789 41.502 0.117959 -0.248667 0.224296 -0.0401314 0.4033 -0.241062
2345 1 12.4807 3.06186 46.3165 0.269339 1.87773 1.4064 -0.0682181 0.344702 0.188433
2346 3 11.056 3.93984 45.2495 -0.993201 -0.119046 1.16785 1.02206 -0.170182 -0.161476
2347 2 12.7954 5.93135 47.0244 1.69629 -3.30257 -1.67009 0.695809 -0.722557 0.125517
2348 2 9.43776 5.0347 39.3216 0.279303 0.471124 -0.284302 -0.118485 -0.0708428 0.0959044
2349 1 9.02556 6.85347 37.398 1.9259 2.01068 0.65122 0.0227676 -0.0624558 0.187726
2350 3 10.603 6.43464 36.4474 -0.493433 -0.602319 0.0656016 0.0439448 -0.0616101 -0.0454061
2351 1 10.4782 6.09031 46.0411 0.441287 0.945666 -0.518016 -0.208435 -0.38108 0.383547
2352 3 8.98392 6.80343 44.9785 -4.13389 1.36201 -4.84363 0.116327 0.0331716 0.301262
2353 2 10.8038 7.7816 47.9026 -0.0326164 -0.231653 -0.547719 0.0968187 0.096645 -0.0834732
2354 1 11.2689 5.63182 49.0585 -0.382311 0.317977 1.12203 -0.294037 0.189657 0.331424
2355 1 7.26951 9.57921 37.3264 3.01472 7.05437 3.5524 0.284773 -0.54504 -0.464353
2356 3 8.96565 8.69947 36.3259 -0.29003 -0.177655 0.384294 -0.069409 -0.236962 0.00196649
2357 1 9.07844 8.98514 46.3122 -3.10415 2.0371 -1.84323 -0.161091 0.184775 0.196143
2358 1 5.96463 11.0227 43.8417 2.50664 -0.874886 -2.13865 0.205998 0.184986 -0.027028
2359 3 7.40335 10.3145 45.2217 0.0826307 -0.395662 0.403231 -0.0305996 0.158262 0.2615
2360 2 9.28233 11.2378 47.6093 -0.427227 -0.149738 0.669949 0.0859071 0.0786149 0.243674
2361 2 5.77021 10.4909 39.1529 7.39788 2.35776 0.623141 -2.17182 1.05721 0.287799
2362 1 5.92189 12.3872 37.5354 0.339191 -0.375941 0.200291 -0.633187 -1.36392 -0.194389
2363 3 7.59458 11.2503 36.4788 -0.192081 0.257369 -0.442746 0.173601 0.171112 -0.0390107
2364 1 6.13819 12.1162 40.9132 0.668364 -0.424407 0.0570301 1.22165 0.0802618 -0.332926
2365 1 7.08501 11.7586 46.484 -0.441347 1.37876 -0.5375 0.183048 0.0956943 0.577718
2366 3 5.63419 12.5612 45.2325 -0.119705 0.340623 -0.0541715 0.0488645 -0.0665623 0.0336325
2367 3 7.28381 12.8101 42.7158 3.56489 -2.30017 -2.40411 -0.170928 0.44319 0.0947139
2368 2 7.94551 13.5696 48.0487 0.512737 -0.00635786 0.18261 -0.311068 0.0767504 0.0683685
2369 2 4.19526 13.116 39.6408 -0.633555 -0.798315 0.947277 0.316047 0.0923734 0.22262
2370 1 4.47876 14.8848 37.3142 -1.76888 0.689778 -4.2567 0.796559 -2.51603 0.0557128
2371 1 6.16056 14.2569 46.5446 0.287256 2.45745 3.20782 -1.36911 -1.47516 -1.70566
2372 2 6.14938 16.07 48.2564 -0.660996 0.571613 0.34683 0.198873 -0.300578 0.0906442
2373 1 6.05808 14.1144 49.7613 2.17903 -0.805263 1.20827 -0.426284 0.458176 0.116202
2374 2 3.10568 15.8333 38.9897 -0.61447 -0.218672 1.59344 -1.05414 0.593708 0.12309
2375 1 2.27697 17.4715 37.3619 -0.654317 0.0547158 -0.47709 1.44237 -1.89136 -0.569381
2376 1 2.53645 16.6096 41.2474 0.820374 -1.3783 -1.10406 -0.429501 -0.354407 -1.27882
2377 1 3.75004 16.3138 45.526 3.54783 0.71403 -0.714398 -0.875106 -0.253523 0.201927
2378 1 1.38141 17.9557 43.6642 -1.30267 0.96006 0.11946 0.759989 0.305212 -0.1283
2379 3 2.71688 17.7757 44.9841 1.96836 -1.17606 2.50462 -0.00624738 0.100306 -0.322734
2380 1 3.87714 16.6085 49.103 1.28478 -1.78798 5.44199 -0.237423 0.491369 -2.37484
2381 2 0.554266 18.5447 38.899 -0.319579 1.50812 -0.417656 0.158022 -0.216088 0.26299
2382 1 0.618262 20.3612 37.1335 -1.58726 1.5432 -2.80765 -1.71533 -2.58055 0.638856
2383 1 2.81063 19.4689 45.587 4.42992 1.70281 1.41099 1.51142 2.22026 -0.780839
2384 3 1.15853 20.057 44.8733 -3.75213 -0.0742709 0.915496 0.59896 -0.528048 0.572573
2385 3 2.75052 18.2727 42.1036 -4.7127 -0.572467 0.243011 0.375216 -0.616539 0.383564
2386 1 -0.629042 23.7808 37.4534 0.418481 -3.09072 0.863864 0.724547 -0.235767 0.381161
2387 3 1.42048 22.7355 36.3546 19.2942 5.81556 -1.08341 0.851167 3.94839 3.08733
2388 1 1.04341 22.025 46.2928 1.49719 -2.22667 1.53132 -0.380512 0.0478325 1.2735
2389 2 1.57412 24.8929 47.0129 -1.63806 0.458927 -2.25978 1.5232 -1.05366 -0.854541
2390 1 0.642907 23.1315 48.7386 -0.0337316 -0.244698 -0.261694 -0.00226369 -0.325867 -0.228349
2391 2 -1.90364 24.3684 39.6194 2.38476 -1.59356 0.865637 -0.960776 -0.0187423 0.126642
2392 1 -1.90377 26.2335 41.8944 -1.10347 -2.23399 0.252181 -0.5412 -0.605198 0.399471
2393 1 0.0337957 25.8121 48.6558 -0.0593809 -0.726052 0.592714 -1.02562 -0.394389 1.14048
2394 2 -3.35242 26.7621 39.7143 5.2073 -1.9362 1.77078 -1.37145 0.349992 -0.410993
2395 1 -3.51204 28.6027 41.5252 -5.63907 -3.8117 -0.960482 0.994143 0.606833 0.127837
2396 3 -2.18856 28.1338 43.325 -0.571296 0.223157 0.451496 0.334043 -0.331031 -0.358607
2397 2 -4.65886 29.668 39.3525 2.23869 0.282555 -0.167392 0.149436 -0.279816 0.0605344
2398 1 -4.38809 31.1719 37.1424 -0.252438 -0.0671287 0.220821 0.0338945 -0.116171 0.107422
2399 3 -3.02438 30.2708 35.752 0.659796 0.336528 0.0245191 0.0848233 -0.107928 0.107637
2400 1 -4.71599 31.2897 41.4084 -0.0196488 0.453903 -0.0260384 0.0210038 -0.0521338 -0.0156626
2401 2 14.9988 0.0220177 47.4388 -0.246334 4.04274 0.657082 0.2892 0.0797904 0.164324
2402 1 -3.00776 30.6226 49.183 0.153404 -0.299624 0.898441 -0.0526196 -0.0724524 0.309173
2403 2 15.2279 0.118769 39.1114 -1.57892 -0.664769 1.07695 0.119969 0.351831 -0.0462267
2404 1 15.6694 1.76727 37.0412 -0.121993 0.216096 -0.238292 0.114491 0.443219 0.151058
2405 1 17.1034 0.984952 46.1117 -0.875874 -0.353003 -1.00283 0.477323 -0.185449 0.335242
2406 3 15.7976 1.68435 44.2517 1.297 0.720564 -0.222681 -0.00603301 0.00328807 0.153284
2407 2 17.4768 2.96775 47.5328 2.0733 -1.91816 0.327456 -0.366484 -0.151392 0.368308
2408 1 16.9014 0.961412 48.8755 0.647755 -0.152926 0.26286 0.366021 -0.63036 0.516613
2409 2 14.2413 2.85517 39.089 -0.376404 0.032828 0.268068 -0.00561471 -0.0111788 -0.0645848
2410 1 14.3935 4.61103 37.1596 2.59962 -0.303211 0.289054 -0.088884 -0.22212 0.17884
2411 1 14.0557 4.49199 41.2903 0.446349 -0.650157 0.597346 0.309194 -0.0748145 0.220566
2412 1 15.6938 3.31029 45.5391 -0.262902 -1.13508 1.91471 -0.603139 0.293889 -0.042978
2413 1 12.6115 5.03175 43.9178 0.422139 -0.556324 -0.17452 -0.406909 -0.363076 0.116264
2414 3 13.9598 4.11217 44.9642 -0.703642 -0.33823 0.33208 -0.342971 -0.217778 -0.216949
2415 2 12.5652 5.3805 39.3524 0.307926 1.88838 0.0269368 0.131844 0.140723 0.0695167
2416 1 12.9406 6.96053 41.4218 0.370893 0.799346 -1.87796 -0.0682921 0.212594 -0.0567045
2417 3 12.2787 6.65361 45.2264 -3.9849 -1.65092 0.852233 -0.161492 0.0280629 0.67671
2418 3 14.503 6.0415 42.9278 0.872884 -1.8535 -2.55085 0.309689 0.154024 0.0232336
2419 1 12.2384 8.51721 45.9135 0.699838 2.45048 1.92892 0.219988 0.389019 0.332458
2420 3 12.5803 8.82698 42.4916 0.113346 -0.0724338 -0.159305 0.240015 0.0156621 -0.106413
2421 2 12.1842 10.0946 47.8585 0.474264 -0.380815 0.521229 -0.0690434 0.0324105 0.257976
2422 1 13.4137 7.88674 48.4005 -0.975536 -4.5474 0.332178 0.138241 0.727911 -0.165057
2423 2 9.89742 10.4514 39.9971 -4.29482 0.147522 0.871819 0.5812 0.0275179 -0.352359
2424 1 9.64925 11.6482 37.7309 -0.6804 0.614726 2.55784 -0.285201 0.696187 0.26264
2425 3 11.36 10.7682 36.361 0.704166 0.572558 0.779912 -0.157462 0.0634763 0.0205068
2426 1 9.54278 12.3369 41.6116 -0.723947 -1.45426 -0.945875 -0.743735 -0.300887 0.0934343
2427 1 11.1416 11.0364 45.753 0.137754 0.0649147 -0.239306 0.014061 0.37413 0.266499
2428 2 11.3696 12.6005 47.6056 0.888359 1.4222 0.893403 0.20993 0.350516 0.449046
2429 2 8.15285 12.7422 39.4704 2.34435 3.70002 0.269922 -1.99648 -1.79823 -0.183605
2430 1 7.80745 14.1329 37.0243 -1.5026 0.519207 -0.276137 1.05286 -0.719875 1.06831
2431 1 7.35512 14.595 41.348 -1.04467 -0.247024 -1.70511 -0.542119 -0.921276 0.590824
2432 1 9.4413 13.4163 46.1052 -0.147526 -0.463492 -1.61991 0.473837 0.157447 0.375937
2433 2 8.72071 15.4354 44.5365 -4.15069 1.18985 2.94874 -0.015262 1.1365 -1.07941
2434 2 6.31963 14.4775 39.0474 -3.06285 -2.05618 1.05639 -0.25107 -1.12705 0.307797
2435 1 9.46677 22.7554 21.8791 7.27849 1.13708 -3.89035 0.167788 2.12349 -1.92739
2436 1 4.85619 15.2453 40.7794 -0.668944 -0.855744 -3.28026 0.264157 0.599745 0.660577
2437 1 8.37402 15.8939 47.1417 -4.34612 0.592495 0.485984 1.27526 -0.188584 0.470759
2438 1 4.26559 18.4793 43.3278 -1.21121 0.462001 0.678975 0.860028 -1.49725 0.13497
2439 3 4.16354 30.123 37.7465 0.389994 -4.24114 -5.68045 -1.50988 1.4377 -1.127
2440 2 12.6347 18.7144 27.43 6.11405 10.9571 16.9069 -2.82195 5.62607 1.77714
2441 2 6.12589 18.6201 34.8251 10.1705 -7.05456 10.7298 -0.2498 1.15035 -5.47743
2442 1 9.41515 17.7973 29.7681 -17.1794 -1.86961 -6.80724 2.12342 -2.38866 -2.80476
2443 3 11.031 15.441 35.1857 4.47196 -0.169439 -13.6456 -2.79004 3.39197 4.1689
2444 1 1.69078 19.6271 41.2534 -0.196889 0.594126 -1.46095 -0.783069 0.572949 0.342213
2445 1 17.1748 22.3087 43.1853 -2.33957 -5.99056 2.43611 -4.13704 -0.288767 -0.621149
2446 3 10.3206 15.9099 43.365 0.166223 -0.693741 -7.65708 -0.69534 -0.486211 0.609024
2447 3 4.5442 17.2036 41.511 -0.620602 0.749723 0.551595 -0.972132 -0.664814 -1.07075
2448 2 13.9509 19.5038 40.0696 -20.9318 -12.0228 -2.1419 -0.256437 -0.160129 -6.60471
2449 1 6.32075 27.8651 21.8379 7.39984 1.41706 12.6193 -1.774 1.44301 -0.249964
2450 1 2.87151 19.7842 38.2798 -0.517043 -1.32384 -0.82789 0.571172 0.193978 0.170567
2451 3 3.30399 17.299 35.3342 -14.8356 13.0739 6.37247 -0.333552 -0.380336 -2.22588
2452 1 1.497 21.8121 43.7301 -3.89121 -1.08367 -1.3818 -0.563705 0.886724 2.53411
2453 2 3.13204 23.7311 36.0997 0.433133 11.7661 -21.0998 1.20406 -3.4602 -2.01206
2454 2 0.630896 24.6536 39.7357 -0.175548 -0.0963163 2.23642 0.464897 3.0668 1.32235
2455 1 0.658784 26.8353 37.7231 -0.958436 0.315111 1.75722 -1.44492 -1.26772 -0.835941
2456 3 5.14288 30.6838 40.8952 -1.18397 3.18409 1.81931 0.974227 0.828993 -0.910309
2457 1 0.477679 25.5473 42.5465 -0.0378495 -0.548775 -5.06994 -0.853921 -0.509926 -0.417885
2458 1 -0.497208 27.2134 44.4231 1.48276 3.18013 1.18781 0.604064 -1.0002 -1.04426
2459 2 8.28747 18.0792 33.3504 1.22064 -8.09166 -10.5203 -2.63764 7.0531 0.617334
2460 1 16.6612 21.8328 19.6191 -5.53906 -6.4051 -16.5001 0.200321 1.63921 0.331772
2461 2 -0.481931 26.9687 40.0115 1.45407 -0.299494 2.82337 -0.809256 1.65148 -2.09141
2462 3 0.79956 28.6204 36.4479 1.76624 -2.65546 4.47365 1.85935 -1.90251 1.17438
2463 1 -0.715401 28.7378 42.0251 1.4645 -0.767858 3.31307 0.203192 0.306151 -1.10121
2464 1 1.61131 27.6411 46.9685 -2.23521 2.0368 2.16379 -1.24147 0.0980595 0.0159177
2465 3 0.326941 28.586 45.6879 -0.669141 -0.7108 1.08244 -0.495055 -0.401201 0.0748506
2466 3 0.757954 27.7555 42.8664 -0.538215 1.62454 1.6299 0.265342 0.33689 -0.0385555
2467 2 2.09703 29.9311 47.9909 0.525317 0.529054 0.29676 -0.00789532 -0.0612133 -0.166497
2468 1 0.903075 28.1606 49.4099 2.129 1.80275 0.614622 0.368396 0.577668 -0.485416
2469 2 -1.74343 29.3745 39.7504 -0.667623 1.59483 0.511713 -0.24335 -0.0103996 0.0381231
2470 1 -1.68751 31.7155 40.6488 -0.781688 -1.86916 -0.204425 0.276997 -0.0555048 0.18718
2471 1 0.328526 30.6016 46.396 1.58073 0.12096 -2.93142 -0.19227 0.218094 -0.810478
2472 3 -0.0245701 30.6721 42.809 -0.372436 -5.20549 -4.68468 -0.152957 -0.476583 -0.0773834
2473 2 19.1153 0.516261 47.8399 0.177241 -0.748143 0.0885976 0.103938 -0.0251494 0.0822544
2474 1 -0.0219889 30.6928 48.9943 0.20653 -1.72796 0.178667 -0.0342385 -0.305613 0.289042
2475 2 -0.531356 32.1402 38.5485 -0.28144 0.191317 0.805639 0.21384 0.253736 -0.110311
2476 1 19.1085 1.29318 40.3633 -0.494911 -1.13188 -0.526089 0.0334056 -0.699568 -0.502014
2477 3 19.9955 0.974031 43.2957 -1.77216 1.06611 -0.400489 -0.0614371 -0.353161 0.133689
2478 2 17.0908 2.13059 39.2621 -1.04462 0.345317 -0.403133 -0.092528 -0.432945 -0.470486
2479 1 17.1941 4.64055 37.6649 -1.51544 0.00128237 1.30538 -0.222294 -0.426784 0.143705
2480 3 18.7632 4.21263 36.4403 2.89721 1.45033 3.48983 -0.117255 -0.171848 -0.324785
2481 1 18.0522 4.15113 45.5145 -1.04216 -1.2102 2.16328 -0.0706429 0.15726 -0.258023
2482 2 18.3374 5.33019 48.179 0.859628 0.982351 -0.986182 -0.11317 -0.169163 0.244196
2483 1 19.6547 3.14636 48.9179 -1.8345 2.04519 -2.43374 0.0471164 -0.348495 0.681025
2484 2 15.5037 5.49606 39.4032 -0.880048 0.462768 -0.0954744 0.207355 0.1253 0.171327
2485 1 15.892 7.42822 37.8219 0.341725 -0.123071 -0.557824 0.0568039 0.0315725 -0.23036
2486 3 17.4571 6.57935 36.7177 -0.51924 -0.710196 0.645737 -0.0345767 0.0321237 -0.227324
2487 1 15.5614 7.41193 41.1058 0.00390845 0.586816 0.588038 -0.188677 0.193605 -0.0952908
2488 1 13.9153 7.94768 43.8084 -0.341136 0.393028 0.621885 -0.0698418 -0.0385 0.115608
2489 2 13.9956 8.34709 39.4512 1.01063 3.53812 0.166954 0.144719 0.218823 -0.0658329
2490 3 15.6951 8.71263 36.1913 0.0742331 -0.411678 -0.1034 0.144657 -0.0223707 -0.0723445
2491 1 13.9542 9.94826 41.6711 0.513516 1.23665 -0.10504 0.178737 0.3071 0.027825
2492 3 15.1402 9.7764 43.4356 -0.409071 -1.81102 -0.71427 -0.0749529 -0.13912 0.00722459
2493 2 15.6651 11.1538 46.4839 0.602944 -0.932515 -0.159872 -0.114835 0.19968 0.800531
2494 1 16.4765 9.30834 47.8695 3.02901 0.0731144 -0.970242 -0.81081 0.340081 0.670545
2495 2 12.5751 10.7379 39.488 -14.578 2.1077 -3.50595 0.603571 0.288827 0.491357
2496 1 12.4889 12.4841 37.4722 -0.0616238 1.36147 -1.20807 0.106419 -2.52709 -1.1836
2497 3 13.4406 11.6702 35.712 0.422839 -2.02964 1.10312 0.576499 -0.0366168 0.466743
2498 1 12.9605 12.7153 40.7908 -3.25766 -4.48189 1.78986 1.17086 0.785868 0.12234
2499 3 13.6032 11.8192 42.7137 0.350428 -2.73861 6.5862 -0.876889 0.241894 -0.0953337
2500 2 13.9421 12.8864 48.2552 0.343082 1.79997 -1.62571 0.795227 -1.02446 -1.01945
2501 1 14.4342 10.6366 48.6442 -0.920853 2.739 0.00940528 -0.33131 0.0703163 0.827986
2502 2 10.8812 13.0134 39.499 -1.34658 3.77834 -1.68223 0.304883 -0.121376 0.352424
2503 1 10.8672 14.5676 37.3065 -2.40584 0.975168 -0.542408 2.11723 -0.296906 -0.949804
2504 3 12.3295 13.821 35.8103 -1.89679 6.59833 2.41675 -1.0447 4.57646 -0.0293568
2505 1 10.6819 15.0352 40.9947 -3.40053 -0.252217 0.163349 0.307817 2.69455 -0.440397
2506 1 12.6972 13.8806 46.1764 1.78512 -1.37778 -0.499445 -0.264186 -1.0003 0.15054
2507 2 12.5064 15.5016 48.3979 2.97101 0.812668 0.577906 3.0019 0.519342 -1.39971
2508 1 12.1235 13.51 49.697 1.91772 2.0234 0.291645 0.111851 -1.20516 0.311407
2509 2 8.67334 15.3854 39.336 -0.0363229 4.12759 -0.550198 3.67557 0.17084 -1.75504
2510 1 4.70084 19.1012 36.6676 -4.34773 0.797524 5.63078 -2.67876 -1.62614 -3.71287
2511 2 11.1752 16.7656 36.7363 1.17033 -5.45099 9.81141 -4.45571 1.26584 -9.26497
2512 1 10.4735 15.452 49.7976 -0.486568 2.73591 4.49502 -0.613739 -0.216034 0.250729
2513 1 4.85021 17.6012 39.3364 -3.26701 -4.09847 2.96005 1.76339 4.32756 -3.99449
2514 1 11.7558 31.3218 37.2203 1.03394 9.90007 10.8145 2.81482 3.40409 12.7287
2515 3 10.0058 15.7871 45.9311 1.51733 0.000404401 -0.19859 1.4759 -0.0604592 0.454799
2516 1 2.69443 21.2368 35.7577 3.31126 11.5606 9.92371 -2.38769 -1.43587 -3.31895
2517 3 17.4031 22.1417 37.3021 13.085 -12.7266 -2.90446 -0.613849 3.20983 2.2302
2518 1 0.950823 22.6449 40.9145 3.90368 -0.811268 -5.19788 0.400406 -0.16402 1.8213
2519 1 10.1918 20.2659 28.583 -11.2084 -7.10274 -24.0325 1.57866 -0.788914 -2.10294
2520 3 2.25575 21.4738 41.9239 0.500891 -0.110007 -0.079697 -2.32801 0.686858 -1.29513
2521 3 12.4674 17.8442 35.507 -3.85798 -8.80757 -11.8239 -3.39599 -3.17816 5.49341
2522 2 13.0198 24.2862 22.8482 2.91259 -13.1793 -13.8622 8.27604 1.84166 0.599653
2523 1 13.91 18.1856 41.9255 5.46197 3.24642 11.7543 1.80762 -3.39123 3.83932
2524 1 7.61667 15.9832 27.7134 -2.02708 0.430491 -6.81492 -0.0166946 1.44276 -0.89463
2525 1 5.80378 28.2861 28.8628 -29.82 -1.69362 -14.7958 4.84807 3.86201 -4.37748
2526 3 8.85419 16.1254 41.1423 0.258712 -1.96132 -0.300576 0.81025 -0.122727 0.668139
2527 2 2.3639 27.9186 39.6061 -1.20481 -2.59961 3.52068 0.55589 -1.14797 -1.16448
2528 1 2.1249 29.8007 37.9397 1.80467 -2.34913 -0.476512 0.759649 0.104115 -0.656962
2529 3 4.61611 30.539 31.3022 -0.41396 -9.91167 2.96272 -1.54373 2.92899 0.954321
2530 1 2.67902 27.7763 42.2237 -7.0569 -3.92904 4.64913 0.430439 0.541144 1.62057
2531 1 1.38298 29.5695 43.7555 -1.63456 3.43044 1.28435 -0.104991 0.570787 -0.883689
2532 2 14.4278 19.6751 31.9839 11.6902 5.14464 -17.087 -7.52803 -2.17525 -2.1681
2533 1 4.47014 31.5581 47.7638 0.124045 -0.127143 0.946642 -0.125165 -0.0737516 1.21403
2534 3 2.62327 31.1768 36.5478 3.60736 1.98654 4.31908 2.49277 2.02478 0.961969
2535 1 1.14586 31.4348 41.5025 -2.95251 -1.82029 2.32394 0.488372 0.396683 0.0430902
2536 1 3.3121 30.1661 45.7605 -1.00333 0.0814822 0.520577 -0.12213 -0.738611 0.368481
2537 1 0.120887 32.0735 44.315 0.221043 -1.42216 -1.88949 -0.0706077 0.398177 0.0465587
2538 3 1.70102 31.1158 45.0239 3.62618 -2.42953 0.0857241 -0.327356 -0.0568486 -0.112575
2539 3 2.94643 29.9919 41.9435 -1.90548 1.63617 0.59089 -0.524575 0.640524 0.0726285
2540 3 23.0462 0.673353 36.2316 -0.407569 -3.32012 2.29971 1.3953 0.0306677 -0.175029
2541 1 21.4282 1.66107 42.0617 -4.12031 -5.21691 -1.36256 0.249069 -0.464289 -0.101452
2542 1 23.2776 1.69695 46.7635 1.05783 -0.15551 1.35235 0.294985 -0.33754 0.424608
2543 1 20.0903 2.81705 44.1437 1.65007 -0.177017 0.012503 -0.125335 0.441246 -0.207435
2544 3 21.5083 2.18992 45.5499 0.803317 0.440626 -0.32362 0.222652 -0.0432883 0.260594
2545 3 22.8916 0.912791 43.1138 -0.663729 0.194514 1.92092 0.161549 0.0785529 -0.0769273
2546 2 20.3403 2.61252 38.8265 0.821716 0.364982 0.886549 -0.285085 -0.224666 -0.255888
2547 1 20.3576 4.77383 37.6712 0.141836 0.59528 -0.218602 0.118946 0.256787 -0.314372
2548 3 21.8886 4.07396 36.1535 1.16636 0.182923 -0.400525 0.20606 -0.449095 0.256871
2549 1 20.751 4.16793 40.7489 -2.62609 1.66148 0.207509 -1.07174 -0.898156 0.316248
2550 1 21.6224 3.96433 45.996 0.416994 0.234056 5.98017 0.34772 -0.230577 0.451849
2551 3 20.0546 4.61421 44.9224 0.817523 0.987364 -0.830294 -0.0594919 -0.226562 0.119804
2552 3 21.6143 3.64492 42.776 0.380501 1.64166 0.622006 -0.304669 -0.885441 -0.651681
2553 2 21.467 5.25512 48.0108 -0.0553105 0.864389 1.85025 -0.0374511 0.0443756 -0.738468
2554 2 18.7764 5.38394 39.6461 0.156639 -0.76592 0.0439706 -0.0207896 0.11467 -0.0664214
2555 1 18.8581 7.25061 37.999 -0.860815 -0.816454 -0.574099 0.184723 0.371374 -0.0262961
2556 1 18.5398 7.28638 41.3853 0.0213493 0.367596 -0.128601 -0.15781 0.156906 -0.137479
2557 1 19.7943 6.1634 46.2188 1.64875 0.14237 -1.79244 -0.0122733 -0.00786464 0.270802
2558 2 19.8834 8.01589 47.6764 0.0321378 -0.00245981 -1.17039 0.108326 -0.301422 -0.449304
2559 1 20.0197 6.42473 49.5681 0.516138 1.84787 0.457118 -0.0388761 -0.0694443 0.12237
2560 2 17.2389 8.64006 39.6089 -0.453963 -0.272928 0.0461646 0.0325895 0.170045 -0.0370082
2561 1 17.8169 9.71761 36.8433 0.099472 -0.293751 -0.161949 0.232785 -0.0502101 0.334833
2562 1 16.7493 9.53181 42.3271 -0.0513558 0.449945 0.0675901 0.24911 0.538783 0.346936
2563 1 18.5447 9.3416 46.1578 -2.9121 1.85676 -1.53484 -0.11285 -0.0453473 -0.332965
2564 2 18.2017 11.2146 47.7391 -2.62722 -2.57819 0.37593 -0.759507 -0.448952 0.0359939
2565 1 19.2403 9.62766 49.3301 1.11903 -2.76661 0.905586 -0.0746748 -0.0688428 0.636855
2566 3 16.7013 11.3082 36.6121 0.477124 0.399902 0.0364042 -0.206939 -0.0464131 0.0690186
2567 1 15.4389 12.2681 41.79 -1.21859 1.18637 1.18819 0.298552 -0.620217 -0.0593392
2568 1 13.9719 13.6179 43.6949 0.799775 -0.84273 3.18323 -0.242396 -0.556123 0.130993
2569 3 17.1196 11.4886 42.7409 -1.58857 -6.99378 -4.20346 -0.563385 -2.33135 -1.26561
2570 3 15.621 14.2708 36.5565 0.036205 -3.43546 2.79282 0.836158 -0.439859 -0.769991
2571 1 14.2635 15.1178 41.3782 3.36742 -0.511933 1.67201 -1.29329 -0.27988 1.64673
2572 1 15.6635 13.564 45.9098 0.774772 0.30204 0.0940007 -0.589048 0.030472 0.459011
2573 1 12.5562 15.6062 43.7997 -1.21787 2.93325 0.611486 -2.24025 -1.0219 1.30131
2574 3 14.2879 15.0459 45.1892 5.37148 -1.84401 -0.927629 -1.54621 1.30962 0.373269
2575 3 15.4013 14.1023 42.6937 -3.07986 2.67987 2.36195 0.401824 0.440506 -0.978559
2576 2 12.8277 14.842 39.3374 -1.2604 -0.00887233 3.5044 -0.473682 1.56559 -0.149851
2577 1 10.5071 17.671 34.5257 13.1188 5.10859 22.5278 1.13625 -4.68585 0.0953603
2578 3 15.0262 16.5008 37.042 0.259082 -3.34726 -0.568227 -1.18066 -1.86758 -2.08224
2579 1 2.39327 20.324 28.7594 1.76207 15.0939 4.80997 0.563601 3.49686 -5.23386
2580 1 14.151 16.8357 46.6256 -0.326817 3.43529 1.80431 0.214909 -0.055021 -0.550034
2581 3 15.632 17.7832 45.3987 0.950968 -0.698025 -3.14813 -1.30402 0.68859 -0.53046
2582 3 14.3045 16.4608 42.6697 -8.79142 -6.01948 -5.36873 0.895607 -4.03833 -2.34685
2583 2 16.5617 17.7626 47.1172 3.17696 3.03101 3.6341 -0.766812 -0.270383 -0.916465
2584 1 15.44 16.1172 48.816 8.48483 4.13707 -0.499173 -0.0579042 1.03386 0.153027
2585 3 5.57806 15.8523 25.0032 -12.3707 15.2674 0.690909 -3.97419 -2.92729 -1.15895
2586 1 16.9998 19.2915 45.167 -0.00760369 -0.131341 0.257402 -2.57047 -1.26294 -3.2321
2587 1 13.5491 28.3108 23.6228 -0.218762 -20.93 -8.28869 -2.3375 0.543243 -0.391459
2588 3 16.1206 28.6547 34.7362 -0.358439 17.6847 -14.2933 0.599252 -5.54024 -2.17972
2589 3 7.71344 16.4499 29.6727 1.61654 2.20612 0.346873 2.25997 -0.652049 -0.758474
2590 1 8.81005 29.1648 20.8306 -1.16713 -5.32486 4.13268 3.32055 -0.456984 -5.88895
2591 3 10.2866 24.8613 24.1203 15.7938 14.9463 1.22124 -3.22125 4.83906 3.50844
2592 1 14.6002 20.7014 37.9141 15.5291 4.29452 12.8846 1.04623 2.00129 4.89376
2593 1 4.0798 18.1446 51.1629 -0.557066 2.29488 0.655437 0.209763 0.361202 0.0258434
2594 3 3.75912 22.2672 34.6909 -14.9285 -5.40479 -12.525 -0.0887386 3.59875 1.29264
2595 3 6.61612 17.3683 26.2434 15.9791 -14.7089 -9.7833 8.72861 -7.5543 -4.46164
2596 2 9.75988 19.2695 25.5687 4.1642 -20.3793 -2.51 -17.2159 -10.4548 -10.3944
2597 1 8.55472 24.3625 23.8895 10.321 5.79162 11.281 -4.71852 -3.75373 2.57456
2598 2 9.71038 25.3179 22.2781 -2.50533 8.34675 7.15622 2.32294 1.83212 -4.83295
2599 1 1.95643 22.7608 38.2823 6.77835 3.30016 -4.08108 -1.99503 1.42601 -1.38112
2600 3 11.083 19.8349 26.6805 -7.00537 -3.76555 5.13831 18.0157 0.947647 14.9744
2601 1 13.1099 17.3501 39.6291 -8.87607 2.24885 2.2214 -5.21808 -3.94596 -0.016129
2602 3 6.51142 17.9573 36.5806 -0.830991 -7.85891 -2.98646 -1.00271 -2.24619 1.83199
2603 3 15.5914 29.2416 39.628 10.0008 -26.3907 4.04816 -5.32707 -3.15548 -3.97102
2604 2 7.69093 22.8294 19.8586 -26.7919 -18.8596 -4.92182 -0.504445 1.68449 2.21688
2605 1 6.86955 27.9408 26.3404 10.5777 8.57191 -10.7024 -0.852396 -4.77466 0.940951
2606 3 1.95027 25.9972 39.0374 -7.91991 -0.013144 4.07119 2.29301 -0.082527 0.0279653
2607 1 3.8553 32.1336 38.2414 1.46003 -1.69236 7.24779 -0.572764 -1.52243 -1.34722
2608 3 7.32447 31.6081 38.7572 -1.06865 -9.96907 6.90118 0.450704 0.908884 -2.0703
2609 1 6.84994 22.0321 26.3273 5.9778 1.56543 4.12155 3.9902 1.40702 -2.36677
2610 1 21.5241 0.499316 44.7391 -1.65776 -0.390626 1.29674 -1.40464 -0.139331 0.770006
2611 3 4.33542 32.1854 45.8926 0.184312 0.0683697 0.0977092 0.10073 -0.291444 0.0561722
2612 2 25.3154 0.628061 48.4732 -0.511158 -0.135368 -0.029506 0.186304 -0.00242798 -0.0271063
2613 1 7.33047 29.6129 25.1189 -3.76413 -13.5503 17.835 0.718284 0.907753 4.02971
2614 2 24.4716 0.124169 39.8997 0.453406 -4.6923 8.58885 0.363958 0.630738 2.3369
2615 3 27.0841 1.21399 36.2008 -1.71739 -3.87986 -5.85533 2.06068 -0.644509 -0.765158
2616 1 24.2204 1.87508 41.6407 1.51522 0.443681 -0.288085 0.891858 0.579737 0.251169
2617 1 26.4603 2.00082 46.5132 -0.0579618 -0.598814 -0.616828 0.831664 0.412632 0.747098
2618 1 22.8429 2.69289 44.1758 -0.782146 2.13563 2.35351 -0.177718 -0.453764 0.108479
2619 3 24.5598 2.27776 45.4544 1.14474 0.12444 0.294987 -0.116294 -0.13095 0.168449
2620 3 26.2266 1.63792 42.6767 1.92993 -0.776018 0.314172 -1.00397 0.38845 0.694936
2621 2 27.8811 3.42223 47.9722 -0.0116515 0.128555 0.547219 0.141223 0.237724 0.0228359
2622 1 27.1404 1.68439 49.6398 -0.637323 -0.0106618 0.0658014 0.445295 0.260482 0.125005
2623 1 23.5072 4.3808 41.8084 1.85291 0.899852 0.146644 0.469198 -0.460073 0.0396295
2624 1 21.1678 5.66875 43.4046 -0.608943 -0.671419 -1.09225 0.31817 -0.640551 0.122918
2625 1 25.1135 3.12932 48.6663 0.245916 -0.85763 0.180246 0.297949 0.00709697 -0.0172578
2626 2 22.5788 4.89725 39.181 1.23404 -0.41615 0.480681 -0.27082 0.0531823 0.168102
2627 1 21.8079 6.68651 40.896 -0.382977 -0.151757 0.572422 0.110651 0.444483 0.0814729
2628 1 23.0993 6.16956 46.0769 -1.37088 -1.34685 0.223996 0.205482 0.0707186 0.22687
2629 3 21.399 6.74168 45.1565 -2.37416 0.45972 3.23433 -1.19146 0.436504 2.00991
2630 3 23.2886 6.27584 42.6289 -1.13179 -0.279474 1.68541 0.00468063 -0.0703578 0.279041
2631 2 22.9932 8.03821 47.6427 1.07605 0.832418 1.18257 -0.207212 0.0591091 -0.0971665
2632 1 23.8687 5.73805 48.5941 0.337031 0.865733 0.444438 0.0954355 0.275849 0.287918
2633 2 20.151 8.36142 39.8616 -0.19538 0.401752 0.620493 0.017172 -0.128608 0.0645301
2634 1 21.5308 8.90292 45.8529 0.880237 -0.00257445 0.654697 -0.331393 -0.187541 -0.17826
2635 1 18.6945 11.1859 43.9365 1.68978 0.0209465 0.904746 -0.488227 -0.13502 1.24915
2636 3 19.9534 10.1117 45.0669 -0.680858 1.12465 -0.441579 -0.448836 0.218605 -0.31639
2637 2 18.662 10.6376 39.0451 0.00207018 0.4258 0.325772 0.0321659 0.0829105 0.0150278
2638 1 18.6151 11.914 41.3119 -0.764357 2.71304 1.18684 0.457646 -0.981366 0.451803
2639 1 19.9183 11.9565 46.0928 -0.0819733 0.282565 -1.10343 0.671264 0.362467 -0.105983
2640 1 17.2325 13.3313 43.5065 1.23694 2.51687 -2.65473 -0.451099 1.51123 1.60976
2641 3 19.0099 13.0517 44.6223 4.86937 -3.50836 4.50228 -0.676878 -0.729899 -0.794793
2642 3 20.1559 11.4413 42.4577 -0.480862 -0.000955989 0.0521655 -0.197741 -0.174126 0.234527
2643 2 20.5659 13.6635 47.8948 3.02884 4.40075 1.04844 0.70677 0.261705 0.152501
2644 3 18.9663 13.4808 35.8354 0.635447 2.01362 -2.72489 -0.197593 0.317871 0.0418586
2645 1 18.6527 14.6356 45.8948 -0.602623 0.523511 0.264718 0.261116 -0.191528 0.74206
2646 1 15.7773 16.0711 43.8926 -1.30913 1.21501 -6.26004 4.38606 -1.67723 -0.79216
2647 3 17.2762 14.9997 44.5639 9.84222 -11.3529 -4.91534 1.41311 -2.25171 -3.49129
2648 3 18.7119 13.9176 42.2454 0.119499 3.22896 1.47822 0.202882 1.015 0.345511
2649 1 17.1827 16.5903 37.9362 -5.48972 2.13905 -1.09955 -0.651773 1.62208 1.66473
2650 3 17.909 16.7442 36.1539 -0.642764 -1.06538 0.712115 0.56992 0.438364 1.10775
2651 1 16.7305 16.8121 40.8448 -0.203558 -4.67791 -0.996142 -5.16026 -0.864668 -1.33426
2652 1 6.05408 18.3722 29.8456 -9.34277 -13.6162 -24.4882 2.80388 4.24037 6.30148
2653 3 17.4102 17.3128 42.7764 3.11095 -0.312575 2.7894 1.87848 -1.56215 -0.373763
2654 2 16.8881 26.3193 32.7545 -10.4597 0.159483 -5.08285 3.20389 -4.78538 -4.96107
2655 1 17.6665 19.6654 34.2409 11.8531 0.0423511 -4.00168 4.86487 0.93293 -0.339569
2656 3 16.2224 18.0441 34.4104 1.13019 14.1184 1.13666 -6.56909 0.262079 -4.33447
2657 1 7.24488 20.0925 27.9556 -12.3974 -7.78741 -3.52775 -1.83715 5.53755 3.49959
2658 1 5.88023 23.1758 21.961 -1.26195 3.30321 -4.9625 1.09423 -0.372973 1.08842
2659 3 15.9379 19.5859 46.7917 -5.68135 7.44857 -5.14832 0.167985 0.0951681 -0.170745
2660 3 16.1193 20.4085 42.5723 -7.3424 -4.46163 14.3589 4.8544 -2.80772 5.82027
2661 2 19.8655 20.6783 47.5949 -1.46753 0.584959 0.570341 0.0876857 -0.0148058 0.65568
2662 1 17.2644 20.5446 47.981 -3.09301 4.26665 2.3333 0.578514 1.95313 1.69822
2663 1 3.10959 22.1202 32.5764 8.44484 1.39853 11.7326 -0.571812 -2.09354 4.1439
2664 3 17.4034 20.4631 32.1299 9.53949 0.377452 2.21809 2.59676 -1.465 -3.29482
2665 1 15.0003 25.8919 39.6982 -22.1719 -2.64868 -5.20944 1.28933 0.947404 1.1205
2666 1 14.1012 30.2991 38.5987 3.33382 2.65608 6.86521 -2.46301 2.30742 0.909643
2667 3 15.9144 27.7273 35.831 15.5995 -5.84147 -7.97043 1.28695 -0.424474 0.0120283
2668 3 14.7065 17.6713 40.0063 -9.62929 8.22869 0.290674 0.103129 2.70742 3.40351
2669 2 4.52307 24.002 26.0042 3.09486 3.65056 -4.2686 6.32086 2.63658 -12.2768
2670 1 14.7518 18.9234 27.668 12.7854 5.56298 6.66746 11.6541 0.671735 1.16898
2671 1 15.2862 28.9143 28.1074 13.8233 3.40764 -7.78934 5.71425 0.200704 0.415593
2672 3 17.5148 25.787 42.1173 18.2563 -3.91791 -2.61598 -1.07143 3.46599 1.05251
2673 1 13.679 26.7942 21.886 -1.74026 15.5616 6.37397 -3.90481 -1.23338 -2.74786
2674 1 16.9718 29.8641 38.8072 -3.41273 -8.96411 7.53771 -3.97413 4.5363 5.15345
2675 2 14.8345 19.444 34.1422 -26.1221 11.2081 -23.8618 4.89199 -0.725981 2.63465
2676 1 11.0929 30.9787 31.8169 12.1064 -27.0072 0.507167 12.7016 3.66505 11.6424
2677 2 11.0467 31.2716 24.7463 4.69486 8.52437 12.3315 -6.79721 3.70159 -8.72875
2678 3 15.1817 28.8233 40.9197 -21.3718 6.15983 5.24824 4.24925 -3.17151 3.12333
2679 1 4.76742 21.7196 28.2689 -8.47344 9.47895 6.17227 2.24801 -4.20356 1.95442
2680 1 4.07765 21.2532 43.0565 -8.12376 5.61642 6.97528 -0.453752 0.144551 -2.78019
2681 3 5.51104 20.5436 30.7359 19.1277 13.702 -19.8224 1.76294 0.70525 -1.87922
2682 2 30.6659 0.20565 47.6558 0.561193 -1.47991 -0.690152 0.548311 -0.359415 0.0484797
2683 1 3.30053 22.7494 40.7035 13.5843 11.8304 5.51141 1.25045 -3.61833 0.107926
2684 1 25.4863 1.14723 37.9071 2.74609 -1.33313 -1.83486 2.76145 6.17289 0.140771
2685 1 26.4669 0.11991 41.6403 0.379475 0.680498 -2.33411 0.764681 0.050084 -1.44421
2686 1 8.44097 28.5182 28.6856 -2.15718 -23.057 -4.5658 -2.1849 2.07073 0.871107
2687 1 24.5272 0.712415 44.255 -0.705609 1.42952 0.325194 -0.455773 -0.151551 0.0402786
2688 3 4.2467 30.5625 42.0276 5.75833 3.54626 3.31459 -0.0416744 1.74603 2.26287
2689 3 2.48799 27.8823 37.6704 -0.226237 -0.514538 4.15807 -0.29206 -1.58112 -1.2501
2690 2 28.2467 0.581926 47.7389 1.24768 1.58459 -1.70342 0.502333 0.132558 -0.129897
2691 1 1.71678 3.06103 55.6746 13.6644 14.9957 5.42094 -1.16821 -1.28158 -0.461323
2692 2 27.4384 0.476932 39.4758 -4.37049 -6.02884 3.10508 -0.814912 6.39926 3.0752
2693 1 28.2823 1.73962 37.645 -1.7854 -0.782744 -3.04151 1.2372 -3.87246 1.41097
2694 3 30.0363 0.481142 36.3907 2.75481 -9.20357 -0.938171 1.45966 0.291929 1.69966
2695 1 27.9 2.66404 41.3125 -0.493014 2.53135 2.0552 -0.469333 -0.162861 -0.20816
2696 3 28.2048 2.08388 45.0952 0.0452733 0.00915937 0.497582 0.431349 0.255155 -0.105959
2697 3 29.4046 1.92674 42.2826 2.93523 1.93425 -1.53092 0.144305 -0.0581134 0.587134
2698 1 27.9423 4.09455 50.2364 0.0145655 -0.0288243 -0.233317 -0.0440839 -0.369306 -0.532121
2699 2 25.1338 5.01123 39.4318 2.19575 0.117853 -1.09187 -0.473875 0.00491804 0.217531
2700 1 24.8577 7.19649 37.7863 -0.199632 -0.349792 0.43916 -0.0553129 0.0879905 -0.279898
2701 3 26.2075 6.41717 36.4305 -0.165459 -0.16189 -0.0564061 -0.0416888 0.172106 0.134646
2702 1 24.9252 6.89407 41.0629 -0.16276 -0.150154 0.37627 -0.0736027 -0.185511 0.0351188
2703 3 24.7514 6.83471 44.6724 -0.140618 -0.066137 -0.404074 0.0298572 -0.00584203 0.0340036
2704 2 23.1634 8.11985 39.3795 -1.20532 -0.0434088 -1.34803 0.1243 -0.168712 0.0600817
2705 1 23.5619 10.2167 37.6594 -0.581951 0.201569 -0.0465024 0.163837 -0.193638 0.233962
2706 3 24.7558 8.95372 36.5567 -0.322206 -0.142206 -0.193273 -0.12649 -0.0405051 0.0949155
2707 1 24.632 8.60606 45.6359 0.275247 0.794606 0.00107019 -0.397129 -0.231457 0.174338
2708 2 24.7241 10.7202 47.0621 0.0338628 -0.79294 0.177573 0.0477694 0.341795 0.32218
2709 1 25.0001 8.85077 48.6811 0.981302 -0.470147 0.260276 0.0725777 -0.182864 0.134679
2710 2 21.4802 10.6406 38.9476 -0.672413 0.662106 -1.31727 0.025611 0.195583 0.161229
2711 1 22.2864 12.7262 37.7342 0.851641 -0.191576 0.798811 0.108417 0.0629333 0.249983
2712 3 22.6526 11.7463 35.9505 -0.878375 0.442759 -1.51333 0.0711652 -0.0900909 0.311564
2713 1 21.8686 12.4765 40.8946 0.298808 0.231127 1.14448 -0.292703 0.708834 0.72701
2714 1 22.3518 11.8162 47.1586 0.33764 0.374156 -0.53427 -0.789835 0.287965 0.0315752
2715 1 20.4229 13.2905 43.3446 -0.153578 -0.912116 0.558792 -0.496575 -0.281507 -0.094176
2716 3 21.7077 12.6961 45.0652 0.0641826 0.251618 0.215691 -0.105586 -0.159175 0.0151577
2717 2 23.7423 13.8487 47.2413 -0.621346 -0.00566418 0.241207 0.340569 0.0678506 0.0131374
2718 2 19.9378 12.77 39.2471 -0.353165 0.0796367 -0.0304066 0.00673248 -0.00649704 -0.206763
2719 1 19.7965 14.3008 37.4259 -1.34543 0.385215 -0.372961 -0.325808 0.517269 0.395784
2720 3 21.4745 14.0827 36.2267 -0.338304 -0.427885 0.505697 0.056269 -0.00832494 -0.0746453
2721 1 19.8993 14.6823 40.8364 -1.06388 -0.574475 1.05887 0.576335 -0.768876 -0.291631
2722 1 21.7376 14.6551 45.9196 -0.758886 -2.17274 0.430418 -0.0124181 -0.68132 -0.118166
2723 1 18.9013 15.9304 43.1886 0.225145 1.57427 2.62624 -0.734463 -0.947798 0.537667
2724 3 20.1913 14.8907 44.4676 -0.326605 -2.49012 1.75625 -1.3641 0.510299 -1.43092
2725 3 21.9641 14.1235 42.2396 0.29191 -0.957556 -0.210184 -0.493028 -0.0228831 0.0233652
2726 2 21.644 16.6995 47.3728 2.15878 1.91713 0.925443 -0.0852983 -0.260432 -0.0835756
2727 1 19.4125 18.0404 36.7222 -1.87492 2.00716 0.0179834 -0.270056 0.280485 0.566051
2728 3 20.605 17.4462 35.2732 0.0865556 0.760456 0.0532391 -0.0341804 0.336992 0.196206
2729 2 19.6658 18.0841 48.6469 -0.476379 -1.11917 -1.1873 -0.157041 0.217438 -0.0508453
2730 1 20.7824 16.0097 49.4591 -0.432131 0.0584337 0.515127 0.102958 0.302711 0.882804
2731 2 18.0731 18.6095 39.3509 -0.18394 -0.0998624 -2.07459 -0.190717 -0.576517 1.01855
2732 1 17.6107 20.2918 37.6076 5.80219 -10.1193 -0.776821 -0.253777 -7.30715 -1.47666
2733 3 18.9174 19.8304 36.0103 -4.02321 -0.949607 3.91355 -0.553879 0.307178 -0.718021
2734 1 17.6904 20.6378 41.2225 -9.57209 12.9185 3.59074 3.81676 -2.96446 -1.68289
2735 1 5.13671 24.5581 28.204 9.42039 20.0517 -7.76582 0.486312 3.68541 6.5056
2736 1 18.9435 20.116 49.913 -1.28994 0.604637 -0.510562 -0.681867 -0.611089 -0.676683
2737 1 14.8776 18.3811 36.6054 -3.50169 -1.39743 10.2935 -0.155201 2.66265 -0.324062
2738 3 17.6328 24.2555 40.0075 6.99657 15.2853 -5.73529 -2.66945 -0.151584 -0.637434
2739 1 18.2304 21.579 45.7375 -6.3719 -2.20174 -0.246777 0.810287 -3.34998 3.56684
2740 1 8.27657 25.4412 19.6345 -4.67899 25.0677 5.39488 3.04096 -3.33447 -0.0514523
2741 3 17.0458 27.2037 41.7354 -4.57984 -0.412039 6.28867 0.760897 -4.61806 2.24691
2742 3 16.7786 22.3035 41.0508 1.38223 0.196489 12.3162 -0.192536 2.18879 -2.27223
2743 1 10.859 17.4132 27.7367 8.20422 -6.00184 -0.257677 -6.54774 2.92304 -8.80925
2744 3 5.08335 17.3464 31.393 6.02423 3.24573 0.886061 -1.2449 -1.02786 -2.97504
2745 3 18.3312 24.9664 41.242 -0.383371 -5.13943 -19.5136 -1.94261 -4.31272 1.42777
2746 2 4.55686 19.331 27.1395 -4.465 2.93196 -4.23795 -0.139492 5.49046 1.1958
2747 1 6.38521 31.8811 33.0034 -2.44236 -1.19376 -0.978716 -2.24586 -1.1227 2.08741
2748 3 5.752 23.3474 27.2835 -2.32018 57.4228 -25.9615 3.26933 -8.19736 2.40912
2749 1 17.7466 26.8136 36.6864 -0.179939 -6.06763 -8.03247 -8.59503 3.25716 -1.25366
2750 3 16.4166 28.081 33.3353 30.9203 -5.74046 -25.9839 -1.13511 2.55511 4.52507
2751 1 31.8727 0.226024 45.3206 0.961434 -0.476659 0.102009 0.390602 0.924705 -0.136638
2752 2 15.1694 21.0664 41.0863 2.44242 12.9519 14.4824 1.64254 5.96144 -3.80538
2753 1 3.22529 25.2552 40.7199 -4.65687 -12.2712 3.9643 -3.67319 1.61297 -0.340465
2754 3 15.6501 30.4597 37.4789 -10.3212 8.83961 4.0526 -1.85436 -0.735423 1.21437
2755 1 29.6833 0.486679 40.841 3.37723 -2.74884 0.182988 0.0843734 6.4556 2.6161
2756 1 28.3198 0.756763 43.3849 3.15186 0.350571 3.44906 1.76903 -2.42526 -0.0227195
2757 2 32.1689 0.469732 39.406 4.44518 -0.823273 2.19788 -0.04559 0.924086 0.260453
2758 1 31.3517 1.69552 36.9927 0.683863 0.435998 6.67472 1.68746 1.20742 0.25674
2759 3 32.8438 0.947314 35.5096 0.530501 2.97718 0.608548 1.16052 1.09065 -0.0611288
2760 1 31.3129 2.41332 41.4187 -2.86459 -2.2155 -4.28241 2.10423 3.28876 0.285081
2761 1 29.8116 2.66475 44.0764 -0.0131406 1.26537 1.45625 -1.17409 -0.290096 -0.466895
2762 3 31.13 2.12042 45.2216 -1.32602 0.0950895 0.0832604 1.42376 -0.0177651 0.0328298
2763 3 33.0226 1.61156 42.5313 -1.01612 -1.11236 1.4162 0.243517 -0.0407138 -0.88183
2764 3 31.2114 3.45316 35.9753 -0.343047 1.42238 -0.892631 0.129941 0.276232 -0.485676
2765 1 31.2589 4.03859 46.0121 1.3965 2.57031 0.0177295 0.186513 -0.584936 -0.155083
2766 1 28.1813 5.22635 43.6664 0.546045 0.550677 -0.704119 -0.119179 -0.0699872 -0.0808271
2767 3 29.7703 4.38318 44.5987 0.269894 0.666079 0.65329 -0.0305466 -0.362154 -0.190367
2768 3 31.3607 3.32186 43.0234 -2.7934 -0.830823 -2.2694 0.799756 0.124797 0.664514
2769 2 31.0719 6.05066 47.3187 -3.39213 0.00347246 1.02467 0.352673 -0.159638 0.174796
2770 1 30.609 3.8449 48.4876 -1.09408 0.281799 0.287669 0.621199 0.0708119 0.0730836
2771 1 27.9601 7.35872 37.11 0.179861 -1.67722 -0.235372 0.180399 -0.0383615 0.0343578
2772 3 29.3691 6.24031 35.8787 -0.506578 0.0378959 -0.215171 0.587699 0.0274332 -0.06966
2773 1 28.2987 7.34026 41.3474 0.35539 -0.250873 0.335472 0.109458 0.0772916 0.146213
2774 1 26.7086 7.43188 43.7733 -0.180921 -0.00176591 0.611214 -0.091076 0.0487669 0.224549
2775 3 28.1572 6.9505 44.9182 -4.78311 0.445514 0.156607 0.442365 -0.177382 0.0628436
2776 3 29.5666 6.18196 42.8138 -1.75896 1.46551 0.900345 0.0485625 -0.153145 -0.0166316
2777 2 26.5805 7.96944 39.4507 -1.21454 1.83058 0.666682 -0.0872864 -0.28493 0.000958807
2778 1 26.4067 9.88635 37.6659 -0.0865841 0.063586 0.384854 -0.28711 0.0496638 0.284371
2779 3 27.8425 8.82496 35.17 0.232694 -0.312505 -0.0776197 -0.0431857 -0.0248911 0.383105
2780 1 26.3936 9.52443 41.6825 -0.86216 -0.0719363 -0.790518 0.188356 0.184255 0.0231601
2781 1 27.8728 8.82716 46.1781 1.00357 2.56954 -0.90839 0.0447036 0.175698 -0.241462
2782 3 27.9788 8.94386 42.8559 -0.249166 2.40604 2.14585 -0.520441 -0.232683 -0.614114
2783 2 27.8084 11.2446 47.7157 -0.174824 0.471981 0.0959655 -0.135807 -0.30949 -0.22487
2784 1 23.2584 13.6569 43.8426 0.460481 0.421021 -0.700008 0.0158464 0.0877494 0.0613714
2785 2 26.1051 13.028 47.1459 0.184839 0.478971 -0.28078 -0.1306 -0.424459 0.585909
2786 1 25.7839 11.5047 49.1571 0.237072 -0.0394295 0.680253 0.268632 0.00608889 0.587378
2787 2 23.8593 13.6144 39.5303 -1.40102 1.27794 0.720483 0.172544 -0.271013 0.0404124
2788 1 22.8919 15.3459 37.834 0.930712 0.538557 -0.29557 0.459373 0.064927 0.169289
2789 1 23.8094 15.1562 41.65 1.84839 1.14293 -0.909075 0.0961205 0.31895 0.18886
2790 1 21.6511 15.8699 43.2721 -2.61355 -3.24381 -1.86962 0.306574 0.556001 0.215537
2791 3 23.1366 15.5962 44.6404 -1.46275 1.91548 1.42287 -0.0252808 -0.0255125 0.0991709
2792 3 25.1288 14.2585 43.0735 0.993707 -0.560589 -2.48196 0.274472 -0.0889089 -0.283888
2793 1 25.1828 14.4767 49.103 -0.524744 -0.0661862 0.652538 0.035723 0.124947 0.116591
2794 3 22.9815 16.933 36.5345 0.7049 -1.59117 3.92422 -0.104071 0.316629 -0.425246
2795 1 22.7402 17.6171 45.292 -0.338887 0.464998 2.55026 0.573981 -0.325565 0.154637
2796 2 20.5718 18.7655 39.0004 -2.30129 -3.40828 -1.11233 0.335404 -0.21368 0.212899
2797 1 20.4117 20.7257 37.2574 0.607966 -1.67554 -3.18459 0.0542529 -0.33801 -1.00826
2798 1 20.1261 21.1022 40.5283 2.54016 -2.94357 4.6145 -0.371274 -1.6578 5.01949
2799 1 22.315 20.2501 46.2613 -0.0332816 -0.819414 0.593428 -0.0667087 0.220789 0.269015
2800 1 19.4362 22.0734 43.3654 6.83307 0.0013918 -0.355519 3.82465 0.879909 -0.555024
2801 2 22.2511 21.8144 48.2741 -0.633614 -0.154622 -0.879893 -0.228551 0.0837122 0.306203
2802 1 21.7727 19.288 48.8091 0.887491 0.907612 1.01337 -0.839458 0.0753907 0.131245
2803 2 18.0741 22.243 39.3578 -8.71779 -19.6109 -5.29032 -1.171 10.5726 -13.742
2804 1 19.1311 23.2576 37.3362 -1.2314 0.825979 5.70159 -2.46449 3.11233 -5.72307
2805 1 20.978 22.6317 46.3134 1.57045 2.98198 0.491612 1.15714 -0.385483 -0.238305
2806 1 7.70746 19.3503 36.2604 -2.91781 12.6888 -9.70329 3.56978 -3.88867 4.02383
2807 3 19.4999 22.8518 45.1248 5.89956 -1.17511 -0.670578 0.729441 4.03607 -1.84195
2808 3 20.7096 22.8039 42.4707 2.09436 2.5252 -1.29719 -0.342886 0.890016 -0.494712
2809 2 20.9088 24.304 48.0026 0.454468 -0.0070383 0.123478 0.131927 -0.11199 0.277836
2810 1 20.1685 22.4054 49.363 1.04436 1.29775 0.641687 -0.399397 -0.291015 0.215993
2811 3 19.1544 25.2232 36.2138 -5.26697 -1.47639 -2.73755 -0.147888 0.509544 -1.49914
2812 1 19.4544 24.6702 45.7259 2.31441 2.66632 1.08197 0.116618 -1.66246 -0.321034
2813 1 18.4084 26.9924 39.7024 1.37144 -0.0615512 3.53908 -0.356286 2.33429 8.20932
2814 3 15.6456 27.4943 41.4091 6.66039 -5.21295 8.98554 0.538543 0.597513 -1.7258
2815 3 16.793 25.2745 39.1308 -5.32361 8.42842 12.9417 3.37791 -3.89106 0.614836
2816 1 15.0408 28.3401 37.6441 5.98527 6.2914 1.98397 1.07856 -1.58092 1.41398
2817 1 17.0175 28.3837 46.0437 4.53545 -1.36784 0.82947 0.642997 0.699176 2.60357
2818 1 10.0328 29.1975 38.5702 14.9741 1.71012 6.89541 1.11728 1.55264 -1.35577
2819 3 15.7364 29.0316 45.0677 0.747783 -8.00037 10.4331 -0.583495 1.96931 -2.75581
2820 3 17.8713 28.1139 42.4625 0.979531 3.41364 12.8548 1.01243 -7.76465 0.745957
2821 2 17.2527 30.4186 47.8435 -1.09962 0.267055 0.840569 -0.39165 0.345239 0.0935603
2822 3 15.9663 31.2007 36.2494 2.22912 -13.6555 10.9167 -1.02619 -5.67671 8.50296
2823 1 13.9303 32.1437 41.9466 2.47034 -2.81534 -1.57305 -0.489241 0.739338 -2.32665
2824 1 15.8361 30.8736 45.834 1.8798 -0.777024 0.843526 -0.325975 1.13006 0.43482
2825 3 15.8299 30.9315 42.2603 -2.918 -0.587848 0.172051 0.243952 1.13995 1.89497
2826 1 16.7194 30.6202 50.2495 -0.269504 -0.671945 -0.552408 -0.2114 -0.0889304 0.158764
2827 3 35.5451 1.11342 37.2965 -1.01437 -0.55772 -0.218383 1.22461 -0.0508252 -0.828063
2828 1 35.8635 0.937855 45.8887 -1.52479 -1.27336 -1.41309 -0.206681 1.37494 0.220799
2829 1 32.6655 2.51229 44.1703 -0.0243701 0.041878 0.312433 0.120817 0.326594 0.306094
2830 3 34.4469 2.02715 44.8787 1.11916 -0.1834 0.452008 0.299257 -0.441703 -0.17937
2831 3 35.9658 1.29128 42.3525 -0.0650727 -0.203313 -0.119968 -0.41018 -0.366375 0.300356
2832 2 35.5073 2.42082 47.886 -2.75753 -1.19406 -0.155253 0.292676 0.0576931 0.746445
2833 1 32.6651 4.40199 37.482 0.136745 -0.451249 -0.390418 -0.102408 0.169454 0.0487736
2834 3 34.1575 3.88923 36.4376 0.192198 0.463774 0.177881 0.0214985 -0.0428442 0.0265163
2835 1 34.4665 3.83821 46.0753 0.310107 0.916452 2.9593 0.0683579 -0.0680026 0.306597
2836 1 31.3832 5.22086 43.3488 -0.532162 -0.918896 -1.52679 -0.0367143 0.361045 0.186908
2837 3 32.8119 4.43938 44.7571 1.65269 -0.77213 3.07212 0.135898 0.130013 -0.277784
2838 2 -3.10696 5.83687 47.6175 -1.62778 0.789887 -0.615555 0.250936 -0.62954 0.765039
2839 1 33.4474 3.68188 48.5811 -0.727162 -1.59695 0.62456 -0.0897419 -0.445931 1.12308
2840 1 30.7289 6.9538 37.3745 -1.48098 -0.975644 0.263757 0.0176529 -0.0680319 -0.0473684
2841 3 32.5682 6.13215 36.38 -0.212504 0.0336228 -0.188262 0.0315956 0.0261304 -0.0443431
2842 1 29.6565 8.00347 43.8285 -0.270254 -0.112403 -0.724553 0.0782123 -0.122397 0.00335008
2843 3 32.9448 6.0785 42.0687 0.104008 0.651013 0.668744 -0.137348 -0.0556566 -0.108742
2844 1 32.4845 6.51195 49.2698 1.09341 0.824559 0.647607 0.0445216 0.176938 0.262085
2845 2 29.6421 8.43803 39.3243 -0.422759 0.609506 -0.459517 0.127616 -0.163073 0.0950178
2846 3 30.8552 8.74444 36.2782 1.39642 0.84459 0.353813 -0.126874 -0.0382378 -0.0874385
2847 1 29.3139 9.96738 41.6091 0.514915 0.446625 1.26785 0.206173 -0.154105 -0.382094
2848 1 28.28 10.518 44.2697 -0.141432 1.25888 0.424161 0.332962 -0.107483 -0.305583
2849 3 29.6357 9.6471 45.2121 0.40904 1.87138 -1.14412 0.280108 -0.0795973 0.124523
2850 3 31.1679 8.91593 42.6933 -3.22544 -2.63059 2.807 0.240497 0.147194 -0.184839
2851 2 -5.51053 10.4147 47.6404 -0.130726 0.105953 0.170115 -0.0342947 0.229597 0.354457
2852 1 31.4817 9.56719 49.9515 0.280693 -0.843238 0.26233 -0.08597 -0.287207 0.107078
2853 3 29.5726 11.5126 36.7702 0.0481469 -0.234936 -0.0644163 0.0167942 0.0300939 0.0625064
2854 1 29.9088 11.6468 46.1139 1.16376 2.57268 4.29018 0.127731 -0.272681 -0.934773
2855 3 28.3532 12.5641 44.8943 2.40686 0.145164 -0.984201 -0.241248 0.186452 0.481615
2856 3 29.3815 11.1976 42.9617 0.406034 1.47852 0.862 -0.112737 0.0553298 0.074396
2857 2 -6.91347 13.425 47.7329 0.466265 0.664577 0.550748 0.00525312 -0.0755099 0.238287
2858 1 29.8508 11.3674 49.0261 -1.62741 0.0380375 -0.939769 -0.319242 0.0692126 0.40599
2859 2 26.6585 13.3998 39.4894 -2.1728 0.686165 -0.100581 0.195923 -0.00552175 0.0952677
2860 1 26.282 15.163 37.612 0.148194 0.0953153 0.105153 0.250312 0.131457 0.0170346
2861 3 28.0286 14.713 36.2866 -0.482331 0.206209 0.118111 0.126386 -0.0325268 -0.0203317
2862 1 26.5829 14.9738 41.5325 -0.287542 0.324995 0.464754 -0.124936 0.131522 0.0886444
2863 1 28.1918 14.4095 46.0743 0.199197 0.0636751 1.6685 -0.0289131 0.00137605 0.0338656
2864 1 25.1775 15.9621 44.0613 0.0797737 -0.324501 -0.0979485 0.00240618 0.177714 -0.0633115
2865 3 26.6176 15.6016 45.3712 -2.46704 -0.466605 1.37929 0.575857 0.654026 -0.656579
2866 3 28.3551 14.4465 42.4334 0.572166 -0.417068 -0.392479 -0.0786242 -0.145252 0.0375056
2867 1 27.9428 13.872 48.6409 0.338209 -0.0297872 -0.186701 -0.0373913 0.212094 0.286092
2868 2 24.8138 16.1989 39.623 -0.289654 1.64051 0.594285 0.0949056 -0.38971 -0.189227
2869 1 24.574 17.8096 37.7176 0.213627 0.0142853 -0.123984 0.0876068 -0.0304153 0.0861549
2870 3 26.0387 17.3721 36.5324 -0.93988 0.138763 0.444545 -0.0347576 -0.0683783 -0.0175033
2871 1 26.5556 17.3167 46.2241 -2.2324 -1.35581 -0.493941 1.12628 -0.470614 0.0102151
2872 3 24.9209 17.8154 44.787 -0.232323 0.684836 1.59223 0.0812287 -0.0356774 0.277524
2873 3 26.6563 16.713 42.7712 0.0577343 0.370813 -2.25728 -0.0306277 0.169685 0.363827
2874 2 -10.5964 19.4003 47.8608 -0.0996486 -0.0112018 -0.146546 -0.0748427 -0.25081 0.161516
2875 1 27.2191 17.1729 48.8429 -0.09341 0.186122 0.589661 -0.123394 -0.0264565 0.461007
2876 1 23.4025 20.3264 37.112 -0.65689 -0.336298 1.88497 0.567909 -0.0579783 -0.546669
2877 1 24.9053 19.3032 46.1707 0.115479 -0.0452741 0.206147 0.180753 -0.00269174 0.249615
2878 1 22.1703 21.8298 44.2593 2.08403 -1.15814 -2.64331 -0.0150598 -1.04144 -0.802085
2879 3 23.9028 21.0839 45.6259 1.65078 -1.70945 0.860176 -1.21582 0.963276 -0.839882
2880 2 22.1252 21.0075 39.1472 -1.99397 -3.57975 -0.449931 -0.38047 -0.540096 0.323074
2881 1 22.063 22.9111 37.4327 -0.0668518 2.40468 1.92444 0.0603724 1.22547 1.24111
2882 1 22.1133 22.6837 41.2816 1.31345 0.434142 -2.26912 0.771008 0.0786772 0.901364
2883 1 24.0724 22.7673 46.5605 -2.469 -0.0992395 0.198411 0.204349 -0.207558 -0.163501
2884 3 22.6859 23.5193 45.4727 -0.155789 -0.500099 0.46263 0.296099 -0.0388842 0.144969
2885 3 23.4408 22.1875 42.8804 1.52261 0.319057 -1.92263 0.618742 0.345286 -0.945391
2886 2 -13.5862 25.5129 47.7589 -0.248133 -0.938784 -1.16296 -0.0236353 0.169803 0.466294
2887 1 22.894 23.7802 49.5216 0.291262 -0.0785757 -0.0402444 -0.159792 -0.140078 0.554639
2888 2 20.6418 23.5268 39.3419 4.23499 -0.073857 1.36649 -1.67183 -0.532404 -0.667797
2889 1 20.4128 25.7609 37.3377 3.99259 0.108273 0.823273 0.967897 -0.415528 -0.143601
2890 1 18.8715 26.6171 43.9112 -1.69669 2.03422 5.77266 1.96653 0.394715 3.99423
2891 2 -14.952 27.7756 47.5777 -1.22269 0.802485 -0.062444 -0.0698695 -0.174407 0.0263246
2892 1 21.8379 25.9925 49.424 1.31948 0.406266 0.603501 -0.328836 0.421941 0.496315
2893 2 20.8392 26.3299 39.9098 3.98617 4.02128 -5.43914 -0.141347 -0.774486 1.04612
2894 1 19.1492 28.8314 37.7712 1.0864 -0.788793 1.87469 -4.17908 1.77409 1.54447
2895 1 19.3042 29.0463 41.6952 0.19105 4.41 -4.48501 2.90244 1.66004 -1.55064
2896 1 20.318 27.6848 46.0453 -0.905827 -4.89139 -3.35891 -0.287552 -0.74488 -1.34825
2897 1 17.2642 29.7479 43.5499 -5.30351 -0.481161 5.44087 -3.64766 0.813379 -3.22643
2898 3 18.6234 28.6125 44.935 -5.75356 -1.3279 5.37172 1.0542 1.00964 0.240766
2899 2 -16.533 29.6466 47.6478 0.996665 -1.04883 -0.165617 -0.462299 0.0914204 -0.0497675
2900 1 20.1855 27.8167 49.0319 -1.39741 1.24812 0.304816 0.370607 -0.126876 -0.256745
2901 3 19.1305 29.784 36.045 0.573882 1.04274 0.472396 0.27998 0.192082 -0.787388
2902 1 17.0704 31.8746 40.9259 2.3739 1.98089 1.11711 0.097155 -1.47561 -0.259422
2903 1 19.0473 30.5567 46.0114 -6.11982 3.23797 4.38233 -0.401408 0.563907 0.992464
2904 1 34.6102 0.375381 43.5227 -2.09378 -2.12057 -0.177737 -1.81005 -0.11603 -1.56776
2905 3 17.4947 31.5449 44.6926 1.88147 -0.571675 -1.63564 -0.319039 -2.2187 -1.59682
2906 3 18.3886 30.8685 41.9972 -5.93389 -5.58909 1.19664 -0.541783 -0.508489 -0.177442
2907 2 0.250628 0.541107 47.6675 0.42743 -0.430141 1.79479 -0.613942 0.506904 -1.05884
2908 1 -17.8751 30.9682 49.1347 -1.02495 -2.13391 1.25449 0.285974 -0.260315 0.300233
2909 4 3.64282 3.094 2.18196 0 0 0 0 0 0
2910 4 1.74018 5.04005 2.3127 0 0 0 0 0 0
2911 4 -4.29901 17.3011 2.34779 0 0 0 0 0 0
2912 4 -8.04026 22.5941 2.46133 0 0 0 0 0 0
2913 4 -9.38221 24.9649 2.4081 0 0 0 0 0 0
2914 4 6.29471 2.49211 2.35346 0 0 0 0 0 0
2915 4 4.92399 5.4973 2.26592 0 0 0 0 0 0
2916 4 2.94256 10.6357 2.7064 0 0 0 0 0 0
2917 4 0.529642 12.4517 2.45853 0 0 0 0 0 0
2918 4 -3.65828 19.9655 2.27585 0 0 0 0 0 0
2919 4 -9.71335 30.3927 2.6464 0 0 0 0 0 0
2920 4 -3.40048 24.9598 2.15546 0 0 0 0 0 0
2921 4 10.8215 0.0620446 2.13113 0 0 0 0 0 0
2922 4 -0.686096 24.9467 2.39251 0 0 0 0 0 0
2923 4 -1.74637 27.3008 1.52153 0 0 0 0 0 0
2924 4 13.55 1.02051 2.83841 0 0 0 0 0 0
2925 4 11.2486 7.95313 2.58037 0 0 0 0 0 0
2926 4 10.3042 10.4548 2.05685 0 0 0 0 0 0
2927 4 8.98622 12.7999 2.4901 0 0 0 0 0 0
2928 4 7.59524 15.1428 2.47179 0 0 0 0 0 0
2929 4 6.1871 17.4736 2.3801 0 0 0 0 0 0
2930 4 4.82806 19.9263 2.48908 0 0 0 0 0 0
2931 4 3.43051 22.5266 2.27659 0 0 0 0 0 0
2932 4 2.06437 24.937 2.37391 0 0 0 0 0 0
2933 4 16.2043 0.693966 2.3167 0 0 0 0 0 0
2934 4 17.8184 2.83865 2.7847 0 0 0 0 0 0
2935 4 13.5228 9.91095 2.35561 0 0 0 0 0 0
2936 4 11.9399 12.6219 2.28557 0 0 0 0 0 0
2937 4 10.5665 15.0189 2.43537 0 0 0 0 0 0
2938 4 9.14774 17.5598 2.28778 0 0 0 0 0 0
2939 4 18.8906 0.340223 2.60433 0 0 0 0 0 0
2940 4 6.4314 27.5316 2.01572 0 0 0 0 0 0
2941 4 20.7018 7.53347 2.24048 0 0 0 0 0 0
2942 4 19.247 9.99535 2.49893 0 0 0 0 0 0
2943 4 17.6578 12.3985 2.53443 0 0 0 0 0 0
2944 4 13.1524 19.6502 2.64646 0 0 0 0 0 0
2945 4 10.6346 24.983 2.50376 0 0 0 0 0 0
2946 4 9.1897 27.6045 1.43198 0 0 0 0 0 0
2947 4 7.67147 29.9537 1.87393 0 0 0 0 0 0
2948 4 26.555 2.70214 2.63569 0 0 0 0 0 0
2949 4 23.4189 7.67881 2.09677 0 0 0 0 0 0
2950 4 20.3792 12.5323 2.52863 0 0 0 0 0 0
2951 4 15.8499 19.8989 2.35304 0 0 0 0 0 0
2952 4 14.25 22.09 2.10085 0 0 0 0 0 0
2953 4 27.5948 0.143749 1.88993 0 0 0 0 0 0
2954 4 29.276 2.62458 2.51531 0 0 0 0 0 0
2955 4 27.795 4.98489 1.81356 0 0 0 0 0 0
2956 4 23.0459 12.1562 2.11453 0 0 0 0 0 0
2957 4 18.5705 19.7695 2.42957 0 0 0 0 0 0
2958 4 30.6211 5.03079 2.54004 0 0 0 0 0 0
2959 4 23.7693 17.5345 2.62327 0 0 0 0 0 0
2960 4 18.9878 25.108 2.6386 0 0 0 0 0 0
2961 4 17.8709 28.2806 1.73097 0 0 0 0 0 0
2962 4 15.9717 30.137 2.34018 0 0 0 0 0 0
2963 4 33.5257 4.99748 2.52058 0 0 0 0 0 0
2964 4 30.9353 9.96641 3.20245 0 0 0 0 0 0
2965 4 29.2073 12.2559 2.23272 0 0 0 0 0 0
2966 4 24.9456 19.9869 2.46148 0 0 0 0 0 0
2967 4 21.966 25.3594 2.29715 0 0 0 0 0 0
2968 4 20.361 27.5454 2.56153 0 0 0 0 0 0
2969 4 -1.06262 4.71874 2.25786 0 0 0 0 0 0
2970 4 -5.3049 12.4465 2.30204 0 0 0 0 0 0
2971 4 -6.89287 14.7065 2.11966 0 0 0 0 0 0
2972 4 -9.60745 19.8654 2.8465 0 0 0 0 0 0
2973 4 -10.7492 22.3244 2.57496 0 0 0 0 0 0
2974 4 -13.6739 27.5236 2.12233 0 0 0 0 0 0
2975 4 3.37284 4.00662 4.73509 0 0 0 0 0 0
2976 4 -1.10228 11.6965 4.62401 0 0 0 0 0 0
2977 4 -3.664 16.7724 4.94423 0 0 0 0 0 0
2978 4 -4.92437 19.8056 4.68328 0 0 0 0 0 0
2979 4 -7.74459 24.2355 4.61601 0 0 0 0 0 0
2980 4 -9.13169 26.8225 4.38563 0 0 0 0 0 0
2981 4 -11.0281 28.7353 4.79696 0 0 0 0 0 0
2982 4 -12.168 31.6589 4.35641 0 0 0 0 0 0
2983 4 3.41734 9.0434 4.8659 0 0 0 0 0 0
2984 4 2.09092 12.1429 4.8105 0 0 0 0 0 0
2985 4 0.196998 14.0914 4.60909 0 0 0 0 0 0
2986 4 -1.0247 16.5098 4.32023 0 0 0 0 0 0
2987 4 -2.28973 19.1236 4.81679 0 0 0 0 0 0
2988 4 -9.71871 31.0516 5.38413 0 0 0 0 0 0
2989 4 6.13563 8.85625 4.87347 0 0 0 0 0 0
2990 4 -2.11282 24.0549 4.55157 0 0 0 0 0 0
2991 4 -4.45422 26.4812 4.15526 0 0 0 0 0 0
2992 4 12.0282 4.16084 4.71571 0 0 0 0 0 0
2993 4 10.3133 6.84191 4.88572 0 0 0 0 0 0
2994 4 8.8338 9.11445 5.15181 0 0 0 0 0 0
2995 4 0.693678 23.7764 4.45059 0 0 0 0 0 0
2996 4 -1.19748 26.4508 5.47158 0 0 0 0 0 0
2997 4 -3.57235 31.4231 4.37362 0 0 0 0 0 0
2998 4 14.8547 4.08702 4.85861 0 0 0 0 0 0
2999 4 13.5669 6.47961 4.65555 0 0 0 0 0 0
3000 4 12.1972 8.80523 5.02927 0 0 0 0 0 0
3001 4 1.82759 26.2113 4.9085 0 0 0 0 0 0
3002 4 -0.886061 31.5204 4.8193 0 0 0 0 0 0
3003 4 16.2511 1.74748 4.82909 0 0 0 0 0 0
3004 4 16.2676 6.43225 5.01331 0 0 0 0 0 0
3005 4 1.98208 31.6236 4.88928 0 0 0 0 0 0
3006 4 19.1779 1.75411 4.91663 0 0 0 0 0 0
3007 4 15.4733 14.1817 4.52781 0 0 0 0 0 0
3008 4 10.3956 21.6673 4.11048 0 0 0 0 0 0
3009 4 9.3775 24.109 4.85666 0 0 0 0 0 0
3010 4 22.037 1.71113 4.85045 0 0 0 0 0 0
3011 4 19.1958 11.515 4.76393 0 0 0 0 0 0
3012 4 18.1924 14.0452 4.63848 0 0 0 0 0 0
3013 4 16.3225 16.7697 4.45735 0 0 0 0 0 0
3014 4 14.8094 19.0591 4.72713 0 0 0 0 0 0
3015 4 13.0888 21.626 4.5217 0 0 0 0 0 0
3016 4 12.1477 24.1648 4.82733 0 0 0 0 0 0
3017 4 10.7672 26.489 5.16851 0 0 0 0 0 0
3018 4 24.761 1.97516 4.91998 0 0 0 0 0 0
3019 4 26.4131 4.14144 4.96627 0 0 0 0 0 0
3020 4 20.9063 14.0777 4.87873 0 0 0 0 0 0
3021 4 17.8346 19.1573 4.98515 0 0 0 0 0 0
3022 4 29.3876 3.975 4.93623 0 0 0 0 0 0
3023 4 14.656 29.0685 4.79935 0 0 0 0 0 0
3024 4 32.1025 4.17173 4.81555 0 0 0 0 0 0
3025 4 27.7693 11.3905 4.70386 0 0 0 0 0 0
3026 4 25.005 16.3431 4.73937 0 0 0 0 0 0
3027 4 23.5012 19.1627 4.89116 0 0 0 0 0 0
3028 4 20.4196 23.8013 4.55346 0 0 0 0 0 0
3029 4 19.7422 26.3571 5.21187 0 0 0 0 0 0
3030 4 17.3711 28.888 4.40705 0 0 0 0 0 0
3031 4 16.5584 31.4785 4.63813 0 0 0 0 0 0
3032 4 -2.21691 4.40833 4.96347 0 0 0 0 0 0
3033 4 -3.56019 6.77252 4.78901 0 0 0 0 0 0
3034 4 -6.6088 11.8713 5.1335 0 0 0 0 0 0
3035 4 28.9297 13.8408 4.43224 0 0 0 0 0 0
3036 4 -15.0153 27.0158 4.43901 0 0 0 0 0 0
3037 4 -13.6636 29.3793 4.54448 0 0 0 0 0 0
3038 4 1.98845 8.56781 7.52062 0 0 0 0 0 0
3039 4 0.565178 10.6622 6.51453 0 0 0 0 0 0
3040 4 -2.28413 15.9507 7.14536 0 0 0 0 0 0
3041 4 -3.72051 18.2971 7.20172 0 0 0 0 0 0
3042 4 -8.19475 25.864 6.75788 0 0 0 0 0 0
3043 4 -9.43324 28.3288 7.04256 0 0 0 0 0 0
3044 4 8.30496 3.05674 7.38644 0 0 0 0 0 0
3045 4 6.55715 5.80986 7.33182 0 0 0 0 0 0
3046 4 4.70106 8.62994 7.27135 0 0 0 0 0 0
3047 4 3.77837 11.1278 6.69364 0 0 0 0 0 0
3048 4 -0.550297 17.9722 6.56975 0 0 0 0 0 0
3049 4 11.0034 3.28264 7.08344 0 0 0 0 0 0
3050 4 9.27868 5.86342 7.21086 0 0 0 0 0 0
3051 4 7.41418 8.39611 7.3638 0 0 0 0 0 0
3052 4 12.0001 5.90448 6.80931 0 0 0 0 0 0
3053 4 7.54782 13.3997 7.31045 0 0 0 0 0 0
3054 4 6.15448 15.7409 7.26981 0 0 0 0 0 0
3055 4 4.7571 18.0749 7.11504 0 0 0 0 0 0
3056 4 1.19038 25.7211 7.51195 0 0 0 0 0 0
3057 4 -2.42309 30.7263 7.04691 0 0 0 0 0 0
3058 4 7.48138 18.1235 7.12859 0 0 0 0 0 0
3059 4 5.94653 20.5257 7.05833 0 0 0 0 0 0
3060 4 3.72131 26.6794 7.19525 0 0 0 0 0 0
3061 4 1.58547 28.3406 6.87418 0 0 0 0 0 0
3062 4 0.469461 30.8325 7.0806 0 0 0 0 0 0
3063 4 17.6501 1.05933 7.06368 0 0 0 0 0 0
3064 4 13.6346 13.3205 7.37585 0 0 0 0 0 0
3065 4 12.3772 15.7206 7.66369 0 0 0 0 0 0
3066 4 9.08433 21.5123 6.49395 0 0 0 0 0 0
3067 4 4.98123 28.9946 7.88562 0 0 0 0 0 0
3068 4 20.4262 6.11184 6.94877 0 0 0 0 0 0
3069 4 19.1251 8.49048 7.21969 0 0 0 0 0 0
3070 4 16.4303 13.4705 7.53891 0 0 0 0 0 0
3071 4 14.9524 15.629 6.77684 0 0 0 0 0 0
3072 4 11.7421 20.9996 6.80607 0 0 0 0 0 0
3073 4 10.7987 23.5384 7.11031 0 0 0 0 0 0
3074 4 23.4909 0.889121 7.12929 0 0 0 0 0 0
3075 4 24.6618 3.7197 7.01067 0 0 0 0 0 0
3076 4 22.0398 8.33906 7.2119 0 0 0 0 0 0
3077 4 17.9292 15.9889 6.52976 0 0 0 0 0 0
3078 4 16.1856 18.0574 6.85474 0 0 0 0 0 0
3079 4 12.3373 25.7742 7.35743 0 0 0 0 0 0
3080 4 10.8781 28.0752 7.38119 0 0 0 0 0 0
3081 4 9.16031 30.6364 7.15835 0 0 0 0 0 0
3082 4 26.3526 0.924789 7.2144 0 0 0 0 0 0
3083 4 24.7724 8.83708 7.12943 0 0 0 0 0 0
3084 4 14.5883 25.905 5.82761 0 0 0 0 0 0
3085 4 13.7267 28.111 7.175 0 0 0 0 0 0
3086 4 12.2414 30.4245 7.16705 0 0 0 0 0 0
3087 4 27.5544 8.67373 7.35299 0 0 0 0 0 0
3088 4 26.4047 11.125 7.04724 0 0 0 0 0 0
3089 4 23.6 15.4978 7.72614 0 0 0 0 0 0
3090 4 22.4888 17.973 7.47599 0 0 0 0 0 0
3091 4 18.7307 23.6211 7.99497 0 0 0 0 0 0
3092 4 17.7837 26.0039 7.07297 0 0 0 0 0 0
3093 4 32.4184 5.80369 6.97451 0 0 0 0 0 0
3094 4 29.1186 10.9041 7.14832 0 0 0 0 0 0
3095 4 26.3062 15.8127 7.76583 0 0 0 0 0 0
3096 4 25.1332 18.0867 6.82927 0 0 0 0 0 0
3097 4 20.9753 25.1188 7.61652 0 0 0 0 0 0
3098 4 17.3299 31.0533 7.22541 0 0 0 0 0 0
3099 4 35.0157 1.19856 6.46756 0 0 0 0 0 0
3100 4 -2.15205 5.92708 7.22476 0 0 0 0 0 0
3101 4 -3.78476 8.30049 7.10794 0 0 0 0 0 0
3102 4 -8.26184 15.7079 7.9277 0 0 0 0 0 0
3103 4 -9.65914 19.1157 7.21295 0 0 0 0 0 0
3104 4 -16.2027 30.7107 7.6676 0 0 0 0 0 0
3105 4 0.56493 0.722377 7.46403 0 0 0 0 0 0
3106 4 -1.02532 8.39311 7.49565 0 0 0 0 0 0
3107 4 -6.32882 17.5911 7.55171 0 0 0 0 0 0
3108 4 -10.6713 26.0501 7.87864 0 0 0 0 0 0
3109 4 -13.8061 31.2722 6.49921 0 0 0 0 0 0
3110 4 3.27278 1.01982 7.40651 0 0 0 0 0 0
3111 4 3.2614 2.91248 9.85463 -1.91685 -1.97255 -1.46693 -0.339963 18.7836 15.6796
3112 4 0.861325 7.25239 9.20044 -0.841985 -1.32246 1.37079 7.35412 -21.0964 1.57285
3113 4 -1.75469 11.0884 9.90843 -1.91319 -0.733033 0.500976 -5.11179 18.1286 0.928648
3114 4 -3.43604 14.6614 9.34673 0.0211017 0.769765 -1.98211 -9.51169 -21.1768 -6.0292
3115 4 -5.06983 17.9782 10.0167 -0.298786 0.525229 -0.894201 -16.331 -22.0271 -13.072
3116 4 -10.8396 23.5757 8.9783 -0.995927 0.831804 -2.09602 4.432 22.6538 0.347362
3117 4 -13.6038 31.8182 9.60248 3.00049 -0.37948 -1.65306 12.1341 4.64706 -17.9023
3118 4 -2.13534 17.1939 9.59759 -1.90645 2.2799 -0.845135 -18.2515 8.54694 -4.31852
3119 4 -6.96346 23.6128 8.71655 2.07839 0.010851 -0.0158286 13.476 5.05649 -4.81248
3120 4 -8.28063 27.2615 9.05953 0.528054 -1.76818 1.37107 -21.6693 -4.48417 -12.3356
3121 4 10.3613 1.75767 9.17954 1.08446 -1.6947 1.33834 -7.06632 -9.95601 -26.0925
3122 4 6.65317 4.49388 9.22033 -2.66583 -1.41846 0.583054 21.4749 -13.4899 16.7973
3123 4 10.8412 5.20276 9.22021 -0.914544 4.05351 -2.13982 11.5599 3.58573 7.42074
3124 4 -4.71627 29.5177 8.5973 0.902285 -0.871047 -0.0239105 -1.07291 15.7693 17.9697
3125 4 7.6368 15.014 9.57958 2.0655 0.140253 1.13905 11.047 20.1863 -17.7819
3126 4 6.05413 17.1213 9.53833 -0.370781 -0.17484 -0.443987 26.9683 -11.0367 11.5764
3127 4 3.80871 19.5988 9.1439 0.817717 1.52358 0.645641 3.47353 -11.8655 -15.0124
3128 4 3.72219 22.8711 9.41831 -0.530647 0.685341 0.48021 -0.27894 3.00064 -21.7633
3129 4 1.74674 24.4206 9.56275 -1.28278 0.632072 -2.3631 -11.7547 -11.3764 5.86065
3130 4 -0.81553 29.3721 8.88389 0.140226 -2.93665 0.42254 -18.6757 -20.0474 -2.68409
3131 4 11.404 12.9833 8.90633 1.21847 1.71243 0.728876 -7.76275 8.36662 -22.0057
3132 4 10.4372 15.3515 9.15754 0.104906 0.404322 3.90878 -8.12362 -26.9113 -5.87617
3133 4 8.52607 18.7828 9.33081 3.42521 0.293681 0.912002 17.1651 13.7168 2.07804
3134 4 6.23897 22.3576 9.22302 0.517124 0.626275 0.945234 -21.4716 10.0177 0.35755
3135 4 4.9764 24.9957 8.85924 -1.96031 0.578253 -0.170048 5.6314 -3.90896 -7.88412
3136 4 3.17267 28.6302 9.57549 0.0441573 1.47361 0.461508 6.87234 19.1606 -3.60553
3137 4 19.7468 4.36893 9.14239 -0.120668 1.14319 2.04747 -9.25289 13.3494 21.779
3138 4 14.5292 14.6767 10.7005 1.54428 0.220139 0.14373 17.27 5.66292 6.87666
3139 4 10.7971 20.3963 9.48212 0.054584 -1.04456 -0.180295 -5.54469 -12.4021 -15.3657
3140 4 9.06738 22.4173 8.9607 -0.639379 1.15615 -0.231082 -4.80932 -23.053 -6.38306
3141 4 20.977 7.00227 9.93956 -0.244201 -4.04428 0.813235 -0.0868936 -1.23957 11.1625
3142 4 17.407 14.3589 9.65118 -1.1754 -2.30088 2.97941 -7.08793 -4.49799 -13.1063
3143 4 14.2966 17.0996 8.75352 -1.20835 1.66559 -2.05061 11.6651 -7.46223 -9.1199
3144 4 7.25538 29.2185 8.78069 -2.13466 -2.51624 -1.33358 -1.54515 -26.1798 -7.11908
3145 4 5.67377 31.9064 8.99707 2.28833 1.91446 -0.298273 18.8389 -17.6305 -26.3695
3146 4 26.4449 2.24629 10.4529 3.47678 -0.389819 0.502308 2.7832 -8.25113 -14.2826
3147 4 20.5319 11.7225 9.42499 -0.412452 0.541446 0.911066 -2.91086 2.88616 -22.0985
3148 4 11.1609 26.6792 9.62271 1.16731 0.438353 0.0327824 -17.6596 -11.3651 14.946
3149 4 9.36079 28.3924 9.91104 -3.16088 1.45955 2.36109 -24.8374 5.59499 -20.9053
3150 4 28.2525 1.16636 8.94898 -1.19467 -0.816814 -1.03115 10.0801 5.02391 22.8858
3151 4 25.8683 7.21562 9.11165 1.01477 -1.52138 -0.118297 5.52892 14.6025 23.3619
3152 4 22.2499 15.1568 9.98653 -2.08837 3.13777 0.832813 -14.8863 22.6989 -15.2568
3153 4 16.6184 25.0072 9.12837 1.51291 1.91705 -0.803558 -3.64407 4.87182 13.9024
3154 4 13.4693 29.7977 10.3141 0.260678 -1.33462 -2.22252 -14.2236 7.33013 -5.51505
3155 4 11.9251 31.9283 10.0786 0.475877 -1.049 -1.03837 21.4828 8.4497 15.8929
3156 4 30.1317 7.8446 8.87879 -2.29347 -2.4472 -0.954344 13.1163 -8.26872 -7.10883
3157 4 29.2522 10.3194 9.69957 1.42742 -1.47575 -0.268063 -21.7479 2.38239 -9.7184
3158 4 24.1461 17.0642 9.98415 -0.37813 -2.25491 -0.981741 -7.75207 -18.1724 -0.935312
3159 4 21.8733 19.1934 10.4996 2.21063 0.0619186 0.00976831 18.6393 -9.74817 17.7466
3160 4 21.1554 23.1116 9.3826 0.925354 2.2764 0.984657 -20.7 -17.8503 -0.486957
3161 4 20.0824 26.0451 9.6527 -0.62235 1.91065 1.544 -3.0698 -11.93 -7.45675
3162 4 34.7223 3.8095 9.43577 0.420966 -1.04786 1.30656 -13.9357 -26.5474 -18.6366
3163 4 -10.5964 18.8401 9.57636 -0.20777 -3.88117 -0.576303 4.69138 -6.00305 -21.8835
3164 4 23.5635 20.0324 8.62614 0.869173 -0.207666 0.629426 -9.69796 -10.3762 -5.29817
3165 4 17.3212 31.3971 9.67877 2.99078 -0.248168 2.34596 -15.4287 8.83099 -4.72891
3166 4 0.0764565 2.90072 9.39074 -2.26574 3.2555 1.70492 19.0976 -18.9236 2.43553
3167 4 -3.5206 6.56838 9.29857 -2.30318 -2.6045 -0.6397 -15.0291 10.5206 18.6737
3168 4 -8.05264 18.2523 10.6726 0.469901 0.632772 1.15892 10.2647 -7.76833 26.5422
3169 4 -14.005 29.1965 8.9432 1.03292 -0.357911 -2.28368 15.9157 15.4932 -1.75883
3170 4 2.2437 0.39619 9.91713 0.405365 -0.687734 -0.581312 27.6588 -13.214 -22.1674
3171 4 3.61949 5.22189 10.7141 1.68068 -1.14848 0.201926 6.66494 -10.9933 -0.715915
3172 4 -0.0592283 12.2699 12.0411 -2.77476 -0.932005 2.01678 1.49901 -5.41647 9.05649
3173 4 -1.81219 13.4533 10.8428 -0.897697 -1.67088 0.621602 -16.0017 -22.1109 -8.61801
3174 4 -3.31632 17.2506 12.4236 0.391408 -1.6566 -1.27867 15.7223 4.22577 -21.6192
3175 4 -6.81718 21.7984 10.7842 -1.3709 -2.67972 0.0568939 7.26322 -1.84276 14.8441
3176 4 -7.89605 25.0338 13.0613 -3.33898 1.34014 2.25957 22.3242 -21.6464 -15.7726
3177 4 5.62836 6.78277 11.488 -0.26004 -0.265381 1.22265 5.91619 22.6721 -12.4871
3178 4 -4.25865 20.9992 11.3632 0.730553 1.00651 -0.935196 25.7654 -12.1959 3.30009
3179 4 -4.43824 23.5078 10.4568 -0.170162 2.36101 1.78658 15.797 -25.599 15.5044
3180 4 5.30446 9.33164 12.8225 -0.272327 0.0644605 0.0205323 8.62402 10.6497 21.4974
3181 4 4.36004 12.2699 12.8139 0.743335 1.55002 0.443087 -13.0467 9.80408 -24.6712
3182 4 1.51016 16.6216 10.088 1.96263 2.78184 0.844672 -9.12557 -18.4356 -22.4901
3183 4 -1.66109 23.6327 10.8841 0.934576 1.91656 -0.416493 -20.8704 24.7256 -12.203
3184 4 -5.96877 29.0046 11.9553 2.44153 -0.656515 2.79369 -8.40177 -15.7293 22.6354
3185 4 -7.19368 31.1385 11.526 -2.90755 1.67347 1.97135 9.90834 14.4947 -18.1644
3186 4 11.0314 3.25754 12.6868 1.20489 0.296264 -1.37182 16.1865 -3.10873 18.5438
3187 4 7.61431 10.0967 11.3853 -0.0325784 0.433879 -0.837464 15.6729 1.81813 -10.7606
3188 4 5.26353 13.649 10.6093 -0.124986 -0.841149 -4.44462 -16.5514 21.6822 26.0034
3189 4 4.60875 16.086 11.5976 1.98967 -2.3647 -0.946222 -11.0086 -24.0626 20.8438
3190 4 1.82915 18.7929 10.8771 -0.547522 -0.770634 -0.639125 24.8084 18.0591 -27.7421
3191 4 -4.28461 27.6228 10.4638 2.58723 -0.426413 -0.296003 5.06101 5.08816 -16.3424
3192 4 -2.78924 31.8564 11.1544 2.85012 1.03907 0.817184 15.1058 21.6528 12.9648
3193 4 13.4202 6.23033 10.9277 -0.45911 -1.37718 -2.54463 19.5436 9.94063 7.48991
3194 4 10.9277 9.93374 11.9923 -2.37699 -0.377898 0.710223 -22.5866 4.15094 -8.08193
3195 4 9.46029 13.7118 11.2955 1.44429 -2.65658 0.921637 -3.11643 21.6075 12.7645
3196 4 3.40442 20.7516 11.363 -1.72813 1.42863 1.08803 -22.732 -12.6174 -26.4133
3197 4 3.07972 24.3804 11.6727 0.306947 1.68107 -4.34543 1.53967 -10.1325 1.22637
3198 4 1.95149 26.7991 12.7855 -1.89561 2.21626 -0.795816 -13.1003 16.2768 -20.1359
3199 4 17.4161 3.37494 10.5358 -1.09175 3.79445 -0.0494819 22.3522 18.062 -23.6285
3200 4 15.8312 5.69149 11.0253 -1.37014 0.72124 -1.96022 -15.0576 -22.9904 7.29105
3201 4 14.0099 9.55987 12.2789 1.55888 -0.420437 -0.00252746 -22.1059 -11.8167 -16.156
3202 4 12.917 11.0555 10.4853 0.575858 0.0972275 -0.205925 4.73623 -7.79228 20.4039
3203 4 11.8926 14.6567 11.9351 2.05987 3.57847 -1.77283 21.3846 -18.6617 5.8819
3204 4 7.06786 20.0183 11.7001 -0.510797 -0.219751 3.19717 9.54343 9.65178 -8.34418
3205 4 5.68044 24.0664 11.9835 -1.91635 1.17941 1.07367 -11.1132 10.7327 -19.9052
3206 4 6.03481 26.4069 10.7724 -4.45026 -0.434148 2.24912 -25.1009 22.1546 21.3032
3207 4 4.5306 28.8884 11.8551 -5.88635 2.60898 -2.16582 3.81008 8.27186 19.2678
3208 4 19.4453 2.36154 11.6216 -0.531453 1.6926 -0.595203 -9.48052 -7.43269 -1.9755
3209 4 21.1412 5.17542 12.2649 -1.60497 2.43733 2.39397 13.2594 -17.2011 12.4137
3210 4 17.7567 7.68942 10.6768 -2.24418 1.95649 -0.415795 3.54363 9.3852 3.54911
3211 4 9.09428 23.8751 12.0971 1.47476 -0.454944 -2.27809 0.108455 0.338861 0.668685
3212 4 27.4108 4.03729 11.9586 0.338892 1.29219 -1.19428 -18.0505 17.3022 5.1589
3213 4 20.7303 10.8952 11.6277 -0.368018 -0.342431 -1.96911 13.6102 -20.6687 -6.52116
3214 4 19.6654 13.7813 10.7144 -0.0200039 0.148685 0.254866 -4.93945 -14.3062 8.63822
3215 4 18.9431 17.316 11.8441 -0.499939 -0.0505526 0.942011 21.9063 -20.8898 -25.3405
3216 4 13.6622 27.0822 10.9567 0.4393 1.54429 -0.253061 3.70456 -15.0723 19.485
3217 4 11.3929 30.3514 12.433 -7.738 3.06403 7.2442 0.320627 0.779437 0.0803521
3218 4 10.0521 31.8985 13.9223 -14.0769 -1.93034 -2.63007 -0.721994 0.510399 1.08875
3219 4 29.3353 2.46045 10.7315 -2.00733 1.35073 0.0781611 21.2754 24.4882 15.7382
3220 4 27.867 6.0128 10.4614 1.97424 2.05519 -2.59596 15.8818 -23.4283 -13.8141
3221 4 26.7208 9.88241 12.5949 -1.71647 -0.206146 -1.35719 2.38123 7.84876 3.71298
3222 4 19.0177 21.9193 10.5546 -0.828761 -0.329753 0.810329 20.6928 19.2492 -8.4648
3223 4 16.3318 22.2623 10.7336 -2.85877 -0.400498 1.96164 4.13833 0.164195 -2.99101
3224 4 29.3541 9.73699 12.3299 0.721062 -2.24484 -2.26498 1.56662 7.78404 -17.888
3225 4 22.3296 21.5943 13.2266 0.209873 -0.884359 -0.364569 -7.28811 -3.23795 11.4547
3226 4 20.8503 24.4063 13.2195 1.24676 -1.75287 -2.18809 17.0856 16.5496 -18.6881
3227 4 33.8605 1.15827 12.2134 -2.51121 -0.404641 1.11982 1.1262 7.09197 -10.986
3228 4 24.7698 21.0898 12.0976 0.653587 0.882603 -2.05175 17.3519 -13.7681 16.1775
3229 4 -16.5067 29.4751 10.6198 1.41163 0.0961372 0.981678 6.48213 7.5214 16.9036
3230 4 -1.23105 2.63181 11.9102 -0.600544 -1.27322 2.57289 15.6629 -27.3552 11.2701
3231 4 1.36691 3.98824 11.7234 -1.27124 1.01139 -1.53497 -25.1145 -0.967171 0.00793076
3232 4 -3.89422 8.55331 10.8633 1.13898 -1.31227 -2.84586 -16.7359 -12.0721 -15.2507
3233 4 -3.17788 11.4139 12.0694 0.872137 0.307607 -1.45387 -0.258977 -14.0648 9.09318
3234 4 -5.20856 13.0742 10.9039 1.76405 -0.581458 -1.63887 8.39196 -8.76853 -7.60426
3235 4 -6.01072 17.8822 13.0391 0.558056 -0.389353 -1.03355 20.2672 8.46247 24.1749
3236 4 -10.5436 25.0828 12.12 2.23521 -1.32226 -1.23682 7.63989 12.4059 -19.5486
3237 4 -12.8688 28.4702 12.0727 1.91987 0.522087 -3.78477 -8.4167 10.8285 19.0461
3238 4 -14.3682 30.8704 12.1028 0.622639 0.140155 -0.223619 11.7252 -14.8519 12.5378
3239 4 1.86978 1.53988 12.3578 1.97661 -0.723836 -0.544842 -25.8413 7.70414 23.8355
3240 4 4.75625 2.80623 15.332 0.885598 1.3423 0.0542091 -7.59537 10.4723 6.35121
3241 4 3.58486 4.88329 14.2648 -0.0610666 -0.415051 0.814158 8.13712 -13.001 3.82034
3242 4 -4.55584 21.6028 14.8598 4.73001 -0.897869 -0.0989795 3.04162 13.0943 -20.5585
3243 4 -7.13628 22.8767 14.5983 0.643015 -1.86141 0.254916 -22.0067 3.56105 12.5251
3244 4 9.16413 4.21231 14.8807 -3.72357 0.470146 1.35683 1.83434 14.9167 29.2794
3245 4 4.80897 7.03545 15.0951 0.881967 0.897681 -0.0622916 17.5681 -21.5409 6.4435
3246 4 0.492624 15.5556 14.1284 0.317231 0.219449 1.51065 15.0683 -21.9099 13.9536
3247 4 -2.27236 20.9204 13.6207 -0.345791 -1.70919 -1.49201 11.597 -23.7253 24.1171
3248 4 -4.52099 24.2473 14.4149 -1.40378 -0.547145 1.50723 -1.86626 25.4468 14.4943
3249 4 -7.52687 30.6341 15.5722 -0.629649 3.04039 0.873649 10.9486 -6.36289 -24.9654
3250 4 10.3035 1.30987 15.062 -0.111057 2.1616 0.0765249 -20.1524 -1.34089 -19.9913
3251 4 6.5982 10.7471 14.7679 -1.53063 -0.533052 1.78178 3.86879 -5.07217 19.3781
3252 4 4.15774 13.2755 15.123 3.41032 0.370929 -1.63287 22.4657 -13.3133 25.5086
3253 4 2.83198 16.209 13.797 0.105136 0.282446 2.55593 -13.0724 2.1531 -16.0492
3254 4 1.03212 18.3196 14.2495 2.69451 -1.04526 1.42189 -25.5984 25.3548 -22.6758
3255 4 -5.16478 31.2 15.0985 -1.03254 0.644528 -1.3438 -5.73074 18.8015 15.6089
3256 4 12.2806 0.98241 13.1101 0.812645 2.86691 1.06426 -14.9796 -19.1204 -9.56115
3257 4 9.22671 10.8831 15.0582 -2.16179 0.500583 1.25447 -2.06423 8.53886 -15.6945
3258 4 8.02608 14.0609 14.3162 -0.116654 -0.578302 -0.297876 -19.9306 -0.45757 24.2262
3259 4 -2.37497 31.6551 13.8147 1.95868 0.782207 1.56529 0.787195 19.3688 8.78235
3260 4 15.6969 1.7062 13.026 1.09338 -0.930073 0.0398483 -19.2408 -8.38711 -6.21317
3261 4 14.2289 5.54903 15.1127 0.173627 -1.61028 -1.50935 -18.0389 -6.62561 11.3301
3262 4 12.0537 8.38739 15.2672 3.0362 -0.604564 3.25587 25.9108 11.5735 -9.41641
3263 4 11.9382 10.8519 14.7757 -2.76863 2.84008 1.12494 25.7832 -9.28862 -1.19489
3264 4 10.8561 13.2772 14.13 0.0670295 1.38717 -1.2667 -20.2017 2.92162 11.3893
3265 4 19.9882 3.53196 13.9339 -0.0743014 1.25086 0.239787 -17.1187 9.27883 19.7673
3266 4 18.0344 5.26913 14.6592 -0.305029 1.77745 -1.14027 -23.7315 20.778 0.418796
3267 4 16.5167 7.73013 13.0905 -2.8656 0.137744 -0.336562 3.90052 11.5146 19.743
3268 4 10.0344 15.4702 15.5495 0.916306 2.20545 -0.135542 -8.91231 -0.362072 8.70131
3269 4 4.483 24.164 14.2128 1.52571 -5.93726 10.1458 -4.27266 2.79039 1.13551
3270 4 3.28733 28.8855 14.515 2.03164 -0.845954 -0.868079 -14.3325 2.22217 -26.9277
3271 4 20.7418 0.81886 14.8582 1.52372 0.728003 -0.0146245 5.28587 22.103 24.3293
3272 4 11.3346 24.586 11.1052 -1.08304 -0.228415 -1.19404 -1.05259 11.9206 19.1365
3273 4 12.3394 29.263 14.3006 -2.26061 -4.55492 -4.04534 2.99567 -1.91131 2.09181
3274 4 20.4666 9.04273 14.3665 0.734587 1.4957 -0.527932 -0.242713 25.1095 3.07609
3275 4 18.8338 12.9783 14.5763 -0.639338 -0.364757 0.176615 29.1863 18.0915 -23.8603
3276 4 16.9427 15.5171 14.6983 -0.525408 -1.94751 -0.0518831 21.8338 -20.7192 23.8104
3277 4 8.71499 17.9613 15.9812 -5.14634 -6.35187 0.980736 3.16306 -2.22233 -6.41055
3278 4 16.5331 18.0362 14.6626 0.578322 -1.6647 1.34681 13.2057 -11.4506 -14.782
3279 4 27.4468 3.18511 14.8266 -1.93897 -2.55083 0.370668 -10.4081 24.6397 -26.4084
3280 4 26.0671 5.53909 15.5146 -0.864019 0.800634 2.52865 -2.67604 22.7206 -19.6529
3281 4 22.6349 10.2084 13.2345 -1.65481 0.265726 0.307933 11.3348 7.34622 -24.1341
3282 4 21.268 12.4068 14.2115 1.74322 -0.690282 0.44938 -2.49939 11.4022 1.08798
3283 4 20.9847 15.9987 12.5453 -0.157357 -4.53434 -1.06711 -22.0615 0.286336 -12.6047
3284 4 19.1973 18.4688 14.6142 -1.37451 0.78074 0.0383855 15.654 -25.3351 -13.5134
3285 4 18.1994 21.2872 15.3442 -2.9398 -1.02475 -2.25374 18.4621 -25.0278 -11.1092
3286 4 16.3416 23.3902 14.9875 -3.51106 1.09613 -4.42681 -1.78913 -1.16579 3.51741
3287 4 29.279 5.0928 14.7785 -1.43186 -1.31286 -1.27241 16.6719 -5.72386 9.18783
3288 4 26.1606 7.85675 14.3921 -1.58465 0.503978 0.607649 -19.0765 -0.988859 -5.31868
3289 4 20.0447 20.6008 13.718 1.53161 2.58633 1.06562 15.1074 10.8684 -13.8543
3290 4 18.4938 23.3986 13.8983 3.69299 0.582378 -2.64814 -23.3492 -11.2343 -11.756
3291 4 15.7802 31.6013 14.239 1.08937 1.56243 0.510153 20.9901 -12.5065 15.2877
3292 4 31.4402 1.11144 14.7487 -0.39319 8.51982 0.394296 -14.1027 -20.601 -7.75711
3293 4 33.5975 3.62791 13.8881 -1.70371 2.53136 -0.621483 -25.275 -1.40463 16.0602
3294 4 26.8854 16.2248 13.9874 -0.666251 -0.174617 -0.384619 -28.5306 -5.38816 -9.74215
3295 4 36.7383 0.747294 15.3374 0.914851 -2.67409 -1.18155 -24.219 -12.2353 16.3553
3296 4 -0.177195 3.41234 15.1534 -1.48124 -0.754966 -0.843189 -7.63325 -18.3161 3.01901
3297 4 -7.74495 14.902 15.2806 1.64187 -1.64279 -0.132668 -1.22059 -3.50358 9.90122
3298 4 -10.8546 20.9653 14.09 0.439706 2.09932 -2.14364 1.38374 -2.65079 17.4371
3299 4 -12.1011 23.3008 13.3265 -1.26541 -2.16184 2.2049 -19.8232 25.5839 22.845
3300 4 -14.9647 28.9685 13.9172 -1.92101 2.69011 -2.70055 -10.4691 -13.6069 -19.875
3301 4 2.31591 3.34317 16.0045 -0.793003 -2.87496 1.0716 -0.0331622 -3.99213 -19.4529
3302 4 -1.64524 11.9177 15.1889 0.578698 1.37052 -1.55816 10.2721 -16.8305 -11.1158
3303 4 -5.24929 12.5211 14.3379 1.02618 1.25278 -2.23611 -8.84542 -12.8066 -9.27161
3304 4 -5.35137 15.0029 14.5743 -1.28964 2.8566 -1.07558 -13.4352 -12.7348 24.9355
3305 4 -9.62394 23.1484 14.6579 -3.30847 -0.450323 2.33926 23.2438 3.33828 -15.9751
3306 4 -0.191688 10.0498 16.7361 -3.35686 -2.24779 1.42551 -14.1289 20.1001 -15.3214
3307 4 -2.69279 12.2272 17.5375 1.83323 -2.37813 0.218989 5.0182 5.73097 5.57808
3308 4 -9.2192 24.293 17.1 2.07146 -1.67169 -0.819442 9.68447 -13.97 -5.03948
3309 4 -10.6817 26.9279 16.5356 -1.39549 2.01057 0.993995 6.68604 9.14316 -20.958
3310 4 -11.7838 29.7324 16.1577 -2.04825 -1.07954 0.317559 -1.98904 -23.709 14.3579
3311 4 3.18441 6.57378 17.0049 2.07388 -0.676564 -0.256207 17.399 25.8729 -3.29924
3312 4 -8.95834 31.3971 17.4974 1.58655 0.74078 0.546805 25.6716 -10.283 6.32115
3313 4 -11.6629 32.0447 15.1714 -1.23538 -0.723551 2.42121 7.90578 9.3691 5.68392
3314 4 8.02124 1.93221 17.9738 0.998972 0.583887 -1.74322 15.3805 5.25611 -8.95189
3315 4 8.00441 5.4349 17.0436 1.50376 2.3873 -1.09258 6.3541 -13.266 2.17129
3316 4 -0.328083 15.9325 17.5982 1.83545 -1.4723 1.13158 16.5422 3.68276 1.20787
3317 4 -0.988533 18.9034 16.3764 -2.12655 -1.02555 -1.04564 10.5526 -5.01215 19.3084
3318 4 -1.84903 22.7272 17.3502 -1.55027 -1.26038 1.63033 13.8807 -14.5759 13.6845
3319 4 -4.72951 24.6143 17.3462 -2.17115 0.488666 0.0247377 -7.01905 2.17198 19.1323
3320 4 12.0848 2.12379 16.883 0.128499 0.970744 -0.674899 -26.599 0.692471 -8.86911
3321 4 11.1342 4.84263 16.6139 0.40311 -1.74831 0.418902 3.26872 -26.6549 -13.2377
3322 4 3.95309 17.1078 16.0758 2.00906 2.71179 2.14407 12.7276 -13.9155 -7.2842
3323 4 2.29232 18.2983 17.488 -0.622769 -2.74247 -1.88316 -23.2817 15.265 1.83895
3324 4 -0.253046 25.0751 17.1274 -0.438922 2.40941 0.188546 10.3039 8.51214 6.51804
3325 4 -3.59307 27.4793 16.6733 -0.391814 -0.344689 0.0451941 27.8304 20.9592 -17.1138
3326 4 -4.80206 30.658 17.456 0.378357 -1.99076 -0.118573 -6.50885 5.80846 -21.7442
3327 4 12.9172 9.18733 17.8379 1.38193 1.08386 0.909678 -26.9819 -24.4506 15.0938
3328 4 9.15615 10.1212 17.563 -1.61771 -2.16634 -0.500652 -0.664383 -7.25635 5.89345
3329 4 6.90695 13.4324 17.3309 0.0983602 0.0200297 1.72411 19.8316 -15.068 -8.16001
3330 4 1.39935 27.5831 17.4583 3.67225 0.175335 0.226581 -1.10293 -6.38085 -21.9057
3331 4 -1.64076 29.8717 17.2992 0.585479 4.89261 1.5148 -11.6085 -20.5739 20.6277
3332 4 18.0288 3.17518 15.6724 2.20431 -0.971723 0.586358 8.93213 14.3107 8.09454
3333 4 14.6191 7.61648 16.6911 2.09916 -0.645745 -0.279387 -11.7023 -27.8302 23.7157
3334 4 11.6241 13.9118 17.0166 -0.436798 1.3316 0.90273 16.5769 -9.3043 -15.4586
3335 4 8.49582 15.7241 17.9667 0.550856 -0.615474 1.58917 -11.6498 -17.9011 0.341764
3336 4 6.39978 16.8508 15.5011 2.21424 -2.24655 1.89463 -11.5801 -17.7824 -7.78025
3337 4 0.965546 30.0262 16.934 2.91403 -1.36508 -0.00262973 -11.4503 13.649 -19.4354
3338 4 -0.610696 32.2873 17.2659 0.621781 1.0511 -0.941419 -21.2801 -6.74189 -9.74765
3339 4 21.3126 3.13389 16.7877 1.39141 0.660529 -1.34956 -10.3229 -24.6845 21.4769
3340 4 17.3544 7.91039 17.1627 0.638685 2.31436 -1.56689 -18.8395 11.15 21.2753
3341 4 16.2148 9.52674 15.3438 -3.16294 -1.78429 -1.34921 3.48736 7.72808 -18.0989
3342 4 12.6022 16.5373 15.5409 -0.537688 -2.85676 -1.20767 17.1162 -14.0946 9.1639
3343 4 3.58582 21.6822 14.8462 -2.43457 -4.48199 2.93435 -0.423581 -3.47194 -4.95771
3344 4 6.87332 20.7401 14.0277 3.21797 3.86453 2.55622 -1.40196 0.371413 2.80647
3345 4 4.86304 26.8254 14.8402 -2.19177 -5.41356 6.47693 -1.95434 -1.8356 2.63022
3346 4 4.69848 28.5022 17.754 0.424652 12.1661 -4.8024 -0.952795 -0.130983 -2.23996
3347 4 2.95083 31.6505 17.0258 -0.834323 1.74266 1.82606 10.687 17.2654 -23.8185
3348 4 19.9444 6.87378 17.0382 -0.556172 1.35354 -0.42194 16.2454 1.53208 -16.2399
3349 4 16.212 18.435 18.1946 -3.06418 -6.47002 3.15247 -2.19429 1.69848 2.30168
3350 4 14.0873 18.8796 15.1244 3.75739 -1.81282 5.86878 0.0374792 -2.64194 1.06336
3351 4 7.29034 26.1429 15.0236 -4.98135 3.38189 -5.17049 -2.63438 1.71791 0.22162
3352 4 26.6151 0.135947 16.8914 -2.9804 0.85656 -2.22663 -2.74345 16.3602 -24.632
3353 4 23.7566 0.25323 17.2137 -1.23943 0.904022 2.11229 -14.2487 -9.19263 18.1365
3354 4 25.6978 2.58537 17.2045 0.620584 1.37744 -0.795939 18.9088 9.63753 -11.4137
3355 4 23.3065 6.93221 17.1075 0.174984 -0.728453 -0.0117536 18.8451 -8.35376 21.7273
3356 4 22.3171 9.6425 15.9812 2.04627 -0.877088 -0.522981 9.62287 -6.9004 1.61507
3357 4 19.0014 14.5533 16.5022 -0.833809 -0.747157 -2.50395 11.5816 -25.6893 7.4688
3358 4 17.454 16.7877 16.9842 -0.20581 -0.833909 -0.29763 15.5581 -17.2501 -14.4941
3359 4 29.1565 0.65543 16.7652 3.88899 1.89933 -6.02808 18.9443 -1.6654 8.23382
3360 4 20.119 16.8129 16.6352 -0.481362 -0.422126 -0.459412 8.83401 -9.84851 7.22156
3361 4 18.5711 19.1977 17.1327 -2.02857 0.814249 0.890522 24.3067 -12.9315 0.610483
3362 4 15.7738 26.8444 16.7274 -4.19328 -2.6942 -5.20577 2.52187 3.63904 -3.45334
3363 4 14.1781 31.1801 16.5284 3.69137 0.314504 0.593506 0.299928 20.9223 -26.628
3364 4 30.6985 4.4831 16.8766 0.568234 -1.40638 -0.773282 -8.69678 18.6037 -27.8081
3365 4 28.9819 7.8846 16.8007 -1.29314 -1.30404 -1.77197 17.0739 -11.1704 -3.93337
3366 4 24.8871 15.2268 15.7924 -0.0178865 1.88701 -2.28473 -23.739 24.3285 6.40322
3367 4 18.1173 26.5832 17.0526 -0.0896008 0.307405 2.02968 0.81605 18.2347 -4.63424
3368 4 16.5987 29.7571 15.8004 -7.76724 -3.29196 -1.92685 24.2849 -12.6346 -19.4428
3369 4 33.8506 1.48797 16.651 0.0678722 -0.71762 -1.09014 -5.24517 -11.5689 23.3083
3370 4 33.2883 4.61219 16.2172 1.48616 -2.49751 -0.377147 21.7154 7.33142 -23.6047
3371 4 31.9026 7.17749 16.5623 -0.110354 -2.87868 1.42805 -1.38296 22.6251 23.7702
3372 4 27.8877 14.9125 17.5794 -3.64003 0.641039 -2.38493 -19.6418 8.20565 8.18741
3373 4 25.9253 18.051 15.7728 -2.18567 -1.49884 0.246379 7.6138 21.7221 17.3445
3374 4 20.4279 28.0786 16.7866 0.125666 0.332495 1.41597 26.2009 21.5431 -21.7055
3375 4 -8.10853 17.8191 15.3171 3.13938 -0.024866 -0.460442 19.4932 6.27504 -2.06042
3376 4 -11.9838 22.5443 16.001 0.634373 -0.715706 1.39829 -10.2233 7.42493 -3.97577
3377 4 -12.9577 25.9751 18.0298 0.32755 -0.371143 -0.399089 0.0582595 0.625642 0.354496
3378 4 -13.7468 27.9625 16.5289 -0.81304 -1.84071 1.56884 -4.5174 -24.5393 10.8006
3379 4 -15.3347 31.3666 15.2338 0.809651 -0.684813 -2.03639 17.2359 1.93842 -18.0829
3380 4 -0.420937 11.7413 18.8019 -0.75359 -0.287664 -0.580955 -0.423345 0.509287 0.0356039
3381 4 -2.94752 16.5692 19.4125 -0.131221 -0.0917457 0.143115 0.195365 0.0365752 0.593514
3382 4 -8.55217 27.1551 17.8852 -1.258 1.31117 -0.832557 -24.1656 -23.9974 9.46493
3383 4 -9.96159 29.3389 18.9411 0.489368 -2.09447 -2.20761 -0.33915 -0.280857 0.279378
3384 4 -12.3129 32.1695 17.8028 -2.52722 -1.36197 0.894687 -5.49326 13.0784 -1.3759
3385 4 4.36236 8.90225 18.9588 0.0374762 -0.0184221 -0.574399 0.0423944 -0.109176 -0.588217
3386 4 1.36443 8.28794 17.7426 1.14027 2.03062 -0.61066 -0.229107 -24.8124 2.37642
3387 4 3.18778 12.2153 18.7788 0.00075905 -0.371087 -0.178169 -0.490711 0.510716 -0.227921
3388 4 -2.89441 19.44 17.8722 -0.313653 1.60187 -0.413295 19.2594 -15.6188 -4.06425
3389 4 -2.72564 22.1525 19.8334 -0.258608 -0.224908 0.11706 0.84468 0.199155 0.670731
3390 4 -4.45187 24.3023 20.0116 0.120354 0.520054 -0.153338 0.0890825 -0.0705145 -0.325082
3391 4 9.01355 4.54999 19.4483 0.113778 0.153305 0.20005 -0.0232833 0.0304938 -0.000856489
3392 4 0.145082 18.7727 18.7446 1.22458 0.505016 -2.48071 0.0920493 -1.5211 0.568312
3393 4 -1.91031 24.7129 19.3639 0.69676 0.368893 -0.192789 -0.0683451 -0.227968 0.0139367
3394 4 -4.90651 26.9529 19.3158 -0.448463 0.188931 0.0196449 0.285832 -0.320473 -0.129017
3395 4 13.2087 3.94331 18.4017 0.124246 0.231264 -0.499384 0.463684 0.326687 0.17619
3396 4 9.83534 6.62166 18.2473 -0.49404 -0.478114 0.247278 -0.287969 0.0276899 0.139596
3397 4 4.03035 19.3999 20.0586 0.403225 1.14671 0.444481 -0.380502 1.02177 -0.93981
3398 4 0.577261 20.8587 19.7876 -1.39771 -0.801507 0.579192 1.25929 1.41045 -0.812819
3399 4 -0.809934 27.0298 19.7631 0.432095 0.206803 2.09185 0.223131 -0.270842 -0.768868
3400 4 -3.26932 29.1085 19.6061 -2.28148 2.95067 2.24798 0.1981 -0.692363 -0.545257
3401 4 14.6572 5.94537 19.462 0.314577 -0.645925 0.101151 0.151953 0.178565 -0.671432
3402 4 9.05349 11.0967 20.434 0.397673 -0.299255 0.599621 -0.15569 0.1778 -0.228846
3403 4 8.90512 13.2595 19.2437 -0.0507003 -0.925992 0.359738 -0.036163 -0.107772 -0.308306
3404 4 5.01794 19.4237 15.363 -5.54076 -10.825 -5.84927 2.5053 -2.89666 0.760836
3405 4 1.79969 21.5852 16.3828 -1.6743 1.9655 2.24213 11.9046 -22.2987 -16.453
3406 4 16.624 7.1185 20.5933 0.0849202 0.0559577 0.419075 0.0283501 -0.454232 -0.274606
3407 4 15.2504 8.97663 19.1763 0.184858 -0.630428 0.0457627 -0.831465 -0.358056 0.558009
3408 4 11.8143 15.5987 19.6873 -2.08592 1.39704 -0.843829 -0.131281 7.65785 2.40887
3409 4 9.91579 18.1756 11.9831 1.31063 0.263074 1.03733 -12.8463 21.9547 0.580953
3410 4 5.63093 22.949 17.7437 -5.42785 -2.0213 -4.23301 2.24991 -0.790521 -3.40645
3411 4 3.84512 25.3549 18.7954 -3.51772 -2.6668 0.998255 -5.5558 -3.48556 0.732415
3412 4 1.83983 31.2321 19.2314 -0.814462 -1.21283 0.560736 -0.482306 0.406968 0.280516
3413 4 17.8799 3.19011 19.2696 3.68103 2.73602 -2.155 -0.75147 -0.595296 0.639811
3414 4 17.7707 9.53116 19.3595 -0.0618303 -0.36441 0.698378 -0.0515853 0.645462 -0.0168726
3415 4 15.7569 11.9228 18.6071 -1.66197 -0.16533 0.864306 0.938049 0.5282 0.0678087
3416 4 14.2311 18.9844 19.4768 7.25673 -0.464331 8.33113 -6.14754 -7.82612 6.44552
3417 4 7.90941 29.5391 16.3688 -12.6901 2.4012 -1.03792 -3.49077 2.82796 -0.637363
3418 4 21.2992 6.71109 19.2065 0.257014 -3.14919 2.66941 0.0353898 -0.525013 0.252515
3419 4 19.9255 9.75654 17.7282 -1.51586 -0.510557 -0.552333 16.3665 2.0138 9.19401
3420 4 17.0861 15.351 19.302 -5.99338 3.37247 4.08231 0.440496 -0.242603 -0.537724
3421 4 14.7248 23.9477 12.3576 4.05618 -0.277467 -1.47952 3.80497 3.09308 -1.94134
3422 4 5.92581 29.2275 14.731 7.76631 -10.0063 -0.838262 -0.259136 -1.06535 1.92575
3423 4 23.4083 2.03048 19.5613 -0.398637 -0.156434 -0.0180796 0.183177 -0.386694 1.54298
3424 4 26.3896 4.57827 19.3 -0.848406 1.32421 1.80044 0.219716 -0.329089 -0.394589
3425 4 25.469 7.02063 19 -0.589948 1.21028 -1.4567 -0.108732 0.383163 0.118046
3426 4 23.483 9.29762 18.465 0.474101 -2.03782 -3.32569 0.437241 0.177245 0.127345
3427 4 20.2014 17.4695 19.1181 0.269807 -0.33725 0.151953 -0.581391 0.19905 1.35512
3428 4 8.83509 27.4685 12.0661 -7.30132 5.00264 1.31208 0.681621 -0.988932 2.93908
3429 4 13.1745 31.0109 18.9752 -2.97836 -0.641817 -7.47851 -0.714022 1.62239 -0.100569
3430 4 27.739 1.80743 18.838 1.70268 -4.44915 -0.979263 0.632645 3.76027 -2.10447
3431 4 28.8744 4.67788 18.9599 -0.490449 0.0557468 0.5234 0.0664548 -0.554949 -0.515204
3432 4 26.1847 9.53549 18.443 -0.615476 0.794925 -0.709175 0.611262 -0.850718 0.832962
3433 4 23.7397 12.085 18.9566 -0.885158 -1.09922 -0.66862 0.354317 -0.146073 0.633399
3434 4 17.9178 27.0476 19.9059 -1.42879 -3.21903 -1.22972 -3.57302 -3.70781 -5.8242
3435 4 6.22543 31.7002 15.1895 -2.4031 -0.278678 1.56772 4.22843 13.5403 -14.3086
3436 4 31.0898 6.11198 18.9988 -0.0466768 0.107394 0.404137 -0.00990045 -0.321669 0.204742
3437 4 25.6412 13.7855 18.9622 -2.52594 0.122014 0.711694 0.54177 0.110542 -0.00614
3438 4 24.3932 16.7779 17.8896 2.09885 2.0606 0.473713 1.05158 -10.3703 8.17406
3439 4 20.1683 26.203 18.6977 -0.597093 0.00021224 -0.0548081 2.08792 0.000610942 0.238867
3440 4 17.7873 29.2825 18.03 -0.149272 -0.157918 -0.77224 -1.58943 -1.37259 -0.474116
3441 4 -3.30259 7.01007 18.7738 0.198996 -0.622297 -0.577839 -0.399513 0.660963 1.04841
3442 4 30.0667 9.55827 18.2118 -0.242119 0.396818 -0.18389 0.30378 0.634129 0.709987
3443 4 -9.49587 17.358 18.4078 -3.09318 -0.274525 1.02121 0.129319 -0.0832461 0.311954
3444 4 24.11 21.1648 17.6482 -1.64629 -0.46095 -1.13907 24.5449 10.8408 -4.97966
3445 4 -13.4688 24.0045 19.741 -0.972499 0.0957162 0.133618 1.12345 0.0404014 0.151219
3446 4 -10.15 21.3545 18.4294 0.802167 0.284566 -0.541038 -0.425784 -0.34963 0.271115
3447 4 -10.1048 24.4331 19.5022 -5.6248 -1.61898 -0.0371817 1.41304 0.701454 -0.227745
3448 4 -13.9834 30.1519 18.2175 0.426483 0.0702901 0.10932 -0.564885 -0.823124 0.369049
3449 4 5.10876 3.96842 19.4507 -0.678158 4.78632 -2.30682 -0.0486099 0.511149 -0.139377
3450 4 3.12454 6.3689 19.8277 -1.54301 2.94678 0.209688 0.501809 -0.216326 0.103109
3451 4 -0.983526 13.1823 21.1017 -0.653362 0.134911 -0.376637 -0.0433942 -0.126422 0.0701474
3452 4 -2.04608 15.9737 21.7539 0.273774 0.673299 0.021369 -0.129014 -0.0119491 0.0175369
3453 4 -3.90114 18.95 20.29 0.483683 -0.208062 -0.910568 0.209282 -0.139049 -0.482047
3454 4 -11.6214 31.1649 20.7099 -0.0461226 0.260321 -1.12132 -0.171951 -0.0802417 0.22231
3455 4 5.81887 8.95006 21.2771 0.453074 -0.128695 -0.598874 -0.194544 -0.0216172 0.0291538
3456 4 5.05687 11.052 20.1667 0.326114 0.0917933 -0.302791 0.0821778 0.0622291 -0.190367
3457 4 1.50639 13.4331 21.5239 -1.12183 -0.578151 -2.56859 -0.185893 -0.235234 0.126307
3458 4 -6.20459 26.1303 21.3227 -0.991931 0.766248 0.188791 0.774624 -0.29335 -0.0611412
3459 4 9.96627 3.354 22.4319 -0.840865 0.442721 1.1761 0.163143 -0.0657845 -0.21971
3460 4 5.88253 13.6885 21.1412 -0.021349 -0.150203 0.186414 -0.171209 0.499356 -0.506099
3461 4 -2.10131 26.6332 21.9709 1.31679 2.37091 2.69094 -0.288265 0.0217194 -0.407626
3462 4 14.4941 3.70359 20.6676 -0.405379 -0.397358 -0.108041 0.127889 0.149679 0.108077
3463 4 11.2225 6.1612 20.6277 -0.245145 -0.331127 -0.154898 0.126564 0.192792 0.0198463
3464 4 2.56469 20.0867 23.1961 4.91576 0.652973 0.585667 7.04147 5.0192 -1.6378
3465 4 1.23033 22.7747 21.2471 -0.7189 2.42003 -1.80767 -5.53508 1.85948 1.32595
3466 4 11.997 10.5957 21.7123 -0.186555 -0.180097 -0.297797 0.239194 -0.0393447 0.161656
3467 4 10.4383 13.0691 21.9269 0.707092 0.343044 -0.0199555 0.116214 -0.23252 -0.0221255
3468 4 3.0924 22.4508 17.9185 5.64404 -8.02229 10.9573 6.43557 2.60312 2.10791
3469 4 1.3411 24.0902 19.2097 4.34018 -0.090088 2.08584 -2.23913 3.79499 8.00937
3470 4 2.22152 27.6863 20.3961 3.00218 -1.33875 -2.30249 1.14246 2.34872 -2.85409
3471 4 0.158923 30.3847 21.3104 -0.0208497 -0.405191 -0.460126 -0.608139 -0.192931 -0.0827153
3472 4 17.5181 1.03152 20.7522 -0.0441543 1.23806 -0.897823 -0.134259 -0.309057 -0.0196489
3473 4 18.653 3.57041 22.0146 0.0235843 -0.457708 -0.0774365 0.147787 0.0331141 0.118448
3474 4 13.4711 12.5707 19.763 -3.34913 -0.832496 0.399638 1.24261 -0.0516429 -0.0611294
3475 4 5.89897 16.3709 19.512 -2.91802 7.92339 0.573956 0.136187 -1.28153 -4.40067
3476 4 3.75749 30.2089 20.3986 1.63018 2.07062 0.467801 -1.80445 -2.92015 2.19347
3477 4 20.5683 1.75362 22.2736 0.347457 -1.05852 0.859284 -0.122437 -0.183637 -0.256649
3478 4 16.7034 13.4344 21.0628 1.54751 -0.535439 3.06494 -0.159536 0.25319 -0.22668
3479 4 14.5115 16.2369 21.5931 0.325167 1.78491 -3.85793 0.346781 0.731332 4.38749
3480 4 24.8763 3.63954 22.2265 -0.030558 -1.1287 -0.437889 -0.295647 -0.315309 0.518517
3481 4 23.1016 6.21779 21.3009 -0.27873 -0.589844 0.0744308 0.122856 -0.0547946 0.0945933
3482 4 21.6189 8.67667 20.9581 -1.67833 -1.30097 0.192817 -0.0752794 0.0930024 0.166444
3483 4 19.0911 15.6751 21.2628 0.274911 0.938955 4.08189 -0.434104 -0.387481 -0.369358
3484 4 26.0293 1.1665 22.1193 -0.826431 -1.58556 1.24548 -0.253388 -0.0244927 0.608806
3485 4 27.6445 3.53126 21.8479 -0.0858477 -0.781002 1.21685 -0.217657 0.654738 -0.194693
3486 4 25.084 8.02089 21.7236 -3.87451 0.192232 -1.36913 0.772 0.0589561 -0.104046
3487 4 23.5516 11.8503 21.9098 -0.122899 0.190159 -0.27467 0.00911108 -0.0803117 0.0757979
3488 4 21.2603 15.0034 20.2128 0.799605 -0.179414 -1.50815 0.1342 -0.190968 -0.114948
3489 4 20.0447 17.9384 21.9895 0.0845992 1.19203 0.476986 -0.0174626 0.0684508 0.152015
3490 4 16.0649 21.7555 17.1654 -2.4952 0.480718 -6.25373 2.48653 -0.213714 -2.15738
3491 4 30.0552 0.427134 20.5509 -1.54513 -5.43012 0.300887 10.1537 8.96441 -6.39277
3492 4 26.3701 11.3123 20.6378 -0.708555 0.511828 -0.60972 -0.26168 -0.294318 0.150224
3493 4 21.5295 20.2274 22.1465 0.243129 0.0491985 -0.276906 -0.451268 0.126982 0.657644
3494 4 18.8264 25.0178 21.1332 0.713105 12.5935 -0.331472 -2.26375 -4.28308 0.37316
3495 4 32.2049 6.22922 21.3848 0.44803 0.47145 -0.283889 -0.139258 -0.240277 0.112245
3496 4 23.3443 19.9456 19.8471 0.0776917 0.0337027 0.0520226 0.237592 0.0775299 -0.451929
3497 4 21.4046 23.4873 19.4574 2.20951 1.03859 0.516663 1.93299 0.0593488 -0.494894
3498 4 17.8166 30.827 20.5573 1.90642 1.25022 -3.49539 -4.96894 -2.27825 2.44814
3499 4 34.5288 0.642802 22.0223 -0.247929 2.23145 -0.713494 -0.20524 -3.1849 -0.180266
3500 4 -1.75499 6.24152 20.6665 -0.0992238 0.22892 -0.226438 0.0112457 0.0307329 0.0749882
3501 4 -3.26312 8.63465 20.838 -0.119969 -0.303228 0.183981 0.00439669 -0.322806 -0.308032
3502 4 -10.7415 19.7651 20.2216 0.374769 0.234305 0.431297 -0.0650163 -0.449337 0.150346
3503 4 -12.5114 22.5235 21.6764 -2.21567 -0.498209 0.485612 -0.104265 -0.381148 0.35218
3504 4 -15.2342 31.6049 21.616 0.306924 0.98698 0.16215 -0.322515 -0.43504 -0.062609
3505 4 -0.236257 1.97356 18.9548 0.322034 -0.243821 0.506349 -0.00493689 0.0155636 -0.337079
3506 4 1.64371 2.951 20.7528 5.19384 6.07925 9.52855 -1.32848 -1.25404 -1.89575
3507 4 -5.54313 15.6659 19.7774 3.99696 -2.32523 -2.10098 0.792034 -0.487826 -0.0195265
3508 4 -8.61275 22.7153 20.6061 -0.223169 0.490751 -1.15179 0.00638198 0.0680486 0.0594688
3509 4 3.72177 1.57989 20.1261 -0.761391 0.931441 -0.904381 -1.24987 -0.305188 0.107877
3510 4 4.5637 2.20276 23.4093 -0.160023 0.124303 -0.638543 -0.047985 -0.00125881 0.0587372
3511 4 1.29197 5.0658 24.2506 -4.031 -4.31974 7.91665 0.104492 -0.412675 0.193267
3512 4 -4.55945 15.4699 24.755 -0.005499 0.021046 0.0257819 0.0268953 -0.0436736 -0.0315548
3513 4 -6.49517 17.9856 24.408 -0.145283 0.103475 0.122056 0.129355 0.0027379 -0.0552521
3514 4 -8.50252 21.8949 23.7408 0.206396 -0.440941 0.485133 -0.129508 0.234234 -0.105656
3515 4 -9.55028 24.3967 23.9376 -5.72458 -2.92956 1.50173 0.412388 0.66008 -0.148338
3516 4 5.13616 4.41415 24.5284 2.89269 -1.91707 0.744191 -0.263699 0.0776595 -0.116717
3517 4 -0.860725 15.3004 24.6978 0.00498496 -0.164191 -0.177763 -0.0513262 0.0203084 -0.0538605
3518 4 -2.61307 17.1036 24.0143 -0.103418 0.0902474 0.118858 0.0697014 0.0755478 -0.0439825
3519 4 -4.30647 19.319 23.7073 -0.521214 -0.276618 -0.417776 0.0869592 0.0703474 0.133722
3520 4 -6.14619 25.714 24.1826 0.109187 0.310933 0.0517244 0.0839796 0.112371 -0.0666603
3521 4 -8.28974 27.1239 24.6779 -0.0530584 -0.261584 0.140936 0.0422785 0.154264 -0.112903
3522 4 7.30063 7.79487 24.0337 0.395545 -0.209312 0.193371 -0.137177 0.0788107 -0.092018
3523 4 3.20939 11.2504 23.8663 -0.307625 0.139966 -0.258286 0.174998 0.188585 0.0745664
3524 4 2.64116 13.4793 24.7064 1.55061 1.09934 3.88381 -0.134851 -0.693364 0.140291
3525 4 -5.1475 28.4985 23.7672 -0.00266287 -0.430585 -0.351968 0.120718 -0.0588243 -0.0747084
3526 4 -7.23925 29.6468 25.9822 -3.59283 -2.17958 2.08949 -1.60765 -1.1043 0.780424
3527 4 -8.82047 31.8636 23.5722 -0.147963 -0.246615 -0.159165 -0.0366022 -0.00669035 0.137176
3528 4 11.5169 2.57024 24.2857 0.0124316 0.00256579 0.111469 0.10395 -0.0308109 -0.0181171
3529 4 5.24564 14.4906 23.4781 0.0649343 -1.66416 -1.16078 1.28899 -2.43626 1.31972
3530 4 -3.51676 30.1195 22.3863 0.0401589 0.0486195 -0.259997 -0.183627 0.172525 0.206733
3531 4 -3.80643 32.2862 23.8342 0.0204322 -0.0272326 -0.0973763 0.0723155 -0.146167 0.0107095
3532 4 1.43597 24.4218 24.3674 3.05836 -6.73807 5.64045 -9.65031 -13.9178 -0.32698
3533 4 18.1258 2.57208 24.6974 -0.134601 0.243624 0.0818196 0.0906198 -0.432073 -0.164644
3534 4 11.6616 12.2098 23.9696 -0.143441 0.849999 -1.29401 -0.0589325 -0.30402 0.0482769
3535 4 2.15872 26.4371 22.5832 -2.83472 4.13333 0.904067 3.04044 1.73766 2.84989
3536 4 5.66745 32.1826 23.5646 4.52402 1.23408 -0.518076 -1.39695 6.7288 -3.36244
3537 4 1.39122 30.6885 23.4876 -3.8001 2.57091 1.33858 1.2585 0.165174 1.00706
3538 4 18.6533 0.433968 23.533 -0.271165 0.0397738 -0.46813 -0.167266 0.410962 0.0937927
3539 4 13.2093 15.0796 23.9463 -1.45718 -5.2451 3.21637 1.33954 -2.36338 1.73283
3540 4 12.1095 17.8999 18.226 -10.7423 -1.109 5.88939 3.01531 -0.783838 4.2721
3541 4 3.43079 29.5716 23.9092 0.682127 -4.76534 -0.786744 0.814489 -2.05249 -0.290629
3542 4 21.3579 6.01271 23.7103 0.0414154 0.243308 0.00988377 -0.0616132 -0.124499 -0.0381553
3543 4 15.7448 15.1489 23.9252 0.182432 -0.599986 -0.674164 -1.19662 1.37303 0.319553
3544 4 16.8141 19.6623 20.5768 -3.86485 2.59895 -3.84441 0.76873 -5.31747 1.5845
3545 4 15.3007 18.1662 12.3385 0.991547 1.53347 1.32531 -6.37796 11.4745 2.15667
3546 4 13.2404 28.3398 17.4575 -4.74901 6.22108 7.36334 13.4275 10.335 -9.5101
3547 4 23.7188 7.41402 23.9386 -2.0028 1.7309 -0.121121 1.29571 -0.994911 0.187097
3548 4 18.1592 14.3244 24.48 -1.65671 0.555868 -3.72386 1.35109 -0.377745 0.914474
3549 4 18.7017 21.3174 19.8497 3.31178 0.700513 -4.19607 -9.13377 5.89624 -2.49401
3550 4 16.0671 31.4131 18.4452 -0.232754 -3.52131 -1.52756 0.939033 3.542 -3.81029
3551 4 16.0066 30.4368 22.2102 -11.8199 0.786007 -1.62924 -4.69425 -1.13425 3.42287
3552 4 9.99558 28.5856 16.7696 -5.46381 2.78765 -16.2911 6.76902 0.418393 -5.74927
3553 4 27.6789 2.32562 24.2074 -0.271802 0.193126 1.31404 1.6818 2.6356 -1.01652
3554 4 24.5512 10.5635 23.8723 -1.14764 -0.0643479 0.0140422 -0.120695 -0.0588198 0.136245
3555 4 19.5949 19.3434 23.9675 -0.229203 -1.8578 0.67636 1.24477 0.0549113 -0.172396
3556 4 19.7799 21.7962 23.3733 -4.86375 1.88596 1.23497 -0.647613 1.32836 0.33766
3557 4 18.105 27.0228 24.0208 -0.164517 -1.45834 -11.9408 -4.47333 0.146429 -7.24205
3558 4 30.3343 0.56794 23.1779 -3.48192 -1.8575 -6.85294 3.78854 3.13299 4.5849
3559 4 30.9622 2.94475 23.9615 -5.16593 -4.57703 1.13088 -1.66419 -7.69794 -1.88641
3560 4 31.2723 5.41919 23.876 0.0583429 1.62207 0.174819 0.349921 0.90859 0.153959
3561 4 27.087 9.99874 23.9103 -3.29067 -2.70217 3.43291 -0.360869 -0.221461 0.299486
3562 4 27.3525 12.8909 23.2144 0.00785628 -0.685221 -0.365954 -0.0199971 0.101464 0.144061
3563 4 21.838 22.7878 24.2306 0.58842 0.557884 -0.121215 -1.08708 -0.81036 -0.245028
3564 4 33.3949 1.05404 24.3039 0.420107 -0.201633 -0.0884734 -1.42776 -1.52104 0.780995
3565 4 34.4112 4.46981 23.6566 -0.985791 -2.74763 2.48396 -0.0822862 -0.400155 0.231543
3566 4 30.3361 7.87168 24.0603 0.145771 -0.397518 0.0321032 0.146893 0.197332 0.184246
3567 4 30.0281 12.4214 24.5012 -0.156134 -0.0197382 0.316704 0.0756463 0.0465074 -0.0759986
3568 4 19.2273 31.0744 22.8705 -1.68431 -1.51198 -1.80261 -0.830456 1.05296 0.471763
3569 4 -0.781164 1.67287 24.286 -2.23567 0.393893 -0.982554 -0.0369288 -0.190601 -0.128928
3570 4 1.37566 2.75072 23.8385 0.216426 -1.42397 -1.08488 0.095799 -0.118846 -0.00296446
3571 4 -2.25506 6.94736 23.6466 0.493329 -2.5928 -2.36133 -0.0407793 -0.38051 -0.485592
3572 4 -6.91595 15.7204 23.07 -0.00901432 0.115316 0.239625 -0.00580264 -0.0191273 -0.0250148
3573 4 -15.7615 30.4226 24.1549 -0.621914 1.03034 0.0657896 -0.149847 -0.138061 -0.217304
3574 4 2.86175 0.72543 24.1682 0.565975 0.639707 0.418251 -0.00480266 -0.000906553 -0.0195249
3575 4 0.882736 10.1655 25.906 -0.380837 0.357425 0.00158036 0.114894 -0.188567 -0.0334313
3576 4 -0.732433 11.9776 25.3468 -0.284053 -0.014872 -0.48029 0.0931378 -0.0325956 0.186001
3577 4 -7.1384 20.9071 25.8649 0.309593 -0.0608272 0.258142 -0.14605 0.125561 -0.0771875
3578 4 -8.98295 24.8962 26.431 0.0562709 0.101607 -0.0727719 -0.000348105 0.149904 -0.03137
3579 4 7.15647 2.95355 25.4112 3.57668 -2.08565 0.147713 -0.241165 0.392838 0.139443
3580 4 4.63506 6.47449 25.9728 -2.16356 2.2183 -7.75416 0.431147 -0.348221 0.806413
3581 4 -2.84675 18.6464 26 -0.435076 0.10829 -0.0186287 0.138728 -0.0418794 0.0128955
3582 4 -4.27698 22.4105 26.1181 -0.139042 0.201362 -1.21115 -0.205107 -0.042393 0.188368
3583 4 -6.71518 23.427 25.1724 -0.856074 0.587778 0.364479 0.0424334 0.129342 0.065391
3584 4 -10.196 31.7026 27.0128 0.048579 -0.171818 0.1345 -0.0896941 -0.0673769 -0.106495
3585 4 8.66547 1.99548 26.9641 1.61261 -1.08832 2.06342 -0.152826 0.111254 -0.212182
3586 4 8.65762 8.10313 26.1458 0.331554 -0.0209702 0.107421 -0.125549 0.185242 0.0140238
3587 4 1.40315 12.6006 26.862 -0.568758 0.174043 -0.708591 -0.0645543 0.198242 -0.450873
3588 4 0.409293 18.661 25.348 -2.22709 -0.620948 -1.11887 0.623347 0.134449 0.0313506
3589 4 -1.67129 22.813 24.8603 -1.36489 -7.67334 -1.76097 -3.31825 2.8433 0.112752
3590 4 -2.90551 24.4475 27.1046 -0.24827 -0.0904568 -0.125799 0.165133 -0.185462 -0.00358255
3591 4 -5.87335 31.9559 26.4005 -0.297688 -0.540646 -0.21617 -0.260115 -0.503789 -0.439257
3592 4 10.3248 0.592683 25.7447 0.262362 -0.329998 -0.311325 -0.0645617 0.0714458 0.0888177
3593 4 5.77114 13.5243 26.0159 0.421104 0.478457 -0.349515 0.612842 0.953 -0.255193
3594 4 3.42338 15.9382 25.1046 -4.74205 -1.24471 -0.259779 3.69811 -2.34703 2.46781
3595 4 2.71819 18.3184 26.5159 1.69211 3.11684 -1.8286 1.97161 0.189365 -3.43297
3596 4 0.636375 22.0528 25.1228 -1.21466 6.52566 -1.1194 -3.77596 -3.17451 -0.304824
3597 4 -0.719555 25.6356 25.889 0.350163 0.651275 0.114607 0.126119 -0.665609 -0.185137
3598 4 13.9921 2.33393 25.1716 -0.102749 0.041341 0.28104 0.0521504 -0.0869814 -0.0862564
3599 4 14.3072 4.40204 26.6499 -0.0777448 0.145201 0.253133 0.0131018 -0.0265815 -0.0325935
3600 4 11.1288 8.57662 25.7643 0.0940457 -0.253841 0.072242 -0.0872023 0.241601 0.165466
3601 4 7.51282 15.3575 25.5121 -0.941615 -1.0484 0.912048 -0.0303342 -3.95255 3.32869
3602 4 3.77001 22.1278 22.3283 -3.61843 0.67923 3.75367 1.04481 0.10388 -1.11175
3603 4 0.642912 29.0258 25.3894 1.49389 -2.05821 0.828116 0.72221 -0.201118 -0.243773
3604 4 16.3208 1.61092 26.2856 0.0785951 0.0973392 -0.102379 0.0902753 -0.0224236 0.110569
3605 4 14.9481 8.21624 26.29 0.378209 0.10556 0.022501 -0.139459 -0.0987315 0.0444023
3606 4 13.3517 11.2135 25.4826 0.455257 -0.446651 0.65574 -0.0300276 0.133728 0.018508
3607 4 8.8 20.4678 16.4791 -0.125423 -3.16813 -6.32813 1.10862 -0.116134 -1.2979
3608 4 17.9794 5.70614 26.777 -0.371464 0.223394 0.213375 0.16828 -0.0592021 -0.0641692
3609 4 17.0556 8.82688 25.3372 0.177208 0.1686 -0.385964 -0.0211303 -0.0615383 0.181623
3610 4 14.7879 13.8518 25.8446 0.464689 1.27206 0.201697 -0.551692 0.341474 0.411463
3611 4 11.9188 17.4509 25.8727 1.19931 -0.309664 -14.3604 -2.3221 -1.72025 -0.611446
3612 4 7.277 26.0228 17.89 0.614266 -1.50701 -0.586353 0.810795 4.29528 0.924594
3613 4 7.10011 30.4781 21.0911 7.33494 -4.84194 -2.65628 -5.36552 1.42631 1.01445
3614 4 20.4703 5.31137 25.9884 -0.353802 0.255224 -0.243866 0.157394 -0.0672096 0.0538229
3615 4 20.2867 10.1007 27.3284 0.0581145 0.376422 -0.0975584 -0.0112661 -0.114598 0.0521204
3616 4 17.1124 12.5551 26.4636 0.137734 -0.224107 -0.0198375 0.0646189 0.0114674 0.126615
3617 4 18.3906 24.3708 23.3445 0.730994 3.60858 2.9158 2.89596 1.99162 1.46275
3618 4 11.6406 26.621 16.0944 -3.18088 -5.68308 5.98947 -0.475515 -0.637457 2.3527
3619 4 8.36547 31.6123 25.2859 13.6741 -16.9451 2.97234 0.844702 0.33885 -1.89073
3620 4 25.145 2.20792 25.925 -2.40498 2.98324 -0.382437 -0.255604 0.313602 0.392189
3621 4 26.526 4.20451 25.8377 0.777823 -0.921835 1.12733 -0.135759 0.454735 -0.899585
3622 4 19.2682 16.3785 26.0702 0.263473 -0.936983 -0.182902 0.180664 0.127971 -0.182997
3623 4 17.3792 28.2399 27.4783 -2.74908 7.74505 1.25054 2.13454 5.68029 -9.58456
3624 4 21.6732 16.5771 25.1684 -0.230477 -0.126709 -0.105703 -0.022948 0.138496 0.0933681
3625 4 19.6259 21.2777 25.6752 -0.704522 -0.272148 0.475431 1.53629 0.0750148 -0.290044
3626 4 19.1504 25.4663 25.7571 -0.25942 -0.989668 0.0517922 -2.09009 2.95099 5.03772
3627 4 29.6265 2.42489 26.1994 0.0112654 -1.00422 -1.21164 0.0479071 2.13736 0.187
3628 4 32.2533 3.53351 26.2034 0.209341 0.362748 0.108613 0.407785 -0.000716938 0.763027
3629 4 28.8553 10.2548 25.8509 -0.129188 -0.247529 0.0493798 0.103115 0.153295 -0.0901264
3630 4 26.7347 13.8775 25.3639 0.135072 -0.309291 -0.606181 -0.032239 -0.00853586 0.131893
3631 4 25.6846 16.3444 25.1204 2.17415 0.440402 -0.424743 -0.279748 -0.0643468 0.115156
3632 4 22.9313 20.0165 25.7141 1.62868 0.589831 -0.156794 0.128812 0.373856 0.0451836
3633 4 17.1585 32.1172 25.9185 0.1375 0.285519 -2.12335 -0.40964 -0.219325 -0.683432
3634 4 33.0523 1.19608 26.8814 1.3259 -0.317005 -1.57318 -0.915065 0.133892 -0.228299
3635 4 32.4315 7.99595 26.8054 -1.42058 0.694253 -0.318137 -1.5295 0.682313 -1.2093
3636 4 -6.93059 14.1019 26.59 0.067359 -0.00736763 0.0985016 0.00798796 0.0265609 -0.0252705
3637 4 -9.12445 16.4969 26.3226 0.412625 0.200178 0.252018 -0.00934228 -0.107344 -0.127631
3638 4 -9.86723 19.2373 26.2533 -0.0203602 0.160299 0.0138681 0.00391243 -0.0713388 -0.021591
3639 4 21.6003 26.4352 25.956 1.75278 0.220685 0.520934 -1.51415 -0.977933 -0.26709
3640 4 20.0294 29.2285 25.8581 -0.476534 -0.334485 2.50942 0.73965 -0.0125177 0.102273
3641 4 -17.7095 31.5456 25.9496 -0.282703 0.428159 0.485433 0.427729 -0.482658 0.611168
3642 4 0.286275 1.86876 27.1875 0.463267 0.445222 -0.0665896 -0.136866 -0.169764 0.225215
3643 4 -1.01415 7.12484 26.1323 1.90715 0.932084 -0.854559 0.0611094 0.0809572 -0.205931
3644 4 -4.26989 11.4697 26.2007 -0.440126 0.183841 0.13558 0.229809 -0.0652844 -0.0941994
3645 4 -11.7246 26.6957 25.6905 0.0243858 -0.336326 -0.242683 0.0615868 0.198204 0.210304
3646 4 -12.9684 30.7078 25.4456 2.0822 -0.193854 -0.514862 0.207662 -0.0564219 -0.216514
3647 4 0.0356821 10.0148 28.3383 0.347977 -1.90345 -0.0655437 -0.064661 0.161904 -0.0844818
3648 4 4.00083 6.23928 28.6688 -1.04984 -1.61611 -1.89689 0.584 0.149482 0.0145252
3649 4 -0.947184 17.4744 27.6983 -0.267795 -0.304427 -0.0677534 0.142674 -0.0535898 0.288535
3650 4 -2.33148 21.2709 28.8396 0.950695 -0.68943 0.557232 -0.0860574 0.106306 0.0383463
3651 4 8.26428 7.12761 28.4123 0.523021 -0.687122 -0.096377 -0.00352818 0.0592279 0.0165563
3652 4 3.88412 12.1425 27.864 0.346531 0.24356 -0.386197 -0.471855 -0.290455 0.28552
3653 4 2.59937 16.0303 27.5102 1.70793 -1.1479 -1.46597 1.05126 2.90742 0.538207
3654 4 1.85293 18.4224 29.2428 0.0156683 2.32376 -1.47457 -1.84956 -0.0514835 -0.94212
3655 4 0.141262 20.0866 29.8441 -1.37734 -0.774879 -0.69252 -2.44813 -2.16489 -2.02533
3656 4 -0.641702 23.3269 28.3064 -0.280645 1.26667 0.447552 -0.310827 -0.0242025 -0.285248
3657 4 12.1672 3.45315 27.7876 -0.118222 0.052147 0.0997454 0.0272734 -0.0768359 -0.0536515
3658 4 7.12918 14.3172 29.1053 -0.263778 0.875297 0.282354 -0.275862 -0.81117 1.31399
3659 4 1.85042 23.0902 30.9091 -1.90371 -6.36113 -1.70903 4.89191 2.95092 8.1885
3660 4 0.7938 25.7513 28.3018 0.0229966 -1.78485 -0.62699 -4.83005 0.0889095 -1.96006
3661 4 -1.37758 28.0735 27.4035 0.0795752 0.218858 0.782728 -1.07812 0.131119 -0.358528
3662 4 16.6398 2.82602 28.5347 -0.582602 -0.391397 -0.884839 0.0781923 -0.0639988 0.150477
3663 4 15.163 6.46426 28.4015 -0.0899431 0.151354 -0.0753002 0.0656204 -0.109714 -0.0412007
3664 4 12.3082 7.20124 28.3231 -0.265292 0.562356 -0.546694 -0.0676099 0.0606767 -0.0976697
3665 4 10.695 9.66193 28.1197 -3.39676 1.07496 -1.31623 0.693511 -0.414978 0.537975
3666 4 10.9093 12.1034 28.4081 0.274603 1.45094 0.854993 -0.176972 0.234239 0.570166
3667 4 1.81047 21.2893 27.0184 6.84945 0.503946 3.72696 5.33786 -1.4138 7.12294
3668 4 0.643041 28.5224 28.8463 -0.929871 1.27288 -0.214421 -0.0725483 -0.510789 -0.41553
3669 4 0.326473 30.9195 26.8288 0.100129 0.667364 0.326025 0.284001 0.0688558 0.570102
3670 4 14.8185 10.4878 28.1533 -0.177048 -0.194271 -0.393748 0.0196261 0.198513 0.053772
3671 4 13.0058 13.1166 27.3075 0.49995 0.308338 -0.375986 0.309135 0.418262 -0.968491
3672 4 12.3028 15.9127 28.5481 3.61199 -2.44281 -1.25095 -1.60971 -3.96151 0.313689
3673 4 4.55067 26.2606 22.8427 -4.52781 4.448 -3.31747 2.87323 -1.12487 -0.44842
3674 4 2.66322 31.0863 27.7884 -0.794902 1.08218 1.25824 0.616849 -0.814493 1.16467
3675 4 19.6668 1.00478 27.5936 -0.053366 -0.313117 -0.543576 0.0122265 0.102133 0.166611
3676 4 21.4839 3.07596 27.59 0.313522 -0.842623 -0.180293 -0.0929962 -0.318923 -0.0718356
3677 4 20.2842 5.455 28.6175 0.349975 -0.529871 0.326333 0.120608 -0.0619427 0.00525562
3678 4 18.1447 9.81941 28.6013 0.090192 -0.34986 -0.2727 0.0304581 0.0864945 0.120755
3679 4 23.3359 1.20811 27.2858 0.425314 0.286459 -1.05616 -1.89677 0.982518 0.211064
3680 4 24.565 3.85662 28.3603 0.404422 3.43341 -4.4026 0.200166 -0.306717 -0.208747
3681 4 22.8693 5.45072 27.261 -1.45005 0.882464 -0.187141 0.117109 0.139436 0.0536049
3682 4 22.6173 7.81273 28.1639 0.80398 0.536488 0.660275 -0.223299 -0.0641713 -0.137249
3683 4 18.3957 13.3048 28.7713 -0.58634 0.399176 -0.746364 0.236233 -0.0134356 0.358123
3684 4 17.4576 15.7982 27.9344 0.652763 -0.615849 0.654843 -0.0536826 0.85053 -0.20104
3685 4 26.7712 1.72549 28.4023 10.9753 0.0888672 0.648255 -4.99429 11.75 2.03928
3686 4 26.5064 6.07714 27.4508 0.174806 -2.81621 1.04642 -0.0651071 0.840891 0.111414
3687 4 21.3128 14.6903 27.1918 -0.00660519 -0.103243 0.00714252 -0.0047008 0.0638968 0.0783014
3688 4 12.8296 21.5534 25.854 5.998 -8.1484 -1.53139 -1.90166 0.459049 0.0530811
3689 4 28.9581 4.2673 27.7443 -0.406438 1.16837 -1.25857 0.210422 0.103389 -1.15344
3690 4 26.7886 8.40253 28.4371 1.12035 1.08018 0.825841 -0.335287 0.173564 -0.441745
3691 4 25.2165 10.7893 28.3921 0.228008 -0.027915 -0.0389174 -0.0708528 0.00512602 0.0421914
3692 4 23.4815 13.8563 28.3815 0.344107 -0.14591 -0.277271 -0.0440337 0.024557 0.0822332
3693 4 16.508 24.8486 22.1285 -3.03455 -17.5218 -0.0487946 -1.48685 -4.48304 -1.39212
3694 4 15.8379 31.2546 28.0085 6.72027 -4.11642 -0.938433 -5.28196 -3.93463 2.12902
3695 4 32.1105 1.47306 29.1276 -1.34693 0.0896416 2.74504 0.483253 -0.616608 -0.50243
3696 4 28.1683 10.6702 28.904 1.68939 -0.568077 2.51222 0.449874 0.315049 0.104521
3697 4 29.0559 13.9426 28.9149 -0.0741283 -0.151561 -0.292405 0.0644261 0.000687393 0.110353
3698 4 27.7073 16.2014 28.9964 0.0347927 0.157055 0.225055 -0.0521163 -0.0790082 -0.126128
3699 4 26.1322 18.347 28.3943 -0.031962 0.131021 0.224897 0.00687706 -0.061276 -0.063695
3700 4 21.761 23.4459 27.8175 1.50649 0.206714 -0.110761 -0.606459 0.655423 0.0173547
3701 4 20.3321 26.7667 28.7139 -2.20784 0.984795 -0.461645 1.19832 -0.750417 0.326003
3702 4 18.9747 30.9062 28.7192 -0.813276 -0.575174 1.54084 -1.16182 -0.318589 0.569741
3703 4 35.2788 1.76001 28.4722 0.74698 -0.103896 1.19134 -0.0253408 0.638567 -0.173843
3704 4 -13.6373 25.1147 27.9818 2.69216 0.982179 -1.99091 0.057537 -0.037768 -0.165401
3705 4 -16.2929 29.0401 29.0942 0.54285 0.0981578 0.050811 -0.203181 -0.925928 -0.453418
3706 4 2.3493 0.402217 28.2799 -0.0177846 0.160829 0.183464 -0.0754774 -0.186395 0.00585058
3707 4 2.23346 2.78243 29.1695 -0.110877 0.415385 0.387907 -0.0512548 -0.0436537 -0.0634352
3708 4 -1.97677 7.15332 29.0729 -1.71903 4.144 -1.70875 0.569312 -1.47203 0.145917
3709 4 -2.48062 10.7179 27.6138 1.3307 0.998148 -1.83667 -0.143681 -0.120122 0.373084
3710 4 -10.3587 22.4363 27.309 0.916753 -0.778971 -0.683654 -0.144448 0.170824 0.179054
3711 4 -11.1988 24.495 28.693 1.18142 -1.10944 -0.232275 0.0341542 0.159275 0.0758931
3712 4 -11.6145 28.4287 27.306 0.739247 -0.783238 -0.561804 -0.371615 0.327174 0.181706
3713 4 0.171852 6.93965 31.1538 0.413753 -0.573331 -0.979008 -0.130672 0.0772398 0.0867916
3714 4 -0.299489 9.36749 31.0837 -5.18963 -2.32242 -1.20369 0.0774384 0.160813 0.597848
3715 4 -2.09025 12.6339 29.1058 0.207904 0.033187 -0.305796 -0.0863409 -0.0808782 0.239753
3716 4 -4.43537 15.5941 29.899 -0.0206697 -0.256675 -0.13072 -0.0540427 0.074283 0.0144967
3717 4 -5.78646 18.419 29.7966 -0.250763 0.44335 -0.523029 0.0756545 -0.268103 0.210992
3718 4 -6.94056 23.24 29.7223 -1.99078 2.46271 1.69749 0.450521 -0.472763 -0.507886
3719 4 -9.01163 24.7951 31.0081 -6.48423 0.584479 -0.063273 0.584328 0.0902358 0.0855563
3720 4 -3.61994 17.7473 30.9541 -0.406252 0.225806 -1.11506 0.418271 0.0505314 0.106892
3721 4 -8.73779 27.6712 30.1963 0.00992431 1.3587 0.0619167 -0.235787 -0.105412 -0.0165997
3722 4 6.8372 7.63103 30.702 3.8158 3.72174 1.05059 -0.22654 -0.282937 -0.374499
3723 4 4.57795 9.10483 30.8074 0.0417377 -0.260002 -0.049847 0.0787351 0.0909789 0.0170614
3724 4 -5.52081 26.398 29.7767 -0.933487 0.0312545 -0.483459 0.257384 -0.010327 0.199609
3725 4 -6.30407 28.9591 29.772 0.172981 0.0645777 -0.15945 -0.235604 -0.0248964 0.0631949
3726 4 9.36791 7.38968 31.2951 1.59937 -0.402627 0.223627 -0.204613 0.130057 -0.0774755
3727 4 7.76671 10.1579 30.9013 0.144436 1.30759 -0.883189 -0.0304796 0.244436 0.138188
3728 4 -2.87271 27.2851 29.8253 -2.93709 -0.832262 6.03752 -0.0547967 0.210503 -0.279307
3729 4 -3.92927 29.8392 30.066 -0.583094 0.682165 -0.430294 -0.674109 0.481979 -0.350171
3730 4 15.8259 1.94565 30.8397 0.374842 0.192215 0.140268 -0.0403335 0.113798 0.192674
3731 4 14.7407 5.204 31.2373 3.37564 0.340021 4.67207 -0.24398 -0.341045 -0.0783069
3732 4 -0.159363 26.3734 31.4395 -1.83266 1.01699 -0.576332 -0.137941 0.90286 -0.857877
3733 4 16.954 4.41968 30.518 0.197439 0.614925 -3.95292 -0.0176128 0.0212798 0.265864
3734 4 13.7323 9.72601 31.4642 0.161707 0.124662 0.245386 0.0963125 -0.252309 0.00317338
3735 4 12.3112 11.9457 31.6087 -0.0289636 -0.264102 0.703031 -0.730997 -1.21719 0.212995
3736 4 10.426 13.4572 30.5361 1.0501 -0.243637 0.0397607 0.802933 -0.823563 -1.06881
3737 4 4.38762 29.4518 28.0534 7.28023 1.34031 0.811215 5.86379 4.02546 -6.91114
3738 4 1.2347 29.9086 31.0202 3.47236 -0.464948 0.550721 1.17482 -0.504949 -1.06649
3739 4 20.0302 3.23153 32.0378 0.748252 -0.202125 0.416354 1.73722 -1.30363 0.306312
3740 4 5.20442 26.5045 25.6708 3.76474 6.14293 -3.27583 -1.07764 -4.2319 -1.32245
3741 4 20.5219 0.175085 31.7211 -0.123908 1.55592 -0.355586 3.2861 -4.94161 2.23215
3742 4 23.4736 3.65797 31.8116 0.429993 -0.0541695 0.00910554 0.0311704 -0.486465 0.14483
3743 4 19.9338 9.56015 30.3589 -0.0627218 0.0786909 -0.123063 -0.00230111 -0.00434351 -0.0113288
3744 4 18.6592 13.368 32.533 5.70787 -4.33844 -7.12234 -0.665521 1.12944 1.06558
3745 4 6.58383 18.2389 21.6711 0.0901524 9.91536 12.3115 -4.79892 1.24129 -0.531386
3746 4 14.4915 25.1104 16.8459 -13.4027 -1.75506 1.98561 2.57199 1.13173 3.97166
3747 4 24.9524 0.481723 29.8924 -3.74719 -2.15433 -3.2304 12.6662 -10.204 -4.3117
3748 4 21.5164 13.0859 29.7061 0.195191 0.0644495 -0.13998 -0.0566919 -0.051229 0.0691719
3749 4 18.8419 15.8933 32.7008 -0.230599 -4.0413 -0.102281 -0.23271 -0.0524641 0.0406948
3750 4 17.2534 19.7864 30.0742 -1.70249 1.16489 -0.796715 0.775356 -1.49045 4.33229
3751 4 15.9672 17.8053 25.4644 1.59812 -2.10551 2.03382 -0.838342 -5.45361 4.69406
3752 4 27.4686 5.44446 30.0759 -0.00229869 -0.114633 0.112922 -0.0812875 -0.380588 -0.168588
3753 4 24.9453 7.25151 31.1397 -0.146613 -0.311283 -0.286575 0.0444793 0.467988 -0.0593269
3754 4 22.558 15.0129 32.0875 -0.94642 -0.335219 1.00174 0.193973 0.0995668 -0.255795
3755 4 19.2508 22.8792 27.5271 -0.00731845 0.289975 -0.341517 -0.48502 0.255286 0.670951
3756 4 16.8229 29.9736 33.0794 0.643415 0.298455 -0.514912 2.71111 -1.69352 -3.00219
3757 4 29.5381 0.57498 32.6878 -9.17765 2.35979 -1.19945 9.97948 10.0073 -2.16769
3758 4 31.5149 5.23824 29.8638 -0.698588 -0.0537373 -0.00811951 0.391255 0.00235541 -0.0205653
3759 4 29.1745 8.05418 29.85 2.37097 -1.07736 5.41648 -0.694945 0.903585 -2.99966
3760 4 26.3446 9.40935 30.8366 -0.591322 -0.652809 -0.719546 0.257804 0.259902 0.208727
3761 4 25.7665 12.3472 32.0018 -0.100799 0.299963 0.240823 0.0357973 -0.0754433 -0.0183357
3762 4 17.7674 30.3433 30.8509 2.14338 -0.908682 1.18282 1.34651 -0.228491 -2.74358
3763 4 33.7999 1.3909 31.572 -0.575927 1.27529 -0.020028 0.0978677 1.18462 0.0464305
3764 4 22.8047 23.8366 32.2975 0.187739 0.132516 0.516553 -0.639234 -0.19675 -0.0150113
3765 4 -16.2682 28.5452 32.0726 -2.0927 0.158824 1.59784 0.133165 -0.44463 -0.132041
3766 4 0.682333 2.30737 31.1294 0.768246 0.0014382 1.06021 -0.391901 -0.572775 0.0975283
3767 4 -3.24539 7.47384 31.7118 -1.8231 0.832739 -0.288554 0.371787 -0.179159 0.0543774
3768 4 -12.4519 23.7394 30.9782 0.0389125 -0.0583599 -0.40071 0.152507 0.117798 -0.171622
3769 4 -13.5759 26.6014 31.6877 1.79467 0.529423 0.835072 -0.488094 -0.118637 -0.34991
3770 4 3.5319 3.26892 32.655 0.0122814 -0.255386 -0.0715647 -0.0716144 0.202244 0.0064112
3771 4 0.156589 9.17521 33.8625 0.237832 0.00339829 -0.272439 -0.152126 -0.0634691 0.080533
3772 4 -1.10408 11.307 33.9531 -0.102644 -0.144384 0.123348 0.00287042 0.0731482 -0.0521538
3773 4 -3.01695 12.9251 34.1534 0.0543015 -0.0316006 0.188504 -0.0194968 0.0368871 -0.0798616
3774 4 -4.0866 15.6886 33.63 -2.53445 -0.743783 3.11839 0.259905 0.411398 -0.333405
3775 4 -4.96625 18.2959 33.1779 0.33138 -0.236851 -0.132825 0.419593 0.26924 -0.138108
3776 4 -7.26641 23.3863 33.0264 0.422683 -0.537626 -0.447353 -0.245675 0.397312 0.180739
3777 4 4.28318 5.92081 32.6679 -0.274881 -0.141025 -0.041707 0.0105892 0.0418334 0.0448478
3778 4 -1.59269 17.3573 32.7423 0.0336976 -0.151593 0.213287 0.975992 0.53999 0.471952
3779 4 -6.9673 27.0734 32.5207 -0.0466647 0.111503 -0.137154 0.12091 -0.0358801 0.175509
3780 4 -8.32231 29.2883 32.4467 0.165202 0.171425 0.0624299 0.0101935 -0.0975267 0.00843278
3781 4 -10.4761 30.4047 33.2316 -2.15331 -3.70317 -3.7146 -0.0116225 -0.170708 -0.0530528
3782 4 6.35223 2.80112 33.8749 -0.13288 0.31983 0.40316 0.0787794 -0.236346 -0.266453
3783 4 7.57766 6.49616 33.457 0.0810307 -0.0143383 -0.25775 0.015993 -0.0689915 0.154846
3784 4 6.31766 9.36238 33.0428 -0.00702868 0.143455 0.024425 0.0359055 0.147019 -0.0461829
3785 4 4.26984 11.1035 33.4972 -0.0960985 0.0184738 -0.0886312 0.118637 0.0534583 0.0172349
3786 4 1.74476 16.1234 32.5184 0.896984 0.710976 2.57336 -0.328259 -0.756802 -1.2897
3787 4 0.278146 18.7016 33.7568 -3.10335 0.155754 -1.73928 -2.5831 -0.439275 -0.0120493
3788 4 -3.67307 24.2118 32.7127 -0.118924 -0.76425 -0.115546 0.213631 0.0318897 -0.0928823
3789 4 -4.1939 27.0107 33.2803 2.71828 -1.72907 -2.50862 -0.476462 0.349007 0.572472
3790 4 -4.89743 29.1935 32.3742 0.0200018 -0.536479 -0.103375 0.0944135 0.130859 0.0361345
3791 4 11.1837 2.35656 32.83 1.18224 0.958905 -0.824062 -0.308086 -0.135137 0.187649
3792 4 3.86222 17.5267 33.2345 -0.230326 -0.263384 -0.379862 0.511856 -0.123264 1.28458
3793 4 -1.20564 27.573 33.5882 -0.158444 0.085173 -0.1859 0.170073 0.0790965 0.365697
3794 4 -1.36197 29.4207 31.9151 -0.37068 0.545796 -0.858315 0.288078 0.193104 0.776561
3795 4 14.1663 5.15595 34.1457 -4.44066 2.67456 2.91757 0.739496 -0.167283 -0.403147
3796 4 10.1694 11.4195 33.2197 -0.168178 -0.104444 0.29561 0.133045 0.292451 0.36804
3797 4 8.64327 13.7432 32.4964 -0.475367 -0.143652 -0.512452 0.611275 -3.00156 -0.506216
3798 4 5.72298 16.4275 29.153 2.70021 0.183641 -1.8155 1.61546 -4.56492 -2.21068
3799 4 8.17768 17.3174 31.3544 5.88364 -5.45639 -1.74215 -7.02977 -1.48762 1.20012
3800 4 15.9487 2.76434 33.2698 -0.712049 -0.534948 0.771417 0.385701 -0.116306 0.257114
3801 4 12.6164 13.5997 33.7295 -0.0862012 -2.3735 0.515401 0.931028 0.176027 0.736874
3802 4 9.60156 15.9732 23.7073 3.62714 -6.93805 3.36085 -7.88358 -5.06977 2.14472
3803 4 1.67478 22.8962 34.2847 -4.83904 -2.93164 0.904097 -4.11622 -6.1449 -1.91326
3804 4 2.71422 26.9675 32.7183 2.28746 -3.44252 7.8226 -3.99093 -2.69636 -1.91706
3805 4 14.4987 26.9879 34.5237 -5.96543 -3.0266 11.8062 0.644529 2.72659 -1.36854
3806 4 11.8195 22.4808 20.7107 -8.28637 -5.16823 -1.56753 -1.81435 -3.59725 8.25582
3807 4 10.0148 23.9311 19.7225 -1.38971 7.58687 2.67369 -3.10289 -1.33125 2.12872
3808 4 23.4003 0.0665174 34.3439 -5.20617 -1.89944 -5.4536 4.69109 3.47291 -10.8843
3809 4 22.0197 1.76381 33.1224 2.84306 -3.21754 2.20419 -3.99229 1.20631 -2.34176
3810 4 22.8189 8.07479 33.1651 0.0750349 -0.0818575 -0.00536075 -0.113485 0.0682941 0.128216
3811 4 18.1587 11.3644 35.04 0.340054 -0.145746 0.320283 -0.0921248 0.0868207 -0.0232112
3812 4 16.4545 16.2518 33.276 -3.21805 1.79066 1.0927 0.345963 0.00597828 -1.19537
3813 4 9.67883 15.8438 28.5008 -0.772125 3.94731 2.57153 0.233876 0.816408 -4.38476
3814 4 17.0981 18.536 36.2532 -0.539117 1.72381 1.9428 2.10941 2.47363 3.54117
3815 4 14.2806 29.9965 24.596 9.6701 -6.87905 -4.03576 2.43721 2.42754 0.674163
3816 4 10.3657 30.2294 28.5393 8.78332 -8.31679 4.61057 0.328292 1.44766 -9.0209
3817 4 26.7351 0.311328 34.3752 -0.590458 -1.85781 -1.73874 -0.530819 -11.1596 2.42594
3818 4 25.0982 1.6381 31.9168 -0.0290628 -0.686779 -3.52283 0.575225 2.33437 -1.59196
3819 4 21.8559 10.7941 33.7309 0.253065 -1.34288 -1.0155 -0.157602 0.583464 0.341724
3820 4 22.2596 13.6755 34.172 0.55532 -0.912845 0.94914 -0.195299 0.203522 -0.195861
3821 4 18.5457 17.6813 34.4486 -0.962801 -0.647119 -0.811158 -0.985056 1.48389 0.460779
3822 4 18.4916 21.9168 35.4335 2.82545 2.84254 2.27999 -4.73362 1.14601 3.12757
3823 4 19.3186 23.3926 30.7935 -0.716318 -2.48581 -1.33091 -1.7749 0.861035 -1.79865
3824 4 29.083 4.43376 34.4776 1.08212 -0.00767541 -1.9628 -0.112802 -0.234683 0.175215
3825 4 27.618 6.62964 34.7086 0.534496 0.522779 -0.603044 -0.207877 0.393853 -0.163825
3826 4 26.7595 8.46752 33.3166 -0.158397 -0.10325 -0.176414 0.186652 -0.101142 0.35492
3827 4 22.5278 19.6376 32.7744 0.530033 -1.42961 0.368008 -0.372151 0.821989 -0.276589
3828 4 19.435 20.7984 33.206 -0.412578 -1.84706 -0.839997 -0.65369 0.912271 0.434812
3829 4 15.0677 31.759 34.0242 -0.965539 1.33142 3.01544 2.26008 6.53899 1.89024
3830 4 31.0777 1.73018 34.591 -4.13167 -1.82625 -3.30448 1.71343 4.13814 1.6444
3831 4 31.4253 3.4275 32.6196 2.10068 -4.49176 2.23416 0.809159 0.400025 0.179775
3832 4 30.2321 5.87096 32.6225 1.57832 -1.33991 -2.02655 0.132191 -0.326125 0.358823
3833 4 29.9104 8.49754 32.6209 -0.009145 -0.477082 0.46982 -0.0169078 -0.203196 -0.193383
3834 4 28.2646 10.453 33.2592 -0.123389 -0.262297 0.382725 0.119886 0.0175251 -0.172519
3835 4 0.489714 4.92656 33.4813 -0.605466 0.18874 0.00478191 0.233363 -0.16702 0.0196507
3836 4 -3.14185 8.854 33.7864 0.0296524 0.0241636 -0.0292415 0.0102582 -0.0708696 -0.0290946
3837 4 -5.05872 11.2539 33.6585 -0.0116502 0.0882106 0.0187671 -0.0128158 -0.0469234 -0.00886408
3838 4 -5.94458 13.7557 33.0673 -0.299086 -0.246968 -0.190775 0.00685525 0.135737 0.177173
3839 4 -6.87292 16.125 32.4941 0.519947 0.400728 -0.527418 -0.141967 -0.001867 0.133819
3840 4 -8.95431 18.5316 32.7619 -0.723305 -1.55501 -0.655122 -0.929923 0.400205 -0.441191
3841 4 -9.92272 21.3396 33.6574 6.28032 -0.23766 1.60197 -0.938868 0.611515 0.194028
3842 4 -10.5891 24.1233 33.5092 1.75683 0.755934 1.75178 0.0309063 0.26757 -0.30372
3843 4 2.72287 0.735505 33.4722 -0.877344 -0.923473 -1.19314 0.0678662 0.0891249 -0.247244
3844 4 2.92689 6.28075 36.1819 0.0459969 -0.123251 -0.0901109 -0.0338733 0.0181326 0.0154207
3845 4 2.13382 9.23038 36.5519 0.14822 -0.0263876 0.023777 -0.0791897 -0.0138326 -0.0306791
3846 4 -10.6659 31.1071 36.4569 -1.00966 -0.0470723 2.82246 0.112202 0.0202165 -0.310336
3847 4 5.68901 0.53853 35.1269 -0.9738 0.0179104 0.069827 0.268578 -0.0130934 0.133133
3848 4 7.98982 3.83736 35.4597 0.0498727 0.0296053 0.00166021 -0.118758 -0.0827816 0.075612
3849 4 5.22941 7.31079 34.6211 0.0338589 -0.0443512 -0.27178 0.0765294 0.0229271 0.0813704
3850 4 -0.651646 15.9422 34.989 0.200149 -0.0147399 0.0290121 -0.00895858 0.0765066 -0.0844943
3851 4 -3.68972 22.9113 34.7614 -0.0356236 -0.100883 0.00706697 0.107964 0.157912 -0.209204
3852 4 -5.00577 25.4528 34.9927 0.23016 0.379368 -0.504868 -0.173341 -0.0398645 0.145659
3853 4 11.2548 1.44931 35.5777 1.03647 0.619996 -0.384108 -0.213011 -0.382233 0.159345
3854 4 2.46031 15.4541 36.1311 -0.669724 -0.609917 0.182513 -0.0793467 0.111198 -0.216107
3855 4 1.76808 19.0236 35.6551 0.0553381 0.423591 0.0858338 3.48654 -0.762351 0.962826
3856 4 -1.58383 24.5781 35.3824 -0.475448 -0.226985 -0.0380504 -0.658815 -0.135406 0.0124074
3857 4 -3.05375 28.0755 35.5209 0.546295 0.0766081 -0.387016 0.207415 0.119848 0.237675
3858 4 14.1005 2.74076 35.5495 0.30187 0.114706 0.00708107 -0.169597 -0.0949797 -0.00616078
3859 4 11.6295 5.70448 34.7608 -1.27515 0.495867 0.0148119 0.235444 -0.0539461 0.0965991
3860 4 7.40943 12.5069 34.8068 3.29951 -1.47746 -1.39478 0.126575 0.598549 0.0401528
3861 4 4.78538 14.0657 35.0761 -6.23637 -0.449309 -0.93959 1.06685 -0.033494 0.111563
3862 4 8.59378 31.3162 32.2723 -9.93698 9.4988 -19.8262 -1.43458 1.99484 1.39099
3863 4 -0.122499 26.7018 35.6513 0.774204 0.820968 -0.467284 0.400188 1.31694 0.477614
3864 4 -0.99305 29.4087 35.6934 -0.208736 0.828438 -0.71959 -0.260632 0.401196 0.21487
3865 4 17.0192 3.53011 35.4971 1.54656 -0.523574 -1.01611 -0.865532 0.331059 0.425944
3866 4 15.6908 6.15265 35.7868 1.19236 -1.28692 -0.845007 -0.235161 0.313444 0.151121
3867 4 12.5839 9.34128 35.2024 0.00276252 -0.266957 -0.0582739 -0.0935515 0.336202 -0.00769831
3868 4 10.6137 12.6461 35.7226 0.636656 -0.574708 0.728771 -0.487849 -0.191313 -0.0841948
3869 4 9.00227 14.6478 34.8888 2.84071 -0.0493511 0.174355 -1.94573 5.84288 0.18499
3870 4 4.39553 17.0466 37.0629 -3.80465 6.012 -1.44277 8.37781 0.191022 3.72611
3871 4 -0.209242 31.7048 34.6029 -0.82779 3.08779 0.0133693 -1.12453 0.314534 -0.562577
3872 4 16.0989 0.657945 34.8183 -5.58781 -3.40429 -1.88883 -0.339674 -0.826129 -0.513176
3873 4 16.6912 21.9937 21.9214 0.766041 -1.17876 2.00338 -12.3545 -2.73487 -1.31419
3874 4 11.7506 19.6573 24.6496 -6.09463 -3.46799 -16.4192 5.83051 -4.04835 0.7102
3875 4 20.3718 5.50695 35.5271 -0.06891 -0.0235003 0.151793 -0.00789935 0.083412 0.0501642
3876 4 18.9886 7.71031 35.7818 -0.10719 0.107563 -0.0803337 -0.0149034 0.0422788 0.102829
3877 4 5.71233 31.6922 37.1378 0.946547 -0.099676 4.7364 3.74291 -1.55913 7.78652
3878 4 25.108 3.35035 35.1658 -0.313141 2.8225 1.74707 -0.432138 -0.334593 -0.918672
3879 4 22.7923 5.71695 34.7886 -0.700463 0.674437 -2.14466 0.141269 -0.282654 0.524673
3880 4 22.3567 9.63028 35.9068 0.458177 0.111504 -0.0945926 -0.130169 -0.121698 -0.0755339
3881 4 20.4922 12.1185 36.5481 -0.133275 -0.202401 0.320877 -0.0385001 0.0444212 -0.169095
3882 4 14.4084 20.2318 24.4611 8.87637 4.50385 1.69424 -1.69928 0.815106 0.585233
3883 4 5.32666 30.402 24.9989 -6.78295 14.7256 -1.65691 -1.42392 0.225021 -1.30187
3884 4 29.2691 2.50047 35.9734 1.31024 -1.17596 0.433333 0.508997 -0.655866 0.0886827
3885 4 25.9243 10.2485 35.2873 -1.1807 -0.403327 -2.29924 0.154627 0.0431052 0.464061
3886 4 23.6446 14.611 35.8996 0.320051 0.180415 0.528432 -0.013185 0.0674202 -0.13117
3887 4 22.6391 17.7804 34.5803 -0.100249 -0.481802 0.820773 -0.0245264 0.461499 -0.0419035
3888 4 20.9489 20.0972 35.0048 1.60741 1.00755 1.19404 -0.731371 0.149737 -0.677234
3889 4 24.599 18.8281 35.6893 -0.0851291 0.00374198 -0.152224 -0.147716 0.0828556 0.031175
3890 4 23.0312 22.0906 35.56 1.70855 0.0749392 0.160942 -0.361058 -0.142449 -0.187292
3891 4 20.6528 23.3686 35.7471 -0.0905206 -1.54012 1.81596 0.0460001 1.46979 1.50836
3892 4 20.2514 25.1954 34.23 -0.118113 -0.50555 -0.376919 -1.20559 0.140421 0.547539
3893 4 19.7009 27.4245 35.8814 1.55497 -1.62828 1.45048 -0.553022 2.61386 -3.39817
3894 4 35.2419 2.77756 35.0562 -1.18852 1.1948 -1.88189 -0.22181 0.307853 0.34279
3895 4 26.6725 17.5123 34.5444 0.0178794 -0.251622 0.148482 0.0309961 -0.00663638 0.0411184
3896 4 -10.3818 19.9159 35.9135 0.315632 -1.22944 0.555886 0.0494037 0.0742221 -0.0363286
3897 4 22.1379 25.8596 35.7708 -1.08767 -0.954957 -0.443236 0.38151 0.0862886 0.380994
3898 4 -15.0175 28.2579 35.6403 5.06147 -1.61931 -2.58364 0.592596 -0.67193 -0.245954
3899 4 -16.7278 30.7801 34.7028 1.27167 0.734052 0.520375 -0.461139 -0.579875 -0.0510606
3900 4 37.2163 0.0698614 35.2843 0.914808 0.14531 -1.1467 -0.678146 0.399692 0.155987
3901 4 2.79003 3.50171 36.0636 0.444307 0.474365 0.548039 -0.151215 -0.267586 -0.363804
3902 4 0.292634 6.28 35.621 -0.0248718 0.197056 -0.0291478 0.0177446 -0.109042 0.0301527
3903 4 -6.52434 18.0176 35.4628 0.170479 -0.537548 -0.0265168 0.193724 -0.550297 -0.144776
3904 4 -7.6829 20.5388 35.3592 0.417106 0.0223953 -0.402681 -0.0539214 -0.137065 0.300171
3905 4 -15.1811 32.0338 36.1101 -0.83179 -1.56143 1.36205 -0.37215 0.59518 -0.872247
3906 4 0.292822 10.0392 37.8035 -0.0914086 0.222406 -0.0992536 -0.0341133 -0.0550514 0.0399522
3907 4 -3.12257 12.7894 37.1167 -0.0906017 0.114545 0.144006 -0.0251628 0.00405316 -0.0174848
3908 4 -10.3146 26.2602 37.0136 -3.49228 -2.6229 -1.98801 0.317363 0.426685 0.36844
3909 4 4.12531 7.29944 38.3363 0.0315257 -0.010984 -0.471471 -0.165038 0.0213514 0.00732456
3910 4 3.64254 11.8727 37.6799 0.086885 0.260882 -0.319694 0.0766831 -0.1448 0.0955943
3911 4 0.0283116 12.5918 36.8527 0.0582232 0.198012 -0.0396083 -0.0625454 0.0104036 -0.00891992
3912 4 -1.54984 16.9559 39.1899 0.0702312 0.17624 -0.0754215 -0.189426 0.0452417 0.230504
3913 4 -9.54766 28.7512 36.1782 -0.0874278 -0.151873 0.27737 -0.120474 0.116109 -0.0559738
3914 4 8.29456 1.02236 38.0846 0.10054 0.503826 0.413941 -0.0861163 -0.21346 -0.2049
3915 4 9.29199 3.31085 37.6016 -0.21148 0.447953 -0.0285729 0.0696737 -0.160706 0.0286524
3916 4 6.8378 7.40124 36.9738 -0.214992 -0.656855 -0.243452 0.0383691 0.254172 0.0944358
3917 4 5.22839 10.2979 36.8152 -0.35534 -0.132478 -0.13273 0.150735 0.308056 0.070674
3918 4 0.324207 16.5517 37.3227 -1.48101 -0.259937 -0.330845 -0.539395 -0.442402 -0.0409669
3919 4 -1.17926 18.885 37.3382 0.508072 0.0405611 0.65252 0.811544 0.332717 0.538659
3920 4 -4.31204 24.3435 37.085 0.35667 -0.34423 -0.393221 0.0700084 0.190721 0.113791
3921 4 -5.46947 26.6168 37.709 0.368546 -0.25708 -0.608235 -0.158438 0.132825 0.311552
3922 4 -6.37983 32.0874 37.0785 -0.0112528 0.208249 -0.258257 -0.0129497 -0.08811 0.143312
3923 4 -1.68425 27.1319 37.946 0.447137 -2.26106 -0.122482 -0.227355 0.232489 -0.369695
3924 4 12.6663 6.15697 36.9889 -0.209181 0.314762 -0.251148 0.0978643 -0.119771 0.0160105
3925 4 10.8924 8.82565 37.1723 0.549484 -0.558695 -0.147753 -0.0597743 0.0542484 -0.0141579
3926 4 0.338061 28.7921 38.6761 0.125728 -0.227109 -0.285457 -0.138864 0.304178 0.150039
3927 4 -2.23746 30.7086 37.7745 -0.253327 -0.821968 0.0824942 0.0486318 0.0329362 -0.00023209
3928 4 13.9271 8.13157 37.1468 -0.0703762 -0.360419 0.218193 -0.107885 0.370229 -0.116328
3929 4 13.318 10.4113 37.3411 0.494459 -0.599458 -0.344137 -0.280916 0.424593 0.324087
3930 4 4.42678 26.9062 29.4949 4.05905 -5.67694 -1.39373 -3.96766 -1.46963 1.56529
3931 4 0.599288 30.9424 36.896 -0.3569 0.489665 -0.481847 -1.16812 0.372749 0.497984
3932 4 19.1111 1.35594 35.8198 -1.60962 1.94973 2.04039 0.336865 0.348178 0.182576
3933 4 15.8661 9.84265 38.0185 0.108496 -0.154668 0.0951571 -0.130772 0.141345 -0.0717002
3934 4 15.0005 12.3078 36.9405 0.412186 -0.34054 0.0552104 -0.941529 1.18755 -0.0763268
3935 4 13.6901 14.4305 37.237 -1.77979 3.31185 1.05169 0.704002 -2.06769 -2.68818
3936 4 4.32846 24.0691 23.528 -2.60838 13.1942 -1.18448 -0.0233517 -1.76456 3.50606
3937 4 21.2043 1.26019 37.0423 -0.0120154 1.85798 0.204216 0.579981 0.0644209 -0.049228
3938 4 23.393 2.55907 37.184 3.45509 -1.49055 0.634962 -0.310808 0.68096 0.107106
3939 4 21.2072 6.82666 38.3676 -0.931889 -1.27966 2.67221 0.160553 0.112189 -0.458597
3940 4 20.0348 9.27202 37.6216 0.126447 -0.437386 0.109812 -0.0262266 0.120187 0.0181424
3941 4 18.1603 12.4728 37.5731 -0.24983 -0.0241578 0.382345 0.0254539 0.0712309 -0.0481614
3942 4 17.6558 14.8345 36.7364 -0.111407 1.25353 -0.139644 -0.461722 -0.250761 0.954271
3943 4 30.0165 0.816935 38.6217 3.09661 0.601992 -0.457044 3.89552 -0.995737 1.96087
3944 4 6.00065 28.1502 23.9654 8.14996 -1.62835 -4.33734 0.750956 1.26018 -0.576887
3945 4 26.4439 3.04471 37.2404 -0.74865 -0.58233 0.927254 -2.46574 -2.76695 1.47286
3946 4 24.3907 5.0955 37.0356 -4.58242 0.459642 -1.3659 0.421265 0.0773172 0.00614714
3947 4 27.7315 4.98092 36.5345 -0.914391 0.177685 -4.07013 0.109035 0.232413 0.136687
3948 4 20.8043 16.2364 37.0372 -0.209176 -0.507299 0.159661 -0.0352265 -0.469061 0.0305492
3949 4 19.0426 25.1002 38.9374 2.08884 -2.04694 3.61096 -1.41573 -0.439249 -3.24064
3950 4 17.0649 29.0677 36.7993 -5.88927 3.01523 6.20881 1.2157 1.06912 -1.1488
3951 4 13.9193 31.9479 37.0473 3.65739 -1.0108 1.33802 -5.36935 -0.777477 -1.52699
3952 4 28.8427 9.3807 36.9898 4.53981 -1.80352 -3.40872 -1.24901 0.606395 1.02367
3953 4 25.8977 12.4688 37.3436 -0.747101 0.626156 -0.213958 0.33457 0.199452 -0.0566388
3954 4 22.6057 17.3031 38.8154 0.205299 0.0254239 0.15229 0.0305101 -0.331562 0.182339
3955 4 21.7169 18.703 36.8546 0.156746 -0.0910656 -0.245148 -0.0857914 0.347947 0.0913916
3956 4 17.8385 31.416 37.3688 -2.77991 -1.15806 1.23642 -1.67665 -1.92926 -0.847361
3957 4 33.634 2.03665 37.1197 0.41173 1.82054 -0.599397 -0.302885 -0.756634 -0.0139517
3958 4 -4.70103 8.21074 37.3398 0.0806553 0.282914 0.178036 -0.0823737 0.00788834 -0.0593941
3959 4 30.9139 10.2274 37.9351 1.00762 1.83826 0.481173 -0.371645 -0.512419 -0.16973
3960 4 28.45 13.153 37.6832 -0.00330779 0.0679066 0.0853761 0.0149782 -0.0197179 -0.0716209
3961 4 22.3557 25.0796 38.1429 1.48554 0.115285 -2.27954 -0.770665 -0.299557 0.995347
3962 4 21.1294 27.7098 38.1315 0.935948 -0.329613 0.349659 0.312038 -0.199826 -0.609222
3963 4 -3.95534 10.4215 36.8332 0.224287 0.0115315 -0.0587586 -0.0761558 -0.0140825 -0.0217548
3964 4 -5.96166 12.8827 36.8421 -0.124274 0.180355 -0.0134802 0.0796626 -0.0961735 0.059212
3965 4 -12.2243 25.2462 38.401 -0.121458 -0.789087 0.777501 -0.080779 0.0849388 0.104305
3966 4 -13.2433 27.4662 37.2789 1.13214 -1.02977 0.545152 0.122889 0.173368 0.112495
3967 4 -0.492001 12.067 42.0544 0.128891 0.132638 -0.0704355 0.0792825 0.00665552 0.052606
3968 4 -3.2217 14.7194 39.1666 -0.589287 1.42672 0.0871087 0.180313 -0.0271075 0.160655
3969 4 -5.53696 19.3101 39.7188 0.275352 0.0459545 -0.229676 -0.132233 0.0757478 0.0771195
3970 4 -7.9213 23.1213 39.3739 0.0359423 -0.286728 -0.473281 0.0456642 0.18512 -0.0201045
3971 4 -9.49231 27.2336 41.9193 -0.0775682 -0.251505 -0.202862 0.125796 -0.00987942 0.112245
3972 4 -10.9228 29.3663 41.577 -0.357981 -0.0258937 -0.131853 0.16077 0.044695 0.109913
3973 4 5.06915 5.97034 40.6837 -0.0250705 -0.565805 -1.27401 -0.020046 0.0156898 0.00729313
3974 4 3.50039 9.46391 40.2052 0.234881 0.0415836 -0.283668 0.0200465 -0.122103 0.217868
3975 4 3.01869 11.7041 41.2041 0.201907 -0.0421373 0.171358 -0.134657 0.0309163 -0.195972
3976 4 0.588169 13.8153 40.4789 -0.666236 -0.315569 -1.7154 0.606081 0.143044 0.695264
3977 4 -1.65659 19.2542 41.5711 -0.498536 -0.184592 0.137098 0.271875 -0.0354674 -0.138976
3978 4 -6.45274 26.4778 41.4251 -0.0560528 -0.106795 0.353787 0.168995 0.0278777 -0.0403364
3979 4 -8.26864 29.4172 41.6732 -0.0572115 -0.204063 -0.185035 0.103776 0.00232943 0.093792
3980 4 -8.5833 32.0158 41.738 0.0102198 -0.106636 -0.0337188 -0.00291124 0.0333289 0.0441662
3981 4 7.35706 6.04958 39.209 0.167821 -0.00554264 -0.171954 -0.000356463 0.0324933 0.0837773
3982 4 6.17612 8.33799 39.837 0.181857 0.0234776 -0.863694 -0.143126 -0.145344 -0.0465232
3983 4 2.8371 14.4442 41.2201 -0.965608 -1.41235 3.49556 -0.171363 -0.138458 -0.664718
3984 4 -4.14255 24.3603 40.0692 -1.22062 -0.779873 -3.02549 0.502983 0.162122 0.760627
3985 4 9.0778 1.86516 42.4421 -0.0333263 0.00166744 -0.209711 -0.0315591 0.010916 0.0551815
3986 4 10.8223 6.52111 40.5599 -0.0678218 -0.168527 0.796693 0.0797255 0.0651823 -0.0973511
3987 4 8.84344 8.74636 38.631 0.640685 1.00313 -0.979618 -0.0970787 -0.156212 0.10813
3988 4 1.25821 20.8522 39.446 -1.78577 0.922336 0.0155467 1.45249 -1.18698 -0.495757
3989 4 11.878 8.78826 40.4733 -0.128172 0.213702 0.309779 0.0356616 0.189773 0.0820954
3990 4 6.22008 16.6476 33.6021 -2.08874 5.26671 -1.6935 1.66979 1.10582 -1.19363
3991 4 4.06844 19.4633 29.2082 2.29463 10.3988 1.83546 11.2141 1.52619 6.66772
3992 4 15.4899 17.7798 30.3189 2.41081 2.02282 -4.81305 -0.874674 -0.78739 -1.03082
3993 4 16.3547 18.6325 32.4095 9.33559 -0.893708 -4.03393 -0.572169 1.38807 4.49843
3994 4 7.40355 23.5847 28.3573 8.08555 2.1778 -3.64947 -1.58785 -1.09073 1.7725
3995 4 1.2007 29.2096 41.2273 1.67791 -0.69041 -0.605213 -0.790324 3.44832 0.53746
3996 4 1.74048 31.9913 39.1713 0.320328 0.561025 -1.36098 2.2109 -0.317939 -0.0688311
3997 4 16.7226 10.8878 40.5168 0.0241357 -0.395854 0.0296065 0.162492 0.102553 0.105855
3998 4 14.9926 13.504 40.0085 -1.65358 -3.57775 -1.1144 -0.20746 0.958711 0.121314
3999 4 4.41056 19.8732 32.2178 -2.29238 -5.19541 -10.8835 -7.66946 -1.88858 2.37473
4000 4 6.6539 23.3695 24.2141 -5.37179 0.676464 -2.21273 -3.75097 0.155285 6.0643
4001 4 2.37831 25.116 34.2151 4.82465 0.678082 10.9439 2.97447 1.69797 0.459748
4002 4 22.352 0.0497051 40.9483 -0.92787 1.15635 -0.0692107 1.05411 -1.32466 0.432556
4003 4 22.4233 2.7025 40.3258 1.77272 3.22052 4.17299 -0.684744 -0.80176 -1.40592
4004 4 17.6724 13.6808 40.3919 -0.502573 -0.428623 0.172835 -0.247641 0.524601 0.335223
4005 4 17.0359 15.2119 42.2724 -0.927071 -1.58447 1.75327 0.540208 -0.283284 1.30909
4006 4 15.9351 18.2772 38.5202 -4.88997 2.12557 -0.161804 6.67858 -1.62921 -1.11604
4007 4 10.5319 29.7841 18.6209 -10.7273 2.67955 -5.81629 4.86638 -2.0233 2.45635
4008 4 3.41488 24.7183 44.1393 0.462208 4.73525 -0.272389 -0.203792 0.767959 0.887643
4009 4 24.8483 2.48628 39.5328 1.00674 -0.783321 0.0500435 0.335547 -0.934936 -2.51629
4010 4 25.8386 3.6671 41.4066 0.725379 0.92704 0.975804 -0.00285732 0.195345 0.0793135
4011 4 18.7575 16.2562 39.5466 -0.803954 -1.9467 0.0717191 0.11336 0.980421 -0.285231
4012 4 15.0712 15.8461 39.1336 -0.205987 4.61012 -0.422029 0.113891 3.99883 1.91143
4013 4 6.20538 30.1382 30.0579 2.2124 5.54219 -2.12471 0.584421 0.491195 -1.05153
4014 4 4.11831 20.7676 46.3324 -3.1744 2.49425 16.37 6.43836 0.672791 6.03044
4015 4 29.571 4.06967 42.3382 -0.15356 -0.451495 0.0713178 0.0161193 -0.406156 0.118695
4016 4 24.9152 11.2428 39.3475 1.59438 -0.659798 -0.0245812 0.20719 0.031469 -0.11943
4017 4 21.8305 15.8314 40.8971 0.764271 -1.22944 -1.46926 -0.175362 -0.10846 -0.0586331
4018 4 19.0649 23.0002 41.1152 -0.895972 2.42805 -4.59494 3.97023 -2.64039 7.8389
4019 4 18.8469 30.6339 39.8428 1.95635 2.13323 -1.96794 -5.79033 -3.01691 0.388658
4020 4 6.28628 18.2242 27.8245 4.07522 -4.27319 8.58129 -0.404581 -3.23255 4.75757
4021 4 31.6213 4.69162 41.1341 -0.173664 0.759293 -0.220519 -0.0704688 -0.829132 0.21829
4022 4 30.7524 7.25406 41.5255 -0.467312 0.458633 -0.305495 0.0766656 -0.153298 0.143145
4023 4 27.8277 9.97633 39.7922 -0.525481 0.778066 0.0895266 0.114795 -0.128941 0.112043
4024 4 28.7602 12.6801 41.2735 -0.375729 0.965822 -0.597036 -0.0417102 -0.289436 0.269795
4025 4 24.0116 19.3388 39.2407 0.29795 0.51816 -0.61458 -0.02306 -0.0864219 0.226072
4026 4 15.8139 32.2191 38.607 3.2819 -1.15409 2.69429 -0.159514 -1.92796 3.09126
4027 4 33.6139 1.96761 40.5978 1.05589 -2.87435 0.0126505 0.986093 -0.572726 0.414546
4028 4 -2.30155 4.29367 39.1484 0.361753 -3.42316 -0.980058 -0.685427 0.582051 -0.582505
4029 4 33.3704 6.39656 39.6254 0.559006 -2.36787 -1.32842 -0.0389303 0.367916 -0.108553
4030 4 31.3231 9.85901 40.7028 -0.340323 0.164416 -0.121349 0.0962496 0.032104 0.165468
4031 4 -6.26256 11.9832 42.0428 -0.0600431 0.403527 -0.660178 -0.0579584 -0.284166 0.206125
4032 4 -4.0548 8.56627 41.6767 0.101073 0.745277 -0.367603 -0.080381 -0.10468 0.165141
4033 4 -3.10549 12.4489 41.7373 0.197044 -0.690982 0.265018 0.0404082 0.222606 -0.070459
4034 4 -10.9264 22.9743 39.0704 0.290975 -0.838494 -1.59861 -0.125447 0.123034 0.219904
4035 4 -12.1885 26.6651 41.5398 0.0818837 0.193275 -0.448521 0.110153 -0.0988457 0.307529
4036 4 5.45582 2.50891 42.9604 -0.0291117 -0.368485 0.000495009 0.14597 0.216153 0.112317
4037 4 -3.62226 19.0225 43.4014 -0.201676 0.213708 0.128889 0.266351 -0.198024 -0.116254
4038 4 -5.37985 20.9401 41.9334 0.613886 2.10978 -2.40464 -0.345017 -1.6128 1.66977
4039 4 -7.31517 23.0688 42.5614 -0.743911 -1.04689 -1.35539 0.106731 0.016232 0.229352
4040 4 -7.8028 25.5991 43.1461 0.125573 -0.566887 0.261433 0.0256686 0.0906658 0.0752925
4041 4 5.56937 5.0169 43.0561 -0.356817 -0.0194186 -0.459646 -0.0410624 0.206145 0.0230528
4042 4 0.96358 13.8751 43.4294 -0.136661 0.291885 -0.294475 -0.122501 -0.463425 0.34582
4043 4 10.2155 5.23012 43.9319 0.236656 -0.0417419 -0.415099 -0.0933853 -0.00778744 0.26892
4044 4 7.10874 7.15557 42.2356 -1.40053 0.386526 -1.22143 -0.331301 0.345875 -0.0382801
4045 4 5.15801 13.2681 42.4662 2.16882 0.198114 1.5837 -1.37244 -1.7462 -0.640335
4046 4 3.23157 16.4912 43.2906 0.266907 0.307094 1.49512 -1.43004 0.862698 -0.190699
4047 4 0.0994987 21.0619 42.1908 -0.0663176 0.20443 -0.357123 -0.20104 0.192022 -0.927928
4048 4 -0.896927 23.933 41.7452 0.739066 0.596363 0.291348 0.2712 0.371746 0.154498
4049 4 -5.27462 29.5205 43.0249 -0.129198 0.215029 0.422757 -0.226088 0.000719867 -0.0676813
4050 4 12.4071 0.826629 41.8098 -0.559384 0.540838 -0.723748 0.0250569 0.0127315 -0.044409
4051 4 12.6974 2.64138 44.0749 -0.441536 0.015375 0.257522 0.0696792 0.131218 -0.162477
4052 4 11.7422 7.11373 43.3351 -0.141164 -0.219655 -0.156475 0.0581724 0.0385363 0.367062
4053 4 5.76795 15.8063 42.779 -4.27551 1.08534 0.817551 -1.51571 -1.66929 1.28975
4054 4 2.45968 19.8479 43.3603 -0.622457 3.22641 -2.0336 2.46104 0.597257 -1.65115
4055 4 2.00078 23.7696 42.4715 1.79595 -2.58487 2.37865 -4.75769 -4.95911 5.24495
4056 4 -2.26532 30.3153 42.3539 -0.252138 0.500875 -0.154564 0.240854 -0.267784 0.144381
4057 4 15.3705 0.657683 42.2815 -0.546802 0.236038 -0.0593945 0.23209 -0.114193 -0.066296
4058 4 14.8956 3.41285 43.2034 -1.6245 -1.58547 -0.748369 0.347176 0.116279 0.149278
4059 4 11.8134 10.965 41.7952 -0.331391 1.353 -0.126769 0.224039 0.0499482 0.152029
4060 4 11.7216 13.6536 42.3248 8.9566 7.42765 2.33466 0.255624 0.545441 -0.457063
4061 4 9.12007 14.33 42.5662 0.840557 -1.01473 -1.3093 0.513077 -1.3568 -0.311776
4062 4 1.2329 19.6611 47.1166 0.0915492 1.10061 -0.774708 0.404225 -0.238875 0.185588
4063 4 12.3744 16.365 41.7565 -0.11609 -0.0916185 1.14447 -1.66825 3.11948 -0.355287
4064 4 15.4569 27.589 20.4492 3.32614 -5.51766 -0.892166 0.349543 -3.29689 1.53678
4065 4 18.1269 0.459063 42.2976 0.53932 0.0194592 -0.107393 0.032337 -0.133221 0.420898
4066 4 19.5037 2.75773 42.036 0.136798 0.632421 0.10091 0.0211086 -0.133135 0.213521
4067 4 16.2547 5.37176 41.6786 -0.383978 -0.524548 -0.930479 0.161645 0.0575294 0.126826
4068 4 16.0537 7.64437 43.3102 0.102488 -0.350911 0.141541 0.0388712 0.0642543 -0.0936982
4069 4 16.3159 18.8508 41.0062 -1.66171 -1.74354 2.69062 -1.14096 8.75288 -5.25562
4070 4 2.67901 18.1543 39.7855 1.53459 2.52301 -0.82105 -2.24453 -0.734106 -1.50727
4071 4 3.73882 26.3682 38.5964 -14.4413 3.15015 -7.76769 6.54112 8.4896 -1.78481
4072 4 2.49066 31.5552 43.114 -1.64848 -0.640743 0.997777 0.314539 1.18459 0.0634325
4073 4 19.0514 9.48699 42.6222 -1.35691 1.87171 -4.04222 0.205232 0.0535448 -0.0817798
4074 4 5.82687 32.064 42.269 2.50646 1.84976 0.864933 -0.0641604 -0.899924 0.15527
4075 4 24.866 2.96359 43.5453 -0.0455311 0.541217 0.355791 0.201575 -0.472999 -0.35844
4076 4 22.8598 7.70171 44.2451 -0.0540303 0.0914101 -0.174185 0.110407 0.11354 -0.056409
4077 4 17.425 24.5804 36.9285 4.43403 -11.742 -0.317781 -1.15263 -2.10435 3.77869
4078 4 27.6104 3.02596 43.4381 0.342996 0.261425 -0.451984 0.00682057 -0.532433 0.031568
4079 4 25.3652 5.62991 43.0262 -0.208565 0.0731652 -0.150766 -0.0019963 -0.0523194 0.114024
4080 4 24.8019 8.21336 42.9046 -0.177293 -0.195773 -0.369769 0.0720963 0.114527 0.139842
4081 4 22.1011 11.8659 43.1529 -0.0170336 -0.0898347 -0.0762927 0.0465858 0.118492 -0.00893532
4082 4 18.8511 18.2239 41.5425 1.41274 -5.05245 -0.355954 -0.227839 -0.130131 -0.613888
4083 4 16.6233 27.5284 39.2841 4.49517 2.74777 -0.754324 -9.26372 1.73389 -0.43046
4084 4 31.1052 1.07264 43.2577 -1.46786 1.34537 1.06228 0.203855 0.474555 0.808216
4085 4 27.2188 11.5233 42.7005 0.716865 0.275485 -0.49832 -0.210557 -0.153783 0.284429
4086 4 23.9621 12.9351 41.8102 -0.095145 -0.0990478 -0.00434758 0.0300775 -0.00333189 0.0658007
4087 4 23.6079 17.1046 43.1216 0.307349 -0.148754 -0.428928 -0.103703 0.0024691 0.275983
4088 4 21.3027 20.7889 42.543 1.77047 1.03263 -1.55983 -0.233236 0.124762 0.891242
4089 4 19.3637 26.7807 41.703 0.747492 0.466506 -1.09118 -3.20629 1.23981 -1.28606
4090 4 33.3996 3.84821 42.6318 0.05785 0.153688 -0.464697 0.137103 0.0536683 0.168444
4091 4 25.5083 18.1213 41.6544 -0.0446163 -1.195 -0.443854 0.00942011 0.181691 0.100977
4092 4 20.9308 24.6916 41.5245 4.32531 -1.51205 2.98956 -3.40153 -3.28163 -0.162016
4093 4 -0.768732 4.12395 41.8703 -0.00757562 0.537677 -0.414367 0.0390969 -0.117595 0.0937858
4094 4 -2.23636 6.56275 41.6879 -0.0304564 2.18539 -1.12798 -0.131841 -0.212592 0.267923
4095 4 -14.3294 27.081 43.151 -0.416798 -0.525721 0.0509094 0.156998 0.204324 -0.0252389
4096 4 19.3094 30.3735 43.7612 -0.572158 -0.372448 0.59075 1.72264 1.2986 -1.07208
4097 4 1.92759 3.4728 42.6924 0.75132 -0.257363 -0.522585 -0.187487 0.168634 0.247245
4098 4 0.414949 6.35137 42.347 0.166151 -0.0541915 -0.111224 -0.0551117 -0.058571 0.102143
4099 4 -5.57607 15.7751 43.1166 0.120383 1.1136 -2.50768 0.186501 -0.3786 -0.224111
4100 4 -7.30036 18.5761 41.9301 -0.199129 0.52541 0.19938 0.114087 -0.268025 -0.198682
4101 4 -7.84703 19.4847 44.2394 -0.258551 -0.274084 0.0477212 0.0644193 0.0315817 -0.136099
4102 4 -9.47883 22.191 41.6157 -1.04573 0.384163 -1.19802 0.0654473 0.131465 0.11369
4103 4 -14.6439 30.1445 42.6472 -0.28046 -0.182152 -0.13145 0.0918848 -0.0482147 -0.0378256
4104 4 4.08006 0.535577 42.3248 -0.30334 -0.0978713 -0.60425 0.273879 0.141434 0.259348
4105 4 3.62232 2.69287 44.7033 0.182178 0.0341297 0.0230922 -0.131143 -0.0277211 0.00818504
4106 4 -1.35317 9.42496 44.245 -0.116935 -0.0876682 0.225855 0.0254492 0.0281172 0.0989075
4107 4 -2.34148 12.4563 45.2252 0.574464 0.507366 0.13998 -0.379556 -0.0908929 0.0201373
4108 4 -4.01496 14.3974 44.718 -0.738477 0.00356245 -0.474508 0.0518306 0.170819 0.297338
4109 4 -5.23243 18.0262 44.914 -0.14657 -0.183119 -0.142959 0.0652652 0.0539939 0.137637
4110 4 -9.89397 21.6613 44.2309 1.04144 -2.18852 -2.05866 0.127605 0.073393 0.223712
4111 4 -9.33639 24.7174 44.8095 -0.156025 0.112279 0.151503 0.195527 0.0697304 0.086265
4112 4 -12.7473 29.2384 44.4142 0.318674 -1.63038 -0.0243423 0.0208704 0.350751 0.0986149
4113 4 -13.3183 31.85 45.6413 -0.0312537 -0.0932832 -0.428592 -0.0118637 0.0525007 0.296386
4114 4 -6.34741 24.0122 44.6738 0.677167 -2.88446 -1.18947 -0.0322289 0.225586 0.331969
4115 4 7.73277 4.76652 44.7011 0.158947 0.0794139 -0.593852 -0.115715 -0.0565917 0.236225
4116 4 6.14871 6.95678 44.5712 0.346526 0.0535096 -0.306228 -0.103324 0.0357658 0.199459
4117 4 3.89771 11.9527 44.337 -0.312437 0.492565 -0.0738481 -0.180349 -0.280441 -0.0882178
4118 4 1.27018 16.0127 44.8514 0.0643691 -0.151758 0.343649 -0.414206 -0.118181 0.538886
4119 4 -8.12024 31.4682 45.0592 0.40522 -1.63953 -1.5265 0.0459129 0.316018 0.232633
4120 4 8.04657 8.54116 44.3797 0.518598 0.375732 -0.650572 -0.00880454 -0.158729 0.344725
4121 4 4.59284 14.3596 44.8095 1.23843 0.476573 -0.129094 -0.44482 -0.75875 0.62731
4122 4 -0.50549 21.3185 44.5323 -0.0898037 -0.260613 -0.0231881 -0.32749 -0.113158 0.333463
4123 4 -1.93398 23.7739 44.1209 -0.283655 -0.727731 -0.35572 0.033634 0.386254 0.18043
4124 4 -3.65656 26.4853 43.8674 -0.184064 -0.206117 -0.501982 0.372799 -0.0551184 0.119652
4125 4 -3.70589 29.2361 44.9531 4.34448 -6.9702 -4.97487 -0.600768 1.00116 0.319026
4126 4 -5.89583 31.8081 43.9211 0.645041 0.9204 -1.10542 0.0393325 0.148592 -7.92625e-05
4127 4 7.53112 13.3567 44.8042 -0.525908 0.712631 -0.253837 -0.492425 -0.66919 0.520986
4128 4 6.59146 16.1141 45.4262 -0.331118 2.21029 2.60268 1.13632 0.319135 -0.635193
4129 4 0.661325 25.0807 44.7682 -3.5848 -3.49327 -0.330717 -0.471227 0.805776 -0.246846
4130 4 -0.827959 29.546 44.3335 0.433234 -0.0109764 -0.317973 -0.311234 -0.0837926 0.315899
4131 4 -2.30641 31.861 44.5749 0.883897 0.0928015 -0.751482 -0.080163 -0.105454 0.349357
4132 4 17.8258 2.23148 44.1599 0.0977973 0.492058 0.0631256 0.0519873 0.00330336 0.283998
4133 4 16.3489 5.13092 44.2409 -1.16889 -1.79265 -2.39729 0.0944224 0.239051 0.446965
4134 4 14.2795 6.18466 45.1727 0.129268 0.00398436 -0.0241683 0.105265 -0.00987353 0.237757
4135 4 13.181 10.0634 44.1469 -0.305281 -0.188678 -0.111386 0.0148922 0.670192 0.246126
4136 4 12.3196 12.4014 44.3934 -1.29158 0.229366 0.439209 0.471558 -0.511359 0.625674
4137 4 10.8356 14.3271 44.6727 1.6094 -2.14121 -0.450486 1.46929 0.715016 0.0390864
4138 4 3.10474 21.9948 44.9051 -3.45013 10.6983 -4.80462 -0.147745 2.95097 0.791291
4139 4 1.81339 27.5114 44.6415 -0.68305 -1.7201 -0.469806 -0.476523 -0.123516 0.57413
4140 4 19.7226 7.97216 44.7158 0.433582 0.553265 -1.66196 -0.0275543 -0.167692 0.0967991
4141 4 16.9249 9.99319 44.6296 0.367253 -0.0745475 -0.373255 0.0290618 0.0692147 0.184637
4142 4 15.4208 11.9468 44.0441 -0.100598 -0.0807756 -0.322364 0.16923 -0.149718 -0.0469997
4143 4 12.1617 15.9992 46.0605 -1.6391 -0.381376 -0.0776697 0.16064 -2.09704 1.52299
4144 4 14.4475 17.3244 34.927 -1.95068 -2.35806 -0.379588 -0.652752 3.11023 -0.862078
4145 4 4.60222 31.2132 44.1619 -2.99905 0.133775 -1.60762 1.72839 -1.18418 -0.282082
4146 4 23.0438 4.88543 44.2658 -0.675537 -0.226218 -0.2513 0.38295 0.0269706 0.256653
4147 4 17.8184 17.0713 44.8884 -2.67714 -0.994458 1.14352 -0.571804 0.827616 0.09852
4148 4 15.7559 18.2497 43.3524 4.08356 -3.16769 1.49978 7.72553 0.902929 2.45265
4149 4 13.918 16.9368 27.0484 -3.64914 -5.56479 -1.78346 3.34575 -5.85872 5.41165
4150 4 26.6064 0.827356 44.6545 -0.059013 1.13895 -0.0437869 -0.932557 -0.841972 -0.00437563
4151 4 27.9815 4.20939 45.7218 0.0609862 0.69207 0.275304 0.107039 -0.151355 -0.054417
4152 4 26.3908 9.49767 44.4612 -0.363013 0.142867 -1.09702 0.0775271 0.0152521 0.412588
4153 4 23.7122 12.0519 45.3976 -0.133566 -0.358527 -0.317737 0.143563 -0.00856832 0.148403
4154 4 20.6133 16.7026 45.1993 0.634827 -0.151717 0.1557 -0.308111 0.369165 0.0591694
4155 4 20.3013 20.8375 45.1688 1.06186 -0.35772 -1.04447 0.0486834 -0.21205 0.878792
4156 4 17.1673 29.3562 41.0005 -8.47124 -2.64728 0.396545 -0.154364 -5.55104 -0.337581
4157 4 14.5965 30.9484 43.9846 0.223575 -1.54157 -0.595367 0.442075 1.76263 1.19945
4158 4 29.6025 0.530213 45.341 0.14059 0.700454 -0.913493 -0.146307 0.202223 0.189689
4159 4 27.0771 14.04 43.9753 -0.0385644 0.0884365 -0.16742 0.0193078 -0.027721 0.180715
4160 4 23.7677 19.5394 44.2095 0.886433 -0.00969327 -0.775945 -0.299733 -0.00189402 0.387168
4161 4 32.4141 7.22554 43.7849 0.68565 -0.1662 -0.551727 -0.214786 -0.00899991 0.155479
4162 4 21.1437 23.8314 44.2054 3.27244 0.181469 2.02243 -0.621946 -1.15428 -2.56144
4163 4 20.4004 28.1678 43.5208 0.223938 1.01509 1.10085 -0.283275 -0.829054 -0.324487
4164 4 0.0643237 2.39013 44.0753 0.574638 0.361916 -0.196642 0.039023 -0.240782 0.214797
4165 4 -2.37347 7.25404 45.2404 -0.212278 -0.549163 -0.228758 0.0595004 0.129574 0.203833
4166 4 -3.74857 10.2115 43.9299 0.0296571 0.148924 -0.308846 -0.000699041 -0.124791 0.193648
4167 4 -13.3198 27.2309 45.9693 0.2574 -0.425186 0.411744 -0.0211255 0.166457 0.104834
4168 4 -16.1507 29.7519 45.4045 0.64196 1.92911 -0.685895 -0.481491 -0.523175 0.168418
4169 4 0.786254 0.381075 45.428 0.38203 0.556498 -0.00919201 -0.135849 -0.426179 0.444599
4170 4 -0.0494594 11.1067 45.9511 0.798603 0.111162 -0.319295 -0.120002 0.0476109 0.300734
4171 4 -2.24153 14.7118 46.5861 -0.678426 0.161064 -0.423244 0.210493 -0.119193 0.0429438
4172 4 -3.54953 17.1987 46.9506 -0.334953 0.375824 -0.252863 0.114795 -0.0250028 0.0792608
4173 4 -7.50762 21.611 45.9524 -0.238566 0.0294473 -0.45611 0.130851 -0.196444 0.461945
4174 4 -8.15778 23.9852 46.9964 0.0517718 0.147935 -0.643607 -0.193838 -0.20498 0.212445
4175 4 4.96085 7.80788 47.1487 -1.42313 1.22053 -0.578909 -0.184777 -0.183882 -0.158843
4176 4 2.8465 8.2335 45.4293 0.00757432 -0.391987 -0.570373 -0.344037 0.309563 -0.0166203
4177 4 2.43727 10.4034 46.1988 0.260036 -2.51509 2.33865 -0.144889 0.631323 -0.298374
4178 4 0.851016 13.7262 47.4527 0.0473726 -0.186644 -0.47296 0.0689366 -0.0283426 0.228007
4179 4 -5.74987 23.9761 47.0262 0.146962 1.02941 -0.545469 -0.244026 -0.448468 0.147195
4180 4 8.92552 0.135736 46.9124 1.66231 0.509869 -4.03592 -0.0440457 0.0905678 0.249967
4181 4 7.18081 9.71373 47.39 -0.195552 -0.39444 -0.641619 0.117008 0.125556 0.195109
4182 4 3.00402 12.9679 46.6264 -0.485634 -1.01676 0.283604 0.192404 0.727447 -0.368268
4183 4 1.80121 15.9233 48.2979 -0.0949101 -0.4952 -0.586748 0.190916 0.225383 -0.14709
4184 4 -3.37232 23.9485 46.3713 -0.427039 -1.04106 0.0389866 0.0247912 0.157666 0.308187
4185 4 -4.18011 27.1652 46.4546 -2.97277 0.539377 -1.59452 -0.696649 0.620609 -0.545014
4186 4 -5.77011 31.9137 46.558 0.493119 -1.86341 -1.64796 0.175962 -0.230079 -0.0234564
4187 4 10.4639 1.9992 46.2387 0.242145 0.711571 -0.637214 0.0304087 -0.0171112 -0.0291161
4188 4 4.1855 15.165 47.3895 -0.0652806 -0.671993 -0.444927 0.207677 0.467152 0.294147
4189 4 -0.374705 26.5425 46.5545 1.22137 0.289196 -0.220567 -0.0738166 0.0071815 0.362165
4190 4 -1.8613 30.8271 47.109 3.35674 5.30953 1.4896 0.490005 -0.0705263 0.851866
4191 4 16.44 5.47844 46.7758 4.65142 6.2659 -4.31711 -0.383858 -1.33878 0.683367
4192 4 14.2866 9.22378 46.6895 0.68877 -1.34492 -1.80093 -0.22933 0.60859 0.478994
4193 4 13.3639 11.6029 46.4784 -0.309976 -0.0557097 -0.952486 -0.0230007 0.55875 -0.297362
4194 4 13.8871 17.1144 44.5043 -1.52812 2.47895 1.53132 4.48852 -2.61709 -3.37191
4195 4 1.40029 26.5788 40.9826 0.856402 4.00602 5.2171 -5.40525 6.06956 6.31394
4196 4 2.40339 32.0211 46.8068 -0.00870466 0.0429499 0.471345 -0.148779 -0.323721 0.0350586
4197 4 19.4266 1.66214 45.8816 1.08955 -4.00329 -3.26049 0.552993 -1.33465 -0.535778
4198 4 17.5466 12.309 45.7277 -0.510967 -0.554345 -0.0391791 -0.149941 -0.273287 0.250539
4199 4 14.419 14.768 47.3069 -1.35242 8.08964 -0.850372 -0.379507 1.65332 1.65428
4200 4 16.7898 27.1719 44.0981 -2.48694 -7.48321 -3.41813 2.28638 3.21573 -1.11367
4201 4 3.3661 28.8691 31.3588 -6.83489 4.13708 -3.47921 -4.27957 1.07609 -1.6243
4202 4 5.54776 21.9069 32.8333 -11.3992 -5.87614 -10.3234 -1.52315 2.82516 2.02876
4203 4 21.2758 2.21657 47.5976 -0.610191 0.397181 -1.38575 -0.0764799 -0.270579 0.121306
4204 4 23.6681 3.93211 46.9309 0.695806 0.0148687 -1.65644 -0.0589919 0.0367345 0.112112
4205 4 16.1668 15.7632 46.093 3.07379 4.01496 -0.780067 -0.30455 0.376696 1.11317
4206 4 4.28317 20.067 34.7279 2.92778 -4.5621 2.66474 -2.53267 -0.73482 -1.31202
4207 4 26.1765 5.07853 48.0059 -0.196646 -0.305437 -2.1991 -0.245508 -0.0128203 -0.410721
4208 4 18.4238 19.0907 46.7672 -3.05481 -1.65035 -1.98893 2.24519 0.908842 0.927145
4209 4 11.4297 31.0266 43.0499 20.2219 12.9474 9.60824 0.0293293 2.22526 0.420813
4210 4 11.0643 30.1945 35.8233 6.96934 4.49598 5.29079 -6.54191 -0.711902 -6.70485
4211 4 24.9481 0.16872 46.3371 0.392019 0.29019 -0.118259 0.578789 0.542995 0.200848
4212 4 28.2025 6.7575 46.9546 2.67341 0.717807 0.0447655 0.630697 -0.153242 0.212983
4213 4 20.9011 18.7069 46.7199 0.884977 -0.157482 -0.776749 -1.00386 -0.0635918 0.179995
4214 4 18.8606 24.3937 43.317 1.00123 -1.1709 -0.475895 0.00172499 -0.941925 -0.931999
4215 4 13.7062 26.6702 41.6139 -0.743447 4.98877 -2.82554 -0.0221063 0.228653 0.0730869
4216 4 32.8685 2.36875 46.3838 -0.627545 0.553441 0.964527 -0.0976254 0.0783199 -0.029109
4217 4 29.6794 2.5631 46.6777 0.0919671 -0.382254 -0.68552 -0.0671976 -0.150962 0.162341
4218 4 30.2228 6.26882 45.0752 0.352362 -0.131247 -0.342309 0.0366388 -0.0256106 0.126411
4219 4 29.5668 9.7778 47.3343 -0.290064 0.27949 -0.603067 0.0192998 0.0174983 0.197487
4220 4 24.9657 14.1718 45.2899 0.0441201 -0.158144 -0.164971 -0.105997 0.0101649 0.250576
4221 4 24.38 16.3894 46.2854 -0.709653 -0.218443 -0.219346 0.30738 0.147339 0.228245
4222 4 31.4256 8.7488 45.694 0.934668 1.58496 -3.37512 0.260345 0.250394 0.441783
4223 4 -12.8263 24.8546 45.4659 -0.0588134 -0.161412 -0.415885 0.188857 0.276249 0.301159
4224 4 21.791 25.4236 46.1826 -0.333779 0.240016 -0.294644 0.146673 0.24177 0.690713
4225 4 0.899328 4.7692 46.7972 -0.0123825 0.140015 0.0796103 -0.072393 0.0332151 0.0027961
4226 4 -2.46587 10.2149 46.7432 -0.390848 1.5321 0.680858 0.466136 0.0969591 0.643242
4227 4 -5.06949 11.521 45.6683 0.0277544 0.0163954 -0.228844 0.127804 -0.000152426 0.233918
4228 4 -6.98437 13.9338 45.3149 -0.332295 0.647519 -1.18997 0.139711 0.0120623 0.465188
4229 4 -6.08154 17.4318 47.2814 -0.533613 -1.04847 0.0134546 0.381085 0.332935 0.425707
4230 4 -11.3734 21.3714 46.3204 0.368737 0.374109 -0.545561 0.0490895 0.0513709 0.191742
4231 4 -10.836 23.899 46.5354 -0.374856 0.3752 0.00518168 -0.00664172 0.0108642 -0.0688103
4232 4 -11.282 26.2606 47.7519 -0.0167728 0.508268 -0.0110108 -0.017564 -0.0559591 0.0699975
4233 4 -14.2875 30.0918 47.1148 -0.161784 0.274018 0.250403 -0.364305 -0.352882 -0.0376148
4234 4 2.22596 1.99518 47.0334 0.351704 0.430471 0.338886 -0.0912106 -0.252589 0.165763
4235 4 -4.80818 19.6044 47.8438 -0.831775 -0.0434913 -0.887227 0.358555 0.0775127 0.407009
4236 4 -10.7881 30.3547 48.3031 0.178937 1.39351 -0.85273 -0.0781374 0.0631135 -0.0381454
4237 4 6.39181 6.28441 49.8166 0.387584 0.595965 -0.494313 0.502269 -0.127359 -0.101771
4238 4 5.09722 8.57865 49.5569 -1.04728 -0.624615 0.604875 0.53591 0.0604585 -0.604161
4239 4 -0.145166 17.508 48.9477 -0.981075 -2.08106 0.3039 0.0924296 0.490724 0.195764
4240 4 -4.79381 25.7604 48.8097 0.917222 0.142761 -2.57661 -0.296397 -0.176438 0.0869093
4241 4 -8.31472 31.0157 48.9803 0.174056 0.228849 -0.587314 -0.20766 -0.131928 0.275633
4242 4 9.12709 0.99647 49.4629 0.662277 -1.39492 -2.94949 0.232697 0.0397739 0.0509132
4243 4 10.906 4.38139 47.2454 -0.253375 0.0737309 -0.179325 -0.0241327 -0.366244 0.455722
4244 4 8.4028 7.53064 48.0365 0.487367 -0.0292407 -0.457503 -0.236113 0.072968 0.357353
4245 4 6.56245 11.8389 48.7419 0.0241078 -0.323945 -0.780307 -0.0286436 0.0571818 0.248436
4246 4 2.31489 18.2717 49.654 -0.659405 -1.21606 -2.07295 0.468762 0.571339 -0.0844491
4247 4 -0.0213365 19.9331 49.3785 -1.90635 -3.92389 -2.51145 0.573293 0.726707 0.584708
4248 4 -2.25615 25.4844 48.2039 0.384658 -1.47079 -2.61111 -0.0348901 1.574 1.14958
4249 4 -3.74972 28.3528 48.9724 1.80239 -0.480108 -2.39707 0.180481 -0.392704 0.0904821
4250 4 11.9495 1.27118 48.2853 3.97421 1.8257 -4.55975 0.607794 0.379982 -0.33281
4251 4 12.7572 3.72843 48.6749 2.49159 2.69501 -4.38668 -0.144172 0.268841 1.10881
4252 4 8.56634 10.4871 49.67 -0.893128 -3.2398 -1.78898 0.060103 -0.0217901 0.0794283
4253 4 3.29564 17.846 47.1237 0.374457 0.439349 -0.220068 0.461193 -1.12529 0.797769
4254 4 3.35232 30.1681 39.7854 -2.79232 0.154387 -0.0622553 -0.552057 -1.62149 0.0519439
4255 4 -0.339137 28.8306 47.6705 -0.559854 0.543506 -0.874245 -0.0342323 -0.240248 -0.472838
4256 4 14.4663 5.76875 48.6357 3.86946 0.676769 -5.03218 0.793164 0.268815 0.0299854
4257 4 9.79457 13.0147 49.3681 -0.267054 -0.410124 -0.527388 0.127607 -0.0177125 0.228002
4258 4 8.17299 15.3419 49.4497 -0.251198 -0.239948 -0.271892 0.451083 0.38699 -0.115567
4259 4 19.6884 4.00913 46.9208 -0.0947827 -1.59551 -0.341903 0.0321905 -0.360747 0.118236
4260 4 10.3786 14.7175 47.6768 0.323058 -0.185173 -0.76345 0.183296 -0.183361 0.390124
4261 4 -1.0393 21.8687 50.5281 -12.7898 -8.25477 -7.62271 1.41925 1.20656 0.235368
4262 4 2.53195 29.0798 50.6048 -3.09691 -0.415334 6.86249 0.509707 1.98602 -1.4689
4263 4 3.07673 31.2543 49.5872 2.71272 -4.96807 1.9979 -0.310671 -1.45548 -0.029618
4264 4 20.2985 1.03705 49.7621 3.23773 -1.25147 -1.96342 -0.430696 0.664357 0.208857
4265 4 22.2825 3.70474 49.467 -3.15831 -1.17497 0.107801 0.706501 0.0393267 -0.14573
4266 4 16.2779 12.6581 48.1781 -0.571829 0.00833926 -1.69282 -0.00558117 0.734643 0.282145
4267 4 14.2086 14.5318 49.8974 0.354158 -0.717461 0.8395 -0.230534 0.278953 -0.535324
4268 4 19.353 25.6013 49.0448 1.10348 1.11636 -1.04174 -0.919967 0.334456 -1.9655
4269 4 13.853 21.4165 34.6754 -1.6845 29.6082 9.13689 -0.740751 0.173618 0.250236
4270 4 16.8627 24.0223 32.9933 8.36506 4.74724 -3.03233 -1.21951 6.26424 -0.851543
4271 4 23.1934 1.28531 49.0059 -0.485083 -0.665382 -0.543292 0.459219 0.197204 -0.111891
4272 4 21.3742 8.42085 49.3422 0.0908708 -0.0352849 -0.171505 -0.0879494 0.0608469 0.15147
4273 4 20.5036 10.2477 47.3904 -0.00535033 -0.101392 -0.405438 0.0650947 -0.0799208 0.245786
4274 4 18.6892 13.0413 49.1125 -1.89625 2.98505 -2.25368 -0.383528 0.475287 -0.332902
4275 4 18.344 16.0807 48.9821 -1.87663 0.359968 -0.706041 -0.0270231 -0.023093 -0.598151
4276 4 17.322 18.5419 49.1214 1.08411 -0.359099 -0.616105 0.0209992 0.091215 -0.0789353
4277 4 23.0256 10.2384 48.6298 -0.269635 -0.356651 -0.887727 0.0412395 0.0203555 0.350383
4278 4 22.6219 13.0718 49.0918 0.696357 -0.677713 -0.173438 -0.17062 -0.108434 0.129749
4279 4 18.2327 20.1226 43.4705 -4.75188 -6.31541 -4.44754 0.343347 0.916008 -4.15507
4280 4 9.43346 23.2635 27.3187 3.11776 -7.27965 -8.2568 5.11729 -10.9064 7.17025
4281 4 3.56147 29.1214 43.7319 1.05602 -0.896291 -1.63914 0.57807 -0.255535 0.049302
4282 4 29.36 2.09419 49.2363 -0.000928255 -0.105032 -0.0520802 -0.0390902 -0.089221 -0.0381261
4283 4 29.0904 5.37957 48.6971 -0.290838 -0.0346448 0.0266629 0.325984 -0.056869 0.369899
4284 4 27.2602 9.05063 48.3648 -1.26229 1.07019 -1.21612 0.106585 -0.19461 0.429619
4285 4 23.1414 15.5822 48.6931 -0.367562 -0.537854 -0.336605 -0.1756 0.263565 0.270384
4286 4 18.7686 28.7037 47.3047 -0.189918 0.725324 0.0443155 0.405241 -0.15838 0.722684
4287 4 18.292 29.0247 49.6441 0.702481 0.251958 -0.697744 -0.11414 -0.31535 -0.277045
4288 4 33.3072 0.0302038 47.2236 5.20223 3.92244 -4.885 -0.144324 1.82384 0.774941
4289 4 31.9078 1.95056 48.6649 0.466623 -0.200072 -1.61758 0.291235 0.149231 -0.3307
4290 4 30.6501 7.92972 48.5882 4.44849 2.62334 -3.71625 0.492556 0.139858 -0.222235
4291 4 26.418 15.3234 47.4471 -0.729557 -0.0254178 -0.38139 0.342812 0.163541 0.324728
4292 4 24.8688 18.3391 48.7967 0.0747002 -0.589152 0.175478 -0.0701471 -0.858093 -2.04854
4293 4 24.015 20.5518 47.7502 0.530194 -0.0152304 -0.120834 -0.170432 0.2003 0.105996
4294 4 -1.5512 4.56379 48.8421 0.544794 0.245044 -6.23115 1.00028 -0.3648 -0.0290661
4295 4 -8.79881 16.5028 47.0037 -2.92035 1.50604 -4.20963 1.71123 -1.28231 2.75718
4296 4 -11.0916 21.3113 49.0683 0.691967 0.778013 -0.88498 -0.198122 -0.0984117 0.235672
4297 4 -12.4808 23.4797 48.4748 -0.332533 -0.0920037 0.0327332 0.183297 0.0337141 0.0988808
4298 4 1.85216 0.807802 49.2761 -0.0458873 0.117322 -0.366123 0.115812 -0.240909 0.481401
4299 4 2.47818 4.10602 48.661 -0.0253899 1.09639 -0.0955021 -0.0777527 -0.267464 0.0430044
4300 4 -0.289431 6.60842 48.2315 -0.049668 0.842807 -0.100877 0.249675 -0.025956 0.146276
4301 4 -2.46488 7.1813 49.5407 -0.97967 0.47588 -1.14834 0.22237 -0.136734 0.45991
4302 4 -4.94612 14.8341 48.1565 0.614147 0.644348 -2.86191 -0.331672 0.167524 0.402661
4303 4 -6.79653 17.5264 49.6446 -3.08867 -0.441647 -0.618577 -0.568185 0.136698 0.125268
4304 4 -9.96996 23.8317 49.0351 -0.192755 0.689882 -0.838949 0.081503 -0.229826 0.155944
4305 4 -12.3609 28.4661 47.9718 0.128806 0.736387 0.00797813 -0.0180268 -0.0847057 0.254632
4306 4 10.8815 16.0782 39.0416 8.85746 2.86164 0.00603525 2.9679 4.31558 1.33098
4307 4 1.44709 24.7424 37.3456 -3.65766 5.74243 -1.74581 -5.96911 -3.75475 6.22356
4308 4 12.3305 29.0717 37.6348 7.87295 5.57405 13.1149 2.03315 -0.0995031 1.23354
4309 4 6.67549 16.4813 38.0165 1.12618 -4.46001 5.56224 -3.71196 -1.92448 1.70487
4310 4 0.0145227 14.6585 59.497 -15.6067 -9.35668 5.27116 0.762479 0.47782 0.0988852
4311 4 14.6001 25.7804 27.7057 13.737 -10.9821 -6.22412 -3.49061 -1.64073 0.94094
4312 4 2.42749 27.6223 25.8283 4.41898 11.8128 14.3259 2.8974 -0.122933 1.75227
4313 4 9.96856 21.3455 26.0664 2.11852 -7.94389 -15.1471 -0.463926 2.52194 0.807522
4314 4 12.5076 16.109 33.479 -2.21241 -3.37926 -0.844274 -2.34147 0.158177 -3.12656
4315 4 16.0845 23.1586 35.2503 -2.03428 0.588889 2.43779 1.09552 0.407601 2.27076
4316 4 29.9805 0.0311161 29.1634 2.58654 7.25591 -5.855 1.19322 -4.95895 9.62588
4317 4 4.70282 17.1003 23.2145 -0.190529 -1.3406 -0.836533 -2.62791 12.5954 -2.59722
4318 4 7.077 18.3507 17.3331 -1.42394 -1.89472 -4.28736 -6.89273 1.07956 9.22704
4319 4 9.1467 21.9519 13.7741 -5.51977 -7.19709 -14.5436 -0.849971 1.32411 1.21877
4320 4 13.7991 20.7698 11.9043 -3.14479 0.186229 1.26079 -20.2097 -4.22223 10.8323
4321 4 7.50355 21.4272 30.565 -5.50854 -4.44 -0.178134 -4.59561 5.81144 -0.387784
4322 4 12.8115 20.4208 17.7907 2.44901 1.37259 1.45043 3.6529 -0.809982 0.67468
4323 4 17.9651 23.0284 18.1126 -3.11556 -5.60184 4.82967 -1.73512 5.92256 5.06608
4324 4 3.73027 20.2575 40.6667 -1.15134 -7.16567 -0.860851 -0.828912 0.0820449 1.2627
4325 4 12.8086 17.2025 23.245 9.33639 -7.00454 -3.52779 0.0733338 2.74355 0.797142
4326 4 5.28678 20.4734 18.0748 -0.814816 4.05354 -1.56012 1.21505 -0.368227 -0.142356
4327 4 12.9995 16.7038 37.6119 5.97853 -0.731698 5.37165 10.0865 -2.09146 5.33041
4328 4 15.6448 26.1816 37.4089 2.41669 -2.12758 -3.11129 -1.02033 0.413201 0.377811
4329 4 4.00865 19.4716 24.8565 -1.42229 8.17409 0.867662 3.26647 6.79329 -1.61738
4330 4 3.12091 24.8827 27.3792 1.5337 14.7433 -6.89336 -4.99729 5.97021 -8.67956
4331 4 6.88419 29.919 12.541 -0.453782 4.91873 1.57376 2.70212 -1.56094 1.27836
4332 4 9.34296 21.1 11.5411 -1.14451 2.67752 -0.749468 -3.1923 -13.21 23.2406
4333 4 10.6657 17.5051 21.6873 5.38195 -0.403307 3.55281 -1.83458 0.0269937 -0.768069
4334 4 4.4148 23.1303 31.1004 1.85135 3.04102 -19.3845 -1.73955 0.698186 -3.48767
4335 4 8.06292 17.0423 19.9542 1.84462 2.7299 6.07164 -1.92054 4.76411 2.70001
4336 4 10.495 28.1717 27.7536 2.44552 -3.72821 16.024 0.98114 -4.67065 -2.63369
4337 4 9.02406 15.9495 37.1481 0.0359536 0.611455 -3.28747 1.6723 -0.772445 -1.14648
4338 4 11.4817 18.5951 29.2848 -2.07662 5.86294 -0.627482 -0.943834 0.383242 3.34301
4339 4 5.06649 28.4374 19.974 -3.62987 -5.27488 1.68595 -3.34062 -9.69903 6.14367
4340 4 17.9571 28.1563 34.637 -3.64647 -4.06853 -4.28055 -1.32726 -0.459982 -5.846
4341 4 19.041 22.9538 47.3853 0.231765 0.442884 0.0406803 0.188775 0.058538 0.901901
4342 4 12.4491 20.5231 15.4744 -4.79106 -6.2738 6.07672 -4.45705 1.56 -0.784375
4343 4 16.1807 24.3683 41.4232 -5.55187 2.49481 10.0963 2.67953 -1.3291 -5.71524
4344 4 8.2591 26.3782 24.7069 -1.2081 5.75916 -2.82028 -1.79666 2.47348 0.277253
4345 4 8.07758 23.5045 17.7625 8.65826 -4.02175 -1.16285 2.7416 0.541779 -1.52691
4346 4 7.89739 20.5001 34.5795 0.996228 9.39962 8.51137 0.581993 2.15008 -2.66234
4347 4 16.0516 23.1745 38.526 -0.0115958 -10.2699 19.2392 0.692068 0.721863 3.18186
4348 4 12.2811 26.804 13.7275 -5.84641 -1.35986 -1.95175 3.03371 -0.585028 -1.71448
4349 4 3.41419 24.2947 38.6168 -5.38726 0.337396 -7.62733 0.214201 -6.1381 1.82119
4350 4 4.77149 24.282 34.6298 8.05668 11.467 -2.79563 -0.212816 -2.33655 -1.72825
4351 4 18.3185 26.5291 46.1884 0.960684 0.503648 -0.45257 -0.674932 0.0575809 -1.20339
4352 4 12.0733 30.6713 22.8566 9.14794 -2.0611 0.240086 1.84726 -4.87081 -3.6135
4353 4 16.9517 24.1618 28.406 1.33942 10.5605 13.0997 0.249406 2.21531 -2.07974
4354 4 2.96995 29.0394 35.9832 0.125057 -2.44671 -1.80082 -3.11683 -0.624979 -0.0704157
4355 4 15.6443 27.4352 25.3645 -9.87847 2.34446 -2.62184 1.39591 2.13117 1.52783
4356 4 12.5557 26.0635 26.648 6.82844 22.824 -20.6435 -2.89462 3.4871 6.93459
4357 4 10.9684 26.9468 20.6813 2.50731 0.504026 -8.59689 -2.34219 3.25991 3.74839
4358 4 8.74736 17.1679 25.9228 4.50741 -13.748 -15.8271 -1.05079 6.63371 -1.65853
4359 4 15.3593 25.622 43.0515 1.69336 4.46252 4.84761 0.798049 2.16686 1.06686
4360 4 2.4395 15.7552 56.9766 -8.33315 -7.20424 2.32449 -2.24862 -1.48898 3.73702
4361 4 16.327 20.0009 26.2698 -3.56051 0.0973254 2.03236 -3.57812 -7.62625 6.10172
4362 4 12.1013 30.5761 45.7799 3.1673 8.68316 1.39892 0.823279 0.589918 0.249943
4363 4 10.2826 16.8851 32.125 2.11802 18.7488 -8.11735 2.25741 0.090998 -0.572912
4364 4 17.5116 23.5412 45.5237 8.54691 -1.33281 -6.24141 -1.7207 2.74898 -2.33028
4365 4 11.442 20.5125 12.8696 -4.69168 1.57149 5.24163 1.00757 0.353487 2.60216
4366 4 19.1628 23.0002 63.5726 15.5102 -13.1272 18.6608 -1.07795 0.91233 -1.29691
4367 4 7.22885 20.2329 19.7961 6.42219 8.40996 -5.63289 -2.91295 -2.40252 3.45654
4368 4 5.85215 30.3177 39.1925 -19.4619 17.4282 -4.43136 -5.7432 9.00599 -3.8114
4369 4 18.0934 25.6195 30.2581 -1.69733 -1.09402 1.52254 1.62371 1.80307 -0.459063
4370 4 8.91165 18.7198 23.4042 -6.20982 2.40953 -6.06685 -0.465545 0.326706 -0.247525
4371 4 8.45941 30.4764 18.5373 3.59523 1.54541 -1.96461 -3.85791 1.41564 3.62109
4372 4 9.53712 20.5826 21.4246 0.252337 3.91548 -6.88796 2.81016 -1.48648 0.11692
4373 4 2.54829 17.3758 52.7278 11.4653 -23.8886 1.25537 -2.50635 2.89932 -1.72014
4374 4 18.5722 25.246 54.5894 11.9501 -12.7903 21.9007 -1.12405 0.639521 -1.87444
4375 4 9.30289 31.6891 37.4466 8.11014 4.97403 -21.8766 0.600675 1.96851 -1.42947
4376 4 13.6607 22.8038 14.1137 -2.12467 -0.451294 -6.28352 -4.88622 1.8831 2.32549
4377 4 9.53053 27.0244 14.5632 3.73476 0.826564 12.4215 1.77117 0.598224 2.51007
4378 4 14.4251 25.2622 14.5232 2.87211 0.414741 -4.46954 0.291404 -0.933476 -1.47783
4379 4 8.36863 17.0259 35.1341 -6.96818 11.3903 -13.4407 -1.67942 0.35797 4.83058
4380 4 6.77697 16.6211 40.493 -0.557565 -0.312762 -5.14386 -3.90299 -0.428669 0.540498
4381 4 7.23989 24.0484 13.9635 3.91262 -1.60943 -0.444842 -1.02131 -2.99412 -0.0288906
4382 4 13.0364 27.7825 19.9676 0.263774 -3.37856 -3.93453 -2.07439 0.491509 0.916364
4383 4 12.4051 18.8843 33.5293 -7.9126 19.6695 -2.09566 4.95793 -1.76394 1.66028
4384 4 13.4437 17.5219 30.506 -7.05124 6.81422 -13.1199 -10.218 -4.13645 4.22209
4385 4 12.0383 30.5686 26.2713 -1.63759 0.265894 6.58978 5.75474 -0.219632 8.49739
4386 4 4.83443 21.6588 25.9791 -6.76773 5.26767 -9.62226 -5.63811 0.495819 1.27741
4387 4 4.06681 28.4985 41.123 -14.9536 3.00944 4.54437 10.9676 1.73996 -5.3213
4388 4 6.4914 19.4949 25.9258 -3.11861 10.9216 5.4552 0.241763 0.72751 0.0530645
4389 4 14.665 17.0283 80.1771 7.65831 -11.4973 38.6078 -0.532245 0.79905 -2.6832
4390 4 7.87107 27.4505 20.3562 2.26463 2.19475 -2.12158 -1.66182 -2.55157 -3.24903
4391 4 9.62541 24.3141 14.8558 4.95907 4.19277 -0.441857 -0.887083 -3.54164 2.04977
4392 4 14.6739 29.5814 35.8548 -1.5239 1.90023 0.936612 -0.386627 1.84321 4.25142
4393 4 16.535 20.5936 39.271 6.60303 -4.04637 -6.92265 -4.09076 2.33755 4.38539
4394 4 18.2365 22.5891 50.4837 1.02524 -5.25328 2.71192 -0.236064 0.00551604 0.299515
4395 4 12.3062 23.2751 18.8445 1.00824 0.161944 -7.86898 3.68146 5.08399 -1.01022
4396 4 14.1203 25.2766 20.5037 -5.07777 11.9083 -5.36153 -0.346682 -0.854254 -2.93877
4397 4 2.96579 22.7323 28.0547 -3.87732 -1.31456 -1.77148 6.08862 0.473009 2.62485
4398 4 18.9159 24.7912 52.0363 -0.925287 -19.8793 23.706 -0.512753 0.887288 -1.83117
4399 4 4.93666 22.0766 20.011 5.22945 1.95732 3.09498 1.39909 0.182787 1.46374
4400 4 13.0473 19.2625 37.7214 6.99961 -3.1548 18.7012 1.37026 -1.8534 -1.36395
4401 4 14.455 22.0143 19.633 -4.55558 3.11453 -16.5399 -3.4249 -3.51803 4.7145
4402 4 11.4709 27.3942 25.0401 -5.52205 1.52636 1.06633 -1.03196 2.42292 -0.103444
4403 4 16.8575 21.8146 25.4842 -9.48511 -7.4597 5.43825 -0.254849 7.62945 -1.47324
4404 4 13.1248 30.5996 33.0896 -0.122175 -10.3264 3.53003 -10.7029 7.79396 -6.65894
4405 4 15.3819 28.8316 43.0611 2.16669 -4.88988 10.0986 -0.39874 -0.63512 -4.88701
4406 4 10.5653 24.3566 17.0896 -2.82716 5.75933 -1.08903 2.74557 -2.94813 1.74322
4407 4 16.1349 21.467 33.4727 -2.71991 6.16259 -1.38341 -2.00071 -4.64714 -0.25604
4408 4 10.589 21.5905 17.8937 -4.87299 4.94245 3.39494 -5.56235 -3.78025 2.97741
4409 4 13.3651 21.8055 31.6168 11.5206 -0.553006 4.57944 0.416874 -1.71315 0.222686
4410 4 12.4136 31.1072 40.7052 6.39492 1.81816 -4.35374 1.27818 -2.00763 -2.56382
4411 4 16.684 25.9709 34.8422 7.82467 0.989915 -5.7946 0.3873 2.03518 3.36251
4412 4 14.0153 27.9341 39.661 -11.4459 7.9746 -9.44272 -2.12414 0.704506 -4.2926
4413 4 14.8564 22.4159 27.2316 0.630587 -5.94359 10.8466 0.569288 1.01678 -0.863208
4414 4 14.0013 19.5765 29.7593 5.70033 12.4756 -6.31575 1.31441 4.39347 -2.32378
4415 4 6.13358 25.7911 20.7805 2.11477 -2.66414 0.676199 -1.19841 3.14906 2.07072
4416 4 12.5603 28.9674 34.6076 -4.18855 -9.60997 9.44912 1.11953 -3.78209 0.220946
4417 4 17.2395 27.7646 30.9019 1.13265 -0.634466 -5.7344 -0.0037732 2.31524 -0.0152614
4418 4 8.41226 19.5287 30.3566 -10.4835 5.97061 11.7771 0.270168 -2.48157 -1.54771
4419 4 16.4495 16.4929 51.3963 -0.266169 -19.6159 14.6835 -1.29101 1.1038 -2.87117
4420 4 6.50198 26.3805 27.8661 -14.2394 -0.431767 -5.47521 -0.355364 -1.11843 1.23772
4421 4 3.74092 16.8211 55.0292 -22.2242 -5.13213 15.1158 6.77791 1.44094 -3.74575
4422 4 8.96066 17.9656 39.3592 -11.4671 3.1757 -0.215486 -3.324 -5.03688 -6.918
4423 4 13.6528 29.0683 26.8448 -7.2121 -5.54943 -0.639125 0.471396 -0.798258 -1.41082
4424 4 16.2429 19.8165 23.1495 0.906917 -11.5695 -10.7303 5.23547 -6.16507 1.34246
4425 4 16.0643 20.6791 36.4304 7.13204 1.49982 -0.403403 -3.68841 1.40083 -8.68558
4426 4 5.45887 25.5772 32.4753 -20.4136 -9.62803 11.7559 -2.27327 0.80625 -0.16712
4427 4 12.8138 30.0491 30.169 6.18518 1.77583 0.660005 1.85229 1.13028 0.412214
4428 4 7.63957 21.9088 22.9314 0.447298 6.1316 -1.96375 0.0120627 6.94754 -5.88375
4429 4 7.8487 24.3723 21.4865 9.69763 4.35546 6.70119 -0.921599 -1.65097 3.95325
4430 4 15.0375 30.8582 40.4776 0.771549 0.517919 -0.745248 -0.207556 -0.443976 -4.32433
4431 4 15.4852 27.1888 22.8443 -7.51734 -2.0939 -4.34691 3.61735 2.38527 2.66608
4432 4 16.1711 26.8501 28.9831 5.39465 -9.5113 -2.936 1.88055 1.70138 0.628748
4433 4 14.7691 28.0846 32.1056 12.6123 -0.469765 0.31354 -0.0781081 0.830247 0.110157
4434 4 15.7791 23.7457 19.1435 6.18446 3.27957 -3.48047 -0.0742184 0.173019 -2.66879
4435 4 12.5811 20.8273 28.3448 -2.23539 3.22552 -8.98854 -2.02033 1.07204 -1.50641
4436 4 6.45881 19.71 32.8925 -0.553088 1.75123 3.08956 5.21927 -4.02153 -2.9143
4437 4 6.57974 30.6869 27.0932 5.10117 -0.406288 2.00279 -0.13138 -1.37886 2.06674
4438 4 9.05402 30.5478 22.1633 0.50826 8.79766 -4.6407 3.82123 6.61858 6.40326
4439 4 12.8726 24.9172 24.9227 9.53609 -1.18285 -5.57849 2.11267 -4.63058 -4.26443
4440 4 8.03659 20.6097 24.6022 -14.2061 -3.85619 -6.82804 -0.18966 -1.27669 2.67114
4441 4 3.71122 21.9312 37.5252 4.58024 7.61908 1.15729 1.78827 -1.32318 -2.75668
4442 4 9.91928 30.814 30.4374 -10.3577 -6.27761 4.52507 -13.9917 -0.128949 -7.31334
4443 4 10.11 22.8167 24.1449 8.82986 -0.834246 -2.77264 1.37007 0.87523 -1.79637
4444 4 6.28465 24.4998 30.3397 0.579959 -8.96984 3.06788 -0.156214 1.89375 -1.41777
4445 4 10.5588 18.8157 36.7774 6.79031 -0.679691 17.2378 -3.51183 4.37673 -7.80425
4446 4 8.8596 18.7113 41.3005 4.65945 -4.63346 -3.35907 -0.441039 0.818179 7.41309
4447 4 8.84948 18.8472 27.5474 2.3052 -0.740603 -7.79288 3.44407 -3.49747 2.85316
4448 4 6.18607 19.2111 38.1847 6.32412 -2.46321 7.43238 1.55306 -0.719263 2.13317
4449 4 8.95513 24.8128 26.2954 4.5708 17.389 -0.910491 -0.605368 10.4229 -8.56213
4450 4 11.2361 18.177 38.7262 -5.44832 5.16862 13.0855 2.64773 3.86739 5.6668
4451 4 9.30738 29.3841 24.1676 11.3223 -1.3787 -5.58706 0.196107 1.2197 4.5765
4452 4 12.8141 19.7979 21.7992 5.2846 -4.86513 -0.246713 -2.69259 -0.268415 -0.13217
4453 4 16.1551 24.4305 24.7593 -3.12663 -15.3729 -0.252049 2.93472 5.43505 3.5888
4454 4 11.7294 26.0397 23.0149 7.86283 6.57892 -2.35322 1.21612 1.17234 -1.41636
4455 4 10.1572 19.2521 33.0662 1.97888 -10.1465 -4.59804 -1.34361 3.35303 -2.30138
4456 4 10.732 28.187 22.8417 -3.77823 7.22519 -0.291034 -4.17072 0.825423 -0.238593
4457 4 14.9462 22.7236 42.6729 6.0219 3.69564 -10.1656 1.25564 -1.58045 0.326377
4458 4 6.48902 30.4675 35.0036 -13.3445 -5.45619 -7.65805 1.28199 1.4814 -1.13676
4459 4 12.4374 26.2867 38.5737 5.86582 -8.23729 -4.62449 1.12304 0.323605 0.0371077
4460 4 6.60591 28.5823 38.9702 17.8888 -13.6525 -97.3342 5.08074 -12.1529 -1.70206
