ITEM: TIMESTEP
0
ITEM: NUMBER OF ATOMS
4635
ITEM: BOX BOUNDS xy xz yz pp pp mm
-1.8642987430510001e+01 3.7285974861020001e+01 -1.8642987430510001e+01
0.0000000000000000e+00 3.2290601434510997e+01 0.0000000000000000e+00
-1.0000000000000000e+01 1.0000000000000000e+02 0.0000000000000000e+00
ITEM: ATOMS id type x y z vx vy vz fx fy fz
1 2 18.5461 32.2699 3.94166 0 0 0 0 0 0
2 1 0.0316457 1.74732 2.06017 0 0 0 0 0 0
3 3 1.1639 0.795549 0.610904 0 0 0 0 0 0
4 1 0.188269 1.85961 5.55948 0 0 0 0 0 0
5 1 -1.41434 2.75991 7.84307 0 0 0 0 0 0
6 1 0.163438 0.122885 17.942 0.815973 2.44148 0.135404 -5.00186 -10.7866 1.19368
7 1 1.74498 1.00622 15.2366 -0.122011 -3.49775 0.0288072 -11.1371 7.9589 9.27859
8 3 0.680377 2.01436 16.7874 0.749499 5.42531 1.73743 -7.41728 -0.197629 -6.32399
9 2 -1.48356 2.59233 3.85583 0 0 0 0 0 0
10 1 -0.839203 4.52366 10.6995 -5.4006 4.34439 2.88193 -8.23875 5.93719 -14.9219
11 3 -1.51068 5.69418 9.25101 -1.7965 -1.87485 -2.38267 -0.758227 -1.88625 3.00889
12 3 0.274166 3.76233 7.18554 0 0 0 0 0 0
13 1 -1.2558 2.90469 16.8735 -3.05209 -4.51481 3.0266 9.07446 15.8928 12.7855
14 2 0.0761682 5.74328 12.7686 -0.531983 1.25072 2.34817 -2.50318 -3.38044 10.7729
15 3 -1.38018 4.83467 16.5409 4.28508 0.559862 3.79452 3.38075 8.96057 -5.78806
16 1 -3.10716 7.17569 2.22916 0 0 0 0 0 0
17 3 -1.72972 6.28201 0.783527 0 0 0 0 0 0
18 1 -1.39249 7.10567 10.6323 0.744528 0.485823 -3.87938 10.7949 -14.5994 -2.97212
19 1 -2.63494 5.59315 17.8443 -0.465443 2.00449 -1.51221 -10.1602 -15.504 -7.16376
20 2 -1.45624 7.91273 13.0861 2.00128 -2.52055 -2.6451 -1.20979 -5.06034 -2.49174
21 1 -1.49073 6.08619 14.9477 -2.78683 -1.89814 -1.22416 6.35256 0.556047 11.954
22 3 -2.94727 6.89399 16.4438 2.03022 -3.02042 8.26623 -9.81131 0.745373 3.22676
23 2 32.404 8.40592 3.98447 0 0 0 0 0 0
24 1 -4.51214 9.87322 1.90885 0 0 0 0 0 0
25 3 -3.10065 8.8433 0.797443 0 0 0 0 0 0
26 1 -4.73977 9.96332 5.93089 0 0 0 0 0 0
27 1 31.0302 10.5663 8.20587 -2.86764 1.39096 -2.95095 16.1162 -2.27422 8.25987
28 3 -5.06884 9.35764 9.09095 3.42554 1.43629 5.57476 1.95497 -1.20249 -1.6709
29 1 -4.83204 10.872 10.3826 -4.17351 -0.0952393 -2.93138 -8.86713 -14.2796 0.3362
30 1 29.505 12.9601 8.18893 -2.1841 -0.126176 4.09576 1.31138 10.5721 1.05993
31 3 -6.38934 11.9903 9.46259 -8.74 -2.79864 -0.52579 3.71028 0.159251 7.86476
32 3 -4.78769 11.4643 7.35678 0 0 0 0 0 0
33 1 -6.06149 11.1299 17.0685 1.09351 -0.620342 1.96399 -15.2945 14.7573 9.3954
34 3 -6.39854 12.8239 16.1319 1.6801 -7.68872 -1.15002 -1.30075 4.74741 4.52037
35 1 -7.46816 15.3411 5.85453 0 0 0 0 0 0
36 3 -6.25912 14.3866 7.299 0 0 0 0 0 0
37 1 29.3701 13.2439 17.2705 0.228511 -0.669129 1.14834 -7.62045 -5.2746 -9.655
38 2 28.0911 15.8469 3.85373 0 0 0 0 0 0
39 1 -9.40118 17.7369 2.14695 0 0 0 0 0 0
40 3 -7.923 16.9077 0.797968 0 0 0 0 0 0
41 1 -9.22138 17.7239 5.50015 0 0 0 0 0 0
42 2 -8.04144 19.0185 13.0841 -0.825232 -0.877146 -1.15255 -13.9333 -4.9182 -8.98185
43 2 26.2268 18.7913 4.18862 0 0 0 0 0 0
44 3 -9.27699 19.6887 0.608713 0 0 0 0 0 0
45 1 -10.8751 20.6301 6.07086 0 0 0 0 0 0
46 1 -9.41299 20.3191 11.4671 -2.03813 1.74411 1.13521 7.85144 15.5663 -3.56122
47 1 24.8801 21.4333 8.52653 -5.41963 3.49695 4.16298 8.20972 -2.69418 -13.0435
48 3 -11.021 21.0042 10.1097 2.38739 5.82886 2.35196 -5.56938 -1.3797 -9.21829
49 1 -10.6371 19.3596 17.4668 -0.0230394 -0.997789 3.71643 -0.630446 -16.2762 -10.4401
50 2 -8.55401 21.779 13.442 -3.46615 5.70502 1.9362 9.30058 2.22814 -2.20618
51 1 -9.64913 19.7831 14.8981 -2.47938 -0.515285 -4.46696 8.29384 -13.7637 -8.36038
52 3 -11.0352 20.9109 16.1912 2.93954 -5.1296 6.55886 0.0576864 -0.959687 -1.24284
53 2 -12.3967 21.528 4.0999 0 0 0 0 0 0
54 1 -12.5785 23.5438 2.09611 0 0 0 0 0 0
55 1 -12.238 23.3236 5.89478 0 0 0 0 0 0
56 1 -11.1258 22.7222 10.8656 2.05051 0.0795541 1.50954 -7.39414 -16.5853 16.4294
57 1 23.357 23.9278 8.42996 3.47919 1.26054 -1.72221 14.391 15.4891 -11.0491
58 3 -12.9984 22.9437 10.0802 -4.64168 -3.2673 7.18231 8.89904 5.40245 -0.661098
59 3 -10.7389 22.4838 7.18478 0 0 0 0 0 0
60 2 -13.9178 24.3562 4.04052 0 0 0 0 0 0
61 3 -12.4823 25.1664 0.812998 0 0 0 0 0 0
62 1 -13.8514 26.1517 6.15981 0 0 0 0 0 0
63 1 -12.9674 24.8793 10.9694 6.91865 -0.0665106 4.01753 3.68334 -7.72431 14.3234
64 1 -15.3727 27.5346 8.69632 1.61683 -3.4905 -0.970933 17.1364 -12.9293 15.4547
65 3 -14.6188 25.6263 9.30861 -2.48309 -7.58435 -7.48512 3.44938 -5.5169 -0.885126
66 3 -12.4938 24.9462 7.15575 0 0 0 0 0 0
67 1 -13.6871 23.8172 17.608 -1.84956 -2.53172 2.77759 -2.46132 -6.13894 0.943792
68 2 -12.5158 26.371 12.9719 -2.51717 -5.00567 0.341114 8.98533 11.8985 -4.70635
69 1 -12.1515 24.7276 14.7622 0.391994 -0.0539007 1.65942 -2.75819 11.4696 11.7797
70 3 -13.2089 25.4868 16.2175 1.3985 8.19711 -7.24419 0.129031 0.21882 4.85344
71 1 -15.311 29.066 2.18021 0 0 0 0 0 0
72 1 -15.467 28.7039 6.11813 0 0 0 0 0 0
73 3 -13.9143 27.9367 7.25335 0 0 0 0 0 0
74 2 20.2213 29.5545 4.17429 0 0 0 0 0 0
75 1 -17.5227 30.9896 2.1771 0 0 0 0 0 0
76 3 -15.5498 30.6153 0.827037 0 0 0 0 0 0
77 1 -17.1727 31.5221 5.78393 0 0 0 0 0 0
78 2 3.71752 0.758768 13.5324 -3.36153 3.72739 -6.53083 10.8702 6.33142 2.09806
79 3 -17.3729 31.543 16.5105 -1.80429 -1.97704 1.30658 2.41329 0.729511 -0.951768
80 2 -15.4473 32.018 4.00546 0 0 0 0 0 0
81 1 2.85535 1.02431 1.78348 0 0 0 0 0 0
82 3 4.73202 0.88585 0.917102 0 0 0 0 0 0
83 1 3.12089 1.84871 5.32028 0 0 0 0 0 0
84 1 4.07375 1.10812 11.0015 -0.50624 0.347257 0.954273 14.7919 -9.07915 16.4736
85 1 1.78569 2.60201 7.99621 0 0 0 0 0 0
86 1 -15.3285 32.0589 17.6623 -1.06863 0.13757 4.1535 -8.55719 -17.6769 11.4093
87 2 3.44159 3.08165 12.3422 -0.563114 -0.659039 1.78438 11.6255 -5.32353 11.7061
88 1 5.03862 0.482831 15.5544 -2.80223 2.71905 -1.35926 -12.806 -13.2519 -1.34415
89 3 3.24357 1.41465 16.7553 -4.57927 -5.26072 8.21606 -2.02284 0.112222 -2.65806
90 2 1.51902 2.91549 3.72958 0 0 0 0 0 0
91 1 1.5365 4.69757 5.83644 0 0 0 0 0 0
92 1 0.146252 5.34599 8.33397 2.53191 4.56112 -4.30526 0.378784 -5.80969 -3.59618
93 3 1.50795 4.48415 9.6608 -0.378479 -8.17887 4.58092 1.40977 -7.71094 -1.42247
94 3 3.20492 3.72175 6.98616 0 0 0 0 0 0
95 1 1.85847 2.26466 18.1757 -2.16919 -2.10894 0.209558 0.432602 0.912177 -0.0944505
96 2 -0.0687399 5.52084 4.11024 0 0 0 0 0 0
97 1 -0.0262304 7.14265 2.21229 0 0 0 0 0 0
98 1 0.102835 7.2497 5.91248 0 0 0 0 0 0
99 1 1.58534 6.18663 10.9423 0.118507 2.63374 -0.278967 -11.1166 8.61936 -8.97559
100 3 1.50104 6.39571 7.19363 0 0 0 0 0 0
101 1 0.499379 5.54137 17.1029 -1.27461 0.207229 1.23969 6.30112 -10.3594 7.48866
102 2 1.837 7.67644 12.8957 5.60763 1.12614 -1.88791 2.16259 -8.73474 -11.698
103 3 0.0440899 7.05181 15.9009 -0.886731 -3.83639 -0.835671 8.34317 1.5882 -3.19344
104 2 -1.55358 8.07265 4.15001 0 0 0 0 0 0
105 1 -1.61206 9.84437 2.31049 0 0 0 0 0 0
106 3 -0.216987 8.74103 0.459978 0 0 0 0 0 0
107 1 -1.60712 9.92508 5.95387 0 0 0 0 0 0
108 1 -3.27894 10.5669 8.29934 1.70475 3.86433 3.14657 -3.43051 -10.2552 -2.51451
109 1 -1.18421 8.01262 17.0814 3.94971 -0.277527 -2.31098 -5.00171 -15.3128 -11.3951
110 1 0.406145 8.66416 14.7205 3.82441 1.02743 0.697651 -5.74925 9.79956 -15.2962
111 2 -3.11231 10.7664 4.08062 0 0 0 0 0 0
112 1 -3.0301 12.5504 2.22434 0 0 0 0 0 0
113 3 -1.55358 11.6605 0.961352 0 0 0 0 0 0
114 1 -3.10424 12.4412 5.9325 0 0 0 0 0 0
115 1 -4.88487 13.19 8.50698 -0.0320899 3.71562 -2.99823 -3.07765 10.0441 -11.8622
116 3 -3.41553 12.4822 9.794 3.5208 8.37209 2.10755 -8.58172 -5.42413 2.81216
117 3 -1.51478 11.6077 7.33764 0 0 0 0 0 0
118 3 -3.87669 12.9448 15.6144 -3.66345 2.52922 -1.34205 0.101455 7.11899 -4.70232
119 2 -4.60693 13.44 4.19633 0 0 0 0 0 0
120 1 -4.52237 15.0679 2.13623 0 0 0 0 0 0
121 3 -3.03821 14.3163 0.903122 0 0 0 0 0 0
122 1 -4.56535 15.103 6.15388 0 0 0 0 0 0
123 3 -3.25625 13.933 7.36069 0 0 0 0 0 0
124 1 -4.77675 13.6903 17.2938 -1.63457 2.52243 2.67618 -12.5965 11.1192 -3.76313
125 1 -2.95859 14.6808 15.3104 1.29443 -3.70392 -0.978717 -10.1972 -16.273 -13.5576
126 3 -4.32811 15.5555 16.6533 2.99814 -1.04486 1.31884 5.26625 -4.3678 8.52179
127 2 -6.12786 15.944 3.836 0 0 0 0 0 0
128 1 -6.47647 17.7575 2.01192 0 0 0 0 0 0
129 1 -5.93432 17.9123 5.35998 0 0 0 0 0 0
130 1 -7.81907 18.8682 8.64238 -1.55716 2.43886 -3.13376 6.59826 15.0181 -5.13401
131 1 -6.22364 16.1175 17.2153 -2.82658 0.340315 0.778458 -15.3046 -3.32019 -1.14616
132 2 -4.37744 19.7815 12.9845 -5.28642 -1.30929 -1.39041 9.73369 -1.68447 -5.69314
133 1 -4.63293 16.8249 15.2094 -1.85783 -2.16137 -0.121231 2.74594 -1.60698 -5.23062
134 3 -6.04289 17.9838 16.1235 0.164292 7.85028 1.871 4.05243 -6.10581 -3.88565
135 2 -7.70746 18.9989 3.97811 0 0 0 0 0 0
136 1 -7.63519 20.4452 1.93185 0 0 0 0 0 0
137 1 -7.77434 20.6438 6.02942 0 0 0 0 0 0
138 1 -6.27086 19.7748 11.4501 0.618131 -1.43221 -1.9342 6.75322 11.646 3.49025
139 1 -9.39078 21.3119 8.49518 2.87538 0.627411 1.46914 -16.8508 -0.877587 -10.0588
140 3 -7.82535 20.347 9.8254 5.2447 4.7658 4.78578 0.899167 -7.74295 4.95434
141 3 -6.18961 19.8618 7.19662 0 0 0 0 0 0
142 1 -7.64569 18.7395 17.4233 -0.176575 1.78237 -0.0602411 -5.88115 -4.81894 2.39156
143 2 -5.8966 21.7528 13.0754 -2.98648 0.0491713 -2.88069 0.362932 7.62295 -11.877
144 1 -6.28725 19.9028 14.8665 -0.846339 -0.310665 2.30941 4.78896 -14.587 -4.29164
145 3 -7.87075 20.4287 16.202 -0.894731 -6.0143 1.31401 7.60356 -2.98703 6.89817
146 2 -9.2342 21.6503 4.16458 0 0 0 0 0 0
147 1 -9.2879 23.3912 6.01879 0 0 0 0 0 0
148 3 -7.81624 22.4012 7.25838 0 0 0 0 0 0
149 1 -9.21077 22.1757 16.0169 1.18614 1.77085 -0.435253 -1.23294 2.33414 -14.9465
150 2 -10.8505 24.1177 3.97677 0 0 0 0 0 0
151 1 -11.2725 26.1631 2.17682 0 0 0 0 0 0
152 1 -10.956 25.9766 5.64764 0 0 0 0 0 0
153 1 -12.7209 26.7038 8.64661 -1.83475 -3.44645 -0.0300751 -16.4854 -13.5635 7.66329
154 2 -9.36119 26.837 13.3328 -4.85722 1.79611 6.20748 3.49625 -0.289886 -10.795
155 1 -9.27391 25.3539 15.4941 0.946091 -0.431175 -0.296905 0.818411 6.92554 0.710296
156 2 -12.5756 27.0863 4.10496 0 0 0 0 0 0
157 1 -11.9858 29.0074 2.22934 0 0 0 0 0 0
158 3 -10.8922 27.8008 0.94548 0 0 0 0 0 0
159 1 -10.9911 27.7437 11.3572 2.80984 -0.963278 1.28923 8.21042 -11.1571 -15.2327
160 3 -12.382 28.4605 10.0788 2.55472 -8.66221 1.85956 -8.20032 5.66604 8.70856
161 2 -11.0406 30.029 13.1987 4.13617 1.66906 0.235567 -1.80719 5.20413 11.4152
162 1 -11.1871 27.9605 14.5824 0.568477 -4.3604 -0.922185 2.41263 -17.9564 -13.9311
163 1 -13.6081 31.4421 2.34435 0 0 0 0 0 0
164 3 -12.4149 30.5331 0.896531 0 0 0 0 0 0
165 1 -12.5919 30.4759 10.9345 2.35357 -3.2021 0.403009 14.933 15.5019 -15.8435
166 3 -11.9469 30.0929 6.96351 0 0 0 0 0 0
167 2 6.02762 0.149099 12.7039 7.54418 -1.69712 0.0539485 11.2937 5.08928 -2.02446
168 1 -13.3749 30.5033 14.103 -2.99002 5.48262 1.75149 -2.03067 -13.1931 -7.06225
169 3 -13.6363 30.8721 16.2677 3.5867 0.898373 -1.87752 0.495204 -8.80945 4.55626
170 3 7.67288 0.832675 0.878057 0 0 0 0 0 0
171 1 6.18319 1.80777 5.92967 0 0 0 0 0 0
172 1 7.07971 0.888611 10.5793 -0.360294 -3.59704 -3.53833 -6.88898 -5.25363 9.53377
173 1 4.60348 2.69723 8.07047 -1.24607 4.04533 3.81989 -8.84334 5.27914 -10.8508
174 3 5.52472 1.76982 9.53764 -1.24172 -11.4371 5.39424 -0.19678 -5.97352 -5.04095
175 3 8.06318 0.846277 7.04307 0 0 0 0 0 0
176 3 6.23193 1.5536 16.5577 1.08547 5.25583 3.12928 -3.86392 -2.34541 8.30208
177 1 4.87291 4.86663 6.17476 0 0 0 0 0 0
178 1 5.28947 3.78139 10.7688 -3.23768 0.818181 0.344491 9.95252 -19.1804 14.28
179 1 2.85006 5.3386 8.32683 1.15175 -1.44241 -1.29413 5.8215 8.09408 10.6781
180 3 4.63412 4.42206 9.02377 -6.77659 4.6018 -3.52806 0.764585 -6.81111 -4.30098
181 3 6.11696 3.51345 7.12843 0 0 0 0 0 0
182 1 4.80276 2.77324 17.5386 2.83934 2.79214 0.88558 4.12045 12.0879 -14.0978
183 3 4.38954 4.43939 16.1417 7.37035 2.28046 -0.964445 -0.479632 -4.07513 5.87911
184 2 3.12415 6.03286 3.78904 0 0 0 0 0 0
185 1 3.06515 7.18273 6.08097 0 0 0 0 0 0
186 1 5.1321 6.28333 9.24022 -1.62194 1.43679 1.10298 -2.20161 -8.68844 11.334
187 3 3.09273 7.14851 9.31717 -4.12981 -5.29223 -2.50138 4.42846 2.78761 6.59664
188 3 4.39302 6.40995 7.46943 0 0 0 0 0 0
189 1 1.22182 9.71605 1.58577 0 0 0 0 0 0
190 3 3.10716 8.96961 0.961352 0 0 0 0 0 0
191 1 3.38957 8.45687 10.8614 0.0190722 -2.14837 1.72003 -12.7877 -1.15652 14.4313
192 1 0.011212 10.4528 8.60295 1.09693 -1.5958 5.48182 -15.0172 10.1473 -16.0025
193 3 1.73343 9.5396 9.69945 -2.13888 -1.60498 -0.242897 5.38817 0.119875 3.83037
194 2 2.91643 10.1722 12.8471 -2.25294 -1.4832 0.506999 -12.5591 4.84823 -13.9342
195 1 3.38635 8.59511 14.8277 3.28838 -2.62853 -5.02677 13.9211 -11.5219 9.98017
196 3 1.93887 9.49432 16.051 -3.48779 -2.59317 2.422 -7.50349 4.6411 4.19032
197 1 1.83494 11.4667 10.8531 2.7754 -1.73477 -2.31441 6.8364 7.51291 -5.43489
198 1 -1.62666 13.3474 8.64124 -1.55358 1.35287 0.590375 -0.21589 7.62962 -11.3851
199 3 0.0439267 12.4575 9.74018 2.08778 1.31003 4.18149 3.33982 5.98852 5.31233
200 2 1.69186 13.3718 12.934 3.65876 7.29483 -0.663203 -8.03568 0.504831 -1.75179
201 1 1.63874 11.4134 14.9783 0.38943 1.07791 -1.77353 14.3604 -15.248 -16.2985
202 3 -0.0323348 12.2644 16.3997 -3.45354 -1.12616 -3.40557 6.94959 1.52269 3.40921
203 1 -1.55358 15.2483 2.22916 0 0 0 0 0 0
204 1 0.347705 14.284 10.7493 -2.89377 -1.19186 1.83107 3.37009 -0.561594 -6.46893
205 3 -1.19 15.2552 9.86799 -11.1871 2.48356 2.49783 -5.62652 2.21761 6.96217
206 3 -0.0242833 14.3636 7.32159 0 0 0 0 0 0
207 1 -1.39619 13.5539 17.4892 2.60707 2.49619 2.35706 14.4072 -6.12297 -13.5033
208 1 -0.0325539 13.9091 15.0347 2.83999 -2.74649 3.28984 -2.1088 1.82666 -16.212
209 3 -1.27272 15.3307 16.2358 3.30688 8.7438 -2.79979 -6.85982 0.275368 3.24979
210 3 -1.55358 17.0423 0.961352 0 0 0 0 0 0
211 1 -0.584246 17.1735 11.2389 2.25561 -0.811304 -3.57231 6.90481 4.4981 -13.5426
212 1 -2.81101 16.37 17.538 1.32297 1.72768 -1.65141 -0.5728 -18.6233 -2.43283
213 2 -1.47723 18.9219 12.9064 -3.95624 -6.57102 3.15499 -0.819471 4.7088 5.70893
214 1 -1.37841 17.0305 14.6697 1.15292 1.27175 1.47823 11.6788 -13.5371 -10.6882
215 3 -3.16752 17.7859 16.0456 1.30793 5.52453 -3.1781 -8.68405 0.500481 4.43614
216 1 -3.29026 18.957 10.7415 -1.54427 -0.278684 -0.576544 11.5086 -5.31643 -3.14224
217 1 -6.37876 21.368 8.53682 3.99274 -2.23228 -2.58363 9.98313 5.58124 -7.65497
218 3 -4.91559 20.7603 9.99707 1.46568 0.477781 0.997871 4.28615 0.16016 -0.362185
219 1 -4.75789 18.5894 17.4257 -4.42106 3.31777 -1.19477 11.3602 -1.16015 -1.82809
220 1 -3.24536 19.577 15.1803 0.266984 0.152116 3.49759 -12.193 -13.1245 -9.89403
221 3 -4.84364 20.2256 16.3668 -8.17064 2.83896 5.08418 -5.11566 0.682025 2.80209
222 2 -6.20439 21.5388 4.03501 0 0 0 0 0 0
223 1 -5.97445 23.4323 2.15749 0 0 0 0 0 0
224 3 -4.72521 22.3883 0.877806 0 0 0 0 0 0
225 1 -6.21656 23.1221 5.96563 0 0 0 0 0 0
226 3 -4.75435 22.3678 7.51299 0 0 0 0 0 0
227 1 -6.1656 21.5291 17.1789 0.822015 5.18007 -2.30015 -10.5312 -1.24019 -3.28975
228 3 -5.14354 23.2718 16.072 -4.26542 3.15004 -4.34277 -3.37133 -8.50285 8.34723
229 3 -6.30941 25.0101 0.858699 0 0 0 0 0 0
230 1 -6.20276 25.1911 10.8356 4.90572 1.45624 3.47056 16.5338 -14.5548 -5.01537
231 3 -6.22183 24.8435 7.11661 0 0 0 0 0 0
232 1 -6.82709 24.1108 17.219 -1.66964 0.409278 -2.32632 17.3993 4.35644 10.9948
233 2 -6.3141 26.6403 12.9753 4.6737 0.473145 3.10171 3.44922 -0.0971498 -2.16902
234 1 -6.04232 24.7471 14.8712 -0.794218 -4.37138 0.716368 -11.9101 -4.59472 2.51466
235 3 -7.30174 25.6118 15.9803 1.216 -4.55138 -5.49505 -0.743191 -8.29773 -4.42345
236 1 -9.17115 28.2018 2.19509 0 0 0 0 0 0
237 3 -7.64601 27.7718 0.86196 0 0 0 0 0 0
238 1 -7.89169 27.8097 11.3144 1.07705 3.05141 -1.00281 -11.054 -17.5188 -12.2238
239 1 -10.8035 29.3803 8.60257 1.13001 -0.445734 0.402129 -9.81831 -5.13749 6.71898
240 3 -9.41093 28.8726 10.1178 -2.96922 -2.61669 11.8188 -4.61236 3.69098 -7.78317
241 2 -8.16048 29.3588 13.2391 -0.345658 -2.3833 0.67601 10.0665 0.153111 4.49288
242 1 -7.69096 27.6724 15.0803 -0.304208 -2.17536 0.685631 -2.18157 -12.4086 15.8678
243 3 -9.44941 28.6409 16.3589 -10.1931 -5.60917 -1.30747 -6.90127 -1.24348 -0.445605
244 1 -9.56852 30.6782 11.1206 -0.0884351 -3.55296 -4.99749 -0.567036 2.68611 -11.3248
245 1 -12.2574 32.2164 7.93581 -0.209065 -1.55913 -0.312879 -0.714891 -0.232386 0.218408
246 3 -11.2168 31.3252 9.50712 10.6754 -1.69943 4.01295 -3.06884 7.38853 -1.39148
247 3 -9.12289 30.5267 7.48934 0 0 0 0 0 0
248 2 -8.53827 31.8557 13.4187 0.972163 1.52871 2.24476 4.89238 10.9462 -4.25772
249 1 -9.55534 30.4144 15.2718 -0.775093 2.21116 -0.181943 -16.5241 8.10569 -10.1077
250 2 9.46087 0.362618 3.89774 0 0 0 0 0 0
251 1 9.00822 1.93617 2.01271 0 0 0 0 0 0
252 1 9.53153 1.81751 5.95271 0 0 0 0 0 0
253 1 10.9795 0.77636 11.3038 3.45702 -0.0871114 -0.984839 11.3701 15.2494 -6.49752
254 3 10.9466 0.944556 7.38381 0 0 0 0 0 0
255 2 7.66526 2.69429 4.12638 0 0 0 0 0 0
256 1 7.56152 4.48155 2.03961 0 0 0 0 0 0
257 3 9.33238 3.61181 0.790335 0 0 0 0 0 0
258 1 7.77331 4.62081 5.85886 0 0 0 0 0 0
259 2 9.61697 5.3301 12.8077 -0.242143 -1.18586 -2.59314 -11.9951 -11.4442 12.5525
260 2 6.17531 5.48368 4.13582 0 0 0 0 0 0
261 1 6.25461 7.31137 2.23258 0 0 0 0 0 0
262 3 7.69541 6.29398 0.840511 0 0 0 0 0 0
263 1 7.76653 5.92677 10.5259 1.4086 -3.0718 -4.7249 7.88686 -7.05817 -12.5852
264 3 6.89653 7.10849 9.05146 -0.161917 3.39898 1.14226 -7.72905 5.79907 5.11505
265 1 5.88404 5.42702 17.1726 -2.03411 -0.185052 -1.39991 4.31976 2.18855 -7.288
266 2 7.9241 7.81032 12.5499 -1.74166 -3.2723 0.941914 -11.5386 11.7453 -4.52294
267 1 8.12914 6.26438 14.6081 1.40609 -0.0459479 -0.115503 16.1946 -0.00442798 -7.80966
268 3 6.73467 6.98241 16.0531 8.54152 -5.45062 -6.16533 1.6674 -2.09898 -1.73915
269 1 4.98085 9.9416 2.05363 0 0 0 0 0 0
270 3 6.31948 8.90142 0.86437 0 0 0 0 0 0
271 1 6.39756 8.60137 10.324 -0.860256 1.73368 -2.05559 -9.28781 -16.1254 -6.33295
272 1 3.05659 10.4076 8.59053 1.53552 0.357337 -1.33409 3.89957 7.72397 -0.153111
273 3 4.67398 9.47307 9.44621 5.28862 -2.61241 3.40198 5.63531 -4.99292 1.8515
274 1 5.20098 8.04058 16.9306 -2.02817 1.63074 -2.51498 -16.4088 -0.378805 -17.5022
275 1 6.42931 8.41019 14.5708 0.967863 2.38437 -0.11468 -7.5607 11.4011 6.99234
276 3 5.0778 9.64984 15.7661 5.84834 0.880699 7.81029 -2.81796 -8.1719 -1.04925
277 3 4.65929 11.6682 0.95644 0 0 0 0 0 0
278 1 4.71481 11.0402 10.7451 2.16123 -2.41019 -1.94675 -11.6729 -7.66401 5.47969
279 1 1.55688 13.1254 8.32003 -3.76805 -4.62873 6.164 4.62146 -13.0616 12.8759
280 3 3.30063 12.3909 9.71114 1.74386 -0.381373 1.47989 -8.32772 0.225607 -8.58727
281 1 3.59299 10.4755 17.1043 -0.512001 -1.65549 -0.199379 7.655 -15.3849 -14.6545
282 2 4.47115 14.3619 12.9297 -2.41812 2.67618 1.86297 -4.65102 2.82397 -5.76004
283 1 4.61111 11.1384 14.4861 -0.265036 2.05975 -1.50424 -11.3158 15.1811 -12.4531
284 3 3.01569 12.3355 16.1429 -8.49629 1.05404 2.07353 0.08368 -3.75906 7.18858
285 1 1.53576 15.2374 2.20755 0 0 0 0 0 0
286 3 3.10716 14.3514 0.961352 0 0 0 0 0 0
287 1 1.51187 15.2459 6.0236 0 0 0 0 0 0
288 1 3.05153 14.418 10.7955 0.67193 0.266904 -1.28098 -10.0938 0.512986 -12.5918
289 1 -0.192122 16.2008 8.33995 1.52749 0.394059 0.193051 0.84593 9.16058 6.55711
290 3 1.56738 14.8233 9.22324 4.7976 -3.75822 -3.88577 0.90016 3.27096 -2.71792
291 3 3.0637 14.3659 7.2547 0 0 0 0 0 0
292 1 1.42727 12.8684 17.5675 1.34456 2.60939 1.27934 -11.3731 16.4642 -6.39614
293 1 2.65161 14.5516 14.9073 1.02835 -1.62114 1.14612 -8.47031 -15.0937 10.3014
294 1 0.030201 17.8082 2.18656 0 0 0 0 0 0
295 3 1.55364 17.0409 0.95884 0 0 0 0 0 0
296 1 -1.5597 18.9462 8.41577 -0.571716 -1.5588 1.33494 -8.8984 11.7054 -9.70758
297 3 -0.170878 18.188 9.59302 -1.21052 -9.40872 7.62722 -0.158851 -2.0195 0.0541647
298 3 1.50278 17.0021 7.31861 0 0 0 0 0 0
299 1 -1.42914 20.346 2.23517 0 0 0 0 0 0
300 3 0.0401593 19.7087 0.914631 0 0 0 0 0 0
301 1 -0.34392 20.0625 11.079 0.450984 -0.468085 0.0209517 -10.5069 -0.324029 -10.7519
302 1 -3.30705 21.7677 9.01657 0.0566572 -2.11685 -0.56179 -2.00214 -9.14008 -12.0152
303 3 -1.84054 20.4681 9.78009 -2.61236 -5.54822 -0.842752 7.19687 -7.8673 5.73956
304 3 0.160797 19.8511 7.58297 0 0 0 0 0 0
305 2 -0.723771 22.0469 12.6253 1.0854 0.229412 5.67471 -7.50589 8.54244 -2.05694
306 1 -0.474141 20.2686 14.6911 -0.278156 -1.83303 3.32377 -1.76613 3.23989 -0.200072
307 3 -2.08292 21.0288 15.8716 1.49417 -0.489544 -3.3531 2.68556 3.4253 -1.18909
308 1 -3.13308 22.7258 2.15821 0 0 0 0 0 0
309 3 -1.49831 22.3915 0.882305 0 0 0 0 0 0
310 1 -3.25028 23.2018 6.29535 0 0 0 0 0 0
311 1 -4.86221 24.1073 8.28139 -0.00190556 1.83438 0.254751 -9.76865 12.1875 2.16465
312 3 -1.91697 21.8414 7.17835 0 0 0 0 0 0
313 1 -2.1176 22.7407 15.0268 0.223293 -4.3728 3.40222 14.9406 -6.56808 10.1702
314 3 -3.73288 23.3267 16.3848 10.8854 -4.04859 -0.415062 7.01892 -2.57588 -1.85152
315 2 -4.6049 24.1417 4.12101 0 0 0 0 0 0
316 1 -5.20348 26.301 2.04135 0 0 0 0 0 0
317 1 -4.67642 25.9807 6.33759 0 0 0 0 0 0
318 1 -3.25104 25.2752 10.9429 0.654429 0.571734 1.92113 -16.1335 0.261152 13.2532
319 1 -6.15926 26.8668 8.57178 0.0803949 -0.286947 -0.563344 2.72747 -8.71765 -0.679484
320 3 -4.72285 25.5382 9.52289 2.77719 3.54553 -9.89626 -8.92309 -4.04252 -8.11825
321 3 -3.37393 25.0508 7.65176 0 0 0 0 0 0
322 2 -3.0801 26.5124 13.193 4.00234 -1.04252 -1.84612 5.96485 -2.64758 3.69979
323 1 -3.04206 25.427 16.0601 6.83577 1.72039 0.441808 -16.7595 -9.27808 14.6171
324 3 -4.91095 25.9062 15.7433 -2.32379 -2.51724 3.29603 -1.75481 -3.95953 8.96368
325 2 -6.65502 26.9487 4.1769 0 0 0 0 0 0
326 1 -6.35092 28.9864 2.25281 0 0 0 0 0 0
327 3 -4.7366 27.8649 0.766804 0 0 0 0 0 0
328 1 -6.21433 28.7028 6.07086 0 0 0 0 0 0
329 1 -7.77069 29.6823 8.80647 -0.282815 1.75018 -1.54139 8.98795 16.6173 15.2184
330 3 -6.55757 28.6298 10.0167 6.49146 3.52653 -2.55343 4.066 -2.00276 0.987563
331 3 -4.71733 27.8528 7.35722 0 0 0 0 0 0
332 1 -5.93528 26.7352 17.4116 -3.92283 -1.55634 0.414257 2.96741 3.77935 10.7436
333 3 -6.37141 28.4483 16.3398 1.38516 -6.99522 -2.7317 -1.46276 3.53587 6.57206
334 2 -7.86058 29.6431 4.17031 0 0 0 0 0 0
335 1 -7.64296 31.2669 6.24429 0 0 0 0 0 0
336 1 -9.39135 32.2837 8.49565 0.500484 -1.00725 2.42929 6.77284 -16.5362 -17.9916
337 3 -8.01642 31.6949 9.76551 7.03083 -0.751454 -6.92793 -1.64314 0.0235245 1.9392
338 3 -6.18151 30.3934 7.42303 0 0 0 0 0 0
339 1 -7.7414 29.1626 17.5908 2.63267 -5.68849 -3.00642 -10.4341 -17.9504 -15.9084
340 2 -6.23165 32.1171 4.36823 0 0 0 0 0 0
341 1 11.9146 2.03523 1.67283 0 0 0 0 0 0
342 3 14.1161 0.958878 0.661661 0 0 0 0 0 0
343 1 12.4569 1.79385 6.07179 0 0 0 0 0 0
344 1 14.1569 0.928125 11.3321 1.06412 -1.29597 -1.47221 16.565 16.601 8.2594
345 3 12.6673 1.59458 10.2488 -0.0955056 -8.36679 3.02432 4.71987 -7.49502 -4.37745
346 3 13.9827 0.902217 7.3416 0 0 0 0 0 0
347 1 -6.47934 32.1143 16.9768 -0.523559 0.520583 -1.05139 11.3593 0.867304 15.5073
348 2 13.6258 2.96417 12.952 4.48028 -0.924976 3.7719 1.07221 4.22837 -3.92493
349 1 14.2617 1.19933 14.5503 -3.28888 2.55917 3.82889 13.9193 -15.4435 12.9321
350 3 12.4379 0.978574 15.1672 3.40655 -3.4575 -4.12672 2.11321 5.99673 4.33142
351 1 10.6679 4.66545 1.98945 0 0 0 0 0 0
352 3 12.4824 3.81687 0.783101 0 0 0 0 0 0
353 1 12.4548 3.65419 10.7966 1.29862 -0.471085 2.15971 11.643 8.10651 -16.3832
354 2 12.3249 5.15839 12.9532 -2.62226 -0.752631 3.34711 -1.12616 11.6702 12.8796
355 1 12.1132 3.34868 14.9067 -1.84519 -1.41106 1.40591 11.5688 0.972213 -8.08175
356 2 9.10383 5.25629 3.84386 0 0 0 0 0 0
357 1 9.17863 7.18096 2.15326 0 0 0 0 0 0
358 3 10.8846 6.39664 0.873975 0 0 0 0 0 0
359 1 11.0225 6.2364 10.9807 -0.748409 -1.03027 2.93291 -9.44768 -2.58885 -2.95493
360 3 9.46134 6.59958 9.35674 0.976757 3.5611 -2.96817 4.58108 4.97439 7.96187
361 2 11.1361 7.76669 12.9512 1.18472 -0.0962064 -0.72329 -3.15753 -2.28842 10.1262
362 1 11.4281 6.28795 14.9812 3.74354 1.18175 -1.96877 -0.433035 -6.63107 1.13421
363 3 9.67694 7.00181 15.9858 -5.45097 3.08485 1.6777 4.42293 4.55271 -2.58082
364 1 7.90493 9.81724 2.13639 0 0 0 0 0 0
365 1 9.3177 8.42191 10.443 -0.397685 1.03483 2.28825 -12.7234 -17.3735 15.5636
366 1 6.08986 10.3511 8.04913 0.401123 -4.47558 -0.0768929 9.28552 -3.67207 -5.58618
367 3 7.79238 9.46459 9.24954 2.04481 6.22716 9.90002 -5.63951 6.94932 4.07744
368 3 9.61544 8.86137 7.38546 0 0 0 0 0 0
369 1 8.07686 7.73431 17.3207 -5.24799 1.1122 -4.89803 -5.58354 16.5099 11.7101
370 1 9.52936 8.82796 14.8113 1.05681 -2.51662 -4.23428 -12.3482 -2.22223 -16.7046
371 3 7.85532 9.30108 15.8088 -8.64347 -6.31732 5.58847 -1.10863 8.21808 0.375183
372 2 6.219 10.9343 3.99764 0 0 0 0 0 0
373 1 6.21455 12.6218 2.15575 0 0 0 0 0 0
374 3 7.71381 11.666 0.866204 0 0 0 0 0 0
375 1 6.01718 12.5305 5.90796 0 0 0 0 0 0
376 1 4.63041 13.3384 8.35079 3.93011 -0.281611 -0.348088 -0.225987 -12.0797 -12.5378
377 3 7.87963 11.1796 7.15653 0 0 0 0 0 0
378 1 6.74963 10.6997 16.8205 -3.41303 -0.2384 -2.12593 1.14105 -9.53018 4.93954
379 3 5.99881 12.2642 15.5422 -6.96553 8.88709 -6.93051 5.30106 2.06981 -7.92018
380 2 4.61426 13.4694 4.06823 0 0 0 0 0 0
381 1 4.66075 15.2483 2.22916 0 0 0 0 0 0
382 1 4.48749 15.2537 5.82173 0 0 0 0 0 0
383 1 3.02961 16.0565 8.26236 0.105695 -1.35247 -1.79453 9.95408 -2.22213 -2.76729
384 3 4.52809 15.4998 9.45401 2.79288 -8.57331 2.21251 -1.12038 4.07937 0.72345
385 1 4.65937 13.2848 17.1375 -1.75399 -1.54368 -4.77347 -11.7046 -7.17156 8.48302
386 2 6.75313 15.4185 12.5011 0.389938 1.42226 -1.49904 4.77889 -6.4954 4.27336
387 1 6.15293 14.226 14.8083 -2.59341 -0.0903498 -0.0318268 -4.16338 -11.1366 14.515
388 3 4.50974 15.0329 16.0708 4.26738 0.752734 10.3117 -3.80022 7.12654 6.31487
389 2 3.02714 16.1344 3.99796 0 0 0 0 0 0
390 1 3.15998 17.8699 2.20784 0 0 0 0 0 0
391 1 2.91742 17.8083 5.84736 0 0 0 0 0 0
392 1 3.33815 17.4358 10.5573 -0.742487 -1.05777 0.770349 7.6757 -15.691 1.25244
393 1 1.48961 18.8079 8.51539 -2.86106 1.62439 4.53684 4.22038 -5.55682 -7.00716
394 1 2.61864 15.6392 17.3061 0.517918 -0.180207 -2.48847 15.3107 -8.20588 1.29922
395 1 4.58559 16.8567 13.5588 2.56754 -0.305691 -0.784583 11.8058 -12.0719 10.5603
396 2 1.48164 18.7026 4.01076 0 0 0 0 0 0
397 1 1.70985 20.4135 2.2066 0 0 0 0 0 0
398 3 3.16285 19.7061 0.911766 0 0 0 0 0 0
399 1 1.52368 20.3832 5.8578 0 0 0 0 0 0
400 1 -0.068055 21.5404 8.55734 3.03255 3.10779 0.032336 0.0479192 -6.98202 10.4191
401 3 1.54317 20.6383 9.75476 0.0463182 0.64051 0.348193 5.71121 -6.70881 2.00435
402 3 3.00321 19.4883 7.1043 0 0 0 0 0 0
403 2 1.48012 20.2756 13.0892 -5.36359 -1.94255 0.580825 -12.0679 11.7506 -13.5002
404 1 2.39609 19.0283 15.227 2.83367 -2.22403 2.42054 13.0259 15.6479 -13.985
405 3 0.632037 19.2653 16.4662 7.01895 4.4216 -8.42441 -3.3159 6.43689 4.15401
406 2 0.0522192 21.2852 4.0122 0 0 0 0 0 0
407 1 0.11985 22.8689 2.0831 0 0 0 0 0 0
408 3 1.69696 22.3681 0.838062 0 0 0 0 0 0
409 1 -0.345701 22.6256 6.08088 0 0 0 0 0 0
410 1 1.27621 22.4263 10.9272 0.605811 3.77151 1.06531 8.30324 13.1423 8.07744
411 1 -1.76939 23.9699 8.48744 -0.0674157 -1.02261 1.01541 -2.26404 -4.93012 -17.8877
412 3 -0.268848 23.2215 9.72277 -5.2813 5.82651 5.28177 6.78974 6.49109 2.13764
413 3 1.48522 22.3841 7.0635 0 0 0 0 0 0
414 1 -0.649903 20.9152 17.2427 -0.737645 -2.31609 1.23421 -5.84217 14.2794 5.89285
415 2 1.4188 24.4692 12.6745 -1.18204 0.747836 0.857111 -9.16617 11.7741 -10.267
416 1 1.06902 22.5417 14.2097 -0.0136345 -1.75871 1.39161 16.8998 -17.2471 13.2956
417 3 -0.272156 22.887 15.9594 2.97986 7.11617 2.10258 -0.323868 6.0134 2.31092
418 1 -0.0328159 25.0365 10.6243 -0.747372 2.30382 -1.16877 -14.964 13.6565 -5.4004
419 1 -3.26543 26.976 8.63394 2.48212 -0.269821 -0.758287 12.2339 -0.78405 8.21652
420 3 -1.60409 26.0318 9.5576 2.45709 7.41798 8.74339 1.21788 -9.4953 0.25716
421 3 -0.596782 24.4278 7.06931 0 0 0 0 0 0
422 2 -0.149308 27.0531 13.0848 1.41821 1.8247 -5.99722 11.692 10.3675 -1.42497
423 1 -0.195436 25.0631 14.7404 0.00491512 1.14626 -0.606819 -4.59856 4.66353 7.51131
424 2 -2.53917 27.651 3.9919 0 0 0 0 0 0
425 1 -3.33646 28.8358 1.94375 0 0 0 0 0 0
426 1 -3.27074 28.8078 6.08022 0 0 0 0 0 0
427 1 -1.60181 27.7238 10.9443 -1.4388 -3.28745 1.19963 -4.30877 15.5224 13.9471
428 3 -1.82089 28.0773 7.36577 0 0 0 0 0 0
429 2 -1.5318 29.4338 12.8004 -2.86776 0.137091 0.652225 2.41459 -0.578745 9.46055
430 1 -1.88741 27.9075 14.8691 0.440134 -2.07601 -0.558612 -1.60727 5.97319 5.14777
431 2 -4.79557 29.5489 4.1335 0 0 0 0 0 0
432 1 -4.76472 31.3767 1.66733 0 0 0 0 0 0
433 3 -2.96003 30.516 0.793338 0 0 0 0 0 0
434 1 -4.71678 31.3433 6.30918 0 0 0 0 0 0
435 1 12.4239 0.0567221 8.66133 2.75047 2.32961 1.12056 11.1672 -5.16539 8.88112
436 3 17.4076 1.00732 0.44149 0 0 0 0 0 0
437 1 17.3632 1.36912 11.2556 -3.1026 3.0656 -1.90527 7.93162 15.2809 8.7219
438 1 14.0954 2.53839 8.74303 -1.81939 -0.971983 -1.65477 10.0374 -7.70153 13.2905
439 3 15.701 1.84852 10.0124 -7.04563 -4.17534 -11.7643 -2.96092 6.04839 -1.02075
440 1 15.6991 0.282608 17.2688 0.0132778 -1.59691 0.957575 10.6328 -10.8748 17.4468
441 2 17.6154 3.18014 12.9635 -0.993679 -4.96046 3.08916 -10.6476 -2.2356 10.7845
442 1 17.1712 1.11909 14.6052 -1.1231 1.63085 -0.456116 -1.50637 -14.3697 -15.2724
443 3 15.8255 1.92469 15.9317 5.6536 0.098122 2.7197 -1.87979 6.7235 6.31087
444 1 14.0381 4.05305 2.3062 0 0 0 0 0 0
445 3 15.5849 3.51458 0.957677 0 0 0 0 0 0
446 1 15.4429 3.44818 11.3531 -0.399244 -1.36729 4.01511 17.297 5.11466 0.078731
447 1 13.0907 5.19477 8.53354 0.440027 -0.865332 0.079866 11.5901 1.33991 -5.83674
448 3 14.2956 4.39512 9.91808 -3.14066 -0.3088 3.70719 -0.378091 0.164401 -2.93882
449 3 15.5377 3.58435 7.3388 0 0 0 0 0 0
450 1 14.3082 2.47055 17.0574 -3.11631 0.729783 1.35729 -5.29338 6.41642 -17.0565
451 1 15.3978 3.79409 14.7063 1.65699 -0.388804 3.01098 -15.192 -8.13332 13.6441
452 3 13.6086 4.01919 16.2809 -3.73567 1.069 -3.13257 -6.12833 -8.16127 8.47456
453 1 12.8124 6.62976 1.64992 0 0 0 0 0 0
454 3 14.3205 6.05876 0.350737 0 0 0 0 0 0
455 1 10.9454 7.59585 8.13062 -2.69149 -0.379782 -1.58978 3.19282 8.52256 7.83923
456 3 12.3198 6.92343 9.31695 -0.47052 3.36636 -0.263942 -7.81188 -8.47748 2.99538
457 3 14.1948 6.15843 7.23501 0 0 0 0 0 0
458 3 12.4584 7.03866 16.8361 -6.08694 -0.435232 3.97993 7.20501 -6.66312 -6.83072
459 1 10.6533 10.0727 6.0649 0 0 0 0 0 0
460 1 12.47 8.55984 10.786 2.56874 -2.67616 1.35036 8.12337 -18.0374 8.39091
461 1 9.42732 10.4879 8.46511 2.35026 -2.59877 3.24255 14.604 -11.2433 -15.8955
462 3 11.0321 9.54983 9.59087 5.65227 4.13355 -1.89475 1.3616 -6.03241 2.60744
463 3 12.5138 8.70878 7.25948 0 0 0 0 0 0
464 1 10.8504 8.26422 17.2699 0.398116 0.118603 0.660676 10.3723 6.12951 -7.07901
465 3 10.6379 9.93688 16.176 -5.28776 0.401418 -8.94376 -5.23545 -0.583579 -6.50913
466 2 9.18232 10.9782 3.94047 0 0 0 0 0 0
467 1 9.26865 12.6524 6.06834 0 0 0 0 0 0
468 1 10.613 11.4822 10.5555 3.35739 2.45108 1.81666 -5.30128 13.1626 -15.7907
469 3 10.9436 11.6389 7.40925 0 0 0 0 0 0
470 2 7.66684 13.5007 4.17255 0 0 0 0 0 0
471 1 7.89753 15.2575 5.93166 0 0 0 0 0 0
472 3 9.63225 14.2303 7.47688 0 0 0 0 0 0
473 2 9.74873 15.4373 12.5072 -0.999358 2.56116 -4.78704 -3.43636 0.670615 -3.50376
474 3 7.62299 14.9316 15.8852 2.89383 4.40906 -0.506858 -2.53902 5.5086 1.778
475 2 6.1959 16.0598 4.18897 0 0 0 0 0 0
476 1 7.9716 17.4516 11.3115 -4.39355 1.90097 1.0658 -14.8119 3.47402 -5.3424
477 1 5.78807 15.8661 17.3091 -3.79912 -2.02577 4.96362 4.1569 16.8172 -3.81726
478 2 5.39538 18.3451 11.4691 5.94522 -3.8525 2.6365 -8.00029 3.51791 -2.72221
479 1 8.13299 16.2914 14.2234 -0.650711 1.17524 -1.54494 -5.33339 -16.9662 6.08325
480 3 5.57535 18.5437 18.9082 10.1918 13.5116 -3.29732 -4.12399 1.97761 -3.22989
481 1 2.83274 21.3595 8.21097 3.33182 1.92822 1.93025 6.20667 14.277 -2.93516
482 1 4.33012 18.139 17.2167 0.208051 -0.723175 1.68928 -9.95758 -4.87138 8.75625
483 2 2.51203 17.8806 12.9202 -1.05125 -0.257273 2.63592 -3.4227 2.42081 -8.63773
484 1 4.1757 19.9705 13.0194 -6.6213 -9.38729 -4.27402 -0.440726 -1.5534 -0.392003
485 3 3.24608 19.7004 16.8163 -2.91968 1.39902 -3.0477 -5.65753 0.971024 5.3255
486 2 3.07809 21.3234 4.14489 0 0 0 0 0 0
487 1 3.13555 23.2531 5.97168 0 0 0 0 0 0
488 3 4.50606 22.2502 7.17516 0 0 0 0 0 0
489 1 1.70235 19.9724 18.0322 -3.38358 4.75037 0.999155 -1.9573 -1.27153 0.738207
490 1 3.48736 23.1348 11.9055 -0.0318776 -3.23222 -2.67031 -3.4999 -16.6455 9.77772
491 3 2.84775 22.7752 15.8839 -18.1916 -5.48853 -1.21828 -0.221057 1.63032 -0.116504
492 1 -0.277315 27.1817 8.37116 -0.0175817 -0.452687 -1.69885 10.0291 7.23395 -3.24208
493 3 3.05034 24.6633 8.07197 -1.07556 -6.91216 -3.23319 -2.41179 -7.63967 -0.211381
494 1 1.3479 23.5393 16.915 2.32521 -3.99504 -2.46219 -9.43675 6.73715 8.72158
495 1 2.84586 24.5133 14.7536 5.23952 -0.620594 2.83993 1.17778 0.700101 1.57076
496 3 1.23214 25.9449 16.1538 -4.60172 4.86762 -5.88958 -4.24513 1.22463 -4.23476
497 2 0.208907 26.7291 3.43399 0 0 0 0 0 0
498 1 0.282017 28.6223 1.80775 0 0 0 0 0 0
499 3 1.73074 27.8789 0.528383 0 0 0 0 0 0
500 1 -0.354073 28.7873 5.82488 0 0 0 0 0 0
501 3 0.513537 28.3977 10.066 -4.5999 0.725327 5.2242 -7.02883 -8.37322 -4.06431
502 2 1.28859 29.7335 13.215 1.85778 -10.2116 -5.60644 -3.92281 -12.8674 7.1549
503 1 0.919325 28.2627 15.232 0.437763 -1.89287 2.04852 4.33888 9.28028 15.0779
504 1 -1.38177 31.0033 2.17586 0 0 0 0 0 0
505 3 0.114397 30.4542 0.851814 0 0 0 0 0 0
506 1 -0.134363 30.4815 11.0032 3.93315 2.02469 0.313397 -18.3803 -13.2994 -16.5635
507 1 15.7198 0.275797 8.49159 -0.880476 1.35167 -1.02321 13.6699 3.96677 0.455348
508 2 18.5418 0.0598377 12.8843 2.49854 -0.824214 5.72244 -6.20183 7.26542 11.0194
509 1 -0.623136 30.8 14.9431 -0.0281245 -1.04297 4.04611 -9.72313 7.55622 4.80909
510 3 -2.40285 31.6136 15.5143 -2.49603 3.59739 -1.55143 -1.56297 -6.24718 -8.03705
511 3 20.2711 0.91151 0.921965 0 0 0 0 0 0
512 1 20.2271 0.655457 10.7363 3.21023 -0.270625 0.566814 -8.08404 -6.71029 -14.8349
513 1 17.0303 2.59896 8.47394 2.28909 0.820045 -2.486 -10.434 -8.8833 -2.27963
514 3 18.6655 1.79802 9.61271 5.41859 7.10195 -0.0454655 -6.89198 -8.82544 -0.0928471
515 3 20.1966 0.896961 7.33867 0 0 0 0 0 0
516 1 16.8709 4.77301 2.13431 0 0 0 0 0 0
517 3 18.6977 3.64939 0.867532 0 0 0 0 0 0
518 1 17.0895 4.4661 6.05747 0 0 0 0 0 0
519 1 15.7485 5.31132 8.61342 4.96658 0.718538 0.874127 -17.7337 10.9823 12.0444
520 3 18.643 3.58784 7.33867 0 0 0 0 0 0
521 1 16.8946 3.01924 17.3503 -0.64148 1.34757 0.369356 12.6799 -16.9748 -2.51533
522 3 16.4544 4.90598 16.1264 -2.2855 1.51089 9.03859 -8.69896 -8.09668 -7.55202
523 1 15.5627 7.38646 2.31017 0 0 0 0 0 0
524 3 17.1869 6.29165 0.76214 0 0 0 0 0 0
525 1 14.1079 7.86692 8.42455 1.89032 -0.410929 -0.946879 -8.12308 -14.3589 3.4035
526 3 15.7141 7.17809 9.5997 -1.21423 0.378117 5.40987 2.60054 -2.20861 -5.15023
527 3 17.0998 6.149 7.26411 0 0 0 0 0 0
528 1 15.0534 5.32082 17.4161 1.46972 -0.0529269 2.93209 11.9835 8.52509 9.79311
529 1 16.278 6.91103 15.3587 -0.461247 -1.36638 0.636432 -4.60097 10.7316 -8.77893
530 3 15.5344 8.96708 0.961704 0 0 0 0 0 0
531 1 14.1358 9.5902 5.85872 0 0 0 0 0 0
532 1 15.7658 8.72957 10.8678 2.44962 0.441826 0.720044 10.9753 -7.86514 5.29386
533 1 12.523 10.3799 8.34347 2.36115 -2.55914 0.879488 3.77366 12.4933 -3.93987
534 3 14.1135 9.43835 9.77688 -1.58208 -2.10815 -2.32231 4.22399 8.34091 0.0788278
535 3 15.7523 8.72321 7.21595 0 0 0 0 0 0
536 3 13.5454 9.70341 16.005 1.56608 1.44593 5.19044 3.96706 -3.02092 -6.40998
537 2 12.1253 10.7529 3.905 0 0 0 0 0 0
538 3 14.0107 11.4953 0.691211 0 0 0 0 0 0
539 1 12.2296 12.5266 5.80799 0 0 0 0 0 0
540 3 14.1224 11.1279 7.24564 0 0 0 0 0 0
541 1 12.1533 10.9864 17.1014 5.82501 1.56257 -3.64505 1.08626 -11.9444 -13.6775
542 2 13.9854 13.4491 12.9718 -0.897531 0.834405 0.631869 3.68368 0.935569 5.27874
543 1 14.1265 11.3067 14.8734 2.96411 -1.11025 2.8124 14.919 -6.97882 2.15495
544 3 12.7651 12.4312 15.7824 -9.36354 4.99464 6.50185 2.19843 1.43817 7.01277
545 2 10.6991 13.5058 4.09533 0 0 0 0 0 0
546 1 10.8265 15.1403 5.98024 0 0 0 0 0 0
547 1 8.62184 16.3696 8.21258 0.460295 1.19794 -0.197276 2.31155 5.48869 9.80746
548 2 12.9824 16.1026 13.0664 1.63393 -7.14172 -0.0720284 -10.6835 -1.67059 -3.77045
549 1 12.6658 14.3749 14.9382 2.67722 -4.43743 -0.481494 11.9978 -0.653072 -12.0894
550 2 9.1947 16.0411 3.94731 0 0 0 0 0 0
551 1 9.27291 17.9475 5.77881 0 0 0 0 0 0
552 1 11.2587 16.607 10.8207 -3.32768 3.61777 2.30468 8.10366 11.6779 0.940389
553 3 9.57918 17.1426 9.83032 -0.957134 6.51126 -3.2195 6.66218 5.49211 4.64285
554 3 10.5984 16.9284 7.00066 0 0 0 0 0 0
555 2 6.74673 18.248 13.7088 -0.576133 10.7059 7.26165 -0.750237 0.947911 -1.62348
556 2 7.67873 18.5585 3.6687 0 0 0 0 0 0
557 1 7.76791 20.6301 2.22916 0 0 0 0 0 0
558 3 9.34937 19.7718 0.872721 0 0 0 0 0 0
559 1 7.50262 20.3005 5.44887 0 0 0 0 0 0
560 3 9.2587 19.4711 7.42446 0 0 0 0 0 0
561 3 6.51516 20.4352 15.9593 8.30569 15.5492 5.73162 -0.641141 3.08026 4.65692
562 2 6.01634 21.5282 3.86204 0 0 0 0 0 0
563 1 6.1342 23.2191 2.0287 0 0 0 0 0 0
564 3 7.76791 22.424 0.961352 0 0 0 0 0 0
565 1 6.22269 23.0023 5.8667 0 0 0 0 0 0
566 1 7.67937 22.9272 10.7793 -0.369273 -2.16578 5.75362 14.4702 -12.6724 -4.0067
567 3 6.78876 24.6388 10.1786 1.40893 -5.05668 -8.84297 1.57621 0.198568 -3.56172
568 3 7.37446 22.5479 7.52658 0 0 0 0 0 0
569 1 4.41873 21.2484 15.757 5.14196 -0.803316 -5.32396 1.64472 -0.135263 0.123549
570 2 5.58834 21.4402 11.3716 -0.568133 -1.00817 -8.55582 -3.49161 4.66335 -4.00706
571 1 5.65401 22.8146 13.4747 -0.480475 -1.43181 -6.6702 -3.29705 0.613248 -0.106118
572 3 5.65992 22.3901 17.195 12.5832 -12.4677 4.43663 -3.40195 -0.534413 -7.30623
573 2 4.35679 23.9686 3.80323 0 0 0 0 0 0
574 1 4.7641 25.8033 1.8979 0 0 0 0 0 0
575 3 6.31495 25.0748 0.734974 0 0 0 0 0 0
576 1 4.90145 25.6026 5.6109 0 0 0 0 0 0
577 3 6.18641 25.2507 7.21517 0 0 0 0 0 0
578 1 4.12109 23.4806 17.6865 -0.997841 10.0802 6.97716 -0.887631 1.50418 0.924756
579 3 5.9742 25.1972 13.8608 -0.833709 4.5614 -10.4867 -2.60772 -1.22651 -3.56969
580 2 3.47763 27.0557 3.63307 0 0 0 0 0 0
581 1 3.2747 28.6165 1.69474 0 0 0 0 0 0
582 3 4.77586 27.8267 0.502439 0 0 0 0 0 0
583 1 3.45648 28.611 5.65407 0 0 0 0 0 0
584 1 1.47882 29.5869 8.56539 2.18736 -0.126418 -1.0345 -12.6842 14.7026 -4.47221
585 1 3.23417 27.165 16.1785 3.0296 0.756329 -7.53319 1.2421 2.51274 3.56072
586 3 2.8278 29.2903 16.4241 6.90417 -6.51259 1.01516 0.0305087 -4.41813 1.27191
587 2 1.54604 29.5396 4.09326 0 0 0 0 0 0
588 1 1.88154 31.1496 2.15841 0 0 0 0 0 0
589 3 3.2679 30.4728 0.777022 0 0 0 0 0 0
590 1 2.85129 30.4468 11.3008 -0.862012 0.61398 3.52507 -3.20065 -8.26625 16.2907
591 1 -0.0736889 32.2281 8.77676 1.30727 0.21992 -1.39971 -5.30596 -5.01699 6.44923
592 3 1.49335 31.177 9.62859 -3.68976 8.52986 0.0802792 5.81166 -5.83163 -1.96468
593 3 2.98215 30.4364 7.1287 0 0 0 0 0 0
594 2 21.353 0.327914 12.9309 -3.1587 -2.12903 1.2448 6.80916 1.34294 -10.7174
595 1 2.37543 31.0911 15.0676 -1.90944 0.0348983 4.39359 15.1568 11.9698 -9.36862
596 1 21.6286 1.79843 2.22948 0 0 0 0 0 0
597 3 23.221 0.847713 0.881811 0 0 0 0 0 0
598 1 23.2777 0.669552 11.123 0.119272 2.24325 -2.2477 -11.1739 14.2052 -17.2833
599 1 20.1739 2.40862 8.31975 3.92622 -0.407736 -2.25522 12.2557 3.01971 -2.70895
600 3 21.8379 1.59596 9.60511 -2.31313 4.80549 -3.49561 -3.01846 0.996608 4.81055
601 2 22.7557 3.08948 12.8043 2.24796 -2.60724 1.62411 2.8543 5.17887 1.58883
602 1 23.4736 1.17408 14.39 -0.477552 1.72362 0.82072 -3.05139 -13.2883 16.2225
603 1 20.1728 4.46868 2.20003 0 0 0 0 0 0
604 3 21.7502 3.58784 0.961352 0 0 0 0 0 0
605 1 20.0992 4.17916 5.8441 0 0 0 0 0 0
606 1 21.5722 3.49659 10.6612 -2.85159 -0.0521877 -1.37075 11.5725 13.7535 -10.969
607 3 21.7452 3.58523 7.33159 0 0 0 0 0 0
608 1 21.9713 3.81251 15.0594 -1.3242 3.68013 -1.95367 1.46689 -12.5144 -0.292093
609 3 19.9514 4.69572 15.9713 11.3671 2.77072 2.37662 -4.69581 -3.25961 -4.06848
610 2 18.643 5.38177 4.15001 0 0 0 0 0 0
611 1 18.4791 7.2193 2.08806 0 0 0 0 0 0
612 1 17.2169 7.93111 8.42866 0.160836 -4.45466 6.39829 -6.77267 8.47105 -3.81679
613 1 18.1076 5.64996 17.1022 -1.22208 2.20252 -1.12361 -10.0699 11.3635 10.6955
614 2 20.6197 7.65229 12.694 -0.436775 1.89159 2.68856 -10.3317 -8.20898 11.2349
615 1 20.326 6.23042 14.8546 -4.91906 -2.19592 0.601673 -6.34197 14.2307 8.17624
616 3 18.4578 7.31666 15.6755 0.853712 3.22527 8.35037 2.63702 1.12705 7.30874
617 2 17.2097 8.20574 3.99852 0 0 0 0 0 0
618 1 17.0217 9.92131 2.17475 0 0 0 0 0 0
619 1 17.0976 9.70926 5.98879 0 0 0 0 0 0
620 1 19.0554 9.1299 11.1564 1.85334 1.08853 4.48125 -2.64739 -17.4137 5.92349
621 1 15.6633 10.4708 8.56572 1.20915 0.866834 -2.34488 -2.4699 12.0113 -0.662553
622 3 17.3606 9.62495 9.75914 -0.461576 -5.09585 -1.10667 4.61885 -6.88752 -3.1035
623 2 19.1049 10.9245 13.1446 6.60093 -0.392261 4.47974 7.81619 9.42238 -3.72599
624 1 18.2504 8.63739 14.0942 2.68896 -3.00028 -1.21893 -10.996 1.20873 10.0905
625 3 18.4438 9.63258 16.116 -1.03494 0.163495 -5.59377 3.55983 7.27964 -6.41115
626 2 15.5224 10.6879 4.02717 0 0 0 0 0 0
627 1 15.4477 12.5295 2.13346 0 0 0 0 0 0
628 3 16.9506 11.4787 0.606679 0 0 0 0 0 0
629 1 15.3313 12.296 5.92765 0 0 0 0 0 0
630 1 17.5182 11.5732 10.9152 2.37898 0.474008 -2.02387 11.719 4.76375 5.3049
631 3 16.1407 12.4357 9.44655 4.32727 -3.06571 -4.32755 -2.07084 -4.99346 5.87681
632 3 17.1175 11.3467 7.25636 0 0 0 0 0 0
633 1 15.1906 9.86662 17.144 -0.286869 -1.44828 3.27895 4.5217 -6.04885 -11.6445
634 2 17.2187 13.0296 13.0537 4.68907 0.573845 3.86482 0.496346 -6.78814 -6.71936
635 1 17.416 11.2782 15.1793 2.51461 -0.824649 2.50124 14.9178 -5.5482 -5.47787
636 3 15.7736 11.8904 16.2717 2.08377 1.59649 -1.7532 -9.21984 6.23952 -1.00751
637 2 13.6076 13.2917 3.6393 0 0 0 0 0 0
638 1 13.9208 15.2332 2.10088 0 0 0 0 0 0
639 3 15.5413 14.3544 0.953738 0 0 0 0 0 0
640 1 14.2735 12.882 17.2929 0.976122 -0.774158 -0.430653 11.7487 -0.997507 8.06345
641 2 16.1907 15.6193 12.9717 4.63458 -6.9772 -0.957377 7.7375 9.50762 -0.545477
642 1 15.5169 13.6103 14.8461 2.64368 -0.218072 0.415376 -6.26417 2.78812 14.37
643 3 14.3897 14.8594 16.1851 -2.46296 -1.15974 -1.29519 4.12904 -2.89976 -5.25444
644 2 12.371 15.9573 3.9197 0 0 0 0 0 0
645 1 12.2528 17.6619 2.0991 0 0 0 0 0 0
646 3 13.9814 17.0419 0.960716 0 0 0 0 0 0
647 1 12.3302 17.643 5.76116 0 0 0 0 0 0
648 1 13.8368 17.3838 10.9897 -1.92764 1.31884 0.953091 -15.9646 5.31839 -15.9358
649 1 10.857 18.3049 8.41253 -3.67964 -2.77774 -2.08506 0.527695 -1.71832 1.61007
650 3 12.2469 18.3729 10.0762 5.28226 -1.58253 -1.46478 -1.67186 -3.65999 -6.34442
651 1 12.8957 15.3109 17.5391 4.39829 -2.22454 2.78141 -5.20513 10.3321 5.00219
652 2 15.4165 20.1346 13.9747 4.56882 9.54 1.96563 -0.686339 -3.78596 -2.9091
653 1 15.0222 16.5128 14.8373 -2.01433 1.03987 2.32176 10.7082 -12.5735 16.6158
654 2 10.8977 18.8563 4.11492 0 0 0 0 0 0
655 1 10.8858 20.6076 2.18712 0 0 0 0 0 0
656 3 12.2403 19.7166 0.590709 0 0 0 0 0 0
657 1 11.622 19.9798 11.1614 -1.65125 1.21509 -0.388431 -0.436844 2.28878 12.4961
658 3 12.6827 19.0103 7.2759 0 0 0 0 0 0
659 1 9.2513 23.2321 2.21448 0 0 0 0 0 0
660 3 10.8751 22.424 0.961352 0 0 0 0 0 0
661 1 10.5337 22.6892 10.4944 0.514769 2.77187 -0.464616 -0.817493 1.92406 0.24197
662 1 7.80533 24.4609 8.37442 1.70943 -0.410346 -0.460704 -7.85216 -14.6974 -0.806366
663 3 9.34707 24.1683 9.9347 -6.21372 -1.20282 -1.40622 3.68668 -7.50729 -5.24499
664 2 11.4822 28.7112 10.9726 -2.24243 2.15841 -1.72985 9.55498 5.05375 -6.5657
665 1 8.24184 28.1442 13.7771 3.01437 6.45337 4.20656 1.45943 -2.28927 0.415605
666 3 7.25937 21.7728 12.3296 8.75433 -9.07751 -3.02354 0.889234 1.00674 3.76482
667 2 7.30782 24.2699 3.9889 0 0 0 0 0 0
668 1 7.77069 26.078 6.03604 0 0 0 0 0 0
669 1 9.43981 26.0888 10.7156 -2.96928 -0.0652846 1.32541 -9.35985 -11.5289 -1.95845
670 1 6.0668 27.06 8.39895 2.83048 0.539105 1.01211 12.4385 -17.0755 -9.77006
671 3 7.72879 26.4458 9.43035 4.85581 4.61429 -0.123818 -8.67056 -6.98653 3.90061
672 3 9.32743 25.2951 7.1549 0 0 0 0 0 0
673 2 4.13285 25.264 12.7711 -10.1102 0.76213 5.63644 5.26443 1.82951 1.83725
674 1 7.37263 25.3862 12.1147 -2.04924 0.746011 2.15137 0.181525 0.904565 2.76919
675 2 6.37151 27.0602 4.21495 0 0 0 0 0 0
676 1 6.35086 28.7699 6.06625 0 0 0 0 0 0
677 1 7.43151 28.0346 10.8251 3.75084 -1.99482 -4.19743 15.2673 -11.1547 -12.5113
678 3 5.6028 28.4537 10.0445 7.94209 12.7174 -1.47997 -0.0984342 -1.78884 -3.04837
679 3 7.77012 27.8317 7.30188 0 0 0 0 0 0
680 2 5.97637 27.1328 13.3272 -1.79147 3.09322 2.17182 -0.663503 1.72027 -1.29424
681 2 4.81671 29.6772 3.85203 0 0 0 0 0 0
682 1 4.7978 31.3665 2.01348 0 0 0 0 0 0
683 1 4.60468 31.2899 5.93259 0 0 0 0 0 0
684 1 6.08172 30.4042 10.5988 0.405857 1.27835 -3.03117 -10.7469 1.07001 -4.83838
685 1 3.16739 32.0956 8.48852 -1.11564 -0.105804 2.01556 -3.79287 -0.615272 -7.21168
686 3 4.22531 30.8076 9.90368 7.00273 -0.259904 -2.94908 2.27996 -4.33108 -1.67008
687 3 6.33395 30.716 7.36639 0 0 0 0 0 0
688 1 4.94001 30.2325 16.2825 6.87352 -2.03438 5.05467 -0.378351 0.802612 0.412518
689 2 6.74045 31.9775 12.7763 1.18974 -1.62087 2.40414 -10.2806 -13.6229 7.57795
690 1 4.6967 30.8545 13.5537 -0.650521 1.71176 -1.59598 -7.03726 -12.0997 15.3845
691 3 4.21963 31.776 15.571 -9.83016 -2.81085 -3.84672 -10.0223 6.72169 -1.36516
692 2 6.20555 32.2818 3.86218 0 0 0 0 0 0
693 1 24.5555 1.78939 2.15482 0 0 0 0 0 0
694 1 23.2753 2.70341 8.51655 2.55067 -2.03929 -1.15092 5.21712 -2.37074 -3.36226
695 2 25.3894 2.56451 12.9588 -4.46393 -2.73658 3.26276 1.33629 0.964804 -12.1271
696 1 26.5565 1.08388 14.638 1.95294 1.25453 0.0721432 3.65871 9.88626 -6.22876
697 3 24.8438 1.64047 15.8975 0.341477 0.588284 1.96671 7.48582 -5.71049 6.6975
698 1 23.2831 4.47233 2.20388 0 0 0 0 0 0
699 3 24.8573 3.58784 0.961352 0 0 0 0 0 0
700 1 22.9732 4.73266 5.92209 0 0 0 0 0 0
701 1 24.5873 3.78092 10.9823 -4.03213 0.893205 3.81056 18.0023 -10.613 8.45408
702 1 21.7749 5.2758 8.49337 -0.0389012 3.0137 2.09884 -7.61693 13.1578 -3.64902
703 3 23.1294 4.54295 9.70353 -1.77553 2.97945 2.62208 -7.58393 6.60379 6.42042
704 1 23.3651 2.64865 17.4499 -0.0383299 0.0824093 0.887358 -4.35805 -11.3002 -0.938045
705 2 24.6873 5.21108 13.1637 2.64444 -0.484043 -1.90955 -6.89372 6.1956 -12.6217
706 1 25.0709 3.75037 15.2984 0.279191 0.0124613 1.4226 4.92809 8.08881 -2.50601
707 3 23.3228 4.52553 16.4463 3.39034 4.34094 -0.240602 -2.18741 4.2382 -0.907354
708 2 21.6172 5.4848 3.9651 0 0 0 0 0 0
709 1 22.8044 6.31985 11.1757 -0.78517 -0.880165 -0.106288 -4.16219 16.2994 2.11413
710 3 23.3037 6.26507 7.36261 0 0 0 0 0 0
711 1 21.5113 5.42994 17.5621 4.16103 -1.79045 5.16296 -8.43183 16.9167 6.52032
712 2 23.2403 7.80663 13.1898 3.90123 -2.17899 -4.55389 6.1822 2.22718 1.04722
713 1 23.5635 6.29953 15.1245 5.02605 -3.52575 -1.74437 6.25267 5.84666 -4.67582
714 3 21.7002 7.2445 16.0026 5.95954 -4.16064 -2.72575 -0.936627 -8.32671 0.502513
715 2 20.1344 8.03496 4.35922 0 0 0 0 0 0
716 1 20.284 9.94802 5.95675 0 0 0 0 0 0
717 1 21.9356 8.86637 10.9464 2.41584 -0.668608 2.22643 2.76332 -5.56959 -8.53728
718 1 18.839 10.6212 8.43915 -4.58134 -0.855442 1.13595 -11.8907 8.73583 9.77335
719 3 20.4118 9.42012 9.40383 1.03128 3.78418 1.66209 -4.7118 -8.89029 7.99277
720 3 18.7759 12.2817 9.46725 3.31739 5.83976 2.05038 1.01255 -7.25425 7.89824
721 3 20.2865 11.5613 7.25502 0 0 0 0 0 0
722 1 18.2192 10.9112 17.9737 -1.96633 1.27806 -2.39333 17.837 -13.6877 -7.59245
723 1 20.1326 10.9023 15.5683 3.12014 -2.76014 2.48349 -2.60259 -12.0458 10.247
724 3 18.8279 12.1917 16.6755 0.953806 -3.5546 5.86671 6.65425 3.95913 7.53161
725 1 17.0086 15.1253 2.23301 0 0 0 0 0 0
726 3 18.5397 13.8475 6.85271 0 0 0 0 0 0
727 1 17.1674 13.3839 17.2043 0.185 2.02017 3.0005 9.06062 12.5577 -13.2852
728 1 15.5292 17.6784 2.18297 0 0 0 0 0 0
729 3 17.0272 17.0204 0.913614 0 0 0 0 0 0
730 1 16.9835 17.0904 10.7747 0.10572 -0.442678 1.09706 -2.9355 13.575 16.0434
731 1 13.868 19.5988 9.06097 0.884305 -1.57545 -1.65381 -18.0341 -15.2094 7.71705
732 3 15.4011 18.4553 10.0369 1.98353 0.104784 6.97771 -7.95546 -5.26083 9.09839
733 1 15.7842 15.4602 17.6472 -0.0861014 -2.18783 -1.75389 1.36541 13.9854 -1.59988
734 2 17.8863 19.5527 13.1284 1.00665 4.51216 -3.53166 -6.93235 -13.1956 -3.06854
735 3 16.0628 17.1807 16.4865 -3.65616 3.72587 -3.39453 -0.532897 3.82494 0.972368
736 1 13.8384 20.3986 6.25203 0 0 0 0 0 0
737 1 15.847 19.9734 11.2898 0.423054 -0.96084 1.7833 -0.228141 8.49569 12.1388
738 1 12.4707 21.9606 8.77176 -1.3274 -0.525256 0.944555 3.44474 16.073 5.06636
739 3 13.9071 21.1561 10.3348 -0.885888 -6.21885 2.85171 -1.74111 -0.306822 5.50866
740 3 15.3854 20.0317 7.57883 0 0 0 0 0 0
741 1 14.3042 17.5208 17.4174 3.37107 -2.50722 0.804375 7.7476 -12.7684 -12.7217
742 1 12.3889 23.3479 2.23036 0 0 0 0 0 0
743 3 13.7091 22.687 0 0 0 0 0 0 0
744 1 14.0668 23.1182 10.9052 2.62623 1.96399 -1.05608 -14.9127 16.3318 -1.6326
745 1 10.7661 24.803 8.74953 -0.316286 2.12961 -0.932437 -4.18896 -6.0716 14.5413
746 3 12.3718 23.5437 9.65176 -0.512118 -1.54468 -5.52137 9.06393 3.61357 3.93318
747 3 13.9182 22.5339 7.33087 0 0 0 0 0 0
748 2 10.2566 26.0629 13.1051 -0.283417 5.7296 2.56343 -2.35757 0.775377 -2.85312
749 3 9.36496 29.61 13.2191 4.96504 -2.42069 6.69263 1.43647 1.19575 1.88273
750 3 12.4287 25.1149 0.961352 0 0 0 0 0 0
751 1 9.21003 26.9407 8.20563 -2.88325 1.20763 -0.235759 7.58702 12.8285 0.803409
752 1 13.5282 18.5354 13.4351 1.84062 -6.64588 2.34309 0.952308 -1.23987 1.34996
753 2 14.3601 28.1033 14.9272 -1.06194 8.43942 -3.02041 -1.9565 0.934902 0.686103
754 1 11.7472 28.0334 18.9259 4.61515 9.06464 -6.51247 2.05541 -1.55409 3.71508
755 3 11.5301 26.8307 11.6709 -4.42297 4.29794 -6.28297 -9.25392 0.60182 -1.2537
756 2 9.26437 27.1685 3.63807 0 0 0 0 0 0
757 1 9.27511 28.7611 5.92039 0 0 0 0 0 0
758 2 11.7981 30.8262 17.2332 -9.85923 -0.80417 4.29675 -0.648141 0.194298 1.74071
759 1 13.6539 28.83 12.512 2.81456 -2.74212 6.74306 1.42242 1.09836 0.3743
760 2 7.75775 29.6638 4.10351 0 0 0 0 0 0
761 1 7.52699 31.4445 5.83856 0 0 0 0 0 0
762 2 27.7594 1.73331 12.4469 -5.6467 4.90695 3.40319 -2.28933 -5.48204 -6.59515
763 1 7.90375 30.4313 14.6617 3.89797 6.65106 -4.74887 2.56485 2.13295 -2.50948
764 3 9.90522 31.0736 16.8335 -4.76897 -1.13153 2.05993 -1.57408 0.642171 -1.9939
765 2 9.14556 32.2689 4.12546 0 0 0 0 0 0
766 3 29.4531 0.935918 0.799955 0 0 0 0 0 0
767 1 27.9811 1.82837 5.79118 0 0 0 0 0 0
768 1 26.455 3.05596 8.30273 -2.80563 -0.490284 -1.2805 -5.63404 -6.96715 -5.55856
769 3 29.4587 0.920401 7.31456 0 0 0 0 0 0
770 2 29.5039 3.60486 13.0403 -2.34546 -2.2037 0.144367 -0.610409 6.54926 2.43928
771 1 29.2114 1.8632 14.6482 3.93345 3.28932 -0.0984098 -2.84653 -6.88075 15.2064
772 3 27.8764 2.23303 16.3572 0.405999 -1.22172 -1.47611 5.25535 -0.849426 4.11435
773 1 24.8152 5.40177 8.54058 -2.05998 2.18066 -2.24259 -9.11628 10.807 -3.52944
774 3 26.4397 4.464 9.69823 3.29162 0.141315 -0.718102 6.65208 1.84069 -3.59368
775 3 28.193 3.80048 7.04569 0 0 0 0 0 0
776 3 26.9402 4.13017 16.681 1.2069 0.552283 -2.81044 -3.52893 -2.50993 6.95926
777 2 24.7571 5.3381 4.02374 0 0 0 0 0 0
778 1 25.4422 6.69611 2.04365 0 0 0 0 0 0
779 1 24.9061 6.93184 5.94002 0 0 0 0 0 0
780 3 26.4109 6.30971 7.29692 0 0 0 0 0 0
781 1 25.0286 5.28118 17.7797 4.87143 -0.732343 -2.27994 -8.31025 -4.92313 -17.9124
782 3 24.7917 7.45369 16.432 4.55833 0.780738 -2.59717 5.29111 2.81868 3.70101
783 2 23.2993 7.9567 4.32634 0 0 0 0 0 0
784 1 23.1809 9.91366 2.23762 0 0 0 0 0 0
785 3 24.7873 8.933 0.825166 0 0 0 0 0 0
786 1 23.2723 9.92921 5.85695 0 0 0 0 0 0
787 1 24.5871 9.22618 11.552 -0.903752 0.57096 -2.0079 -12.2792 -0.534097 6.20938
788 1 21.8684 10.352 8.21254 2.43053 2.08914 0.859216 10.985 -6.24809 -5.51948
789 3 23.144 10.1671 9.99765 -6.17554 2.86599 -1.84241 -0.585353 4.55976 0.258897
790 2 24.5859 11.4051 12.9485 0.516219 2.30459 1.50308 -7.35773 -10.154 -2.20847
791 1 24.4119 9.38718 14.8657 -4.37127 -1.72277 -0.383307 -6.79749 5.00455 -5.13209
792 2 21.7225 10.7616 4.08506 0 0 0 0 0 0
793 1 21.8277 12.4599 6.14225 0 0 0 0 0 0
794 1 23.0363 11.8339 10.9411 2.89336 0.763491 -0.198272 -17.9591 1.34701 -16.9535
795 1 20.0226 13.5321 8.17266 -2.58975 -0.934363 -1.49919 12.5868 -12.8245 7.27864
796 3 23.3093 11.6243 7.32323 0 0 0 0 0 0
797 1 22.0275 10.8655 17.6556 -2.88906 3.53529 -2.67078 7.30936 -7.98396 -14.9743
798 1 23.287 11.8335 15.0423 -0.862594 -0.287007 4.99549 -4.2349 1.04923 7.52055
799 3 21.7034 12.321 16.2385 8.4724 -5.38604 0.124922 -1.68111 6.23223 4.27586
800 1 18.7256 16.4014 8.56255 3.12071 -1.05246 2.54562 -12.2278 -14.1291 -10.4804
801 3 20.1587 15.2476 9.44275 -3.85611 5.64662 0.662414 -2.04023 -1.49661 3.5451
802 3 21.7566 14.3127 7.21121 0 0 0 0 0 0
803 1 20.6106 13.2303 17.7267 4.02928 1.14081 4.46139 -11.3571 -1.46128 3.40349
804 1 21.0651 14.1452 15.2213 1.23453 -1.81741 -3.40674 -15.4633 -4.87904 -6.15006
805 2 18.6387 16.2032 4.18434 0 0 0 0 0 0
806 1 18.6542 17.5483 2.08081 0 0 0 0 0 0
807 3 20.1291 16.9831 0.741545 0 0 0 0 0 0
808 1 20.4123 16.8227 10.6182 -2.0871 4.3027 0.575543 6.04108 -15.7686 -8.53989
809 1 17.0939 19.0672 8.7153 1.43194 0.423897 1.97223 -1.47078 4.80255 6.9706
810 3 18.9172 17.9972 9.73822 9.9876 2.59813 -8.10232 1.68409 7.44546 -0.337406
811 3 20.0828 17.0544 7.22911 0 0 0 0 0 0
812 2 20.8098 18.427 12.7817 -2.18123 -1.75378 1.89084 -4.31055 6.81127 0.780196
813 1 21.2326 16.788 14.5846 5.54206 2.25685 1.46557 -0.939603 -10.6352 -3.47906
814 1 19.0975 19.6717 10.9576 2.1306 0.118649 2.24216 7.05845 -14.1893 -10.495
815 1 15.6094 21.8123 8.65719 -0.257781 -1.23149 -2.27825 -4.99052 0.798319 14.7515
816 3 17.3213 20.6131 9.83036 1.70718 -7.94847 1.94689 -3.17168 1.71509 -1.4684
817 3 18.7579 19.6391 7.29098 0 0 0 0 0 0
818 2 15.6058 21.3493 4.13383 0 0 0 0 0 0
819 1 15.9455 23.4768 1.58643 0 0 0 0 0 0
820 1 15.4564 23.1795 5.93052 0 0 0 0 0 0
821 1 13.9407 24.449 8.26432 1.07495 1.48602 2.06696 -0.206806 -1.19431 -8.71712
822 3 15.3576 23.7572 9.73693 10.4401 1.25985 -4.72713 5.57337 8.59793 -7.69211
823 3 17.2791 22.1744 7.06639 0 0 0 0 0 0
824 1 16.542 19.3038 16.387 -2.31866 3.89871 -1.96276 -5.07312 -18.4529 2.52927
825 3 12.925 24.7531 14.2227 8.83141 8.8839 8.02476 -3.124 -0.311391 -1.25136
826 2 14.2374 24.2301 3.99564 0 0 0 0 0 0
827 1 13.9459 25.941 2.12908 0 0 0 0 0 0
828 3 15.4068 25.2832 0.729 0 0 0 0 0 0
829 1 15.0398 25.7051 10.4681 -2.13952 -1.05948 0.301663 16.1458 3.09201 0.0427288
830 3 15.9159 24.7354 7.21751 0 0 0 0 0 0
831 1 16.7033 21.9625 13.222 0.824251 2.56903 -3.01629 0.0182639 0.95575 0.430574
832 2 15.2218 26.5892 12.7415 0.370145 -3.92852 8.82076 -0.626346 0.586334 -1.65743
833 1 16.5326 24.5935 14.1224 -3.86436 3.48761 1.8606 -1.08086 3.92526 -2.07651
834 3 16.0659 21.148 15.4975 11.5201 -6.98216 -14.1299 0.749931 1.81739 3.06639
835 2 12.5526 27.0117 3.90296 0 0 0 0 0 0
836 1 12.4225 28.7826 2.14761 0 0 0 0 0 0
837 3 13.7147 27.9043 0.464103 0 0 0 0 0 0
838 1 12.1923 28.7543 5.66028 0 0 0 0 0 0
839 1 9.27087 30.1647 11.3438 2.11728 -2.05777 0.706002 -13.7033 -17.3811 16.325
840 2 13.7694 31.4402 12.5908 -3.40828 -0.524306 -4.05372 9.58905 -2.61838 -7.54475
841 2 10.7025 29.7318 3.91118 0 0 0 0 0 0
842 1 10.9359 31.3864 2.05589 0 0 0 0 0 0
843 3 12.441 30.4896 0.951965 0 0 0 0 0 0
844 1 10.7748 31.5537 5.88772 0 0 0 0 0 0
845 1 28.9037 0.0256509 18.5468 -3.74463 -2.55521 -1.35343 -2.56675 2.03055 -0.34375
846 2 30.1835 0.7996 12.5385 0.348204 -1.61233 -0.090349 4.18574 4.6822 -2.11456
847 1 14.6518 30.9528 15.0597 0.971518 -1.94084 0.293859 10.7262 3.60893 7.66143
848 3 12.7242 31.6481 15.7378 -0.344233 -4.42635 0.748887 0.0417555 1.77271 -0.839534
849 2 30.7239 0.242276 3.95981 0 0 0 0 0 0
850 1 31.3273 1.78928 2.09516 0 0 0 0 0 0
851 3 32.4671 0.962875 0.531889 0 0 0 0 0 0
852 1 30.8954 2.09599 5.70241 0 0 0 0 0 0
853 1 32.3245 0.946457 10.7774 3.73689 0.399796 2.94004 13.9084 3.87233 -5.74993
854 1 29.6246 2.97547 8.26732 -0.0162081 2.05497 -0.672244 -16.2067 -13.8273 -0.32668
855 3 31.0233 1.88347 9.39922 -4.34462 -1.36335 4.27626 -0.519312 7.15669 -8.20346
856 3 32.8527 1.3224 7.07472 0 0 0 0 0 0
857 1 31.5729 0.970387 16.9036 2.6789 0.534088 -0.906772 4.22552 4.67232 6.2704
858 3 30.8135 2.66216 16.2535 3.12537 3.21378 -3.06351 5.30841 -1.42939 8.34015
859 3 31.0846 3.54481 0.915378 0 0 0 0 0 0
860 1 31.1425 3.71802 10.8029 -2.02657 -0.974221 -2.10326 -6.83458 -1.81186 -14.9579
861 1 27.9489 5.44215 8.46304 -1.67995 0.298574 0.233918 3.90981 11.2158 10.4619
862 3 29.5374 4.60928 9.70965 -1.07498 3.57204 0.258146 2.01909 -3.96019 1.4211
863 3 31.129 3.65358 7.26012 0 0 0 0 0 0
864 1 29.56 3.18378 17.5682 -0.322226 3.92669 1.67758 1.21232 9.502 -6.46295
865 2 31.7712 5.02787 12.7991 -0.0929096 -2.10921 -0.215516 -10.2815 -9.15199 7.84564
866 1 31.5425 3.65872 14.9248 -3.40885 -3.90557 0.879052 1.94801 15.2939 5.60286
867 2 27.9558 5.46779 4.00523 0 0 0 0 0 0
868 1 28.3215 7.19518 2.22584 0 0 0 0 0 0
869 3 29.5832 6.23256 0.895531 0 0 0 0 0 0
870 1 28.1079 6.96551 5.99722 0 0 0 0 0 0
871 1 30.1617 6.31332 10.9305 2.62892 -0.820844 0.933453 6.82849 8.39218 -15.567
872 3 29.5542 6.34946 7.34508 0 0 0 0 0 0
873 1 28.2646 5.66198 16.7767 2.79028 1.49909 -0.29373 -1.09579 -9.85515 5.65074
874 3 27.6182 7.04717 15.4025 3.86455 -5.25046 0.192591 8.26131 1.94324 5.55376
875 2 26.4109 8.07265 4.15001 0 0 0 0 0 0
876 1 26.1691 9.74207 2.13829 0 0 0 0 0 0
877 3 27.7966 8.82473 0.772027 0 0 0 0 0 0
878 1 24.6943 10.7825 8.67013 2.87404 3.3487 1.17766 7.6808 11.6912 15.615
879 1 26.6396 7.9534 16.9674 3.65334 1.72224 -1.05127 -13.0398 14.477 9.83037
880 1 27.9866 9.08493 14.8402 -3.29691 2.89562 1.74113 -3.85121 -12.0116 16.6015
881 3 26.3591 9.83329 15.9599 2.51066 -0.0450038 -4.56511 -2.2623 -0.887169 -3.99837
882 2 24.8643 10.6386 4.06908 0 0 0 0 0 0
883 1 25.2585 12.5404 1.97421 0 0 0 0 0 0
884 3 26.5981 11.5085 0.778882 0 0 0 0 0 0
885 1 24.8878 12.3711 5.86699 0 0 0 0 0 0
886 1 26.3636 11.7435 11.1776 -3.64412 1.14286 0.886421 12.5351 -0.610562 8.33108
887 1 23.2729 13.4373 8.43054 2.52471 -1.81252 1.07001 14.1082 -8.68035 -13.537
888 3 24.7958 12.6614 9.74521 -3.79091 3.64489 8.78773 -5.7876 -0.390253 -2.89148
889 1 24.9613 11.1153 16.9308 0.63898 1.90513 1.20038 -3.61829 -3.29791 -1.64071
890 2 26.5903 13.8396 12.7538 2.44064 3.48938 0.639635 -11.7289 -14.0582 8.69725
891 1 26.5666 11.6765 14.5136 -3.62486 -1.12785 -0.214748 15.5165 13.1831 14.0727
892 2 23.367 13.2132 4.0747 0 0 0 0 0 0
893 1 23.3666 15.2223 2.17112 0 0 0 0 0 0
894 1 23.209 15.2391 5.52553 0 0 0 0 0 0
895 1 24.8446 14.6491 10.8104 -1.1105 -0.863048 0.877435 -10.1337 4.97898 14.1076
896 1 21.4215 16.0512 8.1362 0.221777 -2.53989 1.77392 -1.04712 0.164869 8.62841
897 3 25.151 13.9711 7.15495 0 0 0 0 0 0
898 1 23.4346 13.7432 16.8522 -1.50428 -2.78503 4.10451 3.52301 10.8467 15.3361
899 2 24.9955 16.4002 12.9485 -3.16361 -0.291335 1.80625 -1.78335 5.37752 -3.08416
900 3 22.4608 15.5717 15.9406 0.325736 8.98365 -7.29447 2.44018 0.44274 -0.418334
901 2 21.5637 15.9125 3.75459 0 0 0 0 0 0
902 1 21.6124 17.6901 2.00183 0 0 0 0 0 0
903 3 23.252 16.9105 0.524327 0 0 0 0 0 0
904 1 21.7561 17.8201 5.35412 0 0 0 0 0 0
905 1 22.8994 17.1425 11.6848 2.37829 -1.52581 -0.435924 -2.54315 7.11268 -7.25262
906 1 20.5352 18.84 8.40147 0.514652 3.48872 -0.348892 -4.28849 -5.91323 -6.67194
907 3 22.2005 17.4955 9.47433 -1.90902 -3.22968 3.54933 5.33718 -6.91627 5.43696
908 1 21.8052 16.1 17.8182 2.74694 -1.69169 4.26456 16.8561 -17.3698 -16.0043
909 2 23.3097 19.2475 12.8894 3.50407 2.73119 -1.17274 -1.00092 -2.03383 -6.83795
910 1 23.7452 17.3422 14.8624 0.448177 3.49091 -0.933389 4.22862 12.2092 -10.476
911 3 22.0914 17.7891 16.2381 -5.2233 3.65993 4.40601 2.15609 6.99833 0.501095
912 2 20.0185 18.7907 3.84652 0 0 0 0 0 0
913 1 20.6629 20.4596 1.97377 0 0 0 0 0 0
914 3 22.0052 19.5286 0.701105 0 0 0 0 0 0
915 1 20.0465 20.5661 5.90389 0 0 0 0 0 0
916 1 18.8769 21.3659 8.30142 0.0125308 1.42159 -0.936876 -14.9809 16.8786 11.4818
917 3 20.5309 20.7133 9.50954 -5.77612 2.31095 2.50947 -4.84913 7.94325 -5.0591
918 3 21.7427 20.0335 6.96577 0 0 0 0 0 0
919 1 20.6864 18.7624 17.2715 -0.751539 -4.19194 -3.78023 12.4549 -14.6448 0.7546
920 1 21.6664 19.6804 14.7686 -1.30143 2.56123 0.0850459 13.6239 5.16973 -13.7404
921 3 20.1174 20.4328 15.9715 3.98315 -4.49277 4.60007 5.60522 8.71286 -5.44161
922 2 18.6583 21.4076 3.96957 0 0 0 0 0 0
923 1 18.7945 22.9549 2.01468 0 0 0 0 0 0
924 3 20.2988 22.3709 0.716897 0 0 0 0 0 0
925 1 18.5663 23.3373 5.7419 0 0 0 0 0 0
926 3 20.4322 22.6257 6.91042 0 0 0 0 0 0
927 1 18.7022 21.319 17.2906 0.851959 -2.42729 1.58095 -14.9893 -3.04401 12.9529
928 1 20.2747 22.4808 14.9843 -4.04001 1.27868 1.6649 5.96629 -16.2199 -14.356
929 3 18.7472 23.2254 16.1278 7.9096 -2.75087 0.290456 6.9006 -4.06867 2.05981
930 2 17.1718 24.0125 3.76092 0 0 0 0 0 0
931 1 16.9989 26.207 1.68022 0 0 0 0 0 0
932 3 18.4865 25.1659 0.445911 0 0 0 0 0 0
933 1 16.7099 26.0706 5.09692 0 0 0 0 0 0
934 1 15.4543 26.8242 8.07576 3.91193 0.704349 0.918132 3.21143 -0.482542 -7.97134
935 1 17.5587 24.5638 17.1452 3.02669 7.60584 6.46882 -0.62463 -0.247362 -3.39117
936 2 18.1734 26.1143 12.7046 0.942283 -0.683526 -2.79434 -14.6446 1.74615 -10.509
937 1 18.9511 25.2409 15.0847 -1.97406 3.67068 -1.06613 13.1106 2.89846 -7.79456
938 3 16.6787 25.7918 15.8089 -5.45105 7.6096 22.2144 1.18726 -1.60225 0.807796
939 2 15.4371 27.4477 3.44826 0 0 0 0 0 0
940 1 16.6428 27.9392 11.0787 3.1755 -4.95961 -2.32753 -1.70724 -4.98537 -6.21144
941 1 14.244 29.9269 8.09946 0.450562 -0.248796 -1.78677 -9.28971 0.190548 1.03213
942 3 15.184 28.609 9.50959 -4.3945 2.18072 4.81553 -4.84277 -2.01887 -6.48812
943 3 16.757 27.9959 7.2737 0 0 0 0 0 0
944 2 16.0575 29.836 12.9179 3.84697 3.26008 0.281453 -1.89765 1.26856 5.71745
945 1 16.6805 27.4155 14.6222 -0.812329 5.53577 7.35926 1.47304 -0.255972 -0.717365
946 1 13.9217 31.3239 2.13783 0 0 0 0 0 0
947 1 13.765 31.4104 5.42202 0 0 0 0 0 0
948 1 15.3093 30.5406 10.6528 -0.239186 -0.181048 -0.381953 -1.09403 12.1412 9.42339
949 1 31.3134 0.215061 7.90694 0 0 0 0 0 0
950 3 14.0221 31.6772 9.23142 -4.75033 0.00429112 7.58816 -7.83172 4.24758 -5.28698
951 3 15.3055 30.4689 6.43629 0 0 0 0 0 0
952 2 33.6514 0.572443 3.7762 0 0 0 0 0 0
953 1 34.2573 2.07473 1.87611 0 0 0 0 0 0
954 1 33.744 2.61573 5.26886 0 0 0 0 0 0
955 1 32.7454 2.86671 8.44668 3.29487 -0.663526 -3.41567 -3.42253 -5.88699 -15.3176
956 3 34.0656 1.73822 9.91369 8.40202 -0.127875 -6.21699 3.98808 -3.29457 -6.41358
957 1 33.616 3.46599 11.3746 0.497855 -0.715597 1.1681 -9.64877 -6.88675 3.90529
958 1 31.0264 5.51831 8.63427 -0.415448 -4.1655 -2.1053 -0.525852 -3.29586 -14.7556
959 3 32.6641 4.64343 9.702 3.58214 1.30899 -5.82184 -1.36482 5.7733 1.81744
960 3 34.2065 3.87992 7.33207 0 0 0 0 0 0
961 1 32.6565 3.4391 17.4907 -0.145536 -3.96462 -3.87084 1.17322 -11.9693 -8.97987
962 2 -2.506 5.31254 12.5649 -1.7226 -0.894077 2.90702 6.03104 -9.94743 -9.03255
963 1 31.2483 7.16678 2.15053 0 0 0 0 0 0
964 3 32.6414 6.28262 0.899177 0 0 0 0 0 0
965 1 31.021 7.3002 6.00445 0 0 0 0 0 0
966 1 32.9765 6.32796 11.2318 2.73615 2.58148 -1.38475 -3.63178 -14.1017 5.04039
967 3 31.8492 7.18677 9.81878 0.0909973 0.52276 0.939369 -3.96798 3.71021 6.37884
968 2 -4.57161 8.15704 12.9148 -5.46632 -0.727902 -3.18621 7.19243 -6.87346 -12.3255
969 1 32.9964 6.25614 14.5516 1.41683 0.236447 -1.91153 4.81385 -10.497 -4.70772
970 2 29.4748 8.13649 4.23039 0 0 0 0 0 0
971 1 29.0773 10.0126 1.93424 0 0 0 0 0 0
972 3 31.0535 8.8983 0.819899 0 0 0 0 0 0
973 1 30.9636 8.83052 11.0727 -2.5062 -1.54189 -2.36716 0.0484171 9.57188 12.4764
974 3 31.0742 8.91225 7.30319 0 0 0 0 0 0
975 2 -5.81813 10.8059 12.6309 0.665888 -3.04771 -3.53211 -4.21212 0.78609 11.6873
976 1 30.9875 9.13926 14.4839 2.76215 1.2948 0.72369 -8.84494 -3.9865 -12.0514
977 3 29.6026 9.94154 16.022 2.37599 -3.39495 -0.913455 -3.05826 -7.8117 4.07124
978 1 29.7305 11.832 11.2086 -2.00272 -0.222172 0.979531 10.828 17.1724 5.83474
979 1 26.5522 13.182 8.50371 2.86631 2.63908 -0.734147 5.72981 3.55705 -15.2829
980 3 28.0744 12.1024 9.63222 -8.27353 -2.89787 -0.190144 -3.07001 5.30765 3.69178
981 1 27.9612 10.6792 17.3142 -0.136377 -3.14616 0.664419 -2.86302 -8.30078 12.6284
982 2 -7.43284 13.6236 12.9478 -2.27095 -2.8494 -2.93193 0.0936541 3.90368 8.84395
983 1 29.6223 11.7712 14.6064 2.49588 0.530795 -2.84273 4.50019 5.4354 7.52055
984 2 26.5548 13.1625 4.01552 0 0 0 0 0 0
985 1 26.3247 15.2595 2.18053 0 0 0 0 0 0
986 3 27.9576 14.25 0.769481 0 0 0 0 0 0
987 1 26.5826 15.0376 5.67171 0 0 0 0 0 0
988 1 28.1387 14.2444 10.8117 -2.66755 6.26117 -8.83429 9.6685 -4.69569 11.3534
989 3 28.0531 13.8678 7.07135 0 0 0 0 0 0
990 2 -8.61784 16.316 12.3515 3.28458 -0.756805 1.69565 -9.22271 7.40421 -2.96688
991 3 26.3709 17.0225 0.927972 0 0 0 0 0 0
992 1 26.6386 17.3273 11.1721 1.53442 -1.34435 2.64111 0.115452 -1.32503 17.1933
993 2 25.9787 19.2597 12.8403 0.0523328 0.851236 -2.30072 -6.56646 -7.12721 11.9165
994 1 24.8285 19.4612 10.5953 2.71257 1.52154 -0.307956 10.9934 -1.80455 6.66946
995 1 21.7708 21.6311 8.05773 -1.79895 0.1762 0.184638 1.91614 -15.3954 0.085955
996 1 23.5291 18.9871 17.3427 0.211322 0.762823 -0.343501 -16.4308 1.31945 -7.00817
997 1 24.683 20.3421 14.8017 -5.15703 0.385713 -3.4008 6.99693 10.3899 16.7517
998 3 22.9497 20.6545 15.8485 1.17921 -6.75648 -5.40711 -7.17797 5.57841 -2.8374
999 2 21.8182 21.6337 3.88126 0 0 0 0 0 0
1000 1 21.8131 23.151 1.89448 0 0 0 0 0 0
1001 3 23.4331 22.3663 0.870733 0 0 0 0 0 0
1002 1 22.1208 23.3496 5.95497 0 0 0 0 0 0
1003 1 22.8631 22.1077 11.0212 -0.150462 -1.85246 2.43691 -2.00084 7.16099 0.392344
1004 3 23.4761 22.3563 7.16539 0 0 0 0 0 0
1005 1 21.7887 21.5182 17.2924 -1.06046 -1.90286 -3.24189 8.95642 -15.0159 5.3119
1006 2 22.7801 23.8818 12.981 0.278868 -5.96685 -2.29528 11.9841 -1.11209 -5.75468
1007 1 23.4782 22.6264 15.1885 -1.1192 2.10931 -2.49376 4.81279 4.8752 4.84683
1008 3 21.915 23.3515 16.3172 0.343189 5.10782 7.51962 -3.53563 -2.91342 7.49294
1009 1 21.5384 25.0503 11.0239 3.97974 -0.218049 -0.932344 10.4001 -13.5952 -8.3017
1010 1 18.6893 27.4039 8.48506 -0.879394 -3.20078 3.67804 -11.2914 17.6695 8.32784
1011 1 20.3348 24.2896 17.4144 3.29897 -2.54087 4.21489 -17.435 15.2869 3.50196
1012 2 21.8566 26.643 13.044 -4.01339 3.72819 0.389154 9.73459 -11.0788 -9.68021
1013 1 22.209 25.197 15.2471 2.13294 -0.00938084 5.01369 -15.338 12.0507 -5.7602
1014 3 20.5208 26.271 16.419 -5.24816 1.88642 -1.08454 3.13458 0.24217 -3.75895
1015 2 18.3984 27.0759 3.55659 0 0 0 0 0 0
1016 1 18.9004 28.4974 6.01058 0 0 0 0 0 0
1017 1 19.9124 27.7417 11.3582 0.959714 -0.503143 -1.42021 -17.2658 -12.3497 1.1622
1018 1 17.0405 29.4317 8.66764 -0.369169 3.32235 3.27637 -3.67324 -3.17805 -9.30464
1019 3 18.3528 28.827 10.1794 -0.808911 2.56671 -5.14253 -9.70727 7.88648 -7.46243
1020 3 20.5479 27.2691 7.11085 0 0 0 0 0 0
1021 2 -16.802 31.2821 13.3803 -1.89773 3.93249 0.553918 3.27392 -2.33198 -1.89376
1022 3 17.7299 28.6698 16.4248 3.37113 3.80817 -7.98834 -4.52716 6.31819 4.19698
1023 1 18.15 30.6003 11.7042 -0.457001 3.95965 3.71911 0.910856 7.69713 1.47155
1024 1 34.2312 0.0384813 8.18928 -1.29946 -2.8921 0.320892 -0.227264 -5.35174 1.17459
1025 3 19.071 29.7042 7.68477 0 0 0 0 0 0
1026 2 -0.176269 0.355634 13.3236 -5.68687 3.00603 -0.644453 -10.3204 10.8065 -5.8141
1027 1 18.1417 30.7386 15.0837 0.528426 -0.30693 2.96582 -10.4502 -0.601176 -10.6135
1028 3 16.5179 31.5418 16.2717 5.77654 -5.13648 2.98778 -7.17382 1.97804 5.62566
1029 3 1.54093 0.752633 19.1827 -2.3666 -1.23813 0.985242 -0.471369 -0.19239 0.678361
1030 1 35.8413 2.17437 26.6008 -1.11758 0.902547 -1.56103 0.424493 -0.25401 0.543191
1031 3 1.07949 1.03899 25.4502 0.480771 -0.137038 -0.218395 -0.0647459 0.533267 -0.0524066
1032 2 35.0627 3.38108 21.7443 -0.891888 -0.784267 0.210174 0.00334947 -0.0411407 0.0653222
1033 1 -0.833065 4.14147 19.571 -0.725803 -0.0908472 -0.258214 1.24765 0.034933 -0.514195
1034 3 0.502529 3.7969 18.0032 -11.3279 0.861928 6.19034 0.539663 -0.624166 0.282957
1035 1 -0.850267 4.09742 23.8642 -0.151385 -0.999171 -0.123012 0.136654 -0.256577 -0.0728075
1036 1 0.0355331 3.56343 28.8258 -0.774091 0.0368702 -0.695023 -0.062037 0.0167772 0.415666
1037 1 34.2827 4.47103 26.0476 -0.0711525 -0.594131 0.426899 -0.269342 0.248046 -0.0228299
1038 3 -1.6936 3.79028 27.5551 0.125479 0.709623 -0.121093 0.0692042 -0.111459 -0.105836
1039 3 -0.23626 3.21515 25.5695 1.07591 0.432598 0.65652 0.0329675 -0.0910832 0.179649
1040 2 0.895527 4.52911 31.0819 -0.751323 -1.53531 -0.144207 -0.716407 -1.32639 -0.0929342
1041 3 -0.901982 6.23964 18.3971 1.23194 0.104689 -0.496547 0.524745 -0.25999 -0.259679
1042 3 -1.39815 5.54586 25.0274 -0.703002 -1.08826 -0.0129506 0.125235 0.168773 0.166014
1043 1 -3.0662 5.46708 34.9747 0.481164 1.18829 0.145755 -0.00608446 -0.116987 -0.277917
1044 1 -1.44591 6.02381 32.1096 0.932178 -0.517076 0.0811538 0.0501925 -0.244127 0.180144
1045 3 -2.98994 6.92165 33.7104 -0.335838 0.480258 -0.323175 -0.146306 -0.162406 -0.0641626
1046 1 -4.97138 10.3876 19.8518 -0.657028 0.331372 -0.41328 0.0914123 0.121771 -0.0382375
1047 1 30.7095 11.3472 26.2964 -0.0436076 0.0449904 -0.0104668 -0.0502378 0.0125379 0.0361636
1048 3 -4.60419 10.2298 27.458 0.334871 -0.228499 -0.0671154 -0.00705522 -0.029422 -0.168366
1049 1 32.752 7.82267 35.2246 -0.594428 0.33093 0.217737 0.0758306 0.0605279 -0.029157
1050 3 -4.80054 9.70575 34.8647 -0.47298 -0.0645462 -0.319274 -0.0262467 0.01946 -0.0038883
1051 2 30.8129 11.1114 21.8495 -0.407747 -1.22713 0.284378 -0.130974 -0.131393 0.0619516
1052 1 -6.46245 12.9092 19.7973 0.732461 -0.257251 0.750546 0.739634 -0.252848 0.436116
1053 3 -4.90285 12.1968 18.7212 2.18969 6.33398 -6.83642 -0.240128 -0.197628 -0.00440607
1054 1 -5.97037 13.7 23.0266 -0.15837 0.0405275 -1.48519 -0.138563 0.0932444 -0.301491
1055 1 -4.27903 11.8903 28.4301 0.16175 -0.57328 -1.02985 -0.0587596 -0.22251 -0.234182
1056 3 -5.88517 12.7343 27.6475 -0.12844 0.12898 0.0656242 0.00237509 -0.00268261 -0.0169567
1057 3 -5.43577 12.4558 24.5668 -0.467838 1.08014 -0.0914588 -0.074095 0.136749 -0.00922768
1058 1 -6.22168 10.79 35.6988 -0.483324 -0.232847 0.147454 0.00684446 -0.00770375 -0.0740699
1059 2 -4.88537 13.1595 30.6599 0.647307 1.73855 -0.60564 0.00256627 -0.247687 -0.0252537
1060 3 -6.53861 12.4165 34.599 -0.0544182 -0.218282 0.242723 0.095831 0.0957922 -0.0108075
1061 2 29.1033 13.637 21.814 -0.673401 0.261566 0.0480114 0.0914136 -0.000148201 0.0235523
1062 1 -7.66365 15.3539 19.8533 0.568119 1.41541 1.88493 0.108494 0.380528 0.55472
1063 3 -6.70363 14.3205 18.2085 -1.86918 -3.35046 6.33335 -0.413288 -0.0460935 -0.377954
1064 1 28.6637 14.6162 24.335 -0.606598 -0.335596 0.12933 0.121897 -0.049202 -0.0613031
1065 1 -6.12842 14.5526 28.7705 -0.0473904 0.0198759 0.43035 0.0568812 0.019279 0.0604857
1066 3 -7.66417 15.6018 28.1105 0.407464 -0.323567 -0.877801 0.033258 0.0107036 0.0104417
1067 3 -6.55587 14.6087 24.7488 0.753179 -3.57804 -1.19514 -0.001332 -0.220815 -0.0358061
1068 1 29.301 13.2651 35.4678 -0.556052 -0.160967 -0.412933 0.127031 0.0729601 -0.102483
1069 2 -9.15401 16.1343 21.9463 -1.25262 -0.478895 -1.85536 -0.00550983 0.037222 0.108432
1070 1 -8.97627 18.2454 20.3505 -2.29526 1.96748 1.16061 -0.13495 0.0807417 -0.102816
1071 1 -8.99966 17.9462 23.6397 0.0160189 -0.397112 1.08945 -0.0360742 0.224501 -0.156289
1072 1 -7.63751 17.4595 28.9377 -0.0447703 0.0971421 0.25479 0.126361 0.0129284 -0.0479762
1073 3 -9.24805 18.2795 28.0182 -1.00786 0.380692 0.015482 -1.12534 0.198483 -0.575313
1074 3 -8.16249 16.5689 24.969 0.509004 -0.536171 -0.333115 -0.0355289 -0.0167457 -0.231264
1075 2 -7.96389 19.21 30.7654 -0.538194 -2.5952 1.33947 -0.0375302 0.305523 0.0302893
1076 2 26.4648 18.7328 22.0252 -0.443454 -0.589961 -0.0680844 -0.0314812 -0.166655 -0.089482
1077 3 -9.05153 19.4903 18.6035 1.15471 -0.436948 1.86054 0.185734 -0.636247 0.813549
1078 1 -10.3243 20.3568 24.0961 -1.8275 -1.46043 -0.245375 -0.394992 -0.243295 -0.178543
1079 1 -9.45099 20.0746 28.7181 1.1727 0.691568 -0.0595149 -0.0983878 -0.0438613 -0.0087364
1080 1 -12.1257 21.3671 26.3456 -0.274904 -2.21747 -0.128845 -0.183793 -0.156528 -0.00052172
1081 3 -11.2871 20.2501 27.782 0.308749 -0.12459 0.202122 -0.0484826 -0.147806 0.0371137
1082 3 -8.47934 19.7041 24.7833 -0.0694707 0.104847 0.175328 -0.046123 0.0860999 0.0314194
1083 2 -9.07124 21.2 32.0248 -6.29175 -1.93749 -1.96703 1.32508 0.199096 1.26438
1084 1 -11.9219 23.086 23.7678 0.169796 0.177072 0.354627 0.169607 0.197196 0.133048
1085 1 -13.709 23.8843 25.8313 0.422973 0.16092 -0.320598 0.324667 0.041674 -0.0135917
1086 3 -12.227 23.1817 27.1768 0.286997 -0.313064 -0.178314 0.0119503 -0.0346865 0.0562611
1087 3 -10.4827 22.2974 25.2936 -0.373223 1.28456 0.859053 -0.0403501 -0.00165631 0.0856919
1088 1 -12.0998 21.3093 35.3772 0.367633 -0.72155 0.0856288 0.0521426 -0.308671 0.0778949
1089 3 -12.4924 23.0978 34.1538 1.16271 0.560413 -0.86189 -0.0033399 -0.401624 0.386906
1090 2 -13.5235 24.5573 22.0384 0.658116 -0.341058 -0.463175 0.127638 -0.156728 -0.0553553
1091 1 -13.556 26.3281 20.0696 0.244594 0.253773 -0.543402 0.178728 0.133089 0.00864799
1092 1 -13.4943 26.0134 24.063 -0.41898 0.423891 0.821659 -0.0329391 0.0158987 0.293652
1093 3 -12.066 24.691 24.8823 0.0418093 0.0597678 -0.239741 -0.0383923 -0.059023 -0.0375178
1094 1 -13.9019 24.2818 35.1145 0.384833 -0.483937 0.297392 -0.113296 0.198163 0.155489
1095 1 -12.0571 24.5688 32.695 0.267441 0.593951 0.392848 -0.0475962 -0.0120707 0.356373
1096 3 -13.5822 25.5923 33.7599 -3.3546 5.05249 -0.697334 0.808266 -0.84735 0.158536
1097 2 -14.9247 27.0898 22.133 -0.755837 -0.0751076 -0.467291 -0.156776 -0.0900257 -0.00803776
1098 1 -15.1693 28.8693 20.1293 0.30793 0.194263 -0.51885 0.238895 0.00924843 -0.198053
1099 3 -13.6134 27.9476 18.6031 -0.359008 0.414947 0.42137 -0.0706441 -0.151552 -0.0182919
1100 1 -15.3047 28.4848 24.4856 -2.08569 3.32996 -0.500637 0.381785 0.419339 -0.0303982
1101 2 -14.3253 29.3164 31.1548 1.09374 1.26237 -0.262851 -0.0320401 0.078728 0.045711
1102 1 -14.3449 27.9873 33.3038 0.493195 1.16121 0.445205 0.296899 0.245332 0.143632
1103 3 -15.5069 29.0821 34.6866 -2.52736 0.46234 0.0148515 0.322078 -0.145635 0.169279
1104 2 -15.7399 29.9206 22.3544 0.187931 -0.070777 -0.253405 -0.0502404 0.0759039 0.19574
1105 1 -16.4081 31.5998 20.2308 0.163537 0.285954 -0.394374 -0.0759632 0.214343 -0.536834
1106 1 -14.9256 31.0931 29.5085 -1.7696 0.0495131 -0.83406 -0.168759 0.126795 -0.145493
1107 3 -16.1774 30.672 27.7816 -1.03259 -0.32044 -0.528296 0.115488 0.13058 0.00889912
1108 2 2.36532 0.574169 31.1003 -0.217815 -0.324113 -0.394297 -0.0618292 -0.0333649 0.0658913
1109 1 -15.615 30.7993 32.7659 -1.50989 -2.97018 -0.68069 -0.0891267 -0.459823 -0.0697818
1110 3 5.30196 0.780395 18.4421 1.31207 0.118971 1.7889 0.743831 0.902455 -1.53618
1111 1 4.85693 1.22917 28.3948 0.0787094 -0.00468093 -0.175208 0.148397 0.0544799 -0.191811
1112 1 1.7035 2.87508 25.8646 -0.464832 0.086938 -0.0743135 0.0143365 -0.138559 -0.101607
1113 3 3.03152 1.91853 27.1717 -0.443918 -0.94892 -2.16679 -0.117549 -0.124804 -0.398514
1114 3 4.80891 0.785942 24.9797 1.17738 0.255104 -0.410679 1.26496 0.146986 -0.0967939
1115 2 4.18694 2.45937 30.5019 -0.298723 -1.01889 0.403018 -0.157772 -0.132344 0.0221045
1116 1 4.51319 1.14747 32.634 0.208379 0.307494 -0.440027 -0.030292 -0.0312413 0.0391384
1117 1 1.85135 4.75986 19.4939 0.0447588 -0.22556 -0.192966 -0.332766 0.172616 -0.051439
1118 3 3.23947 3.42619 18.8687 -1.2615 1.57896 1.46493 -0.581083 -0.122967 0.0327769
1119 1 3.31162 3.59085 28.2992 -0.523743 0.530115 1.90833 -0.0831684 -0.286751 -0.124369
1120 1 -0.192965 5.25462 26.7148 -0.227954 0.521227 -0.349907 -0.106991 -0.0701174 -0.0588569
1121 3 1.57951 4.34513 27.4332 0.449773 0.0727478 -0.313863 -0.114668 0.0809673 0.129888
1122 3 2.9535 3.57074 24.5895 0.0752419 -0.396529 -0.538815 -0.0261011 -0.113196 -0.12101
1123 2 3.21162 4.92873 30.5519 0.326171 -0.286469 0.304858 0.321278 -0.169244 -0.0797584
1124 2 -0.0146742 5.45648 21.7063 -4.53297 1.25855 1.20922 -0.441338 0.25742 0.116288
1125 1 0.117982 7.31801 19.6828 0.682808 0.96272 1.26402 -0.157191 -0.526121 0.20513
1126 3 1.74075 6.35183 18.5001 -0.323577 3.93834 0.0718546 -0.188262 -0.205238 -0.3099
1127 1 0.132351 6.87819 23.9794 -1.61494 -1.05906 2.48454 0.4067 0.237262 -0.355719
1128 1 1.65064 6.23246 28.9584 0.397739 0.160628 0.585287 -0.122568 -0.0994072 -0.158302
1129 3 -0.013649 7.13527 28.158 0.0236244 0.1231 0.215505 -0.0434042 -0.102792 0.0237454
1130 3 1.22379 6.64191 25.6695 0.107654 0.645117 0.140558 -0.0192605 -0.0827418 -0.0499492
1131 2 2.63075 7.76381 30.7597 1.23429 -1.16412 -0.337047 0.453477 -0.536784 -0.122709
1132 1 1.70196 6.37189 32.4142 0.857591 0.29449 -0.494163 0.419473 0.545233 0.204735
1133 3 0.0399506 7.13719 33.3493 0.483121 0.190483 -0.0323751 -0.0563204 0.00360152 -0.0069226
1134 2 -1.41484 8.06922 21.5937 0.484655 0.549311 0.495011 -0.334216 -0.114321 -0.136145
1135 1 -1.86741 9.76514 19.7892 -0.645731 0.160161 1.14819 0.020031 0.065843 -0.110474
1136 3 -0.339983 9.17394 18.5581 -2.49765 1.49941 5.83702 -0.200456 -0.071085 -0.158135
1137 1 -1.46449 7.90671 34.7306 0.779799 -0.229351 1.17537 0.0596418 0.0282447 0.0959245
1138 2 -3.18957 10.9033 21.6428 -0.273973 0.551621 -0.130216 -0.109739 0.111835 -0.0516237
1139 1 -3.08456 12.7886 19.7608 -0.244865 0.015222 0.550752 -0.253526 -0.18983 0.111965
1140 1 -3.19041 12.5192 24.1357 0.0655623 -0.163181 -0.185655 -0.039087 0.0310602 -0.037107
1141 1 -4.84575 13.8289 25.9854 0.00575197 0.131445 -0.00701724 -0.00572893 0.0435808 -0.0563908
1142 3 -3.21334 12.9746 27.063 -0.039619 -0.747495 -1.19137 -0.0221466 0.00582061 -0.0576834
1143 1 -3.15272 10.7801 34.8804 0.312156 -0.181431 -0.421033 -0.0794122 -0.071554 -0.049021
1144 3 -2.98371 14.4282 18.4836 -3.43997 -3.08444 3.41027 0.240199 -0.0173568 -0.112749
1145 1 -3.38051 14.4666 28.3634 0.256331 -0.104214 0.727739 0.0792167 0.132084 -0.230863
1146 1 -6.48987 16.3387 26.2084 -0.103913 0.0771731 -0.212829 -0.102703 0.0298506 0.114037
1147 3 -4.87658 15.471 27.263 1.72688 1.30484 -2.96435 -0.0464859 0.0435125 -0.192533
1148 3 -2.96527 14.6135 24.9579 -0.534215 0.542648 0.210781 -0.0185985 0.0790249 -0.044581
1149 1 -4.8982 13.5049 34.7013 -0.0345996 0.0162504 0.150448 0.0938735 -0.0616339 -0.0448994
1150 3 -4.73443 16.9226 18.4925 0.249205 -2.75566 1.93835 -0.27691 -0.305804 -0.446643
1151 1 -4.93654 17.0856 28.5798 -0.641479 -0.0443661 -1.60509 0.0833366 0.112647 -0.121728
1152 1 -7.88032 18.708 26.3357 0.137552 -0.00565657 0.0652752 0.0586181 0.0721947 0.0127228
1153 3 -6.29333 18.2043 27.5085 0.675415 -3.66034 -2.25103 0.0704223 -0.22008 -0.261189
1154 3 -4.92763 17.7595 25.1795 2.28137 -5.6061 -1.7303 -0.440195 1.20825 0.115677
1155 2 -7.07051 18.2184 22.1039 0.273452 -0.048614 0.160785 0.137922 0.0193191 -0.0514127
1156 1 -7.92141 20.8694 19.3644 -0.654336 -0.0569561 0.240471 -0.0570982 -0.0251889 0.390845
1157 3 -6.18249 19.8137 18.5061 -3.69784 1.33691 0.392757 -0.202583 -0.142223 0.201821
1158 1 -6.91605 20.1847 23.6816 0.245364 0.443955 0.734458 -0.0323606 0.109763 -0.156794
1159 1 -6.66334 20.2988 28.2486 -0.111263 -0.278071 0.265019 0.0862723 0.00755019 0.255216
1160 3 -8.37824 20.8272 27.2618 0.0644851 0.0940016 0.0336323 -0.046315 0.0227618 -0.0495143
1161 3 -5.512 19.078 25.5134 -4.75793 9.08854 1.25504 0.330226 -0.662197 0.0450168
1162 2 -6.07764 21.0402 30.5196 -3.8891 0.52796 1.72007 -0.321348 0.215227 0.28668
1163 1 -6.77501 19.8451 32.9591 0.344813 0.0688989 0.238475 0.0411088 -0.15854 0.134629
1164 2 -8.84273 20.4604 21.7476 0.42794 -1.32735 0.0817613 0.0106306 -0.296688 -0.0140979
1165 3 -7.81845 22.4644 17.924 -4.24636 -0.305657 1.6247 7.59834 5.84292 6.9109
1166 1 -10.8709 24.2865 26.4055 -0.40724 0.699483 -0.432298 0.348465 -0.685398 0.271214
1167 2 -10.7483 24.5593 21.8916 4.34813 -1.03699 0.536986 0.0966901 0.0990615 0.00142647
1168 1 -10.4237 26.9387 20.4659 0.00622603 -0.678409 -0.247326 0.0942692 0.124733 0.137802
1169 1 -10.5293 26.2577 23.739 -0.17605 0.798533 -0.511858 0.0639361 -0.601639 0.245528
1170 1 -9.21558 25.6628 28.8095 0.088746 0.256886 -0.679251 0.106647 -0.441875 0.0194908
1171 3 -10.8887 26.1133 27.6459 -1.37563 -1.44519 2.57095 -0.0875683 -0.104256 -0.0220305
1172 1 -11.0544 24.0656 35.2521 1.11707 -1.50561 -0.587285 0.460473 -0.366862 -0.390433
1173 3 -11.0825 25.8977 33.8381 0.072731 -0.0409935 -0.172493 -0.0127463 -0.107211 0.0454218
1174 2 -12.2312 27.2596 22.0622 0.531628 0.0025795 -0.119792 0.00615701 -0.0240108 0.0389759
1175 1 -12.1178 29.0283 19.6486 -0.247147 0.11287 0.175484 -0.00694489 -0.160311 -0.0859719
1176 1 -12.0816 28.7321 24.1316 -0.0806133 -0.209371 -0.176997 -0.0517139 -0.159851 -0.0419397
1177 1 -10.7507 27.7923 28.9764 0.462714 0.266305 0.251013 -0.904962 0.394275 0.22772
1178 3 -10.3117 28.1155 25.0142 0.732198 1.43853 0.302438 0.0914824 0.0656027 0.0900351
1179 1 -12.4548 26.6916 34.8523 1.19223 -0.158021 -0.727468 0.578815 0.0374954 -0.227057
1180 2 -11.1789 29.7107 30.4793 -2.34395 -0.90656 0.529838 -0.232782 -0.164444 -0.00802229
1181 1 -10.8647 27.5975 32.2888 1.97187 3.49183 1.24783 1.43621 0.355907 -0.332944
1182 3 -12.299 28.4414 33.4605 -0.155758 -0.246134 -0.0458033 0.139495 -0.124974 -0.0434976
1183 2 -13.0946 30.1039 21.7391 0.0560375 -0.0201221 -0.0319328 0.000362852 0.0387371 -0.0160958
1184 1 -13.5917 31.78 19.876 -1.59548 0.966246 0.328493 -0.159051 -0.705838 0.25482
1185 1 -13.8164 31.4629 23.702 0.650074 -0.656382 0.270508 0.454876 0.180206 0.465075
1186 1 -12.089 30.6337 28.2214 0.231757 -0.351542 0.0530287 0.16263 -0.0331039 0.133807
1187 1 3.15827 0.0459694 26.3177 -0.777517 0.343425 0.366991 0.0934419 -0.303069 0.111375
1188 3 -13.7604 31.7007 27.4829 -0.037997 -0.132869 -0.287539 -0.0186854 0.020122 0.0412186
1189 1 -14.4327 30.5294 35.3514 -0.521726 0.569755 -0.278336 -0.0181535 -0.0136466 0.0577424
1190 2 -12.8278 32.1821 30.5141 -0.292286 1.05697 0.425755 0.112328 0.0436839 -0.00784778
1191 1 -12.8863 30.6294 32.8098 -3.63626 0.708052 -0.237279 0.756181 -0.233634 0.0135255
1192 3 -14.5756 31.8623 33.9459 -0.192597 -0.318867 -0.0474588 -0.0519819 0.175782 0.156366
1193 2 6.11351 0.495135 21.888 0.189437 0.0393916 -0.129845 0.00340138 -0.082341 0.0214295
1194 1 5.73469 2.28536 20.0635 0.291045 0.0628547 0.0488549 -0.0620889 0.237314 0.290128
1195 1 6.64279 1.72271 23.9506 0.316486 -0.131637 0.0252596 -0.12848 -0.116676 0.298531
1196 1 7.61832 0.857941 28.867 0.0994654 0.372253 -0.250053 0.20728 -0.385898 -0.108667
1197 1 4.47083 2.57964 25.8574 -0.586305 -0.102441 -0.114375 -0.0593916 0.0676658 -0.078521
1198 3 6.46597 2.07995 27.0863 0.0188793 0.0833639 -0.15025 0.0051702 -0.000877144 -0.0753425
1199 3 8.16568 0.485456 25.0381 -0.0495579 0.366499 0.117354 -0.0167626 -0.134683 0.023795
1200 2 7.31697 2.8125 30.4119 -2.53353 3.62265 -2.26406 -0.180248 0.0416505 -0.223081
1201 3 6.7156 3.77313 18.3934 -1.40325 -3.54518 -0.623953 0.145479 0.0456831 -0.0965748
1202 1 2.81546 5.49804 26.133 0.0836389 -0.379559 -0.38053 -0.0338679 0.0205741 0.0476186
1203 1 4.07739 2.64801 34.8906 -0.648456 -0.103533 0.395325 -0.454928 0.0493626 -0.315332
1204 1 5.30378 4.08589 32.0915 0.987364 -1.36105 3.06038 0.0784453 0.00944805 -0.230967
1205 3 4.44885 4.33547 33.9132 0.328393 0.988655 0.160314 -0.127013 -0.0684478 -0.118778
1206 3 4.7633 6.6704 18.2161 -0.805466 0.900068 1.52891 -0.45191 0.0839384 -0.193441
1207 1 1.3145 8.37955 26.7414 -0.0977098 0.0311809 -0.0667732 -0.0620416 -0.024342 -0.0570104
1208 3 2.84386 7.49098 27.501 0.305069 -0.150658 0.150962 -0.0327207 -0.0952773 0.0360011
1209 1 2.71753 5.02737 34.2982 -0.518855 0.290553 0.622317 -0.163416 0.0250962 0.230976
1210 3 3.11134 7.04175 33.9836 0.486932 1.38837 -0.754735 -0.0620619 -0.127671 0.0926704
1211 2 1.17243 8.18583 22.0742 2.80954 -5.90036 -1.12231 -0.646921 0.592321 -0.0634065
1212 1 1.04667 10.146 23.9623 0.556708 0.842756 -0.350649 -0.202273 -0.0282027 0.132383
1213 1 3.21333 9.25969 28.898 -0.33621 1.32663 -1.45779 0.00550323 0.0389752 -0.219083
1214 3 1.98497 10.2272 27.782 0.657868 -1.10669 -0.814548 -0.0278074 -0.00584414 0.0682895
1215 3 2.65097 9.66111 25.3539 0.0152481 0.274692 0.690829 0.00466523 -0.0337344 -0.049968
1216 1 1.61245 7.92829 34.8556 0.276264 -0.628227 0.212203 -0.0396918 0.0933052 -0.102453
1217 2 3.02616 10.6878 31.0799 0.0602246 -0.637023 -0.112144 0.0366962 -0.0884581 -0.0521459
1218 1 3.66257 8.80734 32.9275 0.436854 -0.944515 -0.0367529 -0.00769204 0.00203793 -0.0301703
1219 3 2.13585 9.8099 34.2538 -0.212611 0.405051 0.269126 -0.000188314 -0.00165502 -0.175746
1220 2 -0.314941 10.9788 21.7858 1.9911 -0.864637 -2.48007 -0.356239 0.15268 0.210843
1221 1 -0.130069 13.1764 23.3811 0.420589 1.34004 -0.772414 -0.151913 -0.627077 0.148603
1222 1 1.17802 11.4731 29.1187 -0.163361 0.0971385 0.629709 -0.00721836 0.226674 -0.203901
1223 1 -1.50305 13.8348 26.3344 0.0447223 0.343237 -0.355752 0.0270576 -0.0267968 0.0229399
1224 3 -0.57433 12.0394 27.4425 0.0436749 0.124625 -0.138748 -0.00518351 0.12121 -0.0139328
1225 3 1.21354 12.1401 25.0609 0.450582 -0.938521 1.14613 0.00343939 -0.0490292 0.0504552
1226 1 0.311776 10.6602 35.4707 -0.126641 0.419223 0.152985 -0.00219826 -0.065185 -0.0876374
1227 2 1.44524 13.5846 30.7661 0.659212 0.338445 -0.103682 -0.012445 -0.191941 0.0799357
1228 1 1.21375 11.0821 32.9893 0.0105425 2.05721 0.521061 -0.19069 -0.0781334 -0.17083
1229 3 0.0696818 12.4895 34.3526 -3.9793 -3.38052 0.788035 0.219754 -0.348529 -0.430109
1230 3 -0.0263337 13.4806 18.8658 2.82637 0.174251 0.285035 -0.553738 -0.339058 0.0515869
1231 1 -0.312628 13.9851 28.8344 -0.17782 0.205906 0.537178 0.291441 -0.332662 -0.121519
1232 1 -3.22269 16.4735 26.3555 -0.180222 -0.0388188 0.0536135 -0.10897 0.0795303 -0.107172
1233 3 -1.61481 15.4189 27.6587 -0.465073 -0.469513 -0.739293 -0.204671 0.0255238 -0.107113
1234 3 0.543084 14.0818 25.6819 0.505813 -0.38907 -0.199887 0.103793 -0.0379583 -0.0523582
1235 1 -1.42801 13.5095 35.3809 0.008401 -0.275498 0.0885376 0.0580661 0.00284818 -0.158861
1236 2 -0.672418 15.5512 31.0388 -0.615684 -2.4136 0.994649 -0.417368 -0.255835 0.012262
1237 1 0.0142113 14.2419 33.0259 -0.286586 -1.05297 0.237748 -0.284397 -0.122177 -0.0285492
1238 3 -2.17241 14.8036 33.7565 -0.177674 -0.135316 0.955268 -0.11299 -0.0871047 0.125892
1239 3 -2.13593 17.9761 18.5106 7.43457 -5.0061 2.45646 1.83552 0.124385 0.926036
1240 1 -2.06313 16.7672 29.3992 -0.563204 0.584246 0.03994 0.0205536 1.81953e-06 0.158306
1241 3 -3.31153 17.9056 28.234 -0.247655 0.0802229 -0.247064 -0.00400739 -0.00178742 0.0355525
1242 3 -1.48407 17.0264 25.437 0.990793 0.630357 -0.115747 0.205735 -0.015844 -0.215303
1243 1 -2.82665 16.2405 35.195 0.239322 -0.92563 0.232432 0.128306 0.111263 0.156264
1244 2 -1.86056 18.9175 30.9097 -0.588572 -0.694036 -0.256354 0.0533664 0.221766 0.0990076
1245 3 -3.10798 17.9398 34.0991 0.592714 -1.14519 -0.587597 0.426261 -0.146682 -0.450284
1246 1 -4.88647 20.9886 19.6117 -1.4665 0.60419 -1.87014 0.0460847 0.0782775 -0.0969232
1247 1 -3.79841 19.6993 29.5136 -0.41774 -0.359381 -0.675109 -0.598399 -0.00499755 -0.109212
1248 1 -4.6066 18.6078 35.1298 0.234423 -1.04062 -0.932868 -0.698163 0.516777 0.626051
1249 2 -3.71282 22.019 30.6888 -0.298306 -3.22298 2.0184 -0.281358 0.516827 -0.232076
1250 1 -3.29263 19.6268 32.7624 1.2738 0.327601 1.16341 -0.139022 0.21119 0.893039
1251 3 -4.72133 20.4775 34.0419 0.563531 -0.175378 -0.377071 -0.114719 0.03912 0.10267
1252 2 -6.59432 21.8366 21.6229 -1.20404 0.101908 -0.0306697 0.107881 -0.187515 -0.180065
1253 1 -6.45297 23.4282 19.731 0.050235 0.58898 -0.97462 -0.0667973 -0.116322 -0.0656565
1254 3 -4.63638 22.6249 18.4468 2.05251 -3.66956 1.0016 0.0530888 -0.114512 0.0601749
1255 1 -4.88693 22.6104 28.4304 0.551766 -0.60277 1.17444 -0.141227 -0.0770426 0.113139
1256 3 -6.38684 23.299 26.9481 -0.412216 -0.0082646 0.696393 -0.176716 0.0763954 -0.111288
1257 1 -5.88491 21.7058 35.2714 0.0271583 -0.770789 -1.378 -0.0765668 -0.026705 0.308866
1258 2 -5.51954 24.0318 30.5608 -0.240103 -0.121779 -0.0532329 -0.232883 0.100353 -0.0358969
1259 1 -5.35622 22.2537 32.5899 1.13623 -0.824745 0.519176 0.596058 0.0873667 0.767696
1260 3 -5.71114 23.5442 34.0767 -0.040638 0.0903716 -0.121524 -0.0939249 0.00458075 0.00908707
1261 2 -8.01359 24.3559 21.6163 3.21744 -1.89361 1.41904 0.02703 0.000962279 -0.0913736
1262 1 -8.28305 25.7009 19.3009 -0.737397 -0.0743342 -0.219795 -0.172545 -0.292119 -0.126581
1263 3 -6.40106 25.2689 18.8799 3.04394 5.41271 -1.73914 0.537147 -0.0818709 -0.313959
1264 1 -6.73063 24.8607 28.1578 0.833444 -0.0349679 -0.0671912 -0.0581269 0.0438791 0.0388547
1265 1 -9.60374 27.0189 26.5358 -0.0403658 -0.661065 -0.387285 -0.100365 0.0474316 0.168661
1266 3 -7.86014 26.5137 27.4297 -0.178915 0.141505 1.50695 -0.124652 0.0848571 0.23546
1267 1 -7.65099 23.7155 34.714 -0.0746197 1.00934 -0.317415 0.0328579 -0.0291394 0.0342786
1268 1 -5.77207 25.2376 32.7296 -0.667111 0.253828 -0.64862 -0.2843 -0.09025 -0.223736
1269 3 -7.7321 25.4106 33.5048 0.0343189 1.75362 0.390579 -0.0964071 -0.0866976 0.0166469
1270 2 -8.63511 26.8203 22.2642 -0.0255353 -1.05263 -1.0486 0.0325426 0.0777917 0.136165
1271 1 -8.28256 28.5842 20.5738 0.539427 1.33509 -0.984863 -0.109118 -0.00887424 -0.0137048
1272 3 -7.19272 27.571 19.0299 1.27571 -0.830188 -3.43949 0.144034 0.26466 -0.662342
1273 1 -8.90139 29.0533 23.8965 -0.0978217 -0.23857 0.466316 0.0295423 0.111373 -0.00740765
1274 1 -7.81428 28.0982 28.4725 0.10851 -0.053828 0.303662 -0.203249 0.289282 0.186024
1275 1 -10.3437 29.7614 26.1556 0.0833382 -0.044311 0.190306 0.129843 -0.115118 0.171477
1276 3 -9.55224 28.6826 27.6627 -0.143007 -0.230071 0.0270883 -0.177659 -0.0229683 0.142748
1277 1 -9.32292 26.6446 34.697 0.437624 0.0813648 0.427957 0.0853109 -0.0352791 0.118409
1278 3 -9.5027 28.4271 33.7109 -0.537236 0.108265 0.581666 0.25564 -0.0179062 0.0498634
1279 2 -10.4122 29.4143 21.7491 0.0237226 -0.220904 0.173709 0.042694 -0.0318921 0.0170068
1280 1 -10.9702 31.2777 23.5672 0.111266 0.166825 0.251673 0.0994985 0.0754915 0.0279391
1281 1 -9.15148 30.4402 28.6363 0.144475 -0.664669 -0.154746 -0.339252 0.401936 0.0296204
1282 1 6.41859 0.403318 26.2468 -0.505563 0.175776 -0.267739 -0.276025 0.0307504 -0.265223
1283 3 -9.12418 30.7725 25.2628 0.0415383 -0.144542 0.0987212 -0.061265 -0.0149533 0.00893479
1284 1 -11.1372 29.2996 34.7923 -0.0574206 1.07822 -0.591329 0.113081 0.0557345 0.0677511
1285 2 8.83971 0.325865 21.5431 0.210326 -0.0428051 0.0500542 0.0371697 -0.0273485 0.00393041
1286 1 9.10757 2.16623 19.7557 0.170147 0.112118 -0.209829 0.0430418 0.103952 -0.00504354
1287 3 10.5994 0.943761 18.0729 -0.0549994 -1.12607 -0.00936892 -0.0621857 0.0730575 0.0957451
1288 1 9.36183 1.73911 23.8226 -0.157036 0.168648 0.19686 0.204294 -0.206212 -0.101551
1289 1 11.0385 0.887472 28.0089 -0.98709 1.27565 -0.277563 0.0217302 -0.0189187 0.00507189
1290 2 11.0562 2.49905 30.1145 -2.19438 -3.33763 0.044944 0.310007 0.189758 -0.0836934
1291 2 7.72105 2.79686 21.8117 -0.0576555 -0.0154615 0.0107312 -0.00072447 -0.0268785 0.00061462
1292 1 6.94012 4.75603 20.3402 -0.188884 -0.254637 -0.034311 -0.263201 -0.491377 0.139688
1293 1 7.98138 4.47 23.6864 -0.491758 -0.0254838 0.341394 0.125174 0.079839 -0.0877388
1294 1 9.30085 3.6953 28.8018 0.106704 0.60892 -0.227333 0.0425901 -0.244684 0.0869537
1295 3 9.54975 3.80975 24.7565 0.450343 -0.108963 -0.27506 0.101779 -0.0969194 -0.0813101
1296 2 9.38094 5.14185 30.7326 -0.298511 -0.0940931 0.416209 0.0695191 0.0309136 -0.113386
1297 1 9.3286 3.10939 32.0885 0.0993516 -0.246615 0.717372 -0.00368968 -0.0349614 -0.229442
1298 3 7.4724 4.18702 33.2829 0.317989 -0.708367 0.464725 -0.0360141 -0.100703 0.0191471
1299 1 6.03813 7.12857 19.3924 -0.111454 0.132931 -0.601278 -0.17732 0.342726 -0.296912
1300 3 7.44474 6.07227 18.6741 -0.0667501 4.15134 -6.29537 0.769453 -0.10288 -0.70191
1301 1 4.21156 8.50475 26.3501 -0.22127 -0.352558 -1.73749 -0.0529613 -0.0194258 -0.0352397
1302 1 6.05461 5.22269 34.6277 0.0563448 -0.537452 0.878826 -0.0175659 -0.0497799 -0.243376
1303 3 6.50041 8.97071 18.2116 -1.48937 2.20649 -1.75179 0.0236957 -0.731613 0.0679457
1304 1 4.43056 10.1122 24.2164 1.08467 -1.44488 0.430568 -0.191636 -0.0263013 0.0460761
1305 1 6.18232 9.25237 28.9284 1.01421 0.1091 0.412416 0.0775153 -0.0541859 -0.000293667
1306 1 2.95066 11.2848 26.347 0.0599642 -1.09664 -0.634532 -0.0695039 0.0916589 -0.0528317
1307 3 4.57658 10.0033 27.5165 0.500993 0.0538834 -0.117028 0.0213948 -0.0261173 0.0145511
1308 3 5.30331 11.4742 17.9738 3.38777 7.11089 6.29727 -3.66626 9.12071 4.1736
1309 3 4.5538 11.8552 25.0853 -0.883151 0.633321 1.2402 0.103572 -0.0621415 -0.0196888
1310 1 3.36051 10.9738 35.3107 -0.132825 0.645034 0.0882373 -0.262496 0.664941 0.155005
1311 2 5.03575 12.9207 30.1987 2.60301 -0.651656 -1.3935 0.24954 0.183577 -0.218837
1312 1 5.72006 10.8002 31.3698 -0.569556 1.08067 0.9435 -0.223412 0.705129 0.0550293
1313 3 2.58154 12.0843 33.9696 -0.0479876 -0.192044 -0.507467 0.0707483 0.0324021 -0.319412
1314 1 1.00067 14.8842 19.5718 -1.3731 -2.37008 1.15659 0.281532 -0.179982 -0.287372
1315 3 2.80499 14.1547 18.4268 2.67826 3.47192 1.03867 0.0829205 -0.359945 0.0666846
1316 1 1.47765 14.8962 23.9762 0.87178 0.286044 0.432825 -0.121044 -0.10254 -0.0361689
1317 1 3.06865 13.8992 28.4234 0.835936 -2.18882 -0.234803 -0.540732 0.387628 -0.0661185
1318 1 0.134178 16.1657 26.5414 -0.0923067 0.86746 -0.40614 0.00326093 0.168219 -0.13916
1319 3 1.09774 14.7796 27.8434 0.523766 -0.253378 -0.0631092 0.0189279 0.0860698 0.115502
1320 1 1.48808 13.384 35.089 0.743722 -1.36465 1.19907 0.0181247 -0.139239 0.0147111
1321 2 3.6593 15.2388 30.8056 -2.57304 0.217579 3.52688 0.162107 0.504303 -0.130858
1322 1 3.38941 12.8969 32.3179 0.00915906 -1.17024 1.29159 0.683332 -0.279194 -0.310975
1323 2 0.23364 15.4913 21.89 -0.53877 0.639615 1.5097 -0.113122 0.0829075 0.0477391
1324 1 -0.983358 16.9121 20.1029 0.622234 0.449218 0.709931 0.718425 0.0622567 -0.355046
1325 3 0.806022 16.4596 18.2793 -0.682831 0.0670172 2.23587 -1.33399 0.0498552 0.266929
1326 1 -0.651353 17.1867 23.4426 -1.255 2.17676 -1.69146 -0.438283 0.541176 -0.289982
1327 1 1.29361 15.94 29.6864 -1.09596 -0.332275 0.360719 0.441701 0.323282 0.154309
1328 3 1.07631 16.6442 24.7327 -0.249644 0.0371978 0.15675 0.366341 0.167529 0.138233
1329 2 0.22714 17.9402 31.5478 -1.50979 -0.351309 -1.84916 0.0900301 -0.368028 -0.0975169
1330 2 -2.53624 18.2468 21.7329 -0.49926 0.238632 0.136712 -0.0757948 -0.103618 -0.0700199
1331 1 -2.09098 19.6614 19.5952 -0.555506 -0.770018 2.51016 -0.692251 -0.490329 0.440707
1332 1 -2.47356 19.9192 23.7336 0.937023 -1.52533 0.188065 -0.132629 -0.2188 0.012805
1333 1 -1.78313 18.6366 35.5227 -2.12202 -1.82721 -1.68853 -0.511443 0.12261 -0.00140764
1334 2 -1.28614 22.0869 30.5239 0.215538 -1.33398 0.841748 0.163165 -0.116473 0.0531694
1335 1 -0.261676 20.4942 32.2676 0.0806124 0.730906 -1.48603 -1.22832 0.472326 -0.0854448
1336 3 -1.84871 20.5367 34.0243 -4.0374 0.141855 -0.80428 -0.139282 0.238244 0.341307
1337 2 -3.84307 20.7821 21.8066 -0.151429 1.58457 0.47486 -0.326037 0.123628 -0.11106
1338 1 -3.78427 23.0337 23.6942 -0.336474 1.64007 -0.28358 -0.224636 -0.0233377 0.029565
1339 1 -5.18602 24.6822 25.9092 -0.0652908 0.144161 0.421269 -0.161347 -0.00591808 0.0947814
1340 1 -3.1231 20.9527 35.7355 0.676606 -0.500259 0.0328482 -0.0510694 0.0784766 -0.522643
1341 2 -2.36141 24.5911 30.735 1.39813 0.0432199 -0.500013 0.0822611 -0.0248103 -0.0444047
1342 1 -2.39771 22.4199 32.8657 0.558717 0.173068 -0.0992748 -0.319197 -0.37454 -1.11902
1343 2 -5.42808 24.3566 22.2116 0.0514842 0.41568 0.174089 -0.0912354 0.00261084 0.037405
1344 1 -4.18307 26.2796 23.3011 1.82911 -2.14705 -0.736402 -0.116874 -0.179044 0.14237
1345 1 -4.06744 25.3794 28.9921 -0.991246 -0.703764 0.115345 -0.367288 -0.226749 -0.106966
1346 1 -6.34331 27.2647 26.2434 0.0845436 0.687785 1.22485 -0.110954 0.068752 0.0653553
1347 3 -4.9429 26.2205 27.3002 -0.511879 0.312159 -0.291467 -0.0970945 -0.00696124 -0.159777
1348 3 -3.42216 25.113 24.8831 -0.272539 -1.62715 -0.576622 -0.0807319 0.0964843 0.0790433
1349 1 -5.8125 28.9512 19.6327 0.130039 -0.633076 -0.258885 0.147872 -0.0226693 -0.418074
1350 3 -4.38998 28.2619 18.2393 -0.345149 -3.61447 -2.14827 -0.286663 0.0241224 0.00251847
1351 1 -4.49407 28.2334 28.3964 0.47305 -0.652354 0.786472 -0.140332 0.140059 0.0425879
1352 3 -6.12307 28.7957 27.5149 -0.140083 0.537681 -0.48912 -0.218168 0.114645 -0.112751
1353 3 -4.57863 27.6426 25.0431 -1.19787 1.75127 -0.879697 -0.177164 0.107526 -0.211303
1354 1 -6.48909 26.7546 34.6399 0.26002 0.40469 0.192718 0.0814383 -0.0391484 -0.0744169
1355 3 -6.41092 28.7781 33.4126 0.494551 -0.794571 0.171558 -0.00624928 -0.115048 0.0627601
1356 1 -8.19162 31.7321 19.6034 -0.113852 -0.550409 -0.425753 0.034465 0.0563977 0.294076
1357 3 -6.79664 30.7468 18.6142 -4.99103 -0.174074 1.47578 0.587831 -0.0376849 -0.334694
1358 1 -6.25806 30.7085 28.1676 0.653045 -0.236639 -0.945551 0.0338473 0.0549599 -0.0860932
1359 3 -7.99143 31.2979 27.1153 -0.0850996 0.0609398 0.0132035 -0.0800188 -0.0586089 -0.0573246
1360 1 -7.7563 29.46 34.6234 -0.257419 -0.241164 -0.322302 -0.0193574 -0.020161 -0.207022
1361 2 -5.73661 32.1969 30.1734 0.111014 -1.5727 -0.167441 -0.124278 0.0588583 -0.00279984
1362 1 -6.51275 30.8665 32.1886 -0.339551 -0.497287 0.0590292 -0.0418423 0.0750663 0.0760119
1363 1 12.1805 1.80719 19.1134 0.627277 0.459921 0.993677 0.182964 -0.0630288 -0.0198317
1364 3 13.7498 0.843921 18.015 0.148002 -5.54045 -6.33862 -0.435709 0.229719 0.108339
1365 1 10.4839 3.0338 26.2714 0.33856 0.814524 -0.403959 0.0617382 -0.145615 -0.147029
1366 3 12.0263 1.70817 26.3176 -0.50249 0.625461 0.0646765 -0.162176 0.141031 -0.051975
1367 1 12.6089 0.260935 34.5924 -0.100404 0.0637708 0.204595 -0.031525 0.00686168 -0.086032
1368 1 14.1493 1.059 32.3035 -0.84206 0.499191 1.11507 0.214447 -0.0204881 -0.225691
1369 3 13.8166 1.86967 34.1145 -4.35316 1.31735 -0.434283 0.466004 -0.00956406 -0.0644278
1370 1 11.0792 4.71671 24.0265 1.91497 -0.259387 -2.43492 0.132651 -0.152952 -0.303558
1371 1 9.39222 5.82736 26.2566 -0.957413 -0.68175 -1.02906 0.0727711 -0.194313 -0.106262
1372 3 10.5188 4.80773 27.4659 0.905602 0.57938 -0.00747212 0.117363 0.0772416 -0.0548785
1373 3 12.3866 3.88265 25.6717 0.238129 -0.168631 -0.283858 -0.0446927 -0.094636 -0.0265662
1374 1 12.9556 3.63948 33.9409 -0.131409 0.061565 0.1051 0.0417341 0.0258644 -0.255356
1375 2 12.7165 5.16123 30.6667 -0.492556 -0.745308 0.767427 0.131304 0.200455 -0.155618
1376 3 10.7464 3.63404 33.6177 -0.121208 0.144574 1.01429 0.062135 -0.123156 -0.198192
1377 2 9.35219 5.43646 21.8247 0.289606 -0.064873 -0.275044 0.0519315 -0.138178 -0.0461684
1378 1 9.0798 7.01469 20.0726 -0.562418 1.94455 0.970033 0.00470294 -0.625957 -0.356253
1379 1 9.75977 7.23522 23.4819 0.244714 -0.484736 0.654079 0.19059 -0.110221 -0.272443
1380 1 11.0522 6.1409 29.1279 -1.11904 -0.208707 1.01505 0.305212 0.172102 -0.491084
1381 3 10.3985 7.50948 27.7044 -0.32555 -1.08499 0.620246 -0.178273 0.0587577 -0.422623
1382 3 11.0065 6.38296 25.0762 0.311045 -0.312337 0.462343 0.0830557 -0.0720805 -0.10488
1383 1 9.21304 5.05202 34.425 -0.0759956 -0.168081 -0.540442 0.185855 -0.685799 0.721825
1384 2 11.7038 8.12037 30.5799 1.09803 -1.09454 -0.466695 0.386949 -0.430379 -0.178363
1385 1 11.0807 5.89219 32.4418 0.427894 0.696279 0.425374 -0.0986955 -0.192681 -0.143776
1386 3 9.51726 7.02143 33.6285 0.524784 -1.37598 2.54421 -0.0611645 -0.223517 -0.145945
1387 2 8.26018 8.52304 21.7884 0.135865 -0.345067 -0.918339 -0.124831 -0.0507864 0.297705
1388 1 7.8353 9.73136 19.4652 0.568519 -0.310153 -1.2239 -0.0264514 -0.0790242 -0.281674
1389 3 9.44565 8.37158 18.8277 3.05831 -1.04409 -0.207072 0.696682 0.0808333 -0.113037
1390 1 7.54082 9.67847 23.849 -0.465669 0.477248 0.0134222 0.269554 -0.339544 -0.0248701
1391 1 9.22526 8.41053 29.4035 0.179758 -0.170293 -0.490754 0.593674 0.251554 -0.616628
1392 1 6.21125 10.9276 26.5455 0.271568 -0.674038 0.40072 -0.253861 0.0577163 -0.0242679
1393 3 7.91522 9.53295 27.7962 0.469057 -0.176031 -0.453185 -0.0593139 -0.137686 0.0853294
1394 3 9.28719 8.78714 24.7769 -0.896981 0.873448 0.618171 -0.0809082 0.29294 0.00619181
1395 1 7.69285 7.83799 34.7662 -2.4218 -0.736884 -1.14705 -0.124591 -0.20376 0.190445
1396 2 10.1207 10.671 30.9323 -0.108514 0.799084 -0.744336 -0.0637203 -0.173689 -0.288846
1397 1 9.31107 8.98368 32.733 0.438427 0.167099 0.698911 -0.0266841 -0.335061 0.0458857
1398 3 8.12849 9.83527 34.1584 -0.997176 0.390505 0.0627347 -0.124874 -0.251301 -0.0227359
1399 2 6.92594 10.9519 21.5739 1.18487 0.354994 -0.338653 -0.0680125 -0.399902 -0.0605215
1400 1 6.8634 12.3934 19.2877 1.54777 1.17085 -0.694076 -0.155515 0.279757 -0.26025
1401 3 8.18691 11.6688 18.051 -0.0718105 -0.610719 1.28686 0.459302 -0.76015 -0.0456644
1402 1 6.26057 12.3373 23.7277 0.0711671 -0.417449 0.248705 -0.0759864 0.408933 -0.0866582
1403 1 8.65744 10.9976 28.7544 -0.0993198 0.225281 0.308711 0.14995 0.598416 0.0352288
1404 3 7.66738 11.5463 25.0407 -0.0850411 0.365064 0.18516 -0.0142234 -0.299966 -0.140858
1405 1 6.15981 10.1932 34.7077 -0.706558 0.355532 0.0966945 -0.122344 -0.302706 -0.173158
1406 2 8.22995 12.3304 30.6895 -1.45803 0.528977 0.0489107 0.145715 -0.0108354 -0.285697
1407 1 8.10466 11.174 32.737 0.0439391 0.171349 1.94958 -0.0174524 -0.521316 -0.0351695
1408 3 6.37481 11.3171 33.0939 -0.0723309 0.370795 0.305811 0.0186433 0.178186 0.10145
1409 1 4.20851 14.8099 19.8186 -0.413864 -1.31216 0.019064 -0.370951 0.235538 0.305413
1410 3 5.85704 14.2544 18.6598 -1.83307 -0.0204449 1.80979 0.435962 0.15901 0.0940466
1411 2 6.29265 15.229 31.1645 -1.88194 -0.440396 -1.60135 0.316052 1.69347 0.45788
1412 1 5.71786 12.9455 33.6487 0.398626 0.354564 -3.36515 -0.615793 -0.467501 1.25623
1413 2 3.36507 15.5968 22.1664 1.47602 3.59652 2.32859 -0.263089 -0.0168792 -0.382487
1414 1 1.8304 17.4405 19.4753 -2.51947 1.15923 4.23673 0.741223 0.595779 -0.725582
1415 3 3.77304 16.7561 18.6139 -2.34568 -1.9928 -3.65107 -0.263335 -0.176969 -0.690139
1416 1 2.5029 17.8251 23.7584 -7.97328 -1.86483 0.235783 0.621123 -1.19574 1.13286
1417 2 2.96119 17.5374 31.3157 2.4688 -1.69883 -4.54222 -1.86766 -0.601056 -1.08726
1418 1 3.16071 15.1918 33.3047 0.81785 2.83168 -0.626415 -0.287636 0.0198411 -0.439583
1419 2 0.257159 18.7126 21.1046 0.117483 1.4772 0.964993 0.0255579 -0.267347 -0.240273
1420 1 0.163257 19.854 23.3441 2.51834 2.76803 0.269495 0.140455 -0.389737 0.0742321
1421 3 1.6823 19.3766 24.6196 -1.81036 2.65246 -4.11702 0.218377 -0.0307299 0.178272
1422 2 1.80147 19.8111 31.0538 -1.60964 -0.288544 1.86478 -0.451967 -2.33822 0.0327982
1423 1 1.62643 18.2842 33.6091 -1.44986 -0.356112 0.179584 0.146792 -0.0163977 -0.225022
1424 3 0.815784 20.5431 34.1002 -0.77763 0.350072 0.673169 -0.176019 -0.0196512 0.132056
1425 2 -1.39081 21.027 21.4519 0.270956 -0.56907 0.441183 0.297924 -0.101475 0.371633
1426 1 -0.688217 22.7784 19.3652 1.53954 0.0699053 0.274619 0.203599 -1.00055 -1.10354
1427 3 0.899399 21.8796 18.131 6.93919 -0.77258 4.53295 0.579897 -0.0149844 0.267982
1428 1 -0.711142 22.6707 23.4366 -3.79916 0.940996 1.0883 -0.441359 0.284704 0.394535
1429 1 0.199589 22.1245 28.5813 -0.456225 5.03723 -1.37241 -0.937953 0.028403 0.580841
1430 1 -0.803997 21.9706 35.2067 -1.19043 1.86223 0.495173 -0.0540122 -0.070944 0.0045332
1431 2 0.106967 24.3073 29.9063 0.620758 2.58941 -1.17684 0.43475 -0.756966 0.012322
1432 1 -0.217077 23.5877 32.1865 0.909213 -3.32109 -1.02474 0.389345 0.276025 -0.444013
1433 3 -1.22806 23.7629 33.8551 -1.90998 -0.0602063 0.241272 -0.211285 0.0163799 -0.28665
1434 2 -2.33185 23.5114 21.534 1.24144 -0.156823 -0.574708 -0.0444747 0.112934 0.0343261
1435 1 -1.98338 25.1108 23.4607 0.630635 0.709987 -2.47197 -0.0764147 0.732989 0.262677
1436 1 -3.14016 26.9974 26.2229 -1.16596 -0.28996 -0.277073 -0.439862 0.127476 -0.437092
1437 1 -1.97386 25.7053 32.9715 -0.580076 0.184983 2.18493 -0.598067 -0.61193 0.971987
1438 2 -4.04345 28 21.488 2.84677 -1.24696 -0.973014 -0.144124 0.0461917 0.0507927
1439 1 -2.99311 28.4506 23.9237 -0.234533 1.20431 -0.47878 0.132974 0.138175 -0.348381
1440 1 -5.00348 29.6748 25.8222 0.454556 0.169275 0.254245 0.218785 -0.0443128 0.161915
1441 3 -3.47838 29.0838 26.8116 -0.222021 -2.23852 -1.33992 -0.0333808 -0.0544045 -0.0235656
1442 3 -1.31433 28.1321 25.0624 -1.14042 -2.44956 -0.130311 -0.492358 0.578428 0.269295
1443 3 -3.10763 29.2992 33.6715 0.543428 -0.311633 0.00675053 -0.109903 -0.00360946 0.0124091
1444 1 -4.92202 31.6317 19.3421 0.187314 0.341944 1.02868 0.0246518 0.141879 -0.341927
1445 3 -3.58224 30.8738 18.0835 -1.37132 3.63594 -2.1433 -0.787004 1.05189 -0.00546867
1446 1 -2.68774 30.4378 28.155 0.0910312 -0.332085 0.853672 -0.0803197 0.112678 -0.00638044
1447 3 -4.42341 30.9986 27.3418 -0.282238 0.047858 0.577423 -0.0824508 -0.041925 0.131986
1448 3 -3.42849 30.4929 24.5137 -0.362095 0.791775 0.399798 0.168117 -0.226648 -0.169504
1449 1 -4.83898 29.6161 34.5577 -0.410477 0.0931304 -0.134188 -0.121749 0.0145646 0.000590297
1450 2 -2.91827 32.1304 30.3675 -1.76953 0.449065 -0.129434 -0.0801734 0.019354 -0.0237897
1451 1 -3.23795 30.88 32.4827 -0.305665 0.311043 0.382023 0.0158452 -0.0590346 0.107199
1452 3 -4.99392 31.4442 33.2736 -0.25248 -0.0416357 0.430357 0.0198452 -0.000670798 0.0347676
1453 2 15.2317 0.3743 21.5155 0.245026 -0.0184179 -0.578104 0.103789 -0.250946 -0.0307326
1454 1 15.4298 1.92816 19.5949 -0.642015 1.69023 -1.20818 0.0160013 0.0328384 0.140653
1455 3 16.9906 1.10052 18.577 0.373209 -4.75396 0.76596 0.0724868 0.0725159 -0.0329933
1456 1 15.776 2.15443 23.7886 0.298955 -0.187447 -0.0564474 -0.00327434 -0.162053 -0.0491203
1457 1 17.0847 0.870506 28.3978 -0.192466 0.161066 0.983417 -0.208189 -0.279645 -1.21038
1458 3 16.432 0.622823 24.6662 0.42378 0.690998 -0.255188 0.0660469 0.182507 -0.0350887
1459 1 16.9636 0.941777 32.5033 -0.679891 -0.206776 -0.75663 0.0312076 0.0671274 -0.144251
1460 2 13.61 2.5063 22.7675 0.402624 0.0774495 -0.122114 0.123299 0.0562821 -0.110974
1461 3 15.535 3.71278 18.5747 0.0999596 -0.579194 -0.0531767 -0.667364 -0.221573 0.0661537
1462 1 13.9373 4.59744 24.2912 -0.128418 1.06896 -0.286355 -0.063018 -0.0381246 -0.102273
1463 1 12.2916 5.60406 26.5637 0.539469 -1.51589 1.84805 0.145346 -0.375087 -0.021447
1464 3 15.6295 3.84068 25.1525 -0.0936404 0.683808 1.48704 0.111951 0.0220725 0.12485
1465 2 12.5842 4.88034 22.0516 0.549118 -0.152737 -0.802545 0.137583 -0.000470425 -0.180848
1466 1 12.5906 7.34827 23.7602 0.277222 0.020236 -0.621315 -0.24401 -0.128241 -0.111377
1467 3 13.8339 6.54295 25.4158 -1.23966 -0.324077 -0.300879 -0.206538 0.0572856 -0.0799257
1468 2 14.28 7.78442 30.1247 1.09068 -0.078681 0.698717 0.755786 0.0844759 0.418172
1469 1 13.6167 6.76727 32.4096 1.4146 0.646188 1.31148 0.117018 0.147679 0.0736712
1470 3 12.4473 7.06129 34.071 -0.267765 0.356891 -0.363416 0.00344165 -0.111801 -0.0209746
1471 2 11.1766 8.1744 21.5408 -0.106026 0.217134 -0.718179 0.165638 0.084725 -0.168376
1472 1 10.8124 9.81669 19.4837 1.02488 -0.291449 0.0601295 -0.629175 -0.125188 -0.094103
1473 1 10.8209 9.71221 23.7748 -0.615111 0.962246 0.33902 -0.13706 0.241942 -0.20844
1474 1 8.95472 10.3104 26.0788 -0.0720529 -0.0079698 0.463861 -0.259112 -0.528024 0.404601
1475 3 12.5753 9.29126 24.4843 -0.0356068 0.319582 0.304505 0.00864636 0.0212255 -0.100241
1476 1 10.6556 7.53853 35.0729 -0.471393 0.430544 -0.0718334 -0.0446517 -0.111889 0.177624
1477 1 12.1346 8.76508 33.0187 -1.31145 -0.471851 -0.625101 -0.276177 -0.318394 -0.0970329
1478 3 10.6689 9.34977 34.2363 1.49146 -0.491409 -1.67285 0.326171 -0.166552 -0.25018
1479 3 10.322 11.5354 18.2058 0.578607 -0.141652 -0.922352 0.503262 -0.164698 -0.545907
1480 1 9.49923 12.0381 23.9135 -0.226056 0.578736 -0.139597 -0.866001 -0.182341 -0.248598
1481 1 8.15873 13.1458 26.2044 1.29665 -0.851925 -0.277524 -0.590348 -0.59771 -0.36341
1482 3 9.36682 11.9995 27.1444 2.51149 -2.48803 -2.87218 0.37771 -0.420913 -0.19814
1483 3 10.8587 10.6839 25.5991 2.15624 -3.77256 -1.18049 0.33244 -0.545164 0.739937
1484 1 9.43976 10.31 35.5414 -0.499759 1.02282 -0.714561 -0.0560024 -0.17158 -0.016088
1485 2 8.18734 12.9549 21.5466 -0.719089 -0.194302 0.0300291 0.3985 0.746001 -0.0212932
1486 1 7.46761 14.8781 19.8543 -2.556 3.42769 -2.84405 0.380001 1.50141 0.603709
1487 1 7.88775 14.6457 23.2748 -1.65041 -3.48913 0.0851133 0.418233 1.90499 -0.443053
1488 1 9.38066 13.5111 28.5142 -1.83771 -0.766978 -0.309938 -0.565654 0.730805 -0.154382
1489 3 9.67964 13.7459 24.8501 -4.65735 -0.0472113 2.01771 1.07264 0.0532833 -0.16773
1490 2 9.03129 14.8219 31.1544 -2.22289 2.96263 -1.11589 0.463152 -1.79145 -0.96167
1491 2 6.17232 16.0887 21.6406 0.432486 4.05256 0.244454 0.0350865 -0.0137584 0.116016
1492 1 4.16525 17.6691 20.7302 4.75805 2.69394 -0.560409 1.60762 -0.511749 -0.167958
1493 3 11.973 18.18 15.2134 -3.40026 10.1743 -10.0152 -1.58446 3.28518 4.02227
1494 1 8.62458 16.9891 21.5267 -7.5331 -1.58366 3.42287 -0.0622794 -3.63091 4.25585
1495 2 9.45352 25.9215 26.2208 20.8242 -10.8074 0.486813 -2.43883 -4.80507 -0.0244709
1496 1 7.77848 15.4332 33.2888 2.61848 -0.543601 -1.81384 -1.2974 1.97881 -1.04359
1497 3 3.78118 15.9124 35.0907 -0.560089 -0.279529 -0.2597 -0.140308 0.406674 -0.0103419
1498 2 4.06166 20.2095 21.1081 4.6467 -3.71715 12.0969 -5.17802 -0.022826 9.71385
1499 1 1.16962 21.0105 21.2951 -0.752708 2.30976 0.176443 -1.27285 -0.515202 -0.183481
1500 1 14.9694 23.0664 16.6719 -2.7773 -3.56634 -0.19139 -0.674167 0.246372 4.10917
1501 1 2.45806 21.0936 24.3942 1.78888 -3.29944 5.11265 -2.17611 -1.18747 -4.66747
1502 3 14.4148 18.6909 26.1799 15.4045 25.2669 22.3386 -8.14303 -0.287282 -0.154159
1503 3 5.16263 19.7788 19.6728 3.99185 9.2959 -1.24065 10.1341 -1.20883 -11.0257
1504 2 4.51857 17.4253 25.6852 7.51459 -1.94913 0.101199 3.2044 -1.19938 -0.255727
1505 1 3.45069 16.9475 28.4256 -0.789308 1.04543 4.05837 1.22742 0.442778 0.0586543
1506 1 6.90423 29.8262 27.5352 -6.85128 -17.5588 1.85053 1.49077 -4.81157 4.08999
1507 1 -0.0858731 24.4539 26.2099 4.82874 4.79905 2.67147 -0.793375 -0.692778 0.0150569
1508 3 1.24662 24.0424 28.2814 0.934466 -1.18864 0.404656 -0.154134 0.35232 -0.570236
1509 3 1.06982 21.7982 23.1916 1.86235 0.727209 0.0158233 0.47663 -1.1792 -0.472386
1510 2 0.465388 25.0857 20.8316 -3.60729 -2.54079 -4.6663 2.48933 2.64106 -0.989798
1511 1 1.68782 25.9716 18.6711 0.598247 0.324554 1.4574 1.68392 -0.120455 -1.65562
1512 3 3.40064 27.2298 18.4087 -14.7347 -11.784 -1.38966 -0.49124 -1.42597 -1.54201
1513 1 0.0525617 27.0568 23.9291 1.19739 -0.181976 1.33863 0.833248 0.0793571 0.032963
1514 1 1.63242 22.472 26.6864 -4.24634 -4.22239 1.97579 0.862599 3.71174 1.53037
1515 3 0.686801 26.0623 25.4476 -4.03299 3.59706 -3.09075 1.43627 -0.119537 -0.347925
1516 1 0.103644 25.0226 34.8216 -1.16526 0.18724 0.42359 0.982896 -0.212412 -0.914303
1517 2 1.28117 27.6169 30.3233 -0.149552 2.1348 -0.915348 -0.0303699 -0.0730176 -1.25633
1518 1 1.15645 25.6112 32.0286 0.513176 -1.66794 -1.36558 -0.0744682 0.376173 -0.253015
1519 3 0.0280456 26.7217 33.3929 -4.12879 4.73478 3.86215 0.247003 -0.376874 -1.01189
1520 2 0.339551 27.8158 21.4239 -4.17866 1.29755 2.0151 -0.541757 -0.192207 0.813996
1521 1 0.274984 29.0074 19.0312 -2.25592 0.701757 2.27939 -0.0818496 0.705511 0.10446
1522 1 -0.718422 29.404 23.0015 -0.0572744 0.712208 0.790672 -0.0894843 0.283837 -0.615498
1523 1 -1.77927 30.031 25.7169 1.86503 -0.473229 1.07377 0.0379102 -0.14201 -0.0960525
1524 3 1.19125 28.5381 23.0984 -2.03335 5.38948 2.1716 -0.131693 0.344706 0.21835
1525 1 0.691884 28.6671 32.4186 0.12711 0.951504 -2.98916 0.158838 0.120024 -0.325991
1526 3 -0.371313 29.7822 33.317 1.45655 0.862524 -1.1278 0.533314 0.12596 0.101585
1527 2 -1.79922 28.6932 20.5563 0.647331 -0.426364 -0.238156 0.41948 -0.240648 -0.166045
1528 1 -1.98082 31.2835 19.6925 0.123792 0.353585 -0.326023 -0.792556 -0.751187 -0.399284
1529 3 -0.335501 30.9456 18.5199 -0.51134 0.162894 -0.0628592 0.0543871 -0.0392867 -0.064641
1530 1 -2.0362 31.6136 23.31 0.657272 0.335388 -0.745094 -0.102882 0.0744956 0.219321
1531 1 -3.66444 32.2081 25.9259 -0.185318 0.252957 0.254643 -0.0390157 -0.0745096 -0.262751
1532 3 -1.89061 31.8291 26.7898 0.215877 -0.279197 -1.35641 -0.0819726 -6.87119e-05 0.223489
1533 3 -0.544219 31.1747 24.4601 0.913575 -0.589862 -0.0141413 0.146998 -0.337915 -0.0558728
1534 2 -0.340857 32.1127 30.1913 -2.05826 0.711176 1.29407 -0.274798 0.186591 -0.0995526
1535 1 0.0338192 31.3839 32.4729 -0.394069 -0.143783 -0.0903784 -0.128426 0.26416 -0.0855394
1536 3 -1.73678 31.4369 33.4531 -0.21353 -1.35804 0.348285 -0.20224 0.559805 -0.0179053
1537 1 16.9331 3.73975 26.5291 0.957631 0.0925426 -0.0614263 -0.0452305 0.0438732 -0.199685
1538 3 18.126 2.39993 27.0514 2.07469 0.58661 0.0485101 0.319737 -0.133499 0.123107
1539 3 19.8444 1.48314 24.4024 -0.379898 0.347293 1.81136 0.395107 0.127971 -0.452863
1540 2 18.2558 2.36435 30.608 0.00440753 0.0715342 0.0654404 -0.0431048 -0.132573 -0.0496706
1541 1 19.6279 1.75261 32.9373 1.14037 -0.257232 1.4308 -0.0267958 -0.0828122 -0.0693363
1542 3 18.0403 2.31771 34.0044 1.11417 -0.820185 1.90889 -0.441817 0.288724 -0.645648
1543 2 16.6808 3.00141 21.6713 0.308189 0.311237 -0.106418 0.259423 0.327475 0.117327
1544 1 16.6409 5.01405 19.9944 -0.911378 -1.58215 1.17348 0.398138 -0.248567 0.571098
1545 1 17.0296 4.77893 23.7174 -0.326867 -0.207354 0.675078 -0.170526 0.137495 0.0203376
1546 1 18.5587 3.84019 28.5843 -0.355919 0.397137 0.0928365 -0.0124798 -0.142448 -0.186537
1547 1 15.6419 6.03332 26.3243 0.26548 -0.864895 0.115859 -0.00301785 -0.123828 -0.0351876
1548 3 16.2944 4.8332 28.0566 -2.05073 1.49176 3.2982 -0.189545 0.451336 0.0691713
1549 3 18.4144 4.61718 25.2013 0.0652064 1.06438 -1.73716 0.181406 -0.255556 0.186687
1550 2 18.9543 5.53876 30.6071 0.248302 0.448113 -0.0985295 0.248016 0.332094 -0.190879
1551 1 17.6704 3.86635 32.6605 0.878024 0.173058 -0.542298 -0.0354873 -0.407589 0.176364
1552 3 16.3553 5.06457 33.6894 0.987017 -0.986167 1.42873 -0.238325 0.406582 -0.0962613
1553 2 15.3005 5.71902 22.0294 -0.0260272 -0.076703 -0.152005 -0.19635 0.0907321 -0.0259027
1554 3 16.5895 6.65742 18.6684 0.759666 0.149798 -0.996395 -0.0398494 -0.202061 -0.119894
1555 1 15.3254 7.55012 23.9819 -0.117435 -3.09422 0.237225 0.338967 0.102805 0.163848
1556 1 17.3397 6.33082 28.8836 0.753244 -1.38492 -0.12887 -0.226631 0.27317 -0.072546
1557 3 16.9104 7.60194 27.1426 0.245396 -0.136405 -0.128326 -0.0765241 -0.0195035 -0.0328285
1558 3 16.9769 6.62975 24.9424 0.354469 0.144528 -0.657213 0.0264555 0.0344678 -0.106829
1559 2 17.3262 8.31166 30.3943 -6.84093 -1.33778 1.31309 -0.124233 0.0709341 -0.0725099
1560 1 17.0725 6.43999 32.1997 -1.34695 0.200313 -0.7473 0.0649662 0.429902 0.112089
1561 3 15.4619 7.0199 33.6544 -0.245769 -1.47693 -0.153381 0.181505 -0.21089 -0.0361293
1562 2 14.4331 8.4876 21.7156 0.458639 0.0352773 0.582813 -0.0683269 -0.0864693 -0.0415823
1563 1 13.3883 10.0849 20.0066 -0.480968 1.34067 1.89571 0.347912 -0.480908 -0.0805687
1564 1 13.7492 10.4278 23.3108 0.246553 0.269495 3.38122 0.0491463 0.0706527 0.515144
1565 1 15.8917 8.68135 28.3037 -2.30025 -1.40621 -0.516398 -0.679839 -0.223224 -0.0374893
1566 3 15.0145 9.61894 24.6594 -0.0782796 -0.679034 -1.14397 0.0435649 0.190793 0.158268
1567 1 14.1532 7.67331 35.2063 0.572416 0.963608 -0.582286 -0.0433488 -0.140949 0.162697
1568 2 15.5386 10.4046 30.4261 -2.0715 2.84163 -0.121242 -0.116911 0.179835 0.00461882
1569 1 15.5334 8.80848 32.5583 -0.462732 -2.23309 0.343281 -0.384655 -0.767565 -0.0784845
1570 3 13.8703 9.63747 33.8783 -0.272865 -0.0621127 -0.140417 -0.0394002 -0.165358 0.257222
1571 3 13.9536 10.8745 18.1578 0.0946837 -1.84238 1.74636 0.493578 0.0129042 0.0518229
1572 1 11.1481 12.6116 26.3077 -1.72978 -0.758886 0.143927 0.00744286 0.0392824 0.3377
1573 1 12.1296 10.9398 34.4181 -0.344818 -0.627214 1.35266 -0.281565 -0.215521 -0.676947
1574 1 14.3356 11.3518 32.5793 0.931913 1.05822 0.105755 0.350263 0.360006 0.0477082
1575 3 12.9791 13.67 18.5386 1.32077 -1.37297 -0.808433 1.12879 -1.03088 -0.600736
1576 1 11.8037 14.0609 24.0454 -1.68404 -2.54145 -0.857905 -0.354572 -0.309981 1.04941
1577 1 12.4992 13.2728 29.4041 -1.43961 1.79687 -0.120551 0.000774756 -0.228812 -0.203294
1578 3 11.2444 14.1884 27.6861 2.56046 2.94777 0.781014 -0.2105 -1.13696 -0.21443
1579 3 12.9083 13.0184 25.3521 0.894919 1.31255 1.19689 0.3252 -0.300497 0.15355
1580 2 12.4985 14.1519 31.6352 0.25217 4.87564 1.02968 0.168081 0.137498 1.00896
1581 2 9.70496 14.7551 20.8783 3.57714 -0.0728843 -0.540655 0.11016 0.541098 -0.337555
1582 1 10.2085 16.0108 18.7536 4.88792 0.461078 -2.33395 1.28796 -0.370207 -0.327416
1583 1 11.0171 24.3121 19.9375 5.76119 -10.3514 -10.9889 0.469232 3.3858 -0.920842
1584 3 11.716 15.8603 24.8579 -9.44343 -5.90753 -4.36411 -0.208444 1.24085 0.036696
1585 2 4.96796 15.3968 26.785 -0.526081 -1.62201 2.72935 0.715875 1.14957 0.253526
1586 1 10.4657 13.1752 32.4847 -0.406731 2.62208 -1.45944 0.00397046 0.875252 -0.44915
1587 3 5.83618 19.6231 22.2268 -22.066 9.15797 -7.21813 -6.38977 2.18411 -5.73874
1588 2 10.7102 17.0923 16.4674 5.51858 3.6569 2.57774 1.7277 0.290433 -0.323233
1589 1 10.9959 17.1042 13.8251 -2.27312 -0.147925 -5.01542 -2.67454 3.62127 1.69942
1590 1 6.44535 24.1369 20.3967 -12.2073 3.54487 6.96299 -4.05418 -2.52734 -3.08688
1591 1 1.65828 23.8027 22.4572 0.480482 2.10534 -4.10872 -0.575497 -0.266345 -1.07412
1592 1 5.6128 14.8923 35.4227 1.2303 2.58781 -2.82691 -0.537546 0.21675 -0.172315
1593 2 8.80733 18.5719 18.0525 -17.4615 -8.24405 1.86488 0.512596 -0.892718 -3.24957
1594 1 9.86043 15.3727 25.9021 -0.580197 1.84707 0.0435656 0.0614599 0.267303 -1.12579
1595 3 3.26839 19.2817 32.3212 -10.0871 -3.01798 -1.18438 -0.678946 -3.83773 1.55588
1596 2 6.79833 22.3608 15.4858 1.2479 3.00181 3.48143 -2.20678 -0.460509 5.26769
1597 1 2.04155 29.5079 21.411 0.869724 -1.70779 0.506113 -2.0009 0.754304 0.33958
1598 1 4.8231 30.6663 22.2527 0.957186 -1.77812 -3.39807 -0.837061 1.60073 0.215779
1599 1 2.22228 25.258 24.713 -2.91797 -0.00276854 -11.5551 1.26493 4.1764 -0.854791
1600 3 2.60312 25.4787 20.7884 -6.46822 9.73605 1.74794 -3.31007 -0.845722 -0.000341342
1601 3 4.83712 24.9088 20.9011 17.429 -10.3116 13.8582 2.12438 3.5094 1.38282
1602 1 3.70383 19.0627 40.9979 -4.32755 -4.6967 1.71016 0.0142328 0.18349 1.74412
1603 1 5.33402 26.5959 18.7747 4.3743 2.95691 3.77636 1.04549 5.02875 -0.924775
1604 3 5.08995 25.5665 17.0296 -8.10805 -1.77391 -9.61298 -1.82477 2.965 0.558421
1605 1 3.42528 27.7092 23.5502 -8.17746 -6.17562 20.8125 -0.897818 -3.05796 -6.82127
1606 1 0.284481 27.5824 26.6148 -1.3242 -2.94735 1.72866 0.666645 0.930942 0.388278
1607 3 1.65113 27.2236 28.3922 8.07803 -1.62844 2.33112 -3.97566 -0.0515271 0.424255
1608 2 10.7419 27.1152 17.0127 3.70354 -1.32661 -0.587029 0.343072 2.23983 -0.630557
1609 1 2.93487 29.1686 18.4242 0.200559 4.4597 0.795238 1.14598 -0.820047 1.20691
1610 3 6.72429 28.1604 18.199 -4.10833 9.84595 14.1876 -1.08191 1.35951 0.754667
1611 1 2.50475 29.1008 28.8996 4.77459 -0.279931 -0.622233 -3.80312 1.68297 2.15758
1612 3 1.77337 29.0272 26.9449 3.65546 -1.6184 7.70501 -0.228221 -0.363789 0.0415853
1613 1 1.49723 27.4478 34.8007 -0.673398 -1.78247 2.96612 -0.785646 1.52362 -0.375452
1614 2 3.20314 31.2729 30.0542 1.09731 -0.878696 1.14089 0.724373 -0.604079 -0.144146
1615 1 3.18859 27.4309 26.9819 15.1169 4.63102 -3.24157 1.17711 -0.67933 -2.08369
1616 3 2.31674 29.1834 33.6528 -0.226211 -2.95634 -3.38431 -0.070232 -0.0391298 -0.851186
1617 3 4.52638 30.2755 18.3046 -4.99375 2.78357 -2.21238 -0.721135 1.1015 0.226581
1618 1 18.1283 0.739549 25.6501 -0.857666 0.809247 -0.330253 -0.197873 0.39729 -0.186041
1619 3 1.62285 31.2004 24.9385 1.6432 -2.22855 -0.943621 0.109455 -0.36265 -0.164881
1620 1 1.07032 30.3835 34.7314 -0.157952 2.1405 -1.59342 0.188267 -0.223458 0.00643688
1621 1 2.65556 31.0866 32.5077 -0.795831 -0.804509 1.36558 0.682369 -0.418138 -0.0390666
1622 3 1.51433 32.1293 33.6363 0.259955 -1.14857 0.530016 -0.246867 0.303055 -0.203012
1623 2 2.23263 31.921 21.1967 0.554369 -2.80566 0.893332 0.139351 -0.542218 -0.562613
1624 3 21.9014 1.1743 17.6421 -4.67249 -3.11218 2.86981 -7.05119 -2.16008 -5.37616
1625 1 21.6447 2.74574 23.9655 -0.0113161 2.10462 -1.39567 0.108414 0.0129138 -0.0751217
1626 1 19.6787 3.1468 25.6949 0.668269 -1.1075 -0.557077 -0.248791 0.942215 0.0149804
1627 3 22.7356 1.89694 25.3055 -0.0121973 0.637141 0.601979 0.171685 0.165046 0.497673
1628 1 20.4002 0.746048 35.4347 1.68796 -2.36224 0.323448 -0.532124 0.415714 -0.120523
1629 3 20.9389 2.31463 34.2057 -0.779682 1.55628 0.320551 0.000542253 0.196144 0.133052
1630 3 21.9673 3.80618 18.8774 -0.2807 -0.971476 1.08758 0.0069929 0.0123061 -0.43544
1631 1 19.8711 5.07631 23.8429 0.538324 -1.23976 0.586566 0.183328 0.148439 -0.118679
1632 3 21.5423 4.41059 25.106 0.850965 0.806371 0.525044 0.0155204 -0.0417809 -0.00709252
1633 1 19.7055 3.50136 35.1194 0.621176 -0.944572 -0.904645 -0.0236169 0.0960748 0.175395
1634 2 21.5432 5.07455 30.8719 -0.259866 0.522814 -0.104099 -0.0845656 -0.0383887 -0.0520493
1635 1 21.5476 4.41588 33.408 -1.36168 -0.192597 1.65326 -0.137852 -0.158656 0.3682
1636 3 19.3427 4.70864 33.6748 -1.29039 -0.571968 -0.101635 0.010473 0.14118 -0.0921859
1637 2 18.5507 5.93386 21.8063 -0.0222761 -0.80294 -0.366042 -0.281748 -0.795127 -0.297065
1638 1 18.873 7.02524 19.3438 0.0101706 -0.340745 -1.60187 0.205706 0.417174 0.835662
1639 3 19.4824 5.18082 18.5882 -0.658607 0.0920256 -6.05905 -0.231816 -0.161779 -0.278801
1640 1 18.5324 7.59276 23.9514 -0.188224 0.289581 0.133725 -0.0620368 0.0734896 -0.0268011
1641 1 18.2335 5.98125 34.7082 0.00715358 -0.168208 -0.490635 -0.0172828 -0.159164 -0.110239
1642 2 20.9723 7.27005 29.7737 -0.912283 -0.390904 -0.637835 -0.0775905 -0.110017 0.097203
1643 1 20.1917 6.36232 32.5718 -0.265077 0.27121 0.0322327 -0.281269 0.244306 -0.0724552
1644 2 18.6758 8.60321 21.5845 -0.627681 0.246664 -0.0245449 0.169841 -0.271738 -0.0293136
1645 1 16.6487 9.95778 23.1337 0.323351 0.7368 -0.443599 -0.0209612 -0.186787 0.0201917
1646 1 15.5427 11.2752 25.7913 -0.125443 0.143544 0.526034 0.0535059 0.093469 -0.149698
1647 3 16.5881 10.1291 26.8383 0.0421057 -1.24506 -0.855848 -0.0713906 -0.102664 -0.123436
1648 1 16.8225 8.04335 35.0327 0.466172 0.595591 1.17119 0.439656 0.0925191 -0.259629
1649 2 18.4467 11.2349 30.5577 -1.1409 2.06019 -0.630917 -0.193156 -0.444069 -0.428959
1650 3 16.7513 9.80022 33.9658 -1.97081 -2.04851 -1.40104 -0.157792 -0.636928 -0.319013
1651 2 15.2435 11.0553 21.3173 0.121318 -0.0949401 0.0361469 0.0161312 -0.212008 -0.192923
1652 1 15.9846 12.8489 23.0604 -0.763151 0.274957 0.062668 0.244425 -0.114385 -0.268192
1653 1 16.9223 11.3351 28.4207 -0.126642 -0.188038 -0.0525193 -0.234315 -0.15127 0.377034
1654 3 15.3591 12.3108 27.5398 -0.180459 -0.586505 1.29833 0.218045 0.356814 0.0436335
1655 3 17.194 11.7741 24.5023 -0.0949032 0.0536375 -0.100335 0.0164386 -0.0677513 0.0307555
1656 1 15.2801 10.5487 35.1803 0.439072 0.986094 -0.748076 -0.889829 -0.0340834 0.614219
1657 2 16.707 13.1627 30.5212 2.9173 1.33882 -1.0144 -0.0590938 -0.124329 -0.160951
1658 1 17.0242 11.2842 32.6013 0.927743 1.50951 -1.24854 0.634648 1.18921 -0.154326
1659 3 15.7876 12.2507 34.018 0.0522672 -3.5441 -2.06984 0.519037 0.485056 -0.58007
1660 1 14.2596 14.4543 19.8613 0.578466 -1.25522 -0.78151 0.527739 0.0476932 0.0219093
1661 3 15.7033 13.6385 18.6599 -0.304587 -0.823772 0.677549 -0.304233 -0.421518 0.692647
1662 1 16.3503 13.8285 28.0737 -0.403243 -2.24236 0.308503 0.302475 -0.298465 0.119834
1663 1 13.0565 14.6577 26.3585 0.160519 3.83385 -1.78059 0.512255 0.0914542 0.192965
1664 3 14.3509 14.424 28.039 -2.21359 3.25841 1.28065 -0.0865873 0.313508 -0.29805
1665 1 14.5158 13.3561 35.1742 0.485678 0.491143 -0.13374 0.204181 0.942166 -0.273366
1666 2 16.8738 16.3017 31.1527 1.86435 -0.873211 0.600985 0.126898 -0.59029 -0.0476504
1667 1 16.3526 14.0616 32.9114 0.691628 -0.839821 1.76388 0.796594 -0.815572 0.425771
1668 3 14.6886 15.0707 33.8924 3.34899 0.597893 -0.0397841 -0.727771 0.527636 -0.104847
1669 2 12.2401 14.7695 21.8521 1.90186 2.09046 -1.47072 0.182091 0.877901 -0.813587
1670 1 13.0614 16.8474 20.5668 3.50927 0.514495 -0.739226 -1.39619 0.230338 0.551653
1671 3 14.4139 16.2506 19.0248 2.77783 -1.36167 -2.07635 0.297004 -0.11419 -0.541238
1672 1 9.28181 30.9181 26.5132 2.78894 2.51452 -13.8831 -0.0719733 -6.09192 0.771579
1673 1 14.8941 15.9389 29.3484 -1.07933 -3.94729 1.78459 -0.203974 -0.564792 0.053566
1674 3 14.6015 15.4904 24.9532 1.57256 -8.53885 -0.771941 -0.26679 1.10895 -0.124216
1675 1 13.2452 15.8556 35.7012 -1.99373 2.86937 -1.89746 2.4607 -0.931045 -1.09365
1676 2 6.64936 16.863 24.075 1.87214 -0.895289 -0.074543 2.23159 2.32844 -0.716527
1677 1 14.8204 16.9875 32.6844 -0.798828 -4.4516 -2.75939 0.581389 -0.207243 -0.042756
1678 3 11.0607 15.0617 30.6207 -2.72995 0.240019 -3.03965 -0.227994 -0.27663 -0.474576
1679 1 9.93852 22.0566 15.9854 -2.91224 -8.64243 -4.73551 -0.946678 0.870107 -2.01585
1680 2 10.7276 18.4749 19.786 -8.3693 8.17888 7.53769 -5.84667 -1.99705 -1.26044
1681 3 8.75732 18.8662 20.0604 -2.42213 39.4721 0.554483 0.419018 1.59763 2.73745
1682 2 10.5712 19.5309 15.6137 -14.2351 -2.62543 -1.42301 -0.997468 -1.26852 3.02048
1683 1 9.01311 19.6591 13.604 -10.9237 2.56679 7.05913 0.668928 -1.83412 -2.05975
1684 3 7.31445 19.3678 15.3021 1.35745 12.053 -1.99811 0.0770869 -2.92736 -0.319538
1685 1 6.10258 28.2148 21.6297 0.0282369 -2.22082 1.17048 0.188019 -3.1254 0.407409
1686 1 11.5773 25.7618 15.3066 -1.78029 4.40304 1.74213 -0.0432265 -6.01199 -3.03139
1687 1 15.2585 19.4211 24.2825 -3.32033 -7.20129 8.76284 -0.150983 0.520884 -0.674249
1688 3 9.23261 29.533 21.7412 14.8658 -1.16005 2.8037 1.81852 5.35236 5.78991
1689 1 14.1695 20.5575 16.2392 6.15641 6.99878 6.84633 1.3749 -2.17535 0.315852
1690 2 29.7069 0.400796 26.5135 0.816521 1.54985 -6.24758 0.751695 0.840373 -0.0592055
1691 2 3.40721 23.6481 20.4418 2.76442 -0.861353 0.0096432 0.0564049 -3.68889 0.582339
1692 1 6.54249 24.6184 16.1173 4.93257 6.20425 -2.51426 2.79408 1.90831 2.51703
1693 1 5.43545 25.1308 23.1223 7.75235 0.652127 13.3001 0.00370521 -0.694427 2.13426
1694 3 4.09112 29.0225 21.7647 -1.79902 -18.6644 15.6623 0.421265 -5.62391 1.26637
1695 3 9.28423 28.2173 22.4419 -4.5456 -38.2096 -9.74821 0.396516 3.70831 0.0895688
1696 2 14.7741 26.3671 25.5796 -3.85064 10.8836 -16.0728 -2.53313 -7.3266 -0.677234
1697 1 6.32201 30.0224 18.4284 3.85552 -2.60845 -4.7563 1.88705 -0.947959 3.03289
1698 1 7.26093 32.2188 28.79 1.37162 -2.5098 0.462408 -0.626162 1.51183 0.837719
1699 1 2.79467 30.0058 25.6783 -3.50505 2.41463 -2.87038 -0.318601 -0.250809 1.10987
1700 3 11.9869 30.036 20.5873 20.5203 20.69 -53.6397 0.453622 -2.57796 -0.960291
1701 2 22.7365 0.54084 31.5195 -1.34377 0.929261 -0.761788 -0.162361 0.218231 0.0244453
1702 2 25.565 0.415664 18.7295 -0.0698874 -1.79006 -0.911715 0.431185 -1.99519 -1.25247
1703 1 4.07266 32.1212 19.0254 1.36798 -0.585782 -0.257671 -0.0265683 -0.0499665 0.41868
1704 3 6.86071 31.3468 17.1654 -6.75473 -4.49336 6.80611 -2.60876 -1.23707 2.07021
1705 1 2.66647 32.1139 23.5519 0.518485 -0.44611 0.50153 0.524399 -0.636926 0.212958
1706 1 4.73565 31.3834 28.1132 2.87478 -1.74161 2.34202 -1.94063 3.29416 -2.38402
1707 1 20.9993 0.540918 26.1326 0.0306748 1.51231 -0.344225 -0.102005 0.689263 -0.149599
1708 3 4.1237 31.3369 26.4355 2.3456 -3.75906 -0.947934 -0.529414 -0.603577 -0.640995
1709 3 3.87976 28.5289 25.4394 -16.9674 -19.7574 16.6886 -0.349641 -0.670987 -1.96365
1710 1 3.99585 31.2754 35.595 0.803671 -0.0852942 -1.00007 1.23287 -0.417782 -0.910278
1711 2 23.0692 0.473171 21.3518 -1.85365 1.09662 -1.6401 0.288295 0.664307 -1.30884
1712 1 24.7729 2.42561 23.8426 0.791059 -1.90718 -0.381502 0.0102802 -0.145576 -0.455613
1713 1 22.8263 3.46062 26.3617 1.20075 1.3808 -0.0382329 0.25609 0.548518 0.316627
1714 3 25.7711 0.907993 24.6316 4.04524 -3.77958 -0.672226 -0.212741 0.226579 -0.0803844
1715 1 24.9359 1.2376 35.8389 -0.554815 -1.07308 -2.14382 0.15307 0.169407 -0.0183308
1716 2 27.089 3.12599 30.6835 -0.415826 0.36724 0.0829694 -0.874585 2.03495 -0.359996
1717 1 26.966 1.57304 32.508 -2.20371 -0.452882 2.50447 1.78531 -0.13003 0.664881
1718 3 25.1142 2.03003 33.9251 -0.871532 -0.459021 0.60007 0.0309078 -0.0430426 0.113172
1719 2 23.0719 2.72364 21.927 0.0784707 0.175678 2.24683 0.158033 -0.242697 -0.0237828
1720 1 23.4026 4.4568 20.1865 -1.21939 -1.02757 2.90074 -0.0885796 0.328535 0.430465
1721 3 24.5848 3.47815 19.039 1.0813 -0.222681 -2.08305 -0.116438 -0.83968 0.00416188
1722 1 23.2791 4.99825 23.5044 -0.954541 -3.50988 1.27334 0.197219 0.0466116 0.332197
1723 3 24.6411 4.20138 24.8374 -0.160474 1.1119 -2.08015 0.0782385 -0.161262 -0.0543562
1724 1 22.9906 2.54765 34.6074 0.319264 -0.539734 0.291781 0.0126332 -0.644086 0.0521185
1725 2 25.2419 4.98802 30.437 -0.287598 -0.891994 1.28697 0.892263 -0.118623 0.0817369
1726 1 25.4308 3.8999 32.8246 -0.133074 0.217718 1.97087 0.069046 -0.736711 0.938
1727 3 23.7 4.45582 33.7649 1.92489 1.67527 -1.04817 0.103733 0.092681 -0.197908
1728 2 21.2659 4.50795 21.9193 1.18851 -0.926159 0.530386 -0.0240351 -0.0329988 0.150441
1729 3 23.2935 6.17085 19.2599 2.1979 0.0677157 0.18851 -0.123625 -0.160411 0.0523752
1730 1 23.3563 6.02956 29.2985 -0.807159 0.854394 0.236963 0.00486444 -0.170082 -0.214336
1731 3 23.1282 6.30697 25.2171 -0.274521 -0.417451 -0.126307 0.820155 0.133179 -0.0241629
1732 2 22.9717 8.3414 30.6759 0.19771 -0.809242 0.367614 0.208659 -0.000433658 0.089943
1733 1 23.467 6.35735 32.308 -0.287573 0.0531492 -0.47959 0.182617 -0.0544366 0.0472892
1734 1 19.9705 9.92041 19.8751 -1.0974 -1.12843 0.864042 -0.091455 0.129723 -0.0651603
1735 1 21.753 9.57338 28.8843 0.20295 0.370832 -1.0708 -0.0629701 0.0118237 0.300594
1736 1 18.4634 10.461 25.7609 -0.383738 0.133642 0.518463 0.0274643 -0.124452 -0.0157146
1737 2 21.4516 11.091 30.8385 -1.15346 0.105153 0.163051 -0.219404 0.142402 0.000380247
1738 2 17.7823 11.0532 20.8202 -0.487794 0.0880368 -1.44326 -0.0477581 0.0219673 -0.275095
1739 1 18.7115 13.2186 19.9496 -0.77827 0.613918 1.45109 -0.691735 0.632922 0.123544
1740 3 20.2821 11.5921 18.7771 -1.02364 -1.146 0.728932 -0.228828 -0.0177895 0.232895
1741 1 18.7884 12.0467 23.0295 0.922168 -0.730075 -1.29489 -0.12409 -0.543982 -0.383935
1742 1 20.0084 11.359 28.7206 -0.623524 -0.617575 0.318728 0.196015 0.179166 -0.368043
1743 3 18.7486 11.4415 27.366 -0.374868 0.000488251 0.483367 -0.0555118 -0.216245 0.482484
1744 3 20.0005 11.8376 25.0871 -2.05068 -2.92248 1.34811 -0.702865 0.0227077 -0.000216484
1745 1 15.9374 15.4409 26.3562 -1.64409 -1.55476 1.52985 0.417695 -0.327125 -0.0555129
1746 1 17.2562 12.8896 35.4255 -2.01028 0.973499 -0.625686 -0.118255 0.269487 0.0266502
1747 3 17.6099 14.5803 34.4291 -0.307061 1.36504 -0.294849 -0.0784012 0.0844147 0.0558243
1748 2 17.2786 14.9894 22.0335 -0.0852579 -0.965287 0.223976 0.737535 -0.451943 -0.340549
1749 1 15.9935 17.2014 20.3204 -2.11301 0.632278 1.40735 -0.849316 0.773845 1.40327
1750 1 15.8919 16.7414 23.4106 0.789794 0.0768598 1.19269 -0.306846 0.174062 -0.901578
1751 1 17.8031 16.8515 28.7678 -0.541401 -1.0335 -1.76016 0.175405 -0.317946 -0.256392
1752 1 13.4446 17.146 25.389 -1.78557 -3.14279 -5.83691 -2.32186 -2.94892 -1.79233
1753 3 16.2694 16.9289 27.569 -10.4993 -2.89759 2.66787 0.149792 -0.945009 0.685121
1754 1 16.1529 15.5354 35.3517 -2.3181 -1.67137 2.06452 0.267126 0.601667 0.135702
1755 2 18.8324 18.5879 32.3927 -0.396519 -2.05996 1.81067 0.361591 -0.408799 0.735164
1756 2 15.853 20.7715 22.2032 1.42378 5.58926 -10.7581 -9.64717 -1.46055 6.3848
1757 1 15.6087 19.9423 18.9564 4.32624 -10.2848 -8.00161 -4.78457 -0.184749 5.21233
1758 3 17.9589 17.0644 19.6534 -0.934363 0.190126 0.919043 0.0424378 -0.0325772 -0.325419
1759 1 16.8554 19.9399 29.8376 0.254967 -0.774093 -4.23863 0.679612 2.06057 1.49379
1760 3 10.7637 18.7628 17.6481 -9.59904 15.18 9.1462 2.25279 -0.868921 -0.0182217
1761 3 18.3397 22.743 23.6807 -5.67135 2.01992 -1.36849 3.22457 -0.311661 -0.714679
1762 2 11.8896 23.2095 15.0274 2.0879 0.631462 -1.62165 4.71266 -0.195771 -4.64512
1763 1 11.4143 23.9537 12.7709 -4.01576 -2.76083 5.25742 5.32543 0.90912 1.15912
1764 3 14.8161 19.3475 17.5078 -5.99156 -8.57637 -0.218604 0.226915 -0.858354 -0.556131
1765 1 18.0791 26.7313 25.7945 -14.4639 -17.3092 8.91861 0.825516 -0.581039 1.11747
1766 1 14.7094 28.452 18.5339 -7.03983 -3.17238 -1.65304 -0.0740659 3.63175 1.94322
1767 3 12.6071 21.7393 13.5807 -2.72905 -13.7728 -1.18135 -3.87069 2.36711 2.46865
1768 2 10.4261 21.9528 13.1899 -3.58873 -7.18149 2.37681 4.30394 -3.05375 0.445716
1769 1 11.217 28.4472 13.3956 -0.266463 -5.96566 -10.8564 -2.14532 3.18369 -0.410406
1770 3 13.3966 20.4162 14.143 -6.25226 4.32121 -5.31361 0.561023 1.2169 0.564926
1771 1 8.59748 27.7533 18.5613 -2.15151 3.1331 -2.27352 -6.96356 4.8272 -4.14974
1772 1 15.4583 26.4491 30.2694 -0.102117 -10.1168 -10.9906 2.48067 -4.8109 0.787676
1773 3 5.70719 19.303 28.9335 28.4438 -41.0121 1.79549 6.83472 5.05086 -2.77583
1774 3 17.992 26.7083 21.3813 55.4257 -19.1599 -20.4101 -6.21159 0.643142 0.904591
1775 1 12.317 20.0077 25.6349 16.6277 9.27891 -19.4124 -1.86163 1.02762 -3.15167
1776 2 33.5963 0.298948 29.972 2.21471 3.88638 -6.51575 -1.06541 1.17912 -1.23443
1777 1 18.3388 20.7644 26.915 3.96365 -0.211223 -1.61707 -2.12514 -0.069173 -1.17849
1778 3 31.5721 0.161411 30.3298 -1.82094 4.59192 -1.52677 0.303054 -1.20734 -0.998517
1779 2 8.93841 25.6348 16.6127 -0.88521 -1.83189 -4.76943 -1.40826 5.83527 -3.27452
1780 1 6.42515 27.5002 15.9841 5.26097 3.47634 7.97027 -2.23948 -1.69299 1.52212
1781 3 8.89096 27.7564 16.5161 -15.9701 6.16462 2.71484 -0.315888 -3.77487 2.22873
1782 1 27.8267 1.27149 23.1424 -3.23848 -1.56213 0.152472 -0.695499 0.421026 -0.484049
1783 2 30.5437 1.99797 30.3756 -2.54764 -3.33236 -1.96011 1.14756 -1.61472 0.454718
1784 1 32.1287 1.13705 32.276 1.08393 -0.308554 2.08568 0.544777 -0.233 0.431775
1785 2 27.4864 1.24828 20.6934 -3.95858 3.55518 3.05049 0.812328 -1.07324 0.466024
1786 1 12.5408 19.8839 19.1559 3.70852 2.61812 -8.32818 -2.86245 -4.88054 2.28652
1787 1 11.2512 23.7235 23.0201 6.41849 -20.2933 -6.70197 3.1149 -4.59057 -5.6996
1788 1 23.9489 0.455031 25.6227 0.17719 1.44585 1.49997 -1.6882 0.602373 -1.2681
1789 3 24.7576 1.08442 27.5959 2.292 -2.52124 -0.0456106 -1.51012 3.57391 1.9383
1790 2 27.8597 0.910217 30.1528 -1.30498 -0.317927 -3.94379 0.221458 -0.34194 1.63665
1791 1 7.39566 28.1929 24.1226 5.85906 -13.4807 -3.98774 -0.334774 1.65845 -0.889369
1792 3 30.0945 1.52155 18.2925 0.134665 6.14896 -1.48851 0.196288 1.55806 0.174939
1793 1 28.7164 2.3565 28.521 -1.7576 0.181189 0.815742 -0.58277 -0.433097 -0.574111
1794 3 27.4982 2.96592 27.1295 -0.399416 -1.38844 -1.49884 -0.253842 -0.259041 -0.893889
1795 1 28.9008 0.656639 35.1752 -2.94331 -3.32611 0.708907 -0.486378 -1.5485 1.25727
1796 2 29.3676 4.23276 30.1032 2.57636 -3.37936 3.68786 -0.738984 0.126745 -0.256976
1797 3 28.4849 2.49145 33.9098 -1.39864 6.70068 -2.27339 0.259717 -0.772953 0.215986
1798 1 26.41 4.85956 23.8365 -0.041866 1.63464 -0.404473 -0.821383 0.331385 0.224458
1799 1 26.8439 4.33084 28.4793 -2.17548 -0.0608681 -2.01629 -0.0714133 0.0899863 0.695455
1800 1 24.7265 5.6418 26.2719 0.416115 0.25232 0.787877 0.0288418 0.227462 -0.110569
1801 3 28.2308 4.13222 24.8966 0.607209 -0.0866914 -0.308454 0.396823 0.200948 0.0751936
1802 1 27.0901 3.09297 35.1368 -0.404995 -0.980041 -0.881529 0.100835 -0.289126 -0.587976
1803 1 28.1679 4.54815 32.5232 -0.429566 0.81946 1.4756 0.0577677 0.882183 0.301732
1804 3 26.7677 4.89768 34.1118 1.60939 -0.328578 -0.961634 -0.350434 0.242276 0.288516
1805 2 25.3776 6.12471 21.6898 -0.431195 0.11762 -0.32753 0.105106 -0.0131791 0.169679
1806 3 27.1217 6.22335 18.1019 -1.16278 1.23646 -1.59955 -0.432261 0.608804 0.0838404
1807 1 23.3612 8.14956 26.2085 -0.708769 -1.34423 0.901154 0.256217 0.412822 -0.339916
1808 3 24.6569 7.27673 27.4943 -0.100471 -0.0534548 0.275097 -0.158467 0.00284693 -0.105823
1809 3 26.5778 6.32844 25.2668 -0.198564 0.0781323 -0.21849 0.0899666 0.0250092 -0.106697
1810 1 24.9882 5.72433 34.9189 -0.49613 0.542492 0.941172 0.289525 0.088682 -0.324266
1811 1 26.3486 6.35806 32.4977 1.9406 -0.325792 1.10052 0.145748 -0.32687 0.0108211
1812 3 24.8815 7.38467 33.5831 3.75087 -2.18035 -5.97866 -0.762096 0.345149 0.166033
1813 1 24.7971 8.83264 28.9844 0.466113 -0.0933667 -0.631033 0.16226 0.0122003 -1.11271
1814 1 21.8614 10.9864 26.0223 -0.727093 0.768882 -0.470402 0.187331 -0.175199 0.102958
1815 3 23.3688 9.90931 27.4805 -0.24352 0.0974729 0.332452 -0.219208 0.126611 -0.533691
1816 3 24.7852 8.78618 25.0069 -0.218777 0.152468 -0.29332 -0.409994 0.00106868 0.0021321
1817 1 23.5878 8.24094 35.0563 0.373241 -1.243 1.18878 0.0195382 0.220834 -0.29822
1818 2 24.0545 10.722 30.5766 -0.457044 -1.08128 0.141563 -0.230899 -0.0967836 -0.135726
1819 1 24.7131 9.19641 32.4205 -0.448436 0.310481 -0.151612 0.0802913 0.365616 0.140858
1820 3 23.5989 10.0293 34.0653 -0.0210376 -1.56286 0.212536 0.0696917 0.115153 0.00438956
1821 2 20.7987 10.894 21.9702 0.319246 -0.136763 0.500645 -0.0472123 0.0073116 0.0691639
1822 1 21.8904 12.4985 20.1606 0.038418 0.684285 -0.193138 0.199532 -0.137087 0.129399
1823 1 21.4236 12.9046 23.7741 -1.0589 0.0421219 -0.53125 -0.291939 0.217709 0.938409
1824 1 22.9892 11.7576 28.637 -0.365923 0.172681 0.608764 0.0444903 0.0828676 0.0108483
1825 1 19.6918 13.237 26.5128 0.800023 -0.306334 0.672621 -0.0889101 0.132246 0.238966
1826 3 21.4887 12.4577 27.3593 -3.07081 -0.965856 -0.97962 -0.462659 0.215344 0.0754096
1827 3 23.2121 12.01 24.8806 -1.70801 -10.8946 1.3206 -0.120007 0.211706 -0.0729623
1828 2 23.2441 13.2684 30.8599 -0.674333 -0.272326 0.221853 -0.135978 0.00249463 -0.0149888
1829 1 23.1227 11.736 32.8073 0.0552307 -0.156471 0.203953 -0.248725 -0.0685808 -0.0175667
1830 2 20.296 13.709 21.7523 -0.318637 -1.24152 -0.462439 -0.712445 0.332215 -0.00978036
1831 3 22.5929 14.0402 18.4953 -1.08337 1.02187 0.539471 -0.590317 0.161249 -0.391667
1832 1 19.8117 15.6738 23.1884 -0.817019 -1.67284 -0.269648 0.251095 -0.329217 -0.0846134
1833 3 21.1468 14.5239 25.0562 0.574719 -0.760698 1.44444 -0.023097 -0.17054 -1.08428
1834 1 20.6305 12.9871 34.6372 -0.00914046 -0.930311 0.639006 0.023198 0.155624 -0.0288519
1835 3 20.83 14.872 33.8513 0.595074 1.57739 0.452657 -0.0761131 -0.197081 -0.0677323
1836 1 19.466 16.7331 30.9352 -1.09732 2.38526 -0.165959 0.498635 -1.01415 0.162505
1837 1 17.8427 17.6232 26.2055 -1.16925 3.42329 3.12376 0.379339 0.818183 -0.56992
1838 3 19.4596 17.1806 27.2273 -0.971847 -0.217491 -0.911597 0.070246 0.117824 0.0382489
1839 3 20.201 17.4325 24.1805 1.51967 0.739251 0.185748 -0.00695325 0.00150519 0.342722
1840 1 19.3754 15.3943 35.1197 -0.661946 -0.267758 1.81088 -0.458314 0.151738 -0.104677
1841 2 21.3566 18.6358 31.4901 0.335339 -0.399406 -1.42885 0.306065 0.118067 0.745312
1842 1 20.7625 16.9771 33.2471 -0.398136 2.28763 -2.10446 0.787314 -0.578763 0.564525
1843 2 18.0075 17.4588 21.6019 1.04258 -1.00366 -0.319951 -0.5483 0.0613716 0.434639
1844 1 18.8131 18.8409 19.4756 2.65867 -1.7502 -1.00494 -0.358561 0.406165 0.706964
1845 1 18.0885 20.7966 24.035 -1.65798 -5.06927 3.23594 -0.599996 0.141653 0.463346
1846 1 19.8868 18.7481 28.5259 1.50601 2.88974 -2.32842 -0.926788 -0.322803 0.136703
1847 1 19.2105 23.0125 21.9253 6.32719 4.79764 -1.12949 3.59109 1.49571 2.08986
1848 3 17.6414 18.9593 28.0663 1.20252 -0.869922 1.11584 -0.95301 0.48503 -0.922808
1849 3 18.7285 19.4048 25.4523 -1.17723 0.835076 -4.46536 -0.263285 0.12134 0.0160955
1850 2 19.4513 20.6711 30.9778 -1.23507 -0.0967478 4.0657 0.207026 0.77533 -0.3147
1851 2 19.1956 20.0312 21.6964 -0.492968 -3.13835 -2.37851 0.974561 -1.50643 -1.29038
1852 1 17.0708 24.7369 20.0548 1.50833 -7.20126 -0.337025 3.08117 1.70496 -3.13415
1853 3 17.4837 20.0936 18.573 -0.283932 -3.2047 -0.676528 1.76985 -0.598797 -0.313375
1854 1 19.1658 23.2832 25.2612 0.490438 -2.40078 3.58017 -1.04277 -0.875015 0.91367
1855 1 16.7341 23.4144 23.6445 0.252487 -11.3944 -16.654 4.76288 -3.64435 -7.2387
1856 3 12.0426 26.4526 23.6891 -11.6178 6.9234 -6.78208 -3.64475 1.01658 12.255
1857 3 16.8877 28.3731 18.4294 -0.968357 -2.25526 3.34487 -0.435056 1.85383 -0.741588
1858 1 18.3542 22.8101 29.0517 0.672999 3.64298 0.257472 -2.80073 -2.51625 2.38332
1859 3 17.9555 23.1332 20.5588 -0.0471313 -3.55264 -2.19249 0.00282237 -0.660877 -3.10117
1860 1 18.2479 22.2386 32.3623 3.47306 2.09503 4.60225 3.23048 -0.174978 1.80382
1861 1 12.9984 24.5552 24.9001 -1.0104 -0.830098 1.55372 1.70831 -0.478375 3.58782
1862 3 13.3474 32.2766 24.1034 1.24189 -1.70067 0.818444 1.35975 4.19227 4.90568
1863 2 16.1933 29.8343 17.2001 7.51538 -3.04805 -0.0223056 -14.7223 4.16545 9.75805
1864 1 11.0051 31.5659 14.7187 -2.60261 12.2225 1.28722 -0.429752 -0.832725 0.739806
1865 1 11.9834 28.9126 15.9449 -8.1634 -11.2143 2.17236 -0.361192 -3.2321 -0.430738
1866 3 16.2598 30.9235 25.9096 7.2881 4.86548 2.45742 -1.26819 -0.987727 2.78631
1867 1 7.14938 21.7513 17.8462 -1.03423 -4.63635 -4.3864 -1.55588 0.70194 -1.20227
1868 1 11.2734 17.2405 23.2617 3.50667 -15.0419 -7.97236 1.56656 -1.10882 3.14301
1869 3 15.9909 27.4063 21.8989 4.22717 48.9848 -42.1479 0.816548 -3.22488 19.6177
1870 2 13.9774 30.0184 20.7961 -13.725 6.30579 -6.87545 0.634013 -0.465263 -0.528806
1871 1 14.1837 23.5845 13.5528 1.40232 1.02884 3.11176 -0.0504817 2.1646 -1.79932
1872 3 14.7613 30.2912 18.7286 0.788016 3.43257 -7.42211 1.33791 2.84291 0.741685
1873 1 10.9775 31.6136 21.6271 5.35318 11.2825 0.208343 -1.44768 -0.902912 10.8336
1874 1 13.36 32.1003 28.1484 -3.61971 -1.17789 1.57819 -3.46175 4.36959 3.44965
1875 1 26.5571 1.40776 26.3805 -1.83261 -3.23057 1.98996 -0.159769 -1.30457 1.46609
1876 3 29.5404 1.27966 24.6861 1.61935 3.58035 -5.93702 0.971109 -3.89928 -0.279802
1877 3 13.2678 31.9427 20.9482 -3.83494 5.72579 1.03722 -0.468362 1.85937 -2.44085
1878 1 13.0822 31.9909 35.0501 -2.34793 -1.1946 1.05611 -1.5241 -0.598001 1.43095
1879 2 32.7552 1.48567 21.4203 -1.9601 -0.823274 -1.81235 0.649861 0.315228 0.530017
1880 1 31.3315 2.2237 19.6008 0.488702 -2.34314 0.00412451 -0.407134 -0.172488 0.229098
1881 3 32.9002 1.45606 18.3102 -0.667667 1.22226 2.36845 0.366522 -0.0400747 -0.641998
1882 3 31.2392 1.58515 27.1499 1.65822 6.86443 -6.74694 0.121851 0.830151 -2.86444
1883 2 32.5882 3.17062 30.8936 2.73575 1.19708 3.48246 0.477043 -0.409064 0.127141
1884 2 29.5078 2.9358 21.6431 -0.56185 -0.675367 -0.168594 0.0786847 0.135561 -0.0372569
1885 1 30.3891 5.16283 21.0146 -1.93238 0.28877 0.960567 1.11422 0.165636 -0.443702
1886 3 31.1352 4.10287 18.9217 3.70701 1.20669 0.410708 0.401979 -0.095994 0.252507
1887 1 28.904 4.99703 23.2528 0.55867 -0.224114 -1.21022 0.0597118 0.31276 0.227943
1888 1 30.9934 3.67533 27.6141 1.37251 -1.01734 -0.201393 0.158502 -0.0791085 0.047458
1889 1 28.2882 5.68535 26.1439 -0.017074 0.110044 -0.217652 -0.127725 -0.0129105 -0.022557
1890 3 30.0808 4.59705 25.8895 0.868055 -0.757761 -0.679159 -0.477507 -0.495717 -0.31478
1891 2 27.9078 5.73216 21.1579 -0.499131 -0.230113 0.675982 0.0522656 -0.0244832 -0.0340549
1892 1 28.9507 7.1805 19.0987 -0.172456 0.455281 0.448738 -0.126135 0.331955 0.0483597
1893 1 27.769 7.35362 23.6108 -0.0378606 -1.44773 -0.323366 -0.158871 0.0789898 0.0360835
1894 1 29.7404 6.25601 28.8131 -0.184497 0.61456 0.249772 -0.0081715 0.00147529 0.0480501
1895 1 26.373 8.06814 26.15 0.0105017 -0.0555178 -0.505104 0.416027 -0.0245441 -0.297669
1896 3 28.2035 7.32131 27.3604 -2.49303 0.237339 1.87442 0.117431 0.489391 0.346044
1897 3 29.4267 6.47389 24.9409 0.839111 0.0781499 0.769664 -0.139757 0.0782702 -0.138282
1898 3 27.9326 8.91607 18.522 2.77764 -3.08707 -0.508342 -0.38717 -0.209771 0.33083
1899 1 24.8378 10.7509 26.0839 0.599604 1.10247 0.693427 -0.139633 -0.459342 -0.148696
1900 3 28.1309 8.6694 24.9508 0.385734 0.756016 -0.863373 -0.142331 0.103396 0.175477
1901 1 26.1842 8.21858 35.0294 0.668604 0.158713 -0.0357876 0.002827 0.0275564 -0.10295
1902 3 26.2543 11.9689 18.2472 5.00222 -1.90176 -0.30313 0.296443 -0.0619789 -0.0239752
1903 1 24.7579 12.7945 23.6435 0.864665 -0.737299 0.363681 -0.221129 -0.365355 -0.00215612
1904 1 23.0459 13.5517 26.1147 0.315681 -0.794978 -0.248781 -0.331405 0.341239 -0.396505
1905 3 26.1693 11.5892 24.6098 0.640095 1.32104 -0.2479 -0.0743594 -0.374347 -0.0283408
1906 2 26.8042 14.5965 31.0106 -1.89267 -2.87774 0.629234 0.258528 0.307744 -0.0373881
1907 2 23.2292 13.9738 21.6338 -0.471912 0.53281 0.366068 -0.00134262 0.124665 0.28779
1908 1 23.577 15.5243 19.6853 -1.06511 -1.03696 -1.22954 0.329853 -0.17666 -0.203523
1909 1 23.0922 15.4028 23.6849 0.822023 0.236128 1.26206 -0.122359 0.0248346 0.259856
1910 3 24.6583 14.5331 24.779 -3.53954 0.690383 0.612272 -0.320127 -0.0476117 -7.44927e-06
1911 2 24.36 15.5822 30.7883 -0.768912 -0.373687 -0.0936013 0.104399 -0.109788 0.00959846
1912 1 24.6374 14.298 32.9843 0.10237 1.17446 0.297451 -0.0195026 -0.45168 -0.101904
1913 3 23.5814 15.6333 33.982 -0.553317 0.252983 0.188516 0.0447764 -0.0218767 -0.000565368
1914 2 21.8278 16.3007 21.6628 0.951238 -0.685106 0.0725299 0.371235 -0.28555 -0.493407
1915 1 21.9032 18.3997 20.2351 -1.11786 2.3652 -2.37376 -0.54839 0.387078 -0.496565
1916 3 23.0506 17.5026 18.9519 3.20047 -1.29953 -1.37267 0.293394 0.149396 -0.864267
1917 1 21.8571 18.2878 23.3439 -1.05857 0.889723 1.9482 0.335304 -0.0326099 0.515036
1918 1 20.5489 18.9408 25.8416 -1.94841 1.90344 -0.258142 1.08283 -1.13904 0.106159
1919 1 22.1361 15.5792 35.214 -0.111092 0.513258 -0.206573 0.250793 -0.132076 0.0408036
1920 2 24.0451 18.6795 30.4019 0.803304 -0.310261 -0.0957283 -0.101576 0.0298903 -0.082169
1921 1 23.374 17.1532 32.4672 -0.109476 0.990997 -0.54258 -0.101512 0.250834 -0.357263
1922 1 21.224 21.1776 19.9103 -2.60271 -2.92662 1.93481 0.738358 -0.881037 -0.0720334
1923 3 21.8004 19.7716 18.4491 0.40053 -1.26936 1.59882 0.287688 -1.03592 -0.119264
1924 1 22.6964 19.9123 28.2544 0.368101 -0.463362 0.179972 -0.0628273 0.0236363 -0.203474
1925 3 20.5154 20.5146 27.4629 0.23505 0.191667 0.419908 0.433128 0.182294 -0.0982315
1926 3 21.535 20.4453 24.3194 0.509512 -0.263038 0.499997 0.08682 0.222845 0.378033
1927 2 22.9534 21.3594 30.7942 1.49169 -0.423568 0.0653978 -0.228133 -0.00587685 0.0968642
1928 1 19.7014 23.3945 19.7836 -3.06579 -1.95142 3.00733 0.0639146 0.540765 -2.38081
1929 3 20.1391 22.1665 18.2568 0.277612 -4.41283 7.27919 0.0883826 0.624579 0.0759694
1930 1 20.9912 21.9087 29.2627 -1.28235 0.217922 0.285804 -0.214942 -0.114361 -0.64017
1931 2 21.8706 24.1536 30.5046 -0.128415 2.19861 0.953819 0.406796 -0.191193 -0.177527
1932 1 21.1434 22.3562 32.5192 0.267488 0.308769 1.30587 0.45561 -0.246334 -0.184549
1933 3 19.5834 23.0672 33.5238 -0.735296 2.18157 -0.56273 0.240827 1.20249 -0.0757755
1934 3 18.7564 25.1648 18.6306 -1.54513 -1.0326 -2.09191 -1.02978 -0.205345 1.64713
1935 1 20.074 24.764 28.7235 -0.016069 3.44675 -0.953601 1.12531 -0.365374 0.405077
1936 1 12.0814 22.6846 17.5315 -0.295841 -1.17475 -6.67491 1.04187 2.12362 -0.424704
1937 3 19.404 26.5793 28.0242 -0.282273 4.73315 6.98778 -0.800465 0.550149 -0.890283
1938 1 18.4918 24.3282 34.8707 3.54779 -3.94266 -1.40232 -1.34395 -1.18318 -0.0760151
1939 2 21.2842 27.2624 31.2874 -2.91603 -6.25626 -4.50394 0.30398 -0.00785349 -0.417125
1940 1 19.8116 25.0363 31.8539 1.03023 -3.36808 1.13231 -0.0803048 1.20349 -0.154426
1941 3 19.0299 26.3529 33.2972 6.91689 -4.68213 0.0298755 -4.91559 -2.20215 -0.741512
1942 1 16.8541 30.2229 24.2701 -1.0436 -6.34581 -1.01418 0.280203 -0.200382 -0.350877
1943 1 19.3162 28.6812 29.3116 -0.220249 0.132178 2.10733 -0.288378 0.383235 0.44094
1944 1 34.041 0.415349 25.5124 2.95691 -5.44758 4.2977 0.140732 0.177806 -0.121754
1945 3 17.4915 29.3547 28.6818 -1.61651 6.60481 -2.94254 0.0945382 -9.11342e-06 -0.529105
1946 3 18.0873 28.8337 25.2854 5.39549 -7.0562 1.27662 -1.37527 -0.0174209 0.042107
1947 1 7.12449 22.2349 22.9893 4.65719 -9.21629 -1.62771 1.25355 -2.08371 -4.88456
1948 1 18.8975 28.3738 32.1339 -6.93814 1.5217 1.64599 -1.27062 0.482835 -0.500956
1949 3 14.4777 31.4954 31.5193 -3.91065 1.16132 0.98707 -0.186177 -2.22659 1.66744
1950 2 16.4999 29.8519 19.7455 -4.98736 9.34524 -2.65431 0.940413 0.0694417 1.49528
1951 1 14.8759 32.1178 19.7159 2.37394 -1.04732 -5.36015 -1.28176 -0.701855 -0.470223
1952 1 15.0205 31.6554 22.4051 4.5083 -1.54807 -0.100971 0.640533 1.26311 -0.212807
1953 1 31.3879 1.82777 24.9266 3.70994 -0.147993 -0.0310723 0.339841 -0.0970676 1.13486
1954 3 16.2699 32.2643 23.8043 -0.235339 -2.14511 5.56497 0.361575 0.0343919 0.583952
1955 1 15.8117 30.2966 29.8387 -0.604173 -1.41281 1.17302 -0.0369786 0.788632 -2.14383
1956 1 16.3959 31.7943 32.0222 -2.0837 -6.25277 1.1268 -0.788606 -0.819712 -0.906587
1957 1 34.7705 1.8179 19.2341 -3.04886 -4.00244 0.595991 -0.295178 0.331637 0.112216
1958 3 35.5751 1.08664 17.5645 3.31148 2.88438 -4.47655 -1.28644 4.03888 -1.01953
1959 1 34.8203 0.898836 35.212 0.35891 -3.10143 -0.456948 0.246908 -0.621764 0.334378
1960 2 -1.22725 3.25474 30.9901 1.21701 0.853032 -0.937814 0.524617 0.368028 -0.123323
1961 1 36.1953 1.72576 33.1587 -0.0279876 2.2279 0.0166398 -0.0697958 -1.14227 -0.268017
1962 3 33.9357 1.98363 33.5724 -2.44667 3.07845 -2.65886 -0.102523 -0.729824 -0.963489
1963 2 32.0097 3.71836 22.7013 0.0348859 -1.72737 2.39415 -0.150875 -0.58255 0.668497
1964 1 33.2569 4.24823 20.2027 0.641108 0.0466589 -0.950991 -0.261282 -0.206656 0.0129397
1965 3 34.6482 3.62554 18.3766 -1.82746 -3.1994 0.714127 0.881735 0.483095 0.128414
1966 1 34.0396 3.63526 28.9597 -0.374592 -0.0909722 0.72842 -0.295868 -0.198574 -0.260039
1967 1 31.4024 6.03795 25.9856 1.14045 -0.439765 0.967025 0.292532 0.050738 0.0303193
1968 3 32.7269 4.63152 27.4223 -0.928668 -0.925875 -0.0875962 -0.263454 -0.13769 -0.0887849
1969 1 32.8807 3.01528 34.8709 1.13795 -0.278697 -0.183235 -0.640294 0.15774 0.145805
1970 2 33.816 5.52269 30.5629 -0.129653 -0.290161 1.14355 -0.0810075 -0.414681 -0.154522
1971 1 34.2072 3.79123 32.5593 0.511235 -0.0428428 1.61072 -0.0783883 -0.158401 -0.318678
1972 3 32.8519 4.71911 33.8408 2.98315 0.814345 -0.0660745 0.200261 0.356 0.334188
1973 1 32.8061 6.44971 28.3896 0.279157 1.31156 -0.991064 -0.0112511 0.105191 -0.214691
1974 1 29.5544 8.27264 26.2127 0.156113 -0.017285 -0.37597 0.0566631 -0.0740107 -0.0450155
1975 3 30.8819 7.2301 27.5236 -1.00672 -0.147025 0.214355 0.510873 0.717033 -0.0937766
1976 1 31.2003 5.44494 34.9271 -0.652895 -0.11978 -0.124353 -0.222748 -0.0526374 -0.44666
1977 2 31.4526 7.35194 30.6485 2.49391 0.211833 -0.213466 -0.176955 0.0284737 -0.136986
1978 1 32.644 6.27002 32.619 -0.441115 2.33951 0.0469147 -0.121355 0.0496647 -0.0576613
1979 3 31.3753 7.27953 33.8398 0.742265 1.73106 0.0128111 0.159635 0.268197 -0.0460552
1980 2 29.6613 8.02854 21.5913 -3.95474 -0.100808 0.389576 -0.475455 -0.0293053 0.00307863
1981 1 29.0213 10.1723 20.2019 0.30638 -0.285585 0.655493 -0.252025 -0.149261 0.249728
1982 1 28.9987 10.1793 23.5912 0.524964 -0.19707 -0.0730867 -0.0162711 -0.121474 0.193225
1983 1 31.4328 9.14793 28.6366 0.305899 -0.251498 0.66897 -0.128717 0.0294646 -0.138275
1984 3 29.8977 9.8533 27.4629 0.469205 -0.367427 -0.161306 -0.0793453 0.108758 -0.00298708
1985 3 30.4657 9.88456 24.9755 -0.964975 0.548686 -0.0517653 -0.159737 0.18633 -0.0784341
1986 1 29.8678 8.05195 34.8822 -2.49236 -1.598 -1.65409 0.106164 0.128245 0.122074
1987 2 30.9439 10.228 31.02 5.74369 1.43036 -0.307055 -0.588063 -0.0570081 0.00910235
1988 1 31.9282 9.1629 32.9906 -0.0291414 0.774828 -1.05889 -0.0196531 0.0409073 0.0155496
1989 3 30.0592 10.0613 34.158 -0.133239 -0.0474037 0.146785 0.0360702 0.0533725 -0.0215902
1990 1 27.7104 12.8239 19.5945 0.0765862 1.08063 0.251601 0.263992 0.309977 -0.222839
1991 3 29.4655 11.697 18.5824 -1.70126 -2.57835 -0.735081 0.176327 -0.265503 0.0343486
1992 1 -6.8075 12.1126 29.5591 0.358187 -0.271464 -0.0638361 -0.0757527 0.0917305 0.0833771
1993 1 28.1266 10.8361 35.2306 -0.213124 -0.159446 0.0202899 -0.280327 0.095093 -0.0309794
1994 2 -7.52797 14.1476 31.0379 -0.397261 -0.802031 0.123836 0.0441946 0.0540648 0.0182587
1995 1 30.0016 11.8073 32.8782 0.170957 -0.0539336 1.36886 -0.0126575 0.0375046 -0.294529
1996 3 28.2944 12.4594 33.8244 -0.0332303 -0.514943 -0.104478 0.0534612 0.128793 0.0116961
1997 2 25.9028 13.4866 21.2406 0.294965 0.216804 0.256115 -0.135153 -0.057172 -0.0362285
1998 1 26.6279 15.6138 19.988 -4.38724e-05 0.0315304 0.658543 -0.115098 -0.0183985 -0.222997
1999 1 26.2589 14.9746 23.1826 0.237784 0.905216 -0.957988 -0.0190579 -0.261117 0.0272568
2000 2 -8.80309 16.7599 31.5316 -0.69639 -2.01651 -0.346557 0.0639762 0.227371 0.090906
2001 1 28.2297 14.6389 33.0754 0.104801 0.253367 -0.126159 0.0463791 -0.0450347 0.0868495
2002 3 26.1579 15.2446 34.0712 0.464543 1.29088 2.31074 -0.0527003 -0.181836 -0.208173
2003 2 24.8726 16.3984 21.7205 -0.467664 -0.330183 -0.359877 -0.160792 -0.158006 -0.134909
2004 1 25.0805 18.1858 19.6803 1.80852 0.685746 -0.197082 0.470808 -0.304243 0.196193
2005 1 24.9747 17.9232 23.8589 0.551815 0.04508 -0.24989 -0.0780089 0.140397 0.048528
2006 1 24.814 16.4766 35.1931 -0.0235403 -0.0972973 0.0684542 0.0366952 -0.0104114 -0.123702
2007 2 -10.5786 18.865 31.0783 -0.84739 -0.509146 0.386866 -0.0145875 0.0183929 0.193748
2008 1 26.1138 16.6882 32.3663 -0.202331 -1.09612 -1.26079 0.207314 0.189205 0.290258
2009 3 24.7777 17.7626 33.7376 -0.0795058 -0.843039 0.987491 0.0709343 0.0682728 -0.0548643
2010 2 23.7835 18.9819 21.8242 -0.373431 -0.253924 -0.259097 -0.0281316 0.012439 -0.0603189
2011 3 25.2259 19.9004 18.4821 0.277554 1.96764 -0.705249 -0.424167 -0.193706 0.0524322
2012 1 23.4007 20.9237 23.5258 -0.756998 -0.960951 -1.28107 0.0798735 -0.419283 -0.410406
2013 1 25.1108 20.7911 29.46 -0.587956 0.107473 0.264829 0.0903888 0.0204975 0.0996281
2014 1 21.8559 21.7661 26.2839 0.474672 0.657777 0.657737 0.42685 -0.98554 -0.142558
2015 3 23.5905 21.6128 27.6653 0.566907 -0.548869 -0.404299 0.0417477 -0.0803665 -0.123812
2016 2 -11.7247 20.8878 31.9738 -2.16037 -1.31165 -0.551492 0.300403 0.0789949 0.112797
2017 1 25.8479 19.3457 33.8198 -2.60987 0.425243 1.61406 0.0633175 -0.02699 0.112082
2018 3 23.7665 20.1327 34.7305 1.19699 -2.59705 -2.16115 0.160364 -0.239029 -0.189646
2019 3 23.2807 22.0036 19.0401 0.686682 2.30614 1.11748 0.0892534 -0.0255366 -0.235341
2020 1 -13.1555 23.2117 28.9066 -1.67125 0.330147 0.356855 -0.165709 0.0245056 0.158878
2021 1 21.1361 24.1148 26.1459 0.767774 -2.00898 -0.371801 -0.121467 0.287207 -0.778699
2022 3 23.821 22.0605 25.1335 0.383548 -0.591287 0.275093 0.130025 -0.0347742 0.0151783
2023 1 23.5446 21.6527 33.2966 0.578798 0.484105 -0.297175 0.134139 -0.123016 0.187133
2024 3 21.8231 23.3035 34.1972 0.320841 1.36513 1.19048 0.202835 -0.140243 -0.0685088
2025 2 21.8603 22.6794 21.8026 0.871403 0.365025 0.478782 0.142478 -0.163045 -0.158552
2026 1 21.5781 24.9851 20.6995 -0.525407 0.435175 0.794842 1.16829 -0.371875 -0.100523
2027 3 22.4097 25.24 18.541 0.946101 0.946093 -4.18719 -0.216811 -0.0888458 0.00388302
2028 1 20.6206 26.3006 23.7228 -0.797395 5.97656 1.72019 -1.42529 -1.23876 2.1538
2029 1 20.7989 27.5591 27.0248 2.20818 -1.78497 2.01809 0.465422 -0.341634 0.967822
2030 3 21.609 25.4256 27.403 0.799719 -0.841534 -0.611426 0.196034 -0.525332 0.146523
2031 3 22.0029 24.8749 24.6467 -1.01018 0.145254 0.0619088 -0.142271 0.0325811 0.0112723
2032 1 22.1005 25.4788 32.8212 0.0543313 0.101682 -0.862169 0.0804943 0.0921857 0.0705771
2033 2 19.7968 27.4826 21.5025 4.45166 1.62864 -1.01375 5.04065 1.6085 0.367673
2034 1 19.0721 29.9382 21.0011 2.68164 2.46823 -1.45555 1.57555 2.38583 -1.31521
2035 1 19.3884 29.3785 23.7078 0.244646 3.51295 -0.559854 1.17556 0.851136 0.367081
2036 1 18.1842 30.3338 26.7407 -3.24097 4.5697 1.45396 0.105961 -0.282263 -0.997526
2037 3 20.1208 29.6385 27.7282 -1.87397 0.130563 -1.22067 -0.0877689 0.305172 0.210644
2038 3 20.0302 27.6432 25.0489 -3.77931 -0.357134 -0.452218 -0.0985325 -0.26997 0.621256
2039 2 -17.0575 30.2835 30.8669 -0.337183 -0.239938 0.089783 0.449806 -0.0945695 0.152622
2040 3 19.3077 29.9317 33.8832 -2.44995 0.276084 -0.85064 1.87693 -0.377958 -0.565487
2041 2 17.5445 28.6167 22.1273 -20.1651 -1.41017 7.42088 -4.71337 -6.39819 -2.06444
2042 3 19.5424 30.55 18.9943 3.32427 -5.74098 -3.09837 -0.2041 -0.169777 0.500427
2043 1 36.6713 0.308311 23.2428 0.190305 0.305445 0.212462 0.662454 -0.388071 0.111377
2044 3 18.9786 31.0551 24.6862 -0.366203 2.17626 -1.19058 -0.067818 0.603466 0.11846
2045 1 17.8551 30.4943 35.2064 -0.162467 -3.14402 -2.16667 2.38252 1.73915 0.112103
2046 2 -0.301335 0.565817 30.8182 -0.0685103 2.47333 0.961998 0.0186642 0.302463 -0.468624
2047 1 -18.1897 31.5918 32.9043 1.46561 -3.50343 -2.33614 -0.140124 1.30663 -0.6633
2048 3 17.0017 31.8907 33.8572 1.86427 -2.22685 5.28174 0.130676 0.309541 0.478482
2049 2 1.1253 0.895265 38.8156 -0.327206 -0.785035 0.0908919 -0.0970539 0.366555 -0.602866
2050 1 0.514091 2.04555 36.4727 -0.444131 -0.311531 -0.844594 0.349226 -0.172369 -0.221265
2051 1 0.128593 2.49692 40.801 0.704336 0.549286 0.197762 -0.486447 -0.721298 -0.237572
2052 1 35.3413 3.17433 43.2038 0.501383 -2.43419 -0.24957 0.288933 0.370306 -0.912635
2053 1 -0.927065 4.46342 36.3414 -0.0324409 -0.223659 0.0965066 -0.452217 0.356091 0.242254
2054 1 0.152682 3.41733 46.2292 -1.66009 -0.53857 -0.945306 0.0124393 -0.0195949 -0.428369
2055 1 -2.85551 5.70488 42.8703 4.01176 -2.4504 -0.866818 0.834434 -0.320688 -0.54624
2056 3 -1.24652 4.66795 44.5193 1.43294 3.74514 1.40861 -0.324524 0.0785707 -0.650473
2057 1 -2.85111 6.74523 37.4659 -0.250677 -0.842212 -1.39488 -0.123718 0.0251501 -0.241529
2058 3 -1.64993 6.32789 36.0699 0.517765 -1.42078 0.891507 0.416234 -0.134378 0.326702
2059 1 -0.58107 6.1934 45.896 -0.229669 -4.01414 -3.69635 -0.123863 0.51317 0.144408
2060 2 -1.89088 8.21095 46.4175 0.239538 1.42902 0.168548 0.0524533 -0.59611 -0.536102
2061 3 -2.94821 8.77515 35.9788 -0.504597 -0.54898 -0.184212 -0.437478 -0.278565 -0.398692
2062 1 30.8693 10.7147 43.0028 0.439089 0.0256141 0.234642 0.00834844 0.0194043 -0.221416
2063 3 -2.9347 8.0603 43.0797 0.336266 -0.317378 -0.123946 0.0588935 -0.0152357 -0.00279551
2064 1 -3.80077 8.99137 47.6572 0.0330144 -0.631045 0.853311 -0.186383 -0.256688 -0.410484
2065 3 -4.52901 11.9565 35.6672 0.190097 -0.0484072 -0.0712884 0.0508891 0.00293055 -0.0273915
2066 1 29.3923 13.1258 42.66 0.142795 -0.128838 0.00674064 0.192404 -0.0772357 -0.0977431
2067 3 -6.48702 12.5205 43.8018 -1.07338 0.353948 2.16618 -0.603336 -0.0712508 -0.11562
2068 3 -4.7556 11.0163 41.8759 -0.337693 -1.31462 0.467639 0.0473631 -0.0259473 -0.308092
2069 2 -3.70433 12.4733 46.6347 -0.510118 0.19801 0.50787 0.208246 -0.295817 0.0478168
2070 1 -5.20659 12.347 48.4692 -0.788988 -0.387906 0.405237 -0.120629 0.119063 -0.187274
2071 2 -6.78181 13.3133 39.1895 0.792868 2.5679 0.0575506 0.0469022 0.221528 -0.173328
2072 1 -7.56541 15.0199 37.5138 -0.53566 -0.455838 0.474576 0.0800908 0.0698913 -0.106347
2073 3 -6.35415 14.7202 35.4201 -0.193373 -0.277933 -0.1242 0.0279156 0.0624853 -0.0905651
2074 1 -7.25407 15.3912 40.9698 -0.626407 -0.214719 1.11899 -0.220675 -0.396987 -0.186159
2075 1 -9.04724 16.0457 43.8699 -1.04956 -0.392459 1.68783 0.148557 0.0407351 -0.100054
2076 3 -6.03129 14.2713 42.6421 -1.01038 -1.33709 -0.440785 -0.234751 -0.361565 -0.484571
2077 2 28.0325 15.4779 39.284 -0.395301 1.04474 0.25098 -0.0430345 0.158757 0.0136317
2078 1 -9.3438 17.6189 37.5729 0.371651 0.672699 0.251047 -0.158642 -0.13029 -0.0692504
2079 1 -9.19553 17.5164 41.0452 1.83026 0.501597 -0.258319 0.270978 0.190626 -0.153746
2080 1 -7.50007 17.3789 45.0482 -0.539512 1.09666 -0.193087 0.172438 -0.468396 0.333119
2081 1 26.4002 18.498 42.9946 0.201621 -0.596757 -0.402671 -0.116927 0.0392752 -0.205412
2082 3 -9.41437 18.0262 44.3689 -2.13258 -0.0812845 -2.75547 0.266352 -0.183939 -0.803551
2083 2 -8.4076 18.3477 47.3315 -6.70218 4.24905 -14.6471 -0.846688 0.590332 -2.10228
2084 2 -10.6984 18.5474 39.4096 -0.32372 -0.135211 0.167525 0.1975 -0.223763 -0.132322
2085 1 -11.1469 20.4197 37.7709 0.177733 -0.701973 -0.142631 0.127688 0.494404 0.0331987
2086 1 -10.8621 20.5403 41.0065 -0.963604 1.53082 1.74229 0.304773 -1.13115 -0.73105
2087 1 -9.38608 20.0519 45.3133 -0.866957 -0.510129 -3.58044 0.271511 0.279452 0.585302
2088 1 -11.9497 21.6002 43.608 -0.376122 -0.234835 0.0223637 0.0151244 0.00675991 -0.213528
2089 3 -11.0775 19.9584 44.2674 -0.196454 -0.107398 1.36818 0.0340299 0.0243048 -0.170652
2090 3 -9.24463 19.2762 42.1955 0.502413 0.541048 -0.207044 0.23006 -0.484975 -0.435366
2091 2 -9.48638 22.6467 46.5925 -0.0347705 -0.891177 0.546862 0.0105866 -0.0397832 -0.0719722
2092 1 -8.61045 20.818 47.9821 -0.608572 0.0211068 0.469579 -0.0694192 -0.110422 -0.258524
2093 2 24.32 21.5622 39.17 0.377175 0.301419 -0.674123 -0.231467 -0.283037 0.0423659
2094 1 -12.549 23.1279 37.3545 1.37825 -0.0459391 -2.61066 1.17927 0.854139 -0.669995
2095 3 -10.839 22.2453 36.5001 1.47831 0.662404 1.08647 -0.0138122 -0.178639 0.0740168
2096 1 -12.0346 23.1541 40.9075 -1.43315 0.663283 -0.290084 0.109334 0.199879 -0.119364
2097 1 -13.4699 23.8842 43.157 2.43298 -2.10451 -0.268696 -0.227016 0.318827 -0.0921232
2098 3 -11.7006 23.3154 44.3975 -0.451367 -0.760874 0.523947 0.0344996 -5.72574e-05 -0.0706669
2099 3 -10.8933 22.2283 42.1513 -2.888 -1.48508 -4.05552 0.256904 -0.0431386 -0.129206
2100 2 -13.6943 24.0999 39.5047 -0.308524 0.408773 0.505088 -0.0823645 -0.351659 0.729805
2101 3 -12.4508 25.023 36.3061 -0.39131 -0.802076 -1.8555 0.0946349 0.119534 0.0968355
2102 1 -13.8219 25.8668 41.2039 2.39987 2.3766 -0.00389866 0.24384 0.0976422 0.229639
2103 3 -12.0515 25.0527 42.3169 -0.810974 -0.849078 0.155907 0.419341 -0.100613 -0.244581
2104 1 -11.6586 24.8899 48.7928 -0.0505552 -0.107752 0.655749 0.0713458 0.349827 -0.203694
2105 2 -14.174 26.6601 38.8915 -1.45496 -2.36945 2.36324 -0.221791 -0.0873673 0.0978203
2106 1 -14.7109 28.7627 37.6531 -0.414412 1.73547 -1.37835 -0.272497 0.120492 -0.14577
2107 1 -15.3618 28.0663 40.8206 -0.886908 -0.491431 0.81921 -0.357022 0.186267 -0.0462961
2108 1 -12.8968 27.2708 48.503 0.368517 0.0198509 0.55495 -0.551512 -0.357385 -0.320677
2109 2 -16.0092 30.0467 39.405 1.14541 -0.062717 0.492789 -0.1867 -0.034633 -0.0656321
2110 1 -16.5773 31.44 37.1017 0.243806 -1.04151 0.121046 0.0950646 0.252954 -0.10282
2111 1 -16.5809 32.0077 41.0706 -0.191784 0.437658 -0.121191 0.266692 0.864413 0.205057
2112 1 0.336236 0.676776 43.0378 -0.0181226 0.925181 0.531004 0.187176 0.540183 0.0597415
2113 2 -15.7575 31.9109 46.6812 -0.290117 0.988463 -0.12379 -0.0667047 0.0788486 -0.0890705
2114 1 -14.203 30.2513 48.5751 -0.247694 -0.11776 0.429006 0.00650706 -0.0606515 -0.280246
2115 2 3.67558 0.102076 39.09 4.10796 3.16976 2.05239 0.216736 0.250461 0.0771494
2116 1 3.20652 1.94092 37.4979 0.210702 -1.04714 -0.454463 -0.0898575 0.553228 0.611704
2117 1 3.0039 2.24459 40.451 -0.110293 -0.45318 0.0880112 0.214294 0.164927 0.100749
2118 1 4.3188 1.58123 46.1535 0.302615 0.221777 -0.31006 -0.00808544 0.214881 -0.224909
2119 2 4.97605 3.19565 47.9904 -0.0207343 -1.67101 0.913378 0.000741718 -0.142902 -0.045217
2120 1 3.59117 1.09755 48.5998 0.374688 -0.000923529 0.158242 -0.261158 0.274596 -0.134423
2121 2 1.47665 3.40114 38.5733 1.86257 -0.617479 -0.0308387 -0.292686 0.00891902 -0.0622831
2122 1 1.34139 5.5064 37.2852 1.38908 -1.38537 0.248833 0.233752 -0.0793098 0.0963758
2123 1 1.31369 4.93711 40.4871 -0.68559 -0.419456 -1.05652 0.0377469 0.139259 0.154492
2124 1 3.29987 4.06887 46.2987 0.846816 0.0612254 1.01389 0.315454 0.393106 -1.01552
2125 1 0.304391 4.88559 43.3757 0.962621 -2.33439 -1.12343 0.518178 -0.108869 0.254295
2126 3 1.66322 4.04617 44.8348 0.337476 -0.310641 1.01987 -0.0629906 0.0626255 -0.249653
2127 2 3.49344 6.3782 47.3107 0.142441 0.202369 0.0493928 -0.346537 0.148543 -0.360173
2128 1 4.77303 5.56812 49.2179 -0.574081 0.182346 0.406962 -0.142622 -0.116357 0.178366
2129 2 -0.702371 5.71264 39.0734 -5.7108 -2.08475 2.46504 -0.303827 -0.0582109 0.0259587
2130 1 -0.379377 7.5452 37.4115 -0.77318 0.0328769 1.59579 -0.166451 -0.0963993 -0.205349
2131 1 -0.165001 7.92554 40.1905 0.72097 0.107901 0.3661 -0.256302 0.490544 -0.464492
2132 1 2.04162 6.12854 45.2227 -0.764253 -0.315494 -0.386654 -0.32341 0.232176 -0.0882313
2133 1 -1.0716 7.44597 43.1536 0.324768 0.112958 -0.0788753 -0.00310963 -0.0480373 -0.0276677
2134 3 0.45167 6.81902 44.1834 0.0558313 -0.0304688 -0.145546 0.119851 0.119328 0.119113
2135 3 2.62205 5.84313 41.8787 0.117446 -0.202455 -0.143505 -0.190114 -0.0494749 -0.174903
2136 2 1.31968 7.75115 47.1043 0.194383 -0.694648 -0.637022 0.192676 0.0182224 -0.252885
2137 1 1.58172 6.28069 48.9512 -0.113982 -0.129543 -0.723296 0.224883 -0.245195 -0.259019
2138 2 -2.51097 8.40991 39.2991 -0.547622 0.597755 -0.0334175 0.000870973 0.141067 -0.124723
2139 1 -1.86115 9.77604 37.1867 0.139693 0.0552943 0.230301 0.173826 0.155974 0.0127398
2140 3 -0.0618673 8.74045 35.9096 -0.0930455 -1.74377 1.60081 -0.319053 0.370942 -0.882186
2141 1 -2.10378 9.8128 41.7447 -1.52477 -5.51873 -6.69621 -0.302423 -0.643791 -0.765661
2142 1 0.246048 8.75195 45.341 0.252246 0.199449 0.108227 0.447382 0.137083 -0.253657
2143 3 -0.213925 8.95549 42.1844 -3.13964 4.28921 11.0825 0.556704 -0.777765 -1.66693
2144 1 -0.484834 9.20168 48.0498 -0.865464 -1.6524 -1.49313 -0.340698 0.41056 -0.157761
2145 3 -1.67933 11.4418 36.026 -0.694725 -0.312815 1.34456 0.0619743 0.0279592 -0.156268
2146 1 -4.5607 12.5786 43.1311 0.897868 -0.825252 0.594734 0.020104 -0.0565746 0.0521146
2147 3 -1.95511 11.1261 43.1457 1.3114 2.6892 -0.569978 -0.562395 -0.430717 0.072843
2148 2 -1.12519 12.5198 47.0189 0.0564826 0.33156 -0.421581 -0.0294795 -0.121043 0.0808293
2149 1 -2.50981 11.37 48.5949 0.264917 0.366891 -0.0156185 -0.183534 -0.119559 0.0781267
2150 2 -4.53365 12.6539 38.777 -0.182411 -2.97775 0.765467 -0.0146781 -0.310327 0.0509981
2151 1 -4.8351 14.8216 37.0024 0.763263 0.320417 -0.0585076 -0.210605 -0.0131482 -0.110113
2152 3 -3.27369 14.4389 35.7345 0.730756 -0.999062 -0.170153 -0.262023 0.0178967 0.254552
2153 1 -4.86916 14.2436 40.6835 -0.215789 0.400448 -0.246345 -0.524102 -0.371929 -0.0271809
2154 3 -3.56418 14.1274 42.2821 -1.96387 0.270953 0.861598 0.476113 -0.334227 -0.566767
2155 1 -2.69553 14.051 48.3759 0.0622593 0.126733 0.878575 -0.0287767 -0.0722439 -0.324153
2156 2 -5.71197 16.1986 39.1028 0.103078 0.309684 0.584927 -0.0187122 0.00365949 -0.0104296
2157 1 -6.38075 17.7723 37.3012 0.205482 -0.0403997 0.904607 0.121631 -0.0790578 -0.490853
2158 3 -4.85303 16.7047 35.9666 0.162261 0.0144254 0.653542 0.089265 -0.00703349 0.312404
2159 2 -7.74919 18.7137 39.2636 0.340251 0.14236 -0.0694538 0.0604947 -0.0917956 -0.176169
2160 1 -7.82786 20.4497 37.1869 -0.0541573 0.213256 -0.395647 -0.0739168 0.00815257 0.101726
2161 1 -8.05203 20.6776 41.3961 1.4452 0.77783 -0.83515 0.392445 0.319613 -0.56845
2162 1 -6.60204 19.4125 45.9141 -0.762403 0.239458 0.159783 -0.0986676 -0.216237 -0.0959128
2163 2 -6.20396 21.3933 47.917 -0.111459 -0.00777852 -0.437338 -0.0547301 -0.0239125 -0.0206993
2164 1 -6.37608 18.9766 48.5948 0.938465 0.338635 0.81697 0.0901215 0.0562793 -0.03657
2165 2 -9.20022 20.9861 39.1449 0.0263883 -0.139631 0.327235 0.0093528 -0.062697 -0.0899702
2166 1 -9.28814 23.2224 37.3064 0.544539 -0.25974 0.546524 0.220823 -0.101656 0.2705
2167 3 -7.51865 22.4245 36.4457 -1.36515 -2.39789 2.39113 0.0999483 0.0672149 -0.0849223
2168 1 -10.2235 24.0152 42.5933 -2.0465 -0.247448 0.215671 0.248768 -0.335373 0.0660505
2169 1 -7.53769 23.4319 47.8735 -0.781036 -0.711362 -0.0785861 0.173002 -0.0560874 -0.068041
2170 3 -9.10481 24.6739 35.7078 -0.0775072 0.253245 -0.389027 0.0155382 -0.0281741 0.0123485
2171 1 -9.45479 25.3796 46.482 0.157705 -0.118106 0.127456 0.0973502 0.175712 -0.335585
2172 1 -12.0701 26.6258 43.6899 0.0834928 -0.126746 0.0791231 0.260886 -0.243311 0.0318261
2173 3 -11.1104 26.3279 45.4889 0.275546 -0.642582 -0.322469 0.0339026 0.0948694 0.0137965
2174 2 -9.56923 28.9994 47.7463 -0.122117 -0.315278 0.176845 0.122127 -0.0848048 -0.210913
2175 1 -8.70272 26.5226 48.6004 0.215937 0.484724 0.309304 -0.0384917 -0.157517 -0.221283
2176 1 -12.2174 29.1798 37.2488 0.59312 1.09714 -0.774832 -0.0959966 -0.39174 -0.136012
2177 3 -11.2691 27.8122 35.92 -0.140572 0.345195 3.89326 0.0201886 -0.0902739 -0.526856
2178 1 -13.1923 28.5837 42.1987 0.346081 0.423523 -0.55285 -0.225665 -0.255664 -0.0707868
2179 1 -10.9852 28.1981 45.9334 1.9636 -1.2049 0.171193 0.161286 -0.0926204 0.186218
2180 3 -11.011 27.921 42.7082 1.52676 -1.30419 -1.12477 -0.364568 0.0713032 0.371163
2181 1 -10.661 27.9461 49.5462 -0.547617 -0.386816 0.16047 0.209712 -0.00894502 0.0891934
2182 2 -12.9393 28.4795 39.6797 -3.66374 0.137003 -2.09588 -0.349334 -0.00527847 -0.0683558
2183 1 -13.2968 31.7944 37.1836 -0.274597 0.16074 1.48534 0.120837 0.0675491 0.102917
2184 3 -12.541 30.5304 35.7453 -0.619195 -0.199149 0.674959 0.0599211 0.0229971 -0.103985
2185 1 -13.4528 30.7971 40.2986 2.17678 -0.905231 -2.10233 0.137575 -0.147538 -0.290116
2186 1 -12.2029 30.437 45.9761 0.252383 -1.11281 -0.535467 -0.0781493 -0.0746393 -0.283587
2187 3 -12.6078 30.5789 42.3565 -0.273042 -0.0710393 -0.301615 -0.0510875 0.0603088 -0.137453
2188 2 -13.0296 32.2467 47.5912 0.227716 -0.516241 -0.19502 -0.164013 0.136803 -0.0686107
2189 2 6.75807 0.14711 39.0534 0.869194 0.0904432 0.198836 0.114104 0.155514 -0.0514697
2190 1 6.34174 2.07455 37.2305 0.393653 -0.747784 0.53532 0.155004 0.0370426 -0.0466164
2191 1 6.13334 1.88597 40.7225 -0.28511 -0.799892 1.34716 -0.0503133 0.699314 -0.279739
2192 1 7.06814 0.958634 45.7169 0.133946 -0.765001 -0.325949 -0.00478751 -0.118757 -0.099431
2193 3 5.66715 1.87619 44.5328 0.267253 0.357282 -0.056399 -0.0192724 0.0298787 -0.0917131
2194 3 7.16084 0.874878 42.3166 -0.165498 0.0183808 -0.33271 -0.0459008 -0.00200291 -0.112729
2195 2 7.88841 2.31208 47.5722 0.00677222 -0.22766 -0.385787 0.135078 -0.0906897 -0.258737
2196 2 4.90986 3.34268 38.9308 -2.51632 -2.54919 0.967021 0.558481 0.304038 -0.409232
2197 1 4.36676 4.71337 36.8011 -0.132747 0.359646 0.388468 -0.118976 -0.234722 -0.0863861
2198 3 5.70843 3.59687 35.8409 -0.869181 -0.604105 0.291698 -0.204814 -0.0755356 -0.204975
2199 1 4.27534 4.71416 40.9245 0.0531214 -0.343417 -0.103273 0.629999 0.252702 -0.174446
2200 1 6.27314 3.6748 45.7824 0.0901531 -0.15124 0.279786 -0.116881 0.0300543 -0.124304
2201 1 3.08522 4.4992 43.3528 -0.467292 0.97991 0.188376 0.2502 -0.223587 -0.400861
2202 3 4.69238 4.16303 44.5655 -0.145988 -0.694185 0.234358 -0.0572097 -0.0821911 -0.11623
2203 2 6.11932 6.34861 47.365 0.909105 0.987728 1.60571 0.823753 0.485087 -2.11106
2204 1 7.18444 4.43962 48.4845 0.0505217 -0.868699 0.00339273 -0.197566 -0.847384 -0.0438891
2205 2 3.41776 5.76327 38.7888 -0.38716 0.541452 0.564112 -0.0502779 0.14563 -0.168298
2206 3 5.05414 6.34914 36.092 -0.600015 -2.00602 -1.72161 0.291032 -0.125681 0.0535274
2207 1 2.50604 7.2807 40.4862 -1.26869 1.20625 3.2231 -0.49262 0.47003 0.602919
2208 1 4.85576 6.02958 45.1555 -1.15795 0.0246554 -0.204147 0.684341 0.385737 -0.14712
2209 1 1.68691 7.84536 42.9383 -0.919943 0.810993 0.454431 0.0997839 0.421369 0.132684
2210 3 3.31693 6.40382 43.8337 -0.563141 0.420529 -0.185639 -0.0211039 0.083798 0.00808357
2211 2 1.8848 7.77329 38.2159 6.60143 0.988632 -4.7225 0.842702 0.0495125 -0.358805
2212 1 1.17449 10.0696 40.9999 0.0162828 -0.229221 0.163477 -0.0253253 -0.164562 -0.0753021
2213 1 0.0520696 10.612 43.3351 -1.17732 -1.39307 -1.00502 -0.106845 0.381473 0.0206465
2214 3 1.47974 9.80492 44.3709 -1.60791 0.0447682 -0.300566 0.354936 0.086304 0.0201233
2215 3 3.01597 8.8417 41.7728 0.18518 -0.0977666 0.702377 -0.0645592 0.0433549 -0.0780577
2216 1 3.28918 8.82628 47.8529 -0.876325 0.548658 -0.466551 0.289875 -0.147907 -0.0525727
2217 3 1.81444 11.4175 36.4908 0.549982 0.822987 0.586704 0.0363685 0.175732 -0.212117
2218 1 -1.84744 13.1207 42.7645 -0.425786 0.00892543 0.251472 -0.0644827 0.129293 -0.284869
2219 3 -0.429744 12.402 43.9621 -0.339276 2.63314 0.845169 -0.307431 -0.605691 -0.492472
2220 3 1.4944 11.6645 42.357 1.48295 -0.07582 -0.107615 0.0677579 -0.0634699 -0.321058
2221 1 1.28689 11.3814 47.3748 -0.0978546 1.00482 0.218798 -0.0877423 0.0337999 -0.10263
2222 1 -1.67103 14.982 37.5994 1.01157 -0.275468 -1.11122 0.605265 -0.259448 -0.495584
2223 3 0.0596154 14.6159 36.3149 -0.368539 0.207638 0.462615 -0.206343 -0.069408 -0.172476
2224 1 -2.29769 14.858 40.7406 0.672517 0.488906 -0.906784 0.137428 0.549979 -0.590671
2225 1 -0.458211 13.947 45.1563 -1.08541 0.459313 -0.993802 0.0703004 0.0850423 -0.00501092
2226 1 -3.69887 15.969 43.0603 -1.36652 -0.653428 0.849298 0.443782 0.237362 -0.362058
2227 3 -2.23439 14.6705 44.1383 0.105313 -0.744448 1.13808 -0.284196 -0.128931 -0.0913001
2228 3 -0.826298 14.073 41.5101 0.493622 0.414093 -1.02906 -0.0750281 -0.087064 0.0746177
2229 2 -0.627224 15.2801 47.2828 0.824899 0.0608749 0.236615 -0.25086 -0.0809711 -0.152385
2230 1 0.0850844 13.523 48.8336 -0.735092 -0.336584 -0.414719 -0.166461 -0.044285 -0.023687
2231 1 -3.70357 17.3421 37.7723 -1.09127 0.386959 0.163424 -0.429122 -0.157675 0.00504162
2232 3 -2.04024 16.8925 36.9107 -0.318342 -0.553542 -0.736169 -0.0889168 -0.00846529 0.214907
2233 1 -1.98259 16.383 45.4131 0.874285 -0.43626 -0.55594 -0.0576046 0.00538725 -0.267171
2234 3 -3.2156 17.4395 44.3619 -0.323346 -0.394144 -0.512625 -0.0342466 -0.0805134 -0.179138
2235 3 -2.09528 16.7746 41.7567 -0.51173 -0.383275 0.941681 -0.517591 -0.512146 -0.0501958
2236 2 -2.47084 19.5414 47.3254 2.69777 0.455833 1.31018 -0.0879124 0.181852 -0.258422
2237 1 -4.88521 20.4139 37.7075 0.323528 -0.400733 -0.367853 0.0685667 0.29749 -0.223753
2238 3 -3.55287 19.1262 36.6248 -0.782765 0.0754837 0.597993 -0.084706 -0.130223 -0.0611097
2239 1 -3.59639 19.2777 45.1064 2.4739 -1.18673 -0.201044 -0.115991 0.075653 -0.205279
2240 1 -6.83136 21.2936 43.6227 1.42478 -0.209889 -0.274277 -0.147259 0.111295 0.187307
2241 3 -5.37489 19.9826 44.0894 0.630106 -0.31394 -0.107836 -0.104411 -0.0837135 -0.0513766
2242 2 -3.72917 21.8622 47.7526 -0.296801 0.272008 0.882397 -0.0286509 0.0878801 -0.158374
2243 2 -6.48005 21.0074 39.4986 0.622894 0.396867 0.105307 0.0688607 -0.138095 -0.0478403
2244 1 -6.04809 23.3523 37.6117 -0.879771 -0.0707063 -1.50958 -0.155863 -0.114695 -0.302363
2245 3 -4.51925 22.2807 36.6591 1.18217 -0.54196 -0.459196 0.210897 -0.0338924 0.00781104
2246 1 -5.91147 22.9531 40.9651 1.59116 1.03017 1.68169 0.0733516 -0.208551 -0.123893
2247 1 -5.28324 21.5189 45.5811 2.68812 -1.4553 -0.930654 -0.107303 0.0351133 0.390342
2248 3 -5.03221 22.575 42.661 0.583519 -0.806555 -0.396561 -0.0698326 0.156117 -0.304635
2249 1 -4.74336 23.8164 48.7306 0.624222 -0.0890971 1.35189 0.0703174 0.591608 0.512115
2250 1 -7.92741 25.7163 36.9543 1.6998 0.679362 0.229364 0.291059 0.142819 0.0318515
2251 3 -6.4648 24.7829 35.9546 0.36566 -0.16992 -0.474447 0.040536 -0.0365918 -0.059652
2252 1 -9.51005 26.8948 43.9929 0.177306 0.0646092 -0.100077 0.0957326 0.141633 0.132404
2253 3 -7.92529 26.0765 45.2148 -0.500352 0.301433 -0.117451 -0.0637514 -0.00563844 -0.0108254
2254 3 -6.01725 24.5282 42.6027 -0.0963216 -0.0594614 0.0315892 0.111348 -0.0701021 -0.107817
2255 2 -5.60624 28.3673 47.5667 1.19336 3.11682 -1.49689 0.1716 0.238519 -0.264547
2256 1 -6.54124 25.5495 46.7056 0.291317 0.467716 -1.18599 0.0560414 -0.0480206 0.0686857
2257 3 -7.64943 27.5087 35.8269 0.508922 0.551039 0.414026 0.0192444 0.0172287 -0.000385098
2258 1 -7.66417 27.8952 46.0103 0.177013 1.76099 0.135624 0.0926031 0.120579 0.00420761
2259 1 -10.817 29.856 43.402 0.299818 -0.0427246 0.311224 -0.0161221 -0.0112396 -0.0521124
2260 3 -9.40894 28.7792 44.5768 -0.484945 0.729678 0.018276 -0.539899 -0.0478654 0.321051
2261 3 -7.78426 27.3183 42.82 -1.32486 1.45882 0.140509 0.24567 -0.398716 -0.00993132
2262 2 -7.0971 30.257 46.2005 -0.0665564 0.544373 -0.251687 0.125823 0.222575 -0.0426958
2263 1 -7.49543 29.0801 48.9107 0.058376 -0.300247 0.747376 0.0663787 0.0588201 -0.171611
2264 1 -10.9307 31.6133 41.2277 -0.159124 0.290874 0.370561 0.195622 0.134379 0.0598938
2265 1 -9.48775 30.5081 45.7791 0.300479 0.353009 0.451398 -0.00455875 0.04942 -0.0322534
2266 1 5.77408 0.0875542 43.3228 -0.19714 -0.456808 -0.189555 0.130843 -0.0651361 -0.0281506
2267 3 -11.173 31.5078 44.6843 0.0535556 0.579555 0.330686 0.0582141 -0.0467566 -0.0645345
2268 3 -9.36338 30.7632 42.6565 0.252617 -2.89988 0.358963 -0.00098084 -0.316363 -0.217035
2269 1 7.28704 2.60256 43.2635 -0.187924 0.307027 -0.711724 0.0173424 -0.017837 -0.2193
2270 3 8.69898 2.05635 44.5062 -10.13 0.578173 -1.82393 -1.02751 0.0225848 -0.352836
2271 3 10.7981 0.788275 42.863 -0.378331 0.534317 0.148992 0.0137178 0.11521 -0.164578
2272 2 7.67057 3.17691 39.2012 -1.18684 0.0326639 -0.528934 -0.0451091 0.0636505 -0.150628
2273 1 7.0654 4.70852 37.2293 0.235766 0.939497 -0.253718 -0.542039 -0.0577874 -0.0355368
2274 1 7.51389 4.79543 41.2284 0.0724957 0.0301245 0.07262 -0.136784 0.0182265 -0.124664
2275 1 9.04006 3.76877 45.7717 -0.466158 -0.653471 -1.15244 -0.130372 -0.246722 -0.818777
2276 3 8.86552 3.78697 42.3109 0.310248 -0.247457 0.575944 0.0700985 -0.0967929 -0.0287554
2277 2 9.24751 5.34252 47.7076 -0.231429 0.326169 -0.247113 0.275448 -0.215023 -0.112485
2278 1 10.2624 2.98168 47.9984 0.376325 0.775524 -0.101465 0.324043 0.326136 -0.0583717
2279 3 7.77851 5.83393 35.5643 -0.341654 -0.541576 -0.261567 0.109322 -0.0626638 -0.0460902
2280 1 7.84906 6.13363 45.6831 0.390393 0.169619 -0.144853 -0.187408 0.156952 0.227818
2281 1 4.46501 7.90152 43.2087 0.148935 -1.09198 0.441583 0.102649 0.179033 0.776826
2282 3 5.9128 8.51336 35.7928 -0.156349 1.34923 0.527368 -0.16182 -0.0778766 0.0526348
2283 1 4.85716 9.48881 41.1485 0.166454 -0.0375363 0.758409 -0.114861 0.074621 -0.114744
2284 1 6.32952 8.77267 44.7719 -0.346225 -0.060172 -0.159169 0.521145 -0.359956 0.398097
2285 1 2.96469 10.2538 43.1513 0.342941 -0.444979 -0.0329449 -0.1395 0.0427683 -0.164914
2286 3 4.47311 9.5573 44.5617 -0.154588 0.118589 -1.05824 -0.190143 0.0138739 -0.0237467
2287 3 6.21247 8.69358 42.6596 -0.174579 0.121133 0.513439 -0.22946 -0.341013 -0.234982
2288 3 5.16801 11.9123 35.2841 0.243095 0.820554 0.057392 -0.02194 -0.200376 0.151512
2289 1 4.99474 10.7233 46.2025 0.668193 0.0536621 -0.740212 -0.207437 -0.306241 0.172877
2290 3 4.62657 11.2144 42.3144 0.0743492 -0.228827 0.383627 -0.033411 0.0472709 -0.0164162
2291 2 5.04358 13.2927 48.139 2.66304 0.334536 0.0583947 -0.523398 0.813177 0.491567
2292 1 4.0927 11.0823 48.5527 -0.410893 -0.425174 0.485186 0.0296535 0.295853 -0.255788
2293 1 1.29482 14.0309 37.8751 -1.99639 -1.10574 0.650246 -0.692734 -0.361022 0.0504776
2294 3 2.50299 13.4498 36.6023 0.477317 -0.573638 -1.75055 -0.228042 -0.328397 0.0914029
2295 1 -0.871628 15.6805 43.0807 -0.642931 -0.0938495 0.342043 0.147222 -0.0859482 -0.266547
2296 1 2.67958 13.5966 48.4949 1.32474 -1.19697 -0.38063 -0.137371 -0.157828 -0.364799
2297 2 0.642173 15.9874 39.1363 -0.467739 -2.39486 1.8332 -0.339056 0.0775112 -0.194218
2298 1 -0.125155 17.0308 41.0816 0.146476 0.711893 0.76653 -0.828477 0.0114896 -0.0503226
2299 1 1.18515 16.7814 46.4265 1.1242 0.331431 -0.731975 -0.610084 0.251685 -0.102463
2300 1 -1.73299 18.3212 43.2027 -0.081395 1.40086 -0.405898 -0.0201734 0.231825 -0.407557
2301 3 -0.420803 17.4088 44.7221 -0.680205 -0.904131 0.934315 -0.314301 -0.165418 0.0567676
2302 3 1.06082 15.8002 42.4212 0.310557 -1.63648 1.56283 -0.97376 0.0306227 -0.421511
2303 1 -0.793873 19.3805 45.5178 0.999985 0.672615 1.52972 -0.321943 -0.138752 -0.0928422
2304 1 -3.63107 21.1115 42.8854 0.437899 0.213568 0.454531 -0.355121 -0.244292 -0.196996
2305 3 -2.14679 20.2163 44.0644 -0.0385159 0.24204 0.857174 -0.0192084 0.683956 0.270937
2306 3 0.057422 18.5635 42.3916 1.60136 1.26323 0.336027 -0.334839 -0.939847 -0.709527
2307 2 -0.772786 21.4921 47.3802 -2.17383 -0.569053 2.09375 0.231745 0.135448 -0.354245
2308 2 -3.97582 21.0738 40.0662 0.913618 -0.862379 0.703999 0.105864 -0.021782 0.0133509
2309 1 -3.01404 22.6159 38.1654 0.0208093 1.27801 0.0855087 -0.143371 -0.657997 0.222939
2310 3 -2.54754 23.0421 36.1108 -1.89712 0.063155 1.00028 -0.106559 0.00875701 -0.0989924
2311 1 -3.12597 23.2408 41.2061 -0.267551 -0.126229 -1.67652 0.00064596 -0.31271 0.0550605
2312 1 -2.53909 21.7611 45.6858 -0.238744 -1.68668 3.75065 -0.725325 0.484851 -1.39344
2313 1 -4.29428 24.1549 43.7225 0.451571 -0.398169 0.159032 0.0106766 -0.0723899 0.0108216
2314 3 -4.08129 22.3573 44.5763 -0.520889 -0.00625273 -0.354198 -0.115513 -0.114003 0.386666
2315 3 -1.60697 22.1145 41.9827 -0.704551 0.439704 1.43712 -0.302478 -0.383474 -0.236869
2316 2 -0.78046 23.7239 45.716 -0.271314 -0.131722 -0.498716 -0.03804 0.364702 -0.307929
2317 1 -2.07073 23.6833 47.8373 0.455644 -0.10074 0.769695 -0.0104369 0.0954468 -0.370737
2318 1 -4.7125 25.5553 41.3824 0.865914 -0.804457 0.168818 0.0594255 0.428816 0.0478226
2319 1 -6.2627 26.2783 43.845 0.10492 0.160857 -0.53013 0.0473568 0.0410818 -0.114938
2320 3 -5.2338 25.0109 45.2729 -1.80029 2.31564 3.19168 0.0128095 -0.207285 -0.309017
2321 3 -2.84463 24.7196 42.5214 -1.01966 -2.00339 2.9462 0.432542 0.170656 0.115757
2322 1 -6.06322 28.6088 36.87 0.0248717 3.40244 0.0179206 -0.0384667 -0.00769737 0.022669
2323 3 -4.90643 27.5541 35.5637 0.251204 0.15602 -0.193744 -0.0202836 -0.0331574 0.0122062
2324 1 -6.73847 28.4109 41.2546 -0.656593 1.18404 -1.04513 -0.403994 0.313237 -0.277726
2325 1 -7.54875 29.3546 43.7091 -0.0674352 -0.0287772 -0.579872 0.102447 -0.00816554 -0.19665
2326 3 -5.79419 28.1752 44.2947 0.0467561 -0.171425 0.0856075 0.00832974 0.109765 0.203667
2327 3 -5.31164 27.4028 42.3478 -0.0232675 0.321997 -0.00932808 0.0759213 -0.0717381 -0.195925
2328 2 -4.00618 29.9559 46.3034 4.20548 2.85005 -0.903393 0.273217 0.226896 -0.230992
2329 3 -6.1235 30.5834 35.7402 0.341982 0.724536 1.03205 -0.0515614 -0.0553518 -0.0791113
2330 1 8.84976 0.257149 43.5093 -0.0246309 0.0524793 -0.344822 0.0632921 -0.0207527 -0.106415
2331 3 -7.11687 30.5745 41.9743 -0.0281854 0.0572439 -0.129465 -0.0237693 -0.0385436 0.0314388
2332 1 -5.59904 31.1286 47.8505 -0.911469 -0.487656 -0.32582 0.0131803 0.112527 -0.133831
2333 2 12.9028 0.413867 39.0266 -5.06623 -4.43257 -0.0773264 0.282876 0.272112 -0.0491776
2334 1 12.9897 2.27624 37.1792 0.0362603 0.555027 -0.23047 0.13318 0.142288 -0.15456
2335 3 14.0635 0.912785 36.0225 0.523869 0.102439 -1.12555 0.0150911 0.0428029 0.350029
2336 1 14.0065 1.27387 44.4963 0.549478 2.64876 -0.824307 -0.0643802 -0.238794 -0.140525
2337 1 10.296 2.61044 43.5141 0.340206 -0.255773 -0.437728 0.0889204 -0.0325435 -0.363768
2338 3 11.8164 0.986251 44.7458 0.893211 0.275099 -0.508557 0.0175649 0.00499443 -0.213079
2339 2 15.2867 2.69428 46.9458 -0.075425 0.556993 0.513151 0.0322159 0.164655 -0.137079
2340 1 13.9273 1.45364 48.5531 -0.350041 -0.0164902 1.52536 0.176888 0.0947464 -0.150759
2341 2 10.8552 2.75602 38.7863 -5.22951 -4.9803 -3.63471 -0.0774046 0.264158 -0.225612
2342 1 11.2233 4.40175 36.7387 0.21247 0.843368 -0.110883 0.196988 -0.285866 -0.328533
2343 3 12.8533 4.23393 35.7744 -0.199121 -0.0864605 0.302305 0.158979 0.0112144 -0.128091
2344 1 10.7732 4.24574 41.0352 -0.0396004 0.472906 0.333973 0.0930116 -0.218281 -0.221934
2345 1 12.6123 3.0993 45.8241 0.592666 0.94305 -0.559615 -0.07346 0.141057 -0.208177
2346 3 11.1808 3.96544 44.6506 0.801339 0.00604734 0.197828 -0.0402664 0.0549757 -0.133759
2347 2 13.0341 5.79646 46.4648 6.53015 6.83526 -6.88155 1.08075 0.936668 -1.2957
2348 2 9.28959 5.18437 39.2113 -1.7095 0.299152 1.06984 -0.384459 0.110826 0.546417
2349 1 8.95278 6.66429 37.2486 0.366867 1.17963 -1.04545 -0.0173015 -0.583511 0.179335
2350 3 10.2434 5.95124 36.1199 -0.961554 0.295493 1.04471 -0.0597778 -0.320579 -0.108132
2351 1 10.6155 6.08889 45.2123 -0.616479 0.422151 -0.0676073 -0.300401 -0.33182 -0.116299
2352 3 8.88544 6.73416 44.1422 0.0719048 -0.363053 -0.02748 0.0129549 -0.0295174 -0.161431
2353 2 10.8697 7.49504 47.2986 0.577218 0.828857 -0.873088 0.0389236 -0.156717 -0.240565
2354 1 11.7077 5.50102 48.5223 -0.231928 0.145958 2.52745 0.0861047 -0.1064 0.161541
2355 1 6.94627 9.16954 37.3135 0.132882 0.359383 1.60503 0.0517443 0.0602801 0.549079
2356 3 8.85101 8.38651 36.1743 0.828016 -0.118529 -0.960022 -0.209103 -0.21579 0.183009
2357 1 8.98134 8.68171 45.5954 -1.08358 1.13569 1.3027 0.239716 -0.190743 -0.464852
2358 1 6.11223 10.8622 43.4524 1.18572 -1.04588 -1.8328 -0.359239 -0.0566743 0.391213
2359 3 7.63088 10.1886 44.6182 0.00875437 -0.118604 0.015934 -0.0426304 -0.0527993 -0.0988616
2360 2 9.17159 10.7265 47.3677 -0.429101 1.03618 -0.417461 -0.167348 -0.677538 -0.157237
2361 2 4.795 10.5035 38.833 0.101769 -0.0482274 0.233979 -0.0100418 -0.020619 -0.122367
2362 1 6.0504 12.1253 37.1908 2.34538 2.22249 1.12131 0.36475 0.226185 -0.320039
2363 3 7.56131 10.8038 36.4605 -2.51216 -1.28392 1.17766 -0.592523 -0.515189 0.163079
2364 1 5.7444 11.922 40.6409 0.448543 -0.0782355 0.158561 0.00516569 0.328056 -0.225657
2365 1 7.49936 11.5967 45.9063 0.146356 0.263194 -0.477931 -0.41715 -0.0467686 0.165438
2366 3 5.73431 12.2365 45.1272 -0.0241788 -0.424017 -0.423663 -0.128099 -0.256022 0.0490137
2367 3 7.56032 12.3051 42.3961 -2.1175 0.0678326 0.389068 -0.164355 0.0209174 -0.115785
2368 2 7.64359 13.578 47.6726 -0.675021 -1.0275 -0.0449746 -0.16151 0.252054 -0.0938946
2369 2 3.39956 12.8934 39.5975 -2.1199 2.35634 0.0566237 -0.0393441 0.161989 -0.19467
2370 1 4.01001 14.4228 37.1019 1.6081 0.670892 -1.08538 -0.207083 0.131683 0.359532
2371 1 5.90916 14.0766 46.0508 1.4431 -1.54112 -1.41841 -0.360698 -0.58886 -0.178407
2372 2 5.62827 16.4126 47.1968 1.88407 1.73242 0.865588 -0.239173 0.758425 -0.386126
2373 1 6.11405 15.1375 49.2349 -1.74405 -2.63803 -1.68037 0.596237 0.23478 -0.65885
2374 2 3.06863 15.3604 39.0938 -2.72641 -3.6104 -2.14455 0.465812 -0.144299 -0.227616
2375 1 2.11116 17.1554 37.4677 0.883105 0.259873 -1.51811 -0.195718 0.263693 0.232246
2376 1 2.48766 16.4265 41.0892 -2.95715 0.377692 -1.42076 -0.504932 -0.612234 0.0421514
2377 1 4.19729 16.2163 45.1567 2.43873 0.23029 2.9801 -0.0848536 2.24421 0.147571
2378 1 1.216 17.7471 43.5579 -1.549 2.54139 -0.392169 0.119573 -0.171397 0.555837
2379 3 2.55084 17.3896 44.8618 -1.28293 -3.54116 0.380554 0.50406 0.194555 -0.0862941
2380 1 3.62506 16.2584 48.5741 -2.80018 -0.787147 1.14805 -0.340415 -1.00844 0.595357
2381 2 0.162191 18.4286 38.8791 -2.57034 3.4428 -0.884263 -0.174692 -0.00582741 -0.137998
2382 1 -0.119292 19.9564 36.9829 -0.789939 -0.263955 1.9786 -0.0498705 -0.0508672 0.650291
2383 1 2.79282 19.2837 45.3235 2.05137 -0.850392 1.81114 1.48892 -0.0507429 -1.42802
2384 3 0.873588 19.8481 44.5498 -0.538529 -4.18246 0.30762 1.1181 0.763047 -0.331098
2385 3 2.43708 18.08 41.9505 -7.81611 1.0636 -5.13945 -0.040586 0.316218 0.155509
2386 1 -1.17118 24.2956 37.1204 2.39753 0.839359 2.78798 0.495318 -0.0638629 0.291073
2387 3 0.647235 23.1708 36.0514 -4.93023 0.694754 -3.50265 -1.98149 0.126674 -1.03093
2388 1 1.20258 21.3057 46.127 1.58789 -1.77993 1.51101 1.14092 -0.0384267 0.28351
2389 2 1.10244 25.6097 46.0972 -0.83326 -0.535653 1.37666 1.10363 -0.509839 0.298554
2390 1 0.799018 23.4436 47.5881 -1.22271 -1.65564 -2.38598 0.943965 0.423592 -0.310152
2391 2 -2.4142 24.9399 39.133 -1.07612 0.436094 -0.282267 -0.0549643 -0.0390079 -0.245147
2392 1 -2.2949 26.4338 41.6319 1.17186 -0.0659047 -0.59699 -0.189219 -0.218317 -0.0506934
2393 1 -0.411604 25.7649 47.9286 -0.0431668 -0.724812 2.20316 0.123362 -0.155616 -0.200231
2394 2 -3.78931 27.0161 39.4836 -1.21669 -0.0630276 -0.910838 -0.117201 -0.06671 -0.161967
2395 1 -3.89595 28.5072 41.4442 0.507463 -1.22027 -0.993819 -0.0980524 0.0392261 -0.0832641
2396 3 -2.36418 28.14 42.9606 3.19837 -1.33957 5.01032 -0.485411 0.374432 -0.873043
2397 2 -4.7851 29.6979 39.157 0.192458 0.265888 -0.998952 -0.354837 -0.110501 0.0881818
2398 1 -4.52749 31.4119 37.0683 -0.179831 -0.582315 0.00228971 -0.0542403 0.00838125 -0.160392
2399 3 -3.33149 30.6819 35.6398 -0.00769826 0.122106 0.357619 0.0132578 0.0876551 -0.112775
2400 1 -4.94199 31.276 41.1284 -0.661543 -0.812335 -0.315075 -0.261937 -0.369153 -0.0987828
2401 2 14.9278 0.185503 46.6995 -0.246465 1.47779 0.371715 0.0487823 0.157359 -0.213906
2402 1 -2.86805 30.7869 48.3327 0.0319297 -0.794725 0.559148 -0.0153888 0.165112 -0.158116
2403 2 15.5131 0.0544412 39.0863 -4.07625 -1.98801 2.98785 0.192006 0.190878 -0.110222
2404 1 16.1344 1.44381 36.7127 0.0498066 0.958499 0.508655 -0.163492 -0.462798 -0.288797
2405 1 16.9252 1.07913 45.4001 0.671852 -0.0680316 -0.230588 0.158639 0.0757756 -0.0665586
2406 3 15.8611 1.685 43.673 -0.128414 -0.114879 -0.352097 0.0112761 0.0981483 -0.192746
2407 2 17.7793 2.99574 46.5036 0.636224 0.431359 -0.234776 0.0483 0.0265274 -0.0390965
2408 1 16.9571 1.39515 48.33 2.59238 -0.443763 -0.548853 -1.09833 -0.0321177 0.192776
2409 2 15.0177 2.92709 38.5032 0.94396 0.352478 -1.02177 0.511527 0.600656 -0.827296
2410 1 14.2155 5.10207 36.7864 0.708896 -0.45191 -0.029015 0.145753 -0.191936 -0.200337
2411 1 14.0332 4.27606 40.5932 0.286581 0.453832 -0.32626 0.0273196 -0.0513032 -0.407645
2412 1 15.7098 3.45204 44.5705 0.793261 1.6155 -1.35918 -0.179472 0.197593 -0.13871
2413 1 12.6866 4.75038 43.2175 -1.59169 1.12514 -0.160003 0.250474 0.000201791 -0.04277
2414 3 13.7852 3.4708 44.3863 0.66196 -1.30401 0.398972 -0.158037 0.249118 -0.478896
2415 2 12.4088 5.32423 38.819 -1.07203 -2.01334 0.533682 -0.155036 0.594949 -0.297597
2416 1 13.1628 6.72555 40.9058 0.180405 -0.233411 0.299515 0.423934 0.248958 -0.0656751
2417 3 12.5235 6.43033 44.6495 -0.644932 1.6373 -2.33942 0.0909616 0.0558611 -0.277888
2418 3 14.5791 5.72526 42.3708 0.321247 0.586478 -0.73135 0.0244988 -0.139528 -0.120356
2419 1 12.2775 8.34238 45.417 1.04764 0.3249 0.055794 0.122783 0.181667 -0.655459
2420 3 12.6998 8.50325 42.0219 -0.882648 -1.28648 -3.80645 0.10146 -0.13917 -0.388462
2421 2 12.1115 9.84744 47.4675 -0.82742 -0.573255 -0.816242 0.0486273 0.112071 -0.298844
2422 1 13.6422 7.88455 47.57 0.15021 -1.88574 -0.502961 0.0579008 -0.344715 -0.065796
2423 2 10.4524 10.3239 39.6247 3.10827 4.50731 -0.218971 0.559345 0.633364 -0.155222
2424 1 9.63536 11.8802 37.5383 -2.57512 -1.043 0.2725 -0.305202 -0.0297747 -0.721872
2425 3 11.3639 10.2499 36.5935 -0.250134 0.238427 0.213397 -0.213018 -0.177778 -0.105883
2426 1 9.50848 12.0232 41.2067 0.0910117 -0.373659 -1.01427 -0.0138526 0.0988779 -0.000760641
2427 1 10.7171 10.5882 45.4164 -1.28355 -1.71364 0.166046 -0.23023 -0.20471 -0.104963
2428 2 11.3256 12.2374 47.0581 -1.04575 -0.702037 1.43175 0.52911 -0.147158 -0.256266
2429 2 7.90324 12.3821 39.2257 0.882211 2.38199 -0.126952 0.0843902 0.342284 -0.0481406
2430 1 7.86874 13.9262 37.0537 2.73534 2.67746 1.91059 0.831325 -0.932352 -0.106939
2431 1 7.17288 14.1125 41.3046 0.39755 0.0967145 -0.514551 -0.261899 -0.263067 0.158938
2432 1 9.42906 13.3583 45.9514 1.03927 -1.76897 2.00219 0.248027 -0.422497 0.742978
2433 2 8.96235 15.2912 44.4739 -1.28986 -0.369764 -0.976196 -1.71623 -0.189716 0.245023
2434 2 5.66082 14.0228 39.2422 3.31508 2.51166 -0.0654571 0.110406 0.502306 -0.378811
2435 1 16.9445 26.0172 23.4231 18.7447 17.0077 0.955618 -5.06041 4.71192 -2.59159
2436 1 4.5677 14.8087 41.3573 -0.826456 -1.06708 0.997842 -0.0338888 0.00465929 0.152142
2437 1 8.39913 15.8815 46.9857 0.121162 0.210248 0.747241 0.0703182 0.957684 -1.02449
2438 1 3.99457 18.1005 43.3532 -2.44056 -2.40576 6.93989 1.09471 1.06378 -0.107978
2439 3 3.92331 30.5074 37.4045 -1.92286 7.34818 -4.64239 -1.83863 -1.79523 0.560154
2440 2 13.0919 25.2883 22.6992 16.6906 -25.1946 15.8478 -5.39191 -10.1013 -12.6836
2441 2 7.01725 20.9556 28.2283 -16.4083 22.5043 17.4402 -13.9502 5.05254 -5.83436
2442 1 11.4288 16.3254 32.0872 -0.350772 6.5403 -4.2844 -0.80552 -0.42572 1.78539
2443 3 11.035 15.4447 35.4867 5.34096 16.6013 1.50878 -1.56193 -3.5006 -2.30993
2444 1 0.993481 19.4542 41.0459 2.30917 -0.919141 0.0493386 -0.159199 0.0995412 0.376054
2445 1 3.64338 18.7987 48.5649 -1.29069 2.95726 -4.0445 -0.322051 1.58459 -1.30304
2446 3 10.454 15.5255 43.1875 3.12872 5.01322 -6.61202 -0.323967 2.02893 -1.34624
2447 3 4.43292 17.1139 41.4269 -8.59441 16.3266 -1.18089 -0.687623 -0.932984 -0.827081
2448 2 16.6245 24.488 25.7468 -13.4884 3.64044 13.7713 0.596783 4.90903 0.779232
2449 1 9.39035 22.9366 21.1304 14.1223 -3.2183 -4.5719 1.8475 -3.29108 1.44928
2450 1 2.16588 19.8168 38.0271 2.51249 2.04395 8.09192 0.615675 -0.615507 1.21892
2451 3 3.01383 17.1366 35.4436 -3.59267 -0.00180438 -3.13687 0.714911 -0.304022 -0.13156
2452 1 1.3363 21.7269 43.5718 -0.186229 -0.133355 1.56484 0.374158 -0.444199 0.361792
2453 2 7.16797 19.9786 30.2322 17.0089 -28.3113 8.00186 -12.0886 3.78577 6.82978
2454 2 0.465597 24.7982 39.3378 1.42587 0.925369 1.57568 1.12815 0.914956 -0.632103
2455 1 0.375547 27.1344 37.5124 -2.90998 -2.42656 1.27589 0.296428 -0.0950302 -0.37387
2456 3 4.56132 30.8513 40.6925 -3.45058 -3.28681 1.88331 2.07909 0.469002 -1.59165
2457 1 0.0440288 25.7778 42.1298 -0.11797 0.550774 1.47733 -0.245531 0.291934 0.33422
2458 1 -0.825961 27.6771 44.2085 0.206521 0.131938 -0.376397 0.0225184 0.211658 -0.0743045
2459 2 16.1389 21.2437 32.9408 17.2165 -9.45268 -3.55962 -0.20635 -2.69828 -0.710367
2460 1 16.9088 21.6023 19.9513 0.901693 -3.53089 7.00958 0.790785 0.174407 -3.29391
2461 2 -0.659798 27.1522 39.8796 4.70559 0.779089 14.2727 -0.347976 -0.103981 0.0341898
2462 3 0.309126 29.0694 36.2742 -2.87878 0.465149 0.0517733 0.201446 -0.666586 -0.69308
2463 1 -0.986994 28.9331 41.7948 -0.539068 0.879431 -0.976515 -0.43993 -0.119111 -0.670105
2464 1 1.5658 28.294 46.3656 -0.00384034 -0.444638 -0.973951 -0.25789 0.252986 -0.147072
2465 3 0.243868 29.1047 45.2383 -1.38188 -2.79697 -3.20289 0.066646 0.747995 -0.378146
2466 3 0.457127 27.8826 42.7211 1.34025 1.30804 2.05134 -0.148221 0.0956231 0.298361
2467 2 1.9136 30.3435 47.8166 -0.246235 -0.377358 1.77033 0.352819 0.425733 -0.898516
2468 1 0.188601 28.1251 48.7459 -1.02663 0.167499 0.299633 0.352429 0.419188 -0.70543
2469 2 -2.15575 29.5115 39.7156 -0.356657 -0.0428176 0.0904927 -0.227765 0.124361 -0.0999798
2470 1 -1.61607 31.7245 40.9136 0.35107 -1.17881 1.24203 -0.0149367 -0.0715475 0.201132
2471 1 0.490565 31.1742 45.9356 1.44732 -0.580458 0.316066 -0.00926537 0.123277 0.0157236
2472 3 -0.110401 30.8519 42.1708 2.0567 0.621904 0.131401 -0.0845306 0.110302 -0.126181
2473 2 19.1592 0.933774 47.442 0.668079 -0.328115 -0.333606 -0.190335 0.0354081 -0.0499242
2474 1 -0.0456778 31.2761 48.8771 -0.19965 0.210424 0.251744 0.0570694 0.00406209 -0.0707359
2475 2 -0.301096 31.6126 38.7945 -0.404695 -1.01299 0.0534751 0.0295535 0.151087 -0.148293
2476 1 19.808 1.27898 39.8038 -0.413512 0.383935 -0.0860522 0.40192 0.114017 0.249711
2477 3 19.7724 1.46026 43.2568 -0.740795 -0.277061 -1.09304 -0.248968 0.356365 -0.610291
2478 2 18.0028 2.07378 38.4049 -2.62218 -4.51919 -0.848503 -0.189093 0.0118688 -0.198952
2479 1 17.2178 4.47478 37.3558 -0.636194 -0.386789 0.200991 0.121316 0.34478 0.276571
2480 3 18.9273 4.84525 36.3131 -0.424097 -0.608515 -0.737438 0.0672695 0.20783 -0.0835717
2481 1 18.2902 4.76125 44.6721 -0.712723 -0.498683 -0.507065 0.115606 0.117432 -0.14691
2482 2 18.3961 5.46727 47.259 -0.305492 0.375184 -0.0578727 -0.044455 0.158401 -0.186768
2483 1 19.5174 3.45086 48.4061 -2.31336 0.272264 2.59132 0.965468 0.362627 -0.807279
2484 2 15.3063 5.69899 38.9254 -1.29167 0.734485 0.608494 -0.526518 0.347372 0.257039
2485 1 16.3278 7.57628 37.7558 0.629979 -1.23868 -0.00531316 0.110499 -0.69332 -0.700049
2486 3 17.6629 6.60057 36.5467 -0.404662 1.24679 0.147573 0.0296768 0.0469908 -0.0314832
2487 1 15.8422 6.99256 41.0367 -0.196977 1.427 -0.279251 -0.0194284 -0.272815 0.758779
2488 1 13.9451 7.63014 43.4067 0.440046 -0.28277 0.491163 0.115631 -0.0632822 -0.09784
2489 2 14.6967 8.59003 39.4581 -0.104787 -0.508725 0.105349 0.137711 -0.256935 0.134917
2490 3 15.6042 8.82401 36.3072 1.29669 -0.646243 -1.24584 -0.143551 -0.158663 0.387016
2491 1 14.1224 9.82252 41.5706 -0.0278351 -0.912263 -0.501548 -0.194825 0.196811 -0.0642195
2492 3 15.0973 9.47378 43.373 -0.482415 -0.145573 -0.582224 0.0962502 0.0120951 0.0266464
2493 2 15.671 11.1612 46.0011 -3.01073 -3.25724 1.10051 0.671089 0.716545 -0.308157
2494 1 16.6388 9.04348 46.6972 -0.689205 0.775517 -0.0656791 -0.155186 -0.327187 -0.175267
2495 2 13.1258 10.5896 39.2509 1.68272 -1.86385 -1.54141 0.633595 -0.310007 0.383981
2496 1 12.7964 12.1585 37.496 1.11129 -2.28723 1.54941 1.09887 -0.0953297 -1.68981
2497 3 13.5183 11.6385 35.595 3.02257 1.28867 2.39397 0.578113 -0.158055 0.710956
2498 1 12.6409 12.4229 40.7214 2.94432 0.0504549 1.77349 1.00316 0.0719631 0.347965
2499 3 13.4433 11.6959 42.492 0.340738 0.471216 0.746199 0.0136918 -0.130135 -0.0693736
2500 2 13.8231 12.5627 48.0486 0.164468 0.672969 0.446975 -0.0847633 -0.373833 -0.123467
2501 1 14.5683 10.2401 47.8974 1.02645 0.063503 -0.497962 -0.215921 0.217286 -0.0702011
2502 2 10.8875 13.0028 39.2452 -1.29079 0.913325 2.12423 -0.0993118 -0.155148 0.406461
2503 1 11.3171 14.1274 37.0213 -1.38476 -3.0406 1.07443 -2.10585 -0.239224 0.826399
2504 3 12.5167 13.7366 35.4796 -1.52983 1.54552 4.81531 0.306307 -0.243924 0.505856
2505 1 10.0686 14.738 40.912 0.453021 3.13091 1.86686 0.507984 -0.745416 0.23363
2506 1 12.7292 13.8857 46.1266 -0.363652 -0.518381 0.468306 0.199055 -0.899057 0.545608
2507 2 12.8389 15.5501 48.1296 0.298923 -0.255567 -0.888806 0.221523 -4.48794 -0.0824724
2508 1 11.8126 13.4891 49.1834 0.669753 0.324149 -0.523237 0.225069 -0.647331 0.371008
2509 2 8.19781 15.1883 39.2505 -4.94101 0.0891801 -0.05107 -0.170683 1.12136 -0.685166
2510 1 2.33715 22.9968 29.7664 5.08438 17.1467 -0.185115 1.30911 2.89237 2.23206
2511 2 11.5872 16.3625 37.085 -7.21449 -3.58307 -2.87078 -1.40266 7.51194 4.21596
2512 1 10.6671 15.6919 49.3001 -0.859857 -2.81285 0.980383 0.197617 1.2182 -1.11434
2513 1 4.80951 16.9858 39.1984 -0.278192 3.08638 0.353033 -0.248436 1.15072 -0.475055
2514 1 17.4813 25.7364 42.5126 -4.19443 3.75554 -8.8711 0.940208 0.617503 2.34507
2515 3 10.1319 15.7158 45.9381 -2.89017 5.08527 11.8257 1.40656 2.31579 -0.468551
2516 1 1.85163 21.2796 35.6588 2.69342 1.51762 -0.432733 0.670191 0.880412 0.484884
2517 3 17.3515 20.4882 38.8835 -9.35106 5.21346 0.333783 10.4032 -0.948044 -1.87044
2518 1 0.083831 22.559 40.8789 -3.22768 -0.975259 -1.72344 0.0158453 0.445684 0.496002
2519 1 6.38271 21.0883 20.6487 -9.46895 3.05981 5.12905 -0.0992419 -2.32148 7.02586
2520 3 1.31835 21.3787 41.7012 4.00489 -2.15076 0.731991 0.585052 -0.516912 0.146139
2521 3 8.94326 24.8116 24.6125 26.0637 -40.6037 6.41596 -3.8343 -0.104187 -0.404087
2522 2 12.3073 25.5142 18.1349 -4.80573 3.443 1.54062 1.06581 1.30437 1.18471
2523 1 15.3941 17.6136 41.5148 -2.39761 0.0735707 1.34398 -0.399992 0.633684 -0.232414
2524 1 7.17793 15.3424 27.7918 0.0738472 -0.175002 -4.46738 1.39276 2.05842 0.271776
2525 1 14.3451 28.1537 29.9543 15.6933 3.52133 11.8304 -0.333503 0.241042 -0.398421
2526 3 8.41377 15.6786 41.1235 3.80429 7.0245 -1.13598 -0.677604 -0.648699 0.0666294
2527 2 1.72703 28.0901 39.3751 6.525 -2.56313 0.64333 -10.4721 1.40817 2.50623
2528 1 1.66331 30.2212 37.732 2.7742 -1.57307 -0.118238 0.689451 -0.454015 -0.891623
2529 3 4.45887 30.8865 31.6034 3.07065 1.14228 -0.941661 0.685796 -0.397772 -1.92909
2530 1 2.45566 27.8129 42.1377 -0.209106 0.417767 0.821715 0.500759 -0.884541 0.657232
2531 1 1.12471 29.7567 43.4571 0.375166 0.262302 0.655017 -0.102291 -0.123454 0.0886289
2532 2 7.78599 23.8298 25.9403 -9.37664 12.1824 1.45578 13.3902 -3.14328 -0.592637
2533 1 4.45656 31.7176 47.7932 -0.101127 -0.548548 -0.409188 0.295885 0.0648019 -0.386225
2534 3 2.3172 31.4829 36.3347 3.66579 3.84949 -1.97162 0.170057 -1.18779 0.357481
2535 1 1.20755 31.2523 40.6918 -1.51624 0.359442 0.186597 0.121284 0.298592 -0.238089
2536 1 3.32232 30.3337 45.7446 -0.320567 -0.630972 0.227443 0.284979 -0.261092 -0.0310457
2537 1 -0.0962357 32.2379 43.6359 -0.941334 0.281907 0.316612 -0.200847 0.277729 -0.143432
2538 3 1.78584 31.2445 44.6135 -0.221549 -0.0224376 -0.0200208 0.0156876 0.241387 -0.0842894
2539 3 2.69735 29.9709 42.1662 4.00638 -3.49102 -0.835389 1.36153 -0.35679 1.21846
2540 3 22.6472 0.886086 35.9462 2.00537 0.00415467 -1.10942 0.0392898 0.229836 -0.160253
2541 1 21.0088 1.75633 41.9378 0.528127 0.225397 0.557155 -0.196819 -0.0957336 0.0954998
2542 1 23.0585 1.64709 46.3837 0.36536 -0.467086 0.226808 0.0306318 -0.0784855 0.0883525
2543 1 20.1177 3.10461 44.083 -0.526055 0.134477 -0.493714 -0.159382 0.0449671 -0.07405
2544 3 21.4451 2.2916 45.3095 0.0173666 0.193431 0.423181 -0.00752027 0.0743842 -0.00864575
2545 3 22.7371 1.03794 42.8391 0.29078 -0.279745 -0.242944 -0.0467383 0.00578639 0.0602768
2546 2 21.2129 2.75681 38.602 0.536655 1.13285 -1.17077 0.601816 0.264277 -0.307018
2547 1 20.7039 4.86082 37.38 -0.655984 -1.31995 -3.1956 0.168527 -0.109292 0.103094
2548 3 22.0746 4.32364 35.5151 1.51605 0.498058 -0.0725106 -0.314496 0.223389 -0.0855065
2549 1 20.6154 4.4935 40.3969 -1.28476 -2.79779 3.15439 0.0180701 -0.273195 0.126538
2550 1 21.9921 4.0188 46.0351 -0.184669 -0.370033 -0.442499 -0.0761664 -0.177525 -0.0861929
2551 3 20.7285 4.8051 44.5712 0.338563 0.835509 -1.04383 0.141119 0.154566 -0.433107
2552 3 21.4966 3.79421 42.4899 0.0603792 0.421725 0.109052 0.231474 -0.0571871 -0.0179088
2553 2 21.2686 5.57292 47.6718 0.192848 -0.0381008 0.188539 0.0454995 -0.00563395 -0.0581636
2554 2 18.6099 5.58952 39.4198 0.0140627 -0.970697 0.298161 -0.478123 -0.418453 0.00831548
2555 1 19.0164 7.40106 37.8502 0.963149 -0.969545 2.41472 -0.0610788 0.170954 -0.493063
2556 1 18.892 7.19982 41.3472 -0.0453795 0.284093 0.438596 -0.0215753 0.0113204 0.108175
2557 1 20.091 6.31897 45.6153 0.0736488 -0.778606 -0.183254 -0.0173586 0.0164577 0.023915
2558 2 20.3039 8.1275 47.1474 0.28391 -0.507494 0.433347 0.0764727 0.11004 -0.253899
2559 1 19.6179 6.71315 49.032 0.0268461 -0.280198 -0.118585 -0.102376 0.00203958 -0.0294065
2560 2 17.3978 8.52467 39.8422 0.0481394 -0.0468535 0.168535 0.169479 -0.0944051 -0.0549242
2561 1 17.9476 9.78919 36.6155 0.0187098 0.0887585 0.744084 -0.225234 0.438701 0.242582
2562 1 16.7064 9.41985 42.2631 0.215326 0.995049 1.06915 0.198001 -0.399386 -0.304607
2563 1 19.0569 9.29919 45.4732 1.18206 -0.0746615 0.598064 0.0370813 -0.1042 -0.338361
2564 2 18.1108 11.0459 46.8616 0.297934 -0.0517977 0.772752 -0.35366 -0.284485 -0.42436
2565 1 19.2454 9.7541 48.6073 -0.060194 0.16778 0.573774 0.0115302 -0.0443466 -0.0560144
2566 3 16.7741 11.2614 36.3895 0.67034 1.03055 -1.00143 0.4311 -0.640959 0.52221
2567 1 15.3111 12.2402 41.6082 0.558573 -0.622018 -0.1789 0.0794076 -0.281832 0.0602507
2568 1 13.6293 13.3288 43.7825 2.69201 -0.288962 1.31697 0.400885 -0.0227901 0.195659
2569 3 17.093 11.3927 42.5025 -0.0700936 -0.152434 0.0630718 -0.262172 -0.890083 -0.382712
2570 3 15.9604 13.9098 36.6414 -1.5784 -1.731 1.56341 -1.01678 -1.26585 0.199913
2571 1 15.3152 14.6248 40.6671 -0.941889 0.326204 0.61364 -0.0791875 0.0704782 -0.05442
2572 1 15.6399 13.5811 45.2715 2.50006 -0.215687 -0.521799 0.277495 -0.319767 -0.204373
2573 1 12.6746 15.6044 43.6284 -0.410769 3.29348 0.817004 0.216376 -0.553637 1.05222
2574 3 14.2098 15.0453 44.9696 0.47655 2.23338 -1.52783 -0.212816 -0.908775 -0.422944
2575 3 15.4243 13.8824 42.9498 5.44123 1.15016 -4.16396 0.277315 0.154977 0.327027
2576 2 13.256 14.307 39.2433 1.04543 0.471668 0.64581 -0.0392394 0.42326 0.113686
2577 1 11.0187 17.2462 34.8453 -7.74135 -5.02827 -6.27996 0.22305 0.162967 -1.63906
2578 3 15.2384 16.2629 36.8932 -1.37411 2.23166 0.839949 0.0625071 0.293509 -0.173765
2579 1 7.31928 30.4417 37.8125 1.65696 17.093 10.0261 -5.48127 1.32297 3.06144
2580 1 14.4401 16.5439 46.3078 4.38379 -1.41907 2.42993 2.12848 -4.69109 2.21296
2581 3 15.885 17.5251 45.2744 0.384659 6.53603 1.07945 0.96986 0.469464 0.365481
2582 3 14.3298 16.024 42.2076 0.972384 1.86729 0.454761 -0.144065 0.397681 0.554403
2583 2 16.8998 17.4515 47.0096 -0.77876 -16.2663 -1.65827 -0.041408 -0.842216 -1.4701
2584 1 15.3914 16.0945 48.6804 -5.72584 -14.1592 -6.65884 0.138955 -1.19757 -0.330242
2585 3 5.20323 15.6583 24.817 2.11429 3.07032 10.1789 0.123123 1.24329 1.29119
2586 1 17.4002 18.9055 45.0264 -0.593009 2.06007 2.57067 -0.532005 -0.593955 -3.36166
2587 1 12.5945 17.7077 47.6335 -7.22346 -9.70833 12.5954 -0.687059 3.0575 0.192254
2588 3 16.7776 28.5449 34.5978 -26.5906 2.70631 -7.99883 1.08304 -0.74335 2.09145
2589 3 7.76663 16.0223 29.9996 4.64432 1.76523 -5.52764 0.270718 0.0364343 0.0124916
2590 1 7.82424 31.3772 20.684 4.79533 -2.05656 3.00462 6.19746 -1.1301 3.88896
2591 3 5.6553 26.9465 23.2252 10.7714 3.84296 27.4302 1.95787 5.51444 -1.73223
2592 1 1.68524 19.456 80.5585 5.24448 0.239361 -9.78076 0 0 0
2593 1 4.28271 17.3372 50.8262 1.31505 0.471707 0.126869 -0.201539 0.0697036 0.416728
2594 3 1.89412 25.344 33.9623 1.07559 4.12889 1.686 1.53889 -1.35302 1.01676
2595 3 6.438 16.9198 26.1191 -7.79637 0.0177618 7.81642 -1.25417 -0.392705 -1.0159
2596 2 13.9056 28.3769 25.9416 5.07101 3.74219 -4.67088 2.43277 0.617901 0.295921
2597 1 6.03419 25.0072 26.3124 13.8149 5.8283 -12.4991 -8.59301 6.20787 1.62124
2598 2 3.66154 21.3643 26.3592 6.95888 11.1137 -6.45536 7.26223 0.959053 3.24775
2599 1 0.800712 22.5271 38.1369 2.01429 -2.3448 -2.22019 -1.61323 -0.690052 0.929315
2600 3 13.7372 20.4972 22.9228 -1.54568 -21.6086 10.6093 5.43792 0.926604 -2.461
2601 1 3.96921 18.724 35.8203 -2.70285 -2.91346 -4.44934 -0.810652 0.665603 1.43743
2602 3 3.59867 18.4242 37.8379 9.22523 -8.19853 -7.41461 -1.76454 -0.88588 -1.41745
2603 3 16.6387 27.9837 38.791 -2.38013 13.9012 0.195168 0.723917 -0.285386 -4.16373
2604 2 9.61737 22.843 18.395 7.29838 -6.24531 -14.28 4.33708 -1.10158 3.16524
2605 1 4.75819 21.2223 29.2219 6.79449 -17.4674 -7.59755 -3.06632 -2.90989 -3.58261
2606 3 1.99804 26.1114 38.6502 -2.50013 5.48586 -1.61109 -0.891763 -0.112982 -1.46565
2607 1 22.3512 0.59949 37.9732 -1.83888 -0.721836 0.936978 0.389086 -0.960732 0.367054
2608 3 4.80424 30.5213 38.5726 -0.789567 7.50886 1.99253 5.11854 0.598435 0.268795
2609 1 10.5203 22.5067 25.9656 10.3712 -1.44366 1.20993 -2.11989 -0.634427 -1.73783
2610 1 21.4102 0.613946 44.4047 -0.373587 -0.227261 -0.0303789 0.0179164 -0.199551 -0.045222
2611 3 4.43476 32.0794 45.5896 -0.462592 0.788889 1.52582 0.0164035 0.299547 0.24044
2612 2 25.1922 0.554938 49.0191 0.0170103 -0.16167 -0.945699 0.364261 0.297046 -1.74847
2613 1 7.00686 31.4441 24.024 -5.55117 -14.8381 13.7531 -0.367921 5.80104 -2.72815
2614 2 5.55859 32.1731 39.5506 -3.36475 2.47708 1.07003 -0.375611 -4.02185 -0.512866
2615 3 27.3399 1.47409 36.3881 1.79093 0.842253 -0.237976 -0.127993 0.260124 -0.387983
2616 1 24.2276 1.99362 41.536 2.15946 -0.229784 -1.94382 -1.52639 0.126715 -0.120744
2617 1 25.9922 2.25694 46.8248 1.7003 0.724182 -0.216562 -0.49842 -0.278714 0.0663324
2618 1 22.7786 2.72689 43.8375 -0.495595 0.175069 -0.853206 -0.118225 -0.0193884 0.165652
2619 3 24.4231 2.22085 45.1835 0.471394 0.234175 0.290319 -0.402869 -0.316021 -0.0286299
2620 3 26.2532 1.81408 42.5885 -0.677673 -1.49873 2.77239 -0.171159 -0.257514 0.266109
2621 2 27.8731 3.53755 47.7477 0.333502 0.26137 -0.0589804 -0.363891 0.202524 -0.170219
2622 1 27.114 1.85515 49.7695 1.13464 0.620314 -0.273186 0.200332 0.0730723 -0.0233701
2623 1 23.632 4.55246 41.6789 0.340174 -0.0635121 -0.800008 0.170328 0.342456 -0.384513
2624 1 21.0952 5.88182 42.9216 -1.48506 0.586802 0.242294 0.0604454 -0.0756702 0.00993225
2625 1 25.0385 3.16487 48.8133 -1.42992 -0.513902 0.210019 -0.0688498 0.123821 -0.0209894
2626 2 22.7538 5.14675 39.2706 -1.13426 0.028725 0.235767 0.268555 0.0175603 -0.137963
2627 1 22.0766 7.09626 40.7807 -0.229687 0.50878 -0.37269 0.340814 0.00901825 -0.0988201
2628 1 23.3794 6.10514 45.6304 -0.293373 0.423152 0.107537 -0.042992 -0.229899 0.499554
2629 3 21.7648 6.68383 44.7047 0.488578 1.09818 -0.723388 -0.0587772 0.997502 -0.483939
2630 3 23.373 6.40225 42.3569 -0.500893 -0.867554 0.590684 0.130874 -0.196641 -0.197284
2631 2 23.0287 7.8188 47.3765 0.0644061 -0.160069 0.101263 0.062145 0.0901655 0.0310368
2632 1 23.7539 5.56437 48.2346 -0.102398 0.187253 -0.00139417 -0.0782227 -0.095292 -0.120619
2633 2 20.2022 8.55672 39.7649 0.135805 0.326946 0.209147 0.321574 0.440734 0.0091862
2634 1 22.037 9.09826 45.545 -0.0563256 -0.291456 0.881926 -0.0720076 -0.0453868 -0.388898
2635 1 18.8693 10.9321 43.4544 -1.3142 0.784041 1.21207 0.212944 -0.25776 -0.131405
2636 3 20.5675 10.2828 44.4671 -0.211654 -0.0541425 -0.589002 0.110851 0.120636 0.0532638
2637 2 18.566 10.4934 38.9183 -0.710327 0.00532494 0.206512 -0.127078 -0.0818614 0.241958
2638 1 18.5119 11.9764 40.9266 0.528804 0.331167 1.77279 -0.283465 -0.0979434 0.016726
2639 1 20.244 12.0119 45.4963 -0.900568 -1.80899 -1.86522 0.194152 0.518108 0.238105
2640 1 17.3604 13.245 43.0468 -2.06109 -0.192497 0.568067 -0.339532 0.202873 0.147111
2641 3 19.1156 12.8394 44.08 0.0556338 -0.78515 2.05875 0.105213 0.0395505 0.175025
2642 3 20.1507 11.4286 41.9707 2.81471 -1.16091 7.0766 -0.387224 0.233154 -1.26567
2643 2 21.04 13.4046 47.5465 2.24309 -0.501834 0.846057 0.727573 0.13097 0.210542
2644 3 19.1934 13.3122 35.7514 -0.774552 -0.570378 -0.734622 0.217191 0.00338373 0.0833996
2645 1 18.8289 14.3929 45.5674 -1.83345 -0.279029 0.169447 -0.291946 -0.0755934 -0.309905
2646 1 15.8626 15.9559 43.7179 1.41572 1.75431 -0.679939 0.0140834 0.578979 0.529629
2647 3 17.3256 14.7016 44.3074 -0.0633056 0.270671 -1.50064 0.599964 -0.829992 -1.07458
2648 3 18.7121 13.9877 41.7911 0.0243093 -0.404704 -0.653698 -0.0835455 0.375881 -0.112442
2649 1 17.3353 16.5184 37.5803 -2.96852 -3.04131 2.11062 -0.231027 0.237853 -0.724112
2650 3 17.9112 16.5685 35.7566 0.762254 0.216896 1.38187 -0.438868 0.052601 -0.500591
2651 1 17.3958 16.4181 40.1781 -1.10081 -3.94606 0.390248 0.913673 0.00695367 0.782262
2652 1 5.60293 17.4654 30.1748 -2.45761 1.46828 1.93899 -1.05115 -3.33295 3.36983
2653 3 17.3539 17.103 42.3604 2.34876 -3.69182 0.548529 0.697639 -0.0266088 -0.803302
2654 2 17.44 26.3463 31.9851 17.8095 5.87166 2.27686 1.58155 1.81866 5.02212
2655 1 17.6495 19.5883 34.3088 6.60327 0.0822247 2.26254 2.06146 -0.0984038 -6.17021
2656 3 16.4337 17.8704 34.4731 2.08844 -1.11705 -0.205551 1.19719 2.16418 0.346928
2657 1 7.69829 18.4267 28.1157 -4.18156 11.5988 -4.10856 -2.65573 7.79487 1.29607
2658 1 9.30566 20.6923 19.376 -3.00307 -4.39905 -8.02859 2.65364 -1.49579 -0.322241
2659 3 16.2084 19.2764 46.9083 4.52148 10.7506 -21.8767 0.996684 3.93376 -1.10612
2660 3 17.073 20.5332 43.2464 16.8604 17.4267 16.7133 -3.31539 -0.257855 2.64286
2661 2 20.2566 20.8136 47.2462 0.360242 1.16069 0.172226 -0.668288 -0.333766 -0.0350775
2662 1 17.9043 21.3318 48.0375 -0.0718575 5.12502 3.33243 -0.40999 1.00823 -0.606324
2663 1 1.4773 25.0094 43.8258 2.66094 1.87124 -1.28531 0.0103063 0.29334 0.158809
2664 3 17.6544 20.2129 31.8267 1.439 -3.99298 -5.10542 -1.12083 0.138254 2.45402
2665 1 18.2557 24.8285 47.9493 -0.592381 -0.0372997 -1.78568 0.0994114 -0.190339 0.296227
2666 1 14.9515 25.7824 16.9416 6.82766 -4.95484 7.00776 -2.29838 -1.46716 -0.180986
2667 3 16.6244 27.7111 35.7944 7.65649 3.83436 -2.33431 0.00835375 1.74413 -1.55442
2668 3 15.3843 16.5898 39.9421 -2.6902 -1.4416 -1.34776 -0.783949 -1.39708 0.50773
2669 2 4.933 21.0486 23.1823 -5.8809 -9.98243 3.82901 -0.798415 1.91189 2.56145
2670 1 15.3896 18.6156 27.8477 -5.26049 -5.34735 -7.3021 -0.836916 2.09642 -4.57157
2671 1 17.6128 26.823 28.7295 -3.10022 -3.81541 -2.88965 -3.1407 -0.675393 -0.558399
2672 3 18.3053 24.2418 41.1727 4.14946 -2.93538 5.53207 -2.06946 -0.945612 -0.783957
2673 1 9.12846 26.934 20.7695 -0.344967 12.5663 -12.5144 -5.07556 -3.8165 2.18759
2674 1 17.1349 30.4298 39.0792 6.09663 9.58778 -2.49496 0.0311036 0.539824 -2.48489
2675 2 15.1098 19.339 34.1442 2.48117 8.87583 -9.19646 -1.77248 -2.10566 0.736495
2676 1 5.39091 29.3081 25.7802 -1.97343 -9.22152 8.80865 1.54369 7.68474 -2.95268
2677 2 11.4812 31.5896 24.4194 -6.0414 10.7734 -4.51259 -4.92338 5.7343 -3.3958
2678 3 16.0978 28.8086 39.8295 3.25195 6.63658 -22.8671 3.42743 -6.11483 2.3438
2679 1 13.8435 28.689 23.4528 8.53057 -7.09823 -6.3462 -4.06955 -0.0958236 8.72609
2680 1 13.3646 16.4936 40.4204 0.425611 2.63047 -0.730075 0.305538 0.876524 0.291725
2681 3 8.53737 20.2488 28.971 -22.417 -55.2103 14.6156 14.524 -2.34811 -0.0405613
2682 2 30.6512 1.22729 47.8073 -0.428764 0.103135 0.274947 0.132265 0.32258 0.000934308
2683 1 15.6265 22.2198 35.1668 -13.2204 -2.21293 -3.59846 1.63433 -1.34113 -1.39414
2684 1 25.9842 0.715168 37.9166 2.5375 -0.646564 -2.13059 1.01056 -0.429082 0.344784
2685 1 26.2565 0.454313 41.1116 0.201361 2.84971 -1.89422 1.20844 3.10429 1.21619
2686 1 11.2935 27.2252 22.3365 -2.89185 14.079 -13.1576 0.752867 4.89279 -5.41377
2687 1 24.5679 0.631162 44.0788 0.0513391 2.29005 -1.68624 0.592125 0.487762 -0.235949
2688 3 3.43267 31.0112 41.595 1.69882 -1.4447 -1.77227 0.479594 1.37552 0.455976
2689 3 2.08626 28.2355 37.4839 -4.83007 2.51641 1.66085 0.525273 -0.55958 0.140505
2690 2 28.1151 1.0327 47.6884 -0.707153 0.0518976 0.926142 0.235813 0.13217 -0.148109
2691 1 1.5771 3.01492 55.6341 4.83273 4.4331 1.78355 -0.0878211 -0.0346223 -0.0271072
2692 2 26.8704 2.14704 39.4778 -0.293132 2.93979 0.849723 -0.473608 1.16693 -0.103399
2693 1 28.6629 2.43847 37.9919 -1.1696 -1.59169 -0.736972 -0.0253457 0.468101 -0.119929
2694 3 30.1921 0.881635 36.6437 2.42022 -0.700273 0.370291 -0.217449 -0.203542 -0.2236
2695 1 28.1401 2.91092 41.2417 0.0982899 1.80835 0.159792 0.234452 -0.387654 -0.151293
2696 3 28.4581 2.35618 44.8334 -2.84886 1.39227 0.253813 0.064424 0.100073 0.0317931
2697 3 29.6754 1.88905 42.0554 0.292431 1.27387 -0.12983 -0.300465 -0.10826 -0.26517
2698 1 27.9413 4.33614 49.9958 0.0602095 0.14136 0.134994 0.202702 0.140946 -0.0661706
2699 2 25.1296 4.54007 39.0876 0.343509 -1.89586 0.573263 0.064898 -0.443816 0.0624379
2700 1 24.9575 7.30552 37.5104 0.0330728 -0.719771 -1.10931 0.164693 0.158562 -0.387716
2701 3 26.3104 6.68162 36.1248 -0.367704 -0.711393 -0.12054 -0.00309498 -0.00763163 -0.13897
2702 1 24.927 6.78484 40.4359 -0.120205 -0.603174 1.02689 -0.312049 -0.440356 0.22153
2703 3 24.6684 6.66187 44.051 0.0509134 0.130518 -0.0211082 0.03303 -0.176128 -0.132724
2704 2 23.3097 8.39397 39.0313 1.37011 0.853076 1.15769 -0.112942 -0.0579341 -0.333901
2705 1 24.1554 10.5896 37.4558 0.129704 -0.152503 -0.118991 0.108516 0.296637 0.11698
2706 3 24.9598 9.08716 36.344 -0.0156334 -0.286185 -0.0208077 0.0235125 0.0626541 0.0553433
2707 1 24.9198 8.13067 45.3524 0.19491 0.301131 -0.0929438 0.517342 0.481725 0.3116
2708 2 24.5483 10.3478 46.1973 0.0363654 0.191713 0.160087 0.0723095 -0.319337 -0.386333
2709 1 24.8771 8.75103 48.4116 -0.0621199 0.0713374 0.0826341 0.150093 0.135827 -0.0646402
2710 2 21.8151 10.7211 38.4605 0.471823 0.150964 0.00777138 0.0996066 0.106923 -0.024593
2711 1 22.748 12.8019 37.2431 0.334115 0.296045 0.419987 0.181457 -0.187984 -0.324125
2712 3 23.2491 11.7236 35.7421 1.5724 -0.00781797 -0.198957 0.401771 -0.201969 -0.0157009
2713 1 21.9692 12.4008 40.5129 0.761546 0.0114943 1.08163 -0.0604468 -0.0129461 -0.218541
2714 1 22.9621 12.1866 46.391 -1.8648 1.07969 -1.42721 -0.211595 0.355611 -0.397062
2715 1 20.4832 13.301 42.8654 0.439839 -0.188388 0.850613 0.102575 0.108184 0.0200321
2716 3 21.9579 12.8239 44.575 2.01937 1.21995 0.333173 -0.513325 -0.0495004 -0.246013
2717 2 23.7232 14.6371 46.993 0.249839 0.493301 0.485661 -0.124668 0.132626 -0.0196879
2718 2 20.0148 12.5733 38.9833 -0.275483 0.230323 -0.527317 -0.202407 -0.186986 0.341281
2719 1 19.9166 14.3048 37.3757 0.572092 -0.835804 -0.522277 0.0647353 -0.189588 -0.448637
2720 3 21.6782 14.084 36.3328 0.520869 -0.257947 -0.287634 0.0121848 0.0398553 0.00860128
2721 1 19.8645 14.6556 40.3615 -1.82125 -1.93357 3.06385 0.164453 0.483344 -0.335967
2722 1 21.8834 14.7065 45.457 -0.112322 -0.0648123 -1.10695 0.0915957 0.213562 -0.22308
2723 1 18.7712 15.6947 42.9436 0.0730467 -0.55059 0.814838 -0.0141349 -0.613609 -0.159664
2724 3 20.2546 14.9238 44.0518 1.19304 0.254209 1.94996 -0.0700735 -0.187645 -0.0982687
2725 3 21.9556 14.1344 41.7241 0.672275 -1.56633 -0.634506 -0.0472188 -0.0116024 -0.155525
2726 2 22.5134 17.1255 46.8714 0.224282 0.216366 -0.223872 0.250788 0.408026 -0.313922
2727 1 19.5814 17.6627 36.6322 -4.09974 1.63122 0.725836 0.559904 0.29551 -0.215591
2728 3 20.8282 17.046 35.2045 -0.764711 -0.0175846 0.831402 0.153519 -0.0297613 -0.0036962
2729 2 19.5745 17.9963 48.0443 0.402964 0.702513 0.931532 0.250502 -0.190775 0.241284
2730 1 20.6555 15.8619 47.7673 -0.562283 -1.27223 0.251325 0.315263 0.169081 -0.344326
2731 2 18.4566 18.8152 38.7808 -0.29199 -2.33515 0.742282 -0.427872 0.327581 0.165717
2732 1 18.0481 20.6063 36.8074 -4.51384 3.55155 -2.00992 5.1139 -1.66671 2.12964
2733 3 19.4905 19.6139 35.4227 1.46407 -3.17734 -6.40235 0.680295 0.323597 0.564905
2734 1 17.9111 20.8712 41.0486 -2.39597 -1.46307 -0.876501 -0.996 -0.886575 1.43999
2735 1 14.0751 22.5316 22.5024 -12.7294 -6.49678 -4.21461 -2.80519 -2.45994 1.97301
2736 1 19.32 20.031 49.4806 1.49404 3.66485 1.1441 1.36977 0.167979 0.145465
2737 1 15.4549 18.1405 36.4796 2.88341 -3.77703 -0.361409 0.982772 2.31127 -0.868209
2738 3 18.2294 23.5621 38.6192 -2.07092 5.59696 9.25143 6.29503 -1.89519 1.71709
2739 1 18.302 21.3446 45.3371 4.71412 -1.64217 3.8179 0.901719 2.46745 -1.61475
2740 1 8.26026 24.7522 18.71 -0.938144 1.03702 -7.7185 -2.52951 0.371538 -4.22128
2741 3 17.5354 27.4708 41.4763 -2.39732 31.9797 -5.17173 5.1224 7.32099 2.19134
2742 3 18.1901 22.8829 41.6945 -1.65755 -5.24383 -0.932151 0.362952 2.17234 -3.59911
2743 1 3.70859 23.0604 24.2814 9.15144 18.2324 -13.5822 1.4297 -0.70562 -2.72175
2744 3 4.6929 16.5628 31.967 2.72488 -4.64841 -7.63721 -3.96258 -1.47215 -1.87977
2745 3 18.275 24.5464 39.7783 2.9874 6.13518 -0.906308 -0.751097 0.983007 0.341896
2746 2 12.6185 18.4428 27.299 16.3692 -2.53412 32.808 3.7808 -0.15432 -2.30301
2747 1 24.4088 0.0224736 33.0672 0.247764 -0.916084 -2.04674 -0.373255 -0.242632 -0.129147
2748 3 9.56423 24.0656 27.0376 0.535953 -26.1134 -30.2963 -2.075 3.92348 -1.98842
2749 1 18.68 26.8292 36.4634 3.19772 -4.41604 12.1728 -4.05671 2.27893 1.31898
2750 3 17.226 27.998 33.224 14.2648 6.43155 8.92549 -2.37905 -3.19468 -2.05651
2751 1 32.2215 0.713309 45.3685 -0.668418 -0.726472 1.9212 0.814091 0.632804 0.50052
2752 2 14.9804 18.4285 48.2085 -7.57151 12.1554 15.5795 1.06902 -1.42773 6.21692
2753 1 7.62551 21.2676 25.6532 18.1341 1.50378 5.53252 -0.85158 2.76556 3.39491
2754 3 16.0623 30.8204 37.4541 4.21994 4.92426 0.76767 -1.44122 -0.523105 2.80825
2755 1 12.0526 32.1301 38.184 4.10379 -0.598902 3.4538 0.784365 1.39842 0.916704
2756 1 28.2228 1.02548 43.3358 -0.390004 -1.87526 0.340924 -0.891062 -0.0851039 -0.302131
2757 2 32.8259 1.0221 38.9568 -1.33509 -0.329228 -1.61399 -0.29194 0.133864 -0.186265
2758 1 31.6974 1.8941 36.8641 -3.01873 1.16969 -0.456346 0.70908 -0.406113 -0.241354
2759 3 32.8851 1.1558 35.4284 0.343456 1.17307 -1.72252 -0.871428 -0.351237 -0.226602
2760 1 31.4976 2.57035 41.0462 0.795633 0.410111 0.28368 -0.288966 -0.12451 -0.296033
2761 1 29.9504 2.75068 43.779 -0.111421 0.942066 0.73012 -0.478087 -0.0727307 -0.541728
2762 3 31.3399 2.39174 44.9477 0.414624 0.193866 0.967622 0.399156 0.117655 -0.278576
2763 3 33.1743 1.60994 42.0944 0.559251 0.241284 -1.20182 0.257669 0.558606 -0.4925
2764 3 31.2015 3.55915 35.831 1.651 2.39341 5.29342 -0.0839752 -0.188783 -0.484687
2765 1 31.4858 4.26237 45.478 -0.135246 2.45827 0.362769 -0.297355 -0.042045 -0.234201
2766 1 28.4108 5.40448 43.3804 0.436806 -0.248393 0.21934 0.123575 0.236795 0.114778
2767 3 29.8554 4.46046 44.3137 -1.27175 -0.943632 1.91628 0.113552 -0.0386067 -0.199771
2768 3 31.4245 3.35697 42.7044 1.0638 -0.222395 0.252622 -0.0551375 0.185151 -0.067623
2769 2 31.0887 5.89171 47.0867 -0.309236 0.835235 0.333785 0.0350347 -0.109355 -0.234362
2770 1 30.7803 3.74056 48.3357 0.640737 -0.935171 0.127242 0.0317344 0.0955894 -0.00357938
2771 1 28.0041 7.56252 36.8266 0.0596516 -0.482929 -1.06744 -0.0204154 -0.15904 0.150822
2772 3 29.428 6.26089 35.8703 -1.64914 0.61293 0.357774 0.0861915 -0.0120572 -0.0581487
2773 1 28.126 7.06154 41.0052 0.0308246 -0.0942576 0.0156169 0.0498048 -0.0516348 -0.128625
2774 1 26.6804 7.25029 43.5524 -0.054834 1.08979 0.223716 0.151339 0.306302 0.0689867
2775 3 28.3613 6.88801 44.7095 0.0959005 -1.56111 0.288177 0.00041528 0.272795 0.00494281
2776 3 29.7069 6.26399 42.3836 -0.82825 1.00158 0.127436 -0.263336 0.224668 -0.16233
2777 2 26.5791 8.43122 39.2207 0.691815 -0.138091 0.0821957 -0.0903107 -0.0367994 -0.0562753
2778 1 26.698 9.9947 37.2992 -0.199484 0.463786 -0.249442 0.249614 0.111764 -0.251972
2779 3 28.0397 8.87124 34.6508 0.186901 -0.62568 -0.437385 0.0863831 -0.0809638 -0.304451
2780 1 26.3501 9.65483 41.3652 0.768495 0.865885 0.84016 0.0498488 0.0645167 -0.0298292
2781 1 27.9466 8.82286 45.3617 -0.229939 0.676287 -0.0211161 0.0306177 0.308317 -0.107217
2782 3 27.8336 8.64717 42.4544 0.112176 -0.1295 0.421185 0.038645 -0.0772856 -0.14326
2783 2 27.5856 11.4097 46.9362 -0.19721 -0.094537 0.425224 0.148815 0.0418079 -0.292663
2784 1 23.2336 13.6559 43.2905 -0.204915 1.90656 -0.338591 -0.0894164 0.130521 -0.158291
2785 2 25.5058 12.9802 46.6367 -0.038996 -0.140203 0.444707 -0.271815 -0.22559 0.176556
2786 1 25.3639 11.3332 48.3621 -0.385361 -0.990682 1.1514 0.0120332 -0.355859 -0.334041
2787 2 24.3246 13.4313 39.0822 0.0694097 -1.18704 -0.247422 0.0154525 -0.425968 -0.19279
2788 1 23.0326 15.3728 37.9905 0.288223 0.950806 -0.857736 0.00295346 -0.18543 -0.0844556
2789 1 23.896 15.0293 41.1779 1.66927 2.0931 0.106396 -0.325407 0.0841246 -0.0576531
2790 1 21.544 15.9232 42.6824 -0.41872 -1.55074 0.451022 0.494771 0.468527 -0.211425
2791 3 23.113 15.6688 44.0531 0.306462 -1.2065 -0.626289 -0.169049 -0.0501604 -0.187286
2792 3 25.1179 14.1218 42.664 -0.290541 1.0163 1.47106 0.257592 -0.313473 -0.693879
2793 1 25.1651 14.3638 48.9143 0.151979 -0.133476 0.95227 -0.194264 0.11317 -0.238079
2794 3 23.217 16.8855 36.5203 5.44249 1.25681 -2.82621 -0.364343 -0.0918824 0.206778
2795 1 22.8565 17.8014 44.5237 1.06737 0.651141 0.69345 -0.0253115 -0.075286 -0.555667
2796 2 20.7186 18.0495 38.9317 1.67344 -1.16854 0.502166 0.363547 -0.377997 -0.0131411
2797 1 20.4303 20.3417 37.2268 2.27989 -1.78423 0.196229 1.56592 -0.689454 0.210826
2798 1 20.3505 20.3775 40.7056 0.264127 4.04447 4.51615 -0.633559 -0.725818 -0.315894
2799 1 22.4938 20.1905 46.0516 -0.452945 -0.11771 0.66828 -0.158047 -0.335956 -0.313464
2800 1 19.6088 21.974 42.9421 -5.61956 -5.52086 0.611265 -2.06699 0.307809 2.45258
2801 2 22.414 21.6523 48.123 1.86555 0.196312 0.518697 0.197952 0.235193 -0.0715201
2802 1 21.8644 18.9921 48.3368 0.0383647 0.270026 -0.197404 -0.167422 0.18538 0.143223
2803 2 18.9345 21.6256 38.8073 -1.05517 -3.09408 -4.48397 6.7402 0.372288 0.0310724
2804 1 19.6178 23.3698 37.1485 -2.88782 0.648356 0.172207 -2.54795 0.793833 -1.36368
2805 1 21.3212 22.8888 46.0722 0.484205 1.90185 2.80956 0.256132 0.185056 -0.350366
2806 1 6.21862 19.369 24.4584 7.20038 7.52561 2.21535 -4.03547 -3.64061 -0.553257
2807 3 19.6542 22.8211 44.7845 3.48896 3.61095 -7.27801 -2.16765 -0.0168751 -1.76939
2808 3 21.1991 22.2349 42.2588 2.01278 -1.11352 -8.18531 2.47087 -0.475098 -3.56655
2809 2 20.5654 25.0863 47.4186 1.7458 0.169548 -2.16619 0.450208 -0.182558 -0.563906
2810 1 20.2045 22.7568 48.9649 -0.17942 -1.77017 0.750608 0.0819959 -1.3635 -0.693245
2811 3 19.7187 25.2697 36.1392 -0.21555 4.28591 -5.04758 1.83572 -2.46657 -0.93515
2812 1 19.4117 24.6947 45.1407 2.34045 1.56382 -3.29214 0.276978 -1.05022 0.270077
2813 1 19.0518 26.6443 39.6477 9.45957 6.19767 7.88699 0.430018 0.149756 3.4947
2814 3 16.344 28.2004 41.2365 0.137674 -12.4946 20.6607 -4.26896 -3.63856 -3.38672
2815 3 17.9676 27.4243 38.1965 -12.2834 -0.567412 1.47748 -3.20275 1.60055 3.61939
2816 1 15.1213 28.5819 37.4368 3.19215 6.33186 -3.74404 1.46182 2.7253 -1.42078
2817 1 17.3387 28.4144 45.7409 0.2646 0.702561 1.15842 -0.540553 0.539202 0.0350499
2818 1 2.20686 21.4875 32.8148 0.0967802 -2.01127 -2.77829 1.67279 0.798435 -0.241233
2819 3 16.0661 29.6458 44.5851 3.95862 -0.0629943 7.51474 6.26757 8.51572 9.14181
2820 3 18.5789 28.3607 42.0114 2.05967 -24.9436 -4.79218 -0.316163 -3.78157 2.73295
2821 2 17.6992 30.5881 47.6478 0.460274 -4.81998 1.52895 0.548811 0.0275461 -0.355425
2822 3 16.6369 31.6385 36.4671 7.56964 0.989357 -0.828419 0.200357 0.308377 0.489666
2823 1 14.0764 32.1317 42.2056 4.35103 -1.96323 0.547574 0.659374 -2.89153 -1.53603
2824 1 16.3581 31.0649 45.7234 0.472653 0.474666 0.842755 0.319969 0.518665 0.409975
2825 3 16.0039 31.2439 42.3354 -0.630685 -2.48298 -2.2945 -0.167438 -0.771173 -1.23485
2826 1 17.1476 30.3675 49.9075 0.583263 0.524799 -0.858438 0.0233173 0.198542 0.125046
2827 3 35.9864 1.38969 36.7712 -2.21088 -5.0648 -1.19445 -0.234677 -0.666195 0.381161
2828 1 36.0917 1.46172 45.5808 -0.487959 -0.687934 -0.992073 -0.50099 0.382011 -0.458859
2829 1 32.835 2.75279 43.7617 -2.6446 0.786326 1.2629 0.082247 0.394476 0.380237
2830 3 34.27 1.96695 44.7843 -4.01216 2.03999 -0.795686 -0.0891987 -0.200412 -0.193952
2831 3 36.1623 1.56478 42.1427 1.87398 -11.3197 -0.143303 0.0404043 0.526116 -0.293318
2832 2 35.1898 2.48643 47.7872 -0.0615104 0.144079 -1.4792 -0.00221953 0.107686 -0.330227
2833 1 32.5603 4.43931 37.3292 0.801321 -0.161462 0.104423 -0.092048 -0.0772559 0.080829
2834 3 34.1382 3.99541 36.1524 3.26561 0.354571 -0.688682 0.0237961 -0.176608 -0.0262464
2835 1 34.4549 4.13765 45.5514 1.82026 0.775834 0.444524 0.0350965 0.254196 -0.186383
2836 1 31.4303 5.27445 42.9115 -0.153781 0.10671 -1.50941 0.119626 0.343434 -0.000654339
2837 3 33.0102 4.85964 44.1928 -0.900827 -0.854454 -4.68855 -0.249201 0.277139 -0.522303
2838 2 -3.47043 6.32841 46.9137 -0.892049 -1.76914 -3.58745 0.248669 0.831924 0.833224
2839 1 33.3455 4.23073 48.0204 0.547287 3.43533 -0.697385 0.00470932 0.279934 0.0849216
2840 1 30.814 7.00812 37.3675 -1.42068 -0.826612 0.871811 -0.0958975 0.0364874 0.08159
2841 3 32.6376 6.17959 36.3535 0.426186 0.236362 1.24829 0.262004 0.0774259 0.415176
2842 1 29.6647 7.98827 43.4502 -0.65255 0.923004 -0.462137 0.283059 -0.0686585 0.337243
2843 3 32.8566 6.25346 41.5176 -0.832398 -0.898929 -0.40883 -0.493745 0.357328 -0.0875151
2844 1 32.2212 6.67413 49.0049 -0.296549 -0.440397 -0.570308 0.117811 0.0385943 0.0275362
2845 2 29.3472 8.54649 38.9259 -0.579811 1.28411 -0.598586 -0.140757 0.157515 -0.0572261
2846 3 31.2091 8.82605 36.3543 0.0768981 -0.450775 0.0818389 -0.0102189 0.0662731 -0.137828
2847 1 29.3206 9.33777 41.211 0.0352525 0.255349 0.110546 0.28141 -0.255233 0.27324
2848 1 28.083 10.6364 43.1634 -0.263759 -0.133266 0.588473 -0.114356 -0.00795242 -0.118796
2849 3 29.3972 9.89845 44.3043 0.320883 1.4112 -2.68121 -0.210446 -0.175774 0.103266
2850 3 31.2476 8.89678 42.4616 -0.963476 -2.18517 1.64096 0.271037 0.144481 -0.216931
2851 2 -5.69779 10.3886 46.9609 0.417701 -0.902726 0.15172 -0.126926 0.452289 -0.126128
2852 1 31.4631 9.54394 49.276 0.133 0.310763 0.141986 0.0611837 0.049004 -0.122051
2853 3 29.4247 11.5667 36.6386 -0.729806 -0.492779 0.0399956 -0.058318 0.00488073 -0.0835401
2854 1 29.6339 11.7071 45.2913 0.317112 0.127587 -0.541584 -0.0363499 0.0582374 -0.520514
2855 3 28.1241 12.5435 44.0233 -0.427243 0.0808689 0.189463 -0.00133115 0.090792 -0.268995
2856 3 29.322 11.3409 41.6427 -0.16342 0.290916 0.0620116 0.0183379 0.0118698 -0.0535613
2857 2 -7.05009 13.4033 46.9008 2.29985 -0.440327 -1.10561 -1.12225 0.0489467 0.06988
2858 1 29.6559 11.3835 48.2878 1.18906 0.346701 1.11999 -0.122025 0.0198633 -0.20218
2859 2 26.7235 12.8646 39.5048 0.163934 -0.00629271 -0.0675569 0.0162889 -0.0400668 -0.0640664
2860 1 26.2401 14.7824 37.5996 -1.9006 0.529226 0.803681 0.330414 -0.260295 -0.204651
2861 3 27.8999 14.4619 36.2722 0.644933 1.04929 -0.0894991 0.166522 0.220939 -0.209579
2862 1 26.7992 14.6864 41.2987 -0.299613 -0.100387 -0.317503 -0.276021 0.104184 -0.113395
2863 1 27.7126 13.906 45.6063 0.372707 1.23472 0.49713 -0.0489416 -0.108431 -0.0649856
2864 1 25.2218 15.9023 43.5496 0.289596 0.0282626 0.347901 -0.0950149 0.0230941 -0.108362
2865 3 26.5203 15.5565 45.0297 -1.7486 1.68346 -0.546379 0.145627 0.51032 -0.45793
2866 3 -8.57629 14.8741 42.3516 -0.431578 1.31585 0.11446 -0.202637 0.30379 -0.124792
2867 1 27.674 13.7167 48.0918 0.260543 0.860689 -0.0254976 0.00759332 -0.111722 -0.172604
2868 2 25.0339 16.0739 39.3803 -0.0411068 0.0147522 0.181875 0.117202 -0.256658 -0.163639
2869 1 24.8594 17.7034 37.6566 -1.99633 1.16305 -0.82343 0.716911 -0.254255 0.182614
2870 3 26.2166 17.0905 36.4927 3.97463 -1.0217 -2.05104 0.290817 -0.21701 -0.259361
2871 1 26.5785 17.3986 45.7464 0.0860742 0.325914 0.718457 -0.136057 -0.338839 0.166486
2872 3 24.9469 17.8277 44.1387 0.775071 -0.10698 -0.167512 -0.0808616 0.184592 -0.0850374
2873 3 26.9634 16.4517 42.599 0.951592 0.829282 0.327991 0.23884 -0.0217186 -0.324509
2874 2 -10.7459 19.6519 47.4244 5.2736 0.565173 6.64729 0.419805 0.0217846 0.134198
2875 1 26.9916 16.988 48.287 -0.454351 -0.585791 -0.260694 -0.0454473 0.0697488 -0.206274
2876 1 23.354 20.0847 36.9513 1.29121 1.06145 -1.22527 1.23421 -0.419356 -1.29842
2877 1 24.9437 19.3515 45.574 0.108038 -0.291776 -0.931101 -0.16246 -0.038026 -0.165266
2878 1 22.5297 21.586 43.7677 0.298505 -0.435778 1.58471 0.0154806 0.250116 0.252322
2879 3 24.0274 21.1549 45.1131 -2.29121 -0.197947 -1.25978 0.108639 -0.203106 -0.0750476
2880 2 22.1622 20.0269 39.0913 -1.04474 -1.43267 1.01915 0.444556 -0.168097 -0.134611
2881 1 22.3802 22.3361 37.5934 0.479667 -1.31459 -0.171847 0.236074 -0.633204 -1.14714
2882 1 22.3473 22.1679 40.5578 -0.620766 -0.309517 0.24573 -0.569538 -0.0981205 0.592402
2883 1 -13.0432 22.8183 46.235 -2.58707 2.41485 0.0984083 0.207366 -0.706539 -0.0997591
2884 3 22.9695 23.3088 44.9153 -2.94045 0.914887 -0.132026 -0.811899 -0.327411 -1.25277
2885 3 23.8062 22.0972 42.2916 0.00127264 -0.716006 -0.747391 -0.0873735 0.00978581 -0.478042
2886 2 -13.5295 25.239 47.3031 0.134615 -0.0868571 0.423266 0.139936 0.345068 0.359512
2887 1 22.3576 23.9997 48.8615 -0.670511 -0.206869 0.441186 0.335926 0.707686 0.390174
2888 2 21.1906 23.7753 38.889 1.37487 1.26022 0.685784 0.557936 0.0376606 0.538919
2889 1 21.3611 26.0899 37.2269 2.10876 -0.523281 0.176874 0.402333 -0.134439 -0.208198
2890 1 19.0701 27.1124 43.9205 -0.798589 1.15289 -1.94569 1.55348 -0.28194 -1.89707
2891 2 -14.9493 27.6001 47.249 -1.26757 -0.457763 -0.377324 -0.264169 -0.120132 0.041832
2892 1 21.8816 26.412 49.2911 -0.719253 0.104173 0.0330987 0.206877 -0.76242 0.395159
2893 2 21.1874 25.78 40.238 -8.24489 2.43837 -4.98143 -0.410846 -0.156014 -0.408494
2894 1 19.319 29.298 37.9728 5.67764 1.28137 -2.8268 1.2808 -0.498934 -0.281103
2895 1 19.6496 29.6447 41.2721 -0.758114 1.26384 -2.20495 1.82499 1.18547 -0.880641
2896 1 20.6629 27.8635 45.577 0.596522 -2.8527 -0.788952 -0.156589 -0.584316 -0.295988
2897 1 17.6691 30.2103 43.3767 0.50904 -0.399785 -1.39546 0.0845569 -0.182927 0.713772
2898 3 19.0965 29.0724 44.5791 -2.00742 0.263569 -2.43468 0.00496084 0.135945 0.616587
2899 2 -16.3079 29.589 47.6069 -0.0505401 1.5963 1.14909 0.153406 0.0461579 -0.0904847
2900 1 19.6693 27.3803 48.14 -0.172037 0.329503 -0.848194 0.00950066 0.232795 0.289535
2901 3 19.4797 29.8573 36.1627 -10.2713 -0.215469 3.67003 0.0846102 0.0402439 -0.648464
2902 1 17.2163 32.1265 40.9433 -5.84872 0.54361 2.99109 -0.122393 1.2088 -0.236163
2903 1 19.2778 31.0376 45.7879 -0.419362 0.615471 -1.15315 -0.291927 -0.0370759 -0.0410864
2904 1 34.859 0.641314 43.3332 -3.84606 0.554598 1.85625 -0.22633 1.09064 -0.294015
2905 3 17.8345 32.0658 44.5269 -3.99105 -8.302 -6.99033 0.433247 -0.89713 -0.770753
2906 3 18.6994 31.3655 41.7957 3.60882 2.77527 -1.16783 0.810715 0.0170185 0.469128
2907 2 0.314122 0.9902 47.3155 -0.759964 -0.0407004 0.412336 -0.212382 -0.149293 -0.121717
2908 1 -17.4419 31.47 48.6441 -0.121006 -0.29774 -0.206369 0.27315 0.199623 0.266961
2909 4 3.64282 3.094 2.18196 0 0 0 0 0 0
2910 4 1.74018 5.04005 2.3127 0 0 0 0 0 0
2911 4 -4.29901 17.3011 2.34779 0 0 0 0 0 0
2912 4 -8.04026 22.5941 2.46133 0 0 0 0 0 0
2913 4 -9.38221 24.9649 2.4081 0 0 0 0 0 0
2914 4 6.29471 2.49211 2.35346 0 0 0 0 0 0
2915 4 4.92399 5.4973 2.26592 0 0 0 0 0 0
2916 4 2.94256 10.6357 2.7064 0 0 0 0 0 0
2917 4 0.529642 12.4517 2.45853 0 0 0 0 0 0
2918 4 -3.65828 19.9655 2.27585 0 0 0 0 0 0
2919 4 -9.71335 30.3927 2.6464 0 0 0 0 0 0
2920 4 -3.40048 24.9598 2.15546 0 0 0 0 0 0
2921 4 10.8215 0.0620446 2.13113 0 0 0 0 0 0
2922 4 -0.686096 24.9467 2.39251 0 0 0 0 0 0
2923 4 -1.74637 27.3008 1.52153 0 0 0 0 0 0
2924 4 13.55 1.02051 2.83841 0 0 0 0 0 0
2925 4 11.2486 7.95313 2.58037 0 0 0 0 0 0
2926 4 10.3042 10.4548 2.05685 0 0 0 0 0 0
2927 4 8.98622 12.7999 2.4901 0 0 0 0 0 0
2928 4 7.59524 15.1428 2.47179 0 0 0 0 0 0
2929 4 6.1871 17.4736 2.3801 0 0 0 0 0 0
2930 4 4.82806 19.9263 2.48908 0 0 0 0 0 0
2931 4 3.43051 22.5266 2.27659 0 0 0 0 0 0
2932 4 2.06437 24.937 2.37391 0 0 0 0 0 0
2933 4 16.2043 0.693966 2.3167 0 0 0 0 0 0
2934 4 17.8184 2.83865 2.7847 0 0 0 0 0 0
2935 4 13.5228 9.91095 2.35561 0 0 0 0 0 0
2936 4 11.9399 12.6219 2.28557 0 0 0 0 0 0
2937 4 10.5665 15.0189 2.43537 0 0 0 0 0 0
2938 4 9.14774 17.5598 2.28778 0 0 0 0 0 0
2939 4 18.8906 0.340223 2.60433 0 0 0 0 0 0
2940 4 6.4314 27.5316 2.01572 0 0 0 0 0 0
2941 4 20.7018 7.53347 2.24048 0 0 0 0 0 0
2942 4 19.247 9.99535 2.49893 0 0 0 0 0 0
2943 4 17.6578 12.3985 2.53443 0 0 0 0 0 0
2944 4 13.1524 19.6502 2.64646 0 0 0 0 0 0
2945 4 10.6346 24.983 2.50376 0 0 0 0 0 0
2946 4 9.1897 27.6045 1.43198 0 0 0 0 0 0
2947 4 7.67147 29.9537 1.87393 0 0 0 0 0 0
2948 4 26.555 2.70214 2.63569 0 0 0 0 0 0
2949 4 23.4189 7.67881 2.09677 0 0 0 0 0 0
2950 4 20.3792 12.5323 2.52863 0 0 0 0 0 0
2951 4 15.8499 19.8989 2.35304 0 0 0 0 0 0
2952 4 14.25 22.09 2.10085 0 0 0 0 0 0
2953 4 27.5948 0.143749 1.88993 0 0 0 0 0 0
2954 4 29.276 2.62458 2.51531 0 0 0 0 0 0
2955 4 27.795 4.98489 1.81356 0 0 0 0 0 0
2956 4 23.0459 12.1562 2.11453 0 0 0 0 0 0
2957 4 18.5705 19.7695 2.42957 0 0 0 0 0 0
2958 4 30.6211 5.03079 2.54004 0 0 0 0 0 0
2959 4 23.7693 17.5345 2.62327 0 0 0 0 0 0
2960 4 18.9878 25.108 2.6386 0 0 0 0 0 0
2961 4 17.8709 28.2806 1.73097 0 0 0 0 0 0
2962 4 15.9717 30.137 2.34018 0 0 0 0 0 0
2963 4 33.5257 4.99748 2.52058 0 0 0 0 0 0
2964 4 30.9353 9.96641 3.20245 0 0 0 0 0 0
2965 4 29.2073 12.2559 2.23272 0 0 0 0 0 0
2966 4 24.9456 19.9869 2.46148 0 0 0 0 0 0
2967 4 21.966 25.3594 2.29715 0 0 0 0 0 0
2968 4 20.361 27.5454 2.56153 0 0 0 0 0 0
2969 4 -1.06262 4.71874 2.25786 0 0 0 0 0 0
2970 4 -5.3049 12.4465 2.30204 0 0 0 0 0 0
2971 4 -6.89287 14.7065 2.11966 0 0 0 0 0 0
2972 4 -9.60745 19.8654 2.8465 0 0 0 0 0 0
2973 4 -10.7492 22.3244 2.57496 0 0 0 0 0 0
2974 4 -13.6739 27.5236 2.12233 0 0 0 0 0 0
2975 4 3.37284 4.00662 4.73509 0 0 0 0 0 0
2976 4 -1.10228 11.6965 4.62401 0 0 0 0 0 0
2977 4 -3.664 16.7724 4.94423 0 0 0 0 0 0
2978 4 -4.92437 19.8056 4.68328 0 0 0 0 0 0
2979 4 -7.74459 24.2355 4.61601 0 0 0 0 0 0
2980 4 -9.13169 26.8225 4.38563 0 0 0 0 0 0
2981 4 -11.0281 28.7353 4.79696 0 0 0 0 0 0
2982 4 -12.168 31.6589 4.35641 0 0 0 0 0 0
2983 4 3.41734 9.0434 4.8659 0 0 0 0 0 0
2984 4 2.09092 12.1429 4.8105 0 0 0 0 0 0
2985 4 0.196998 14.0914 4.60909 0 0 0 0 0 0
2986 4 -1.0247 16.5098 4.32023 0 0 0 0 0 0
2987 4 -2.28973 19.1236 4.81679 0 0 0 0 0 0
2988 4 -9.71871 31.0516 5.38413 0 0 0 0 0 0
2989 4 6.13563 8.85625 4.87347 0 0 0 0 0 0
2990 4 -2.11282 24.0549 4.55157 0 0 0 0 0 0
2991 4 -4.45422 26.4812 4.15526 0 0 0 0 0 0
2992 4 12.0282 4.16084 4.71571 0 0 0 0 0 0
2993 4 10.3133 6.84191 4.88572 0 0 0 0 0 0
2994 4 8.8338 9.11445 5.15181 0 0 0 0 0 0
2995 4 0.693678 23.7764 4.45059 0 0 0 0 0 0
2996 4 -1.19748 26.4508 5.47158 0 0 0 0 0 0
2997 4 -3.57235 31.4231 4.37362 0 0 0 0 0 0
2998 4 14.8547 4.08702 4.85861 0 0 0 0 0 0
2999 4 13.5669 6.47961 4.65555 0 0 0 0 0 0
3000 4 12.1972 8.80523 5.02927 0 0 0 0 0 0
3001 4 1.82759 26.2113 4.9085 0 0 0 0 0 0
3002 4 -0.886061 31.5204 4.8193 0 0 0 0 0 0
3003 4 16.2511 1.74748 4.82909 0 0 0 0 0 0
3004 4 16.2676 6.43225 5.01331 0 0 0 0 0 0
3005 4 1.98208 31.6236 4.88928 0 0 0 0 0 0
3006 4 19.1779 1.75411 4.91663 0 0 0 0 0 0
3007 4 15.4733 14.1817 4.52781 0 0 0 0 0 0
3008 4 10.3956 21.6673 4.11048 0 0 0 0 0 0
3009 4 9.3775 24.109 4.85666 0 0 0 0 0 0
3010 4 22.037 1.71113 4.85045 0 0 0 0 0 0
3011 4 19.1958 11.515 4.76393 0 0 0 0 0 0
3012 4 18.1924 14.0452 4.63848 0 0 0 0 0 0
3013 4 16.3225 16.7697 4.45735 0 0 0 0 0 0
3014 4 14.8094 19.0591 4.72713 0 0 0 0 0 0
3015 4 13.0888 21.626 4.5217 0 0 0 0 0 0
3016 4 12.1477 24.1648 4.82733 0 0 0 0 0 0
3017 4 10.7672 26.489 5.16851 0 0 0 0 0 0
3018 4 24.761 1.97516 4.91998 0 0 0 0 0 0
3019 4 26.4131 4.14144 4.96627 0 0 0 0 0 0
3020 4 20.9063 14.0777 4.87873 0 0 0 0 0 0
3021 4 17.8346 19.1573 4.98515 0 0 0 0 0 0
3022 4 29.3876 3.975 4.93623 0 0 0 0 0 0
3023 4 14.656 29.0685 4.79935 0 0 0 0 0 0
3024 4 32.1025 4.17173 4.81555 0 0 0 0 0 0
3025 4 27.7693 11.3905 4.70386 0 0 0 0 0 0
3026 4 25.005 16.3431 4.73937 0 0 0 0 0 0
3027 4 23.5012 19.1627 4.89116 0 0 0 0 0 0
3028 4 20.4196 23.8013 4.55346 0 0 0 0 0 0
3029 4 19.7422 26.3571 5.21187 0 0 0 0 0 0
3030 4 17.3711 28.888 4.40705 0 0 0 0 0 0
3031 4 16.5584 31.4785 4.63813 0 0 0 0 0 0
3032 4 -2.21691 4.40833 4.96347 0 0 0 0 0 0
3033 4 -3.56019 6.77252 4.78901 0 0 0 0 0 0
3034 4 -6.6088 11.8713 5.1335 0 0 0 0 0 0
3035 4 28.9297 13.8408 4.43224 0 0 0 0 0 0
3036 4 -15.0153 27.0158 4.43901 0 0 0 0 0 0
3037 4 -13.6636 29.3793 4.54448 0 0 0 0 0 0
3038 4 1.98845 8.56781 7.52062 0 0 0 0 0 0
3039 4 0.565178 10.6622 6.51453 0 0 0 0 0 0
3040 4 -2.28413 15.9507 7.14536 0 0 0 0 0 0
3041 4 -3.72051 18.2971 7.20172 0 0 0 0 0 0
3042 4 -8.19475 25.864 6.75788 0 0 0 0 0 0
3043 4 -9.43324 28.3288 7.04256 0 0 0 0 0 0
3044 4 8.30496 3.05674 7.38644 0 0 0 0 0 0
3045 4 6.55715 5.80986 7.33182 0 0 0 0 0 0
3046 4 4.70106 8.62994 7.27135 0 0 0 0 0 0
3047 4 3.77837 11.1278 6.69364 0 0 0 0 0 0
3048 4 -0.550297 17.9722 6.56975 0 0 0 0 0 0
3049 4 11.0034 3.28264 7.08344 0 0 0 0 0 0
3050 4 9.27868 5.86342 7.21086 0 0 0 0 0 0
3051 4 7.41418 8.39611 7.3638 0 0 0 0 0 0
3052 4 12.0001 5.90448 6.80931 0 0 0 0 0 0
3053 4 7.54782 13.3997 7.31045 0 0 0 0 0 0
3054 4 6.15448 15.7409 7.26981 0 0 0 0 0 0
3055 4 4.7571 18.0749 7.11504 0 0 0 0 0 0
3056 4 1.19038 25.7211 7.51195 0 0 0 0 0 0
3057 4 -2.42309 30.7263 7.04691 0 0 0 0 0 0
3058 4 7.48138 18.1235 7.12859 0 0 0 0 0 0
3059 4 5.94653 20.5257 7.05833 0 0 0 0 0 0
3060 4 3.72131 26.6794 7.19525 0 0 0 0 0 0
3061 4 1.58547 28.3406 6.87418 0 0 0 0 0 0
3062 4 0.469461 30.8325 7.0806 0 0 0 0 0 0
3063 4 17.6501 1.05933 7.06368 0 0 0 0 0 0
3064 4 13.6346 13.3205 7.37585 0 0 0 0 0 0
3065 4 12.3772 15.7206 7.66369 0 0 0 0 0 0
3066 4 9.08433 21.5123 6.49395 0 0 0 0 0 0
3067 4 4.98123 28.9946 7.88562 0 0 0 0 0 0
3068 4 20.4262 6.11184 6.94877 0 0 0 0 0 0
3069 4 19.1251 8.49048 7.21969 0 0 0 0 0 0
3070 4 16.4303 13.4705 7.53891 0 0 0 0 0 0
3071 4 14.9524 15.629 6.77684 0 0 0 0 0 0
3072 4 11.7421 20.9996 6.80607 0 0 0 0 0 0
3073 4 10.7987 23.5384 7.11031 0 0 0 0 0 0
3074 4 23.4909 0.889121 7.12929 0 0 0 0 0 0
3075 4 24.6618 3.7197 7.01067 0 0 0 0 0 0
3076 4 22.0398 8.33906 7.2119 0 0 0 0 0 0
3077 4 17.9292 15.9889 6.52976 0 0 0 0 0 0
3078 4 16.1856 18.0574 6.85474 0 0 0 0 0 0
3079 4 12.3373 25.7742 7.35743 0 0 0 0 0 0
3080 4 10.8781 28.0752 7.38119 0 0 0 0 0 0
3081 4 9.16031 30.6364 7.15835 0 0 0 0 0 0
3082 4 26.3526 0.924789 7.2144 0 0 0 0 0 0
3083 4 24.7724 8.83708 7.12943 0 0 0 0 0 0
3084 4 14.5883 25.905 5.82761 0 0 0 0 0 0
3085 4 13.7267 28.111 7.175 0 0 0 0 0 0
3086 4 12.2414 30.4245 7.16705 0 0 0 0 0 0
3087 4 27.5544 8.67373 7.35299 0 0 0 0 0 0
3088 4 26.4047 11.125 7.04724 0 0 0 0 0 0
3089 4 23.6 15.4978 7.72614 0 0 0 0 0 0
3090 4 22.4888 17.973 7.47599 0 0 0 0 0 0
3091 4 18.7307 23.6211 7.99497 0 0 0 0 0 0
3092 4 17.7837 26.0039 7.07297 0 0 0 0 0 0
3093 4 32.4184 5.80369 6.97451 0 0 0 0 0 0
3094 4 29.1186 10.9041 7.14832 0 0 0 0 0 0
3095 4 26.3062 15.8127 7.76583 0 0 0 0 0 0
3096 4 25.1332 18.0867 6.82927 0 0 0 0 0 0
3097 4 20.9753 25.1188 7.61652 0 0 0 0 0 0
3098 4 17.3299 31.0533 7.22541 0 0 0 0 0 0
3099 4 35.0157 1.19856 6.46756 0 0 0 0 0 0
3100 4 -2.15205 5.92708 7.22476 0 0 0 0 0 0
3101 4 -3.78476 8.30049 7.10794 0 0 0 0 0 0
3102 4 -8.26184 15.7079 7.9277 0 0 0 0 0 0
3103 4 -9.65914 19.1157 7.21295 0 0 0 0 0 0
3104 4 -16.2027 30.7107 7.6676 0 0 0 0 0 0
3105 4 0.56493 0.722377 7.46403 0 0 0 0 0 0
3106 4 -1.02532 8.39311 7.49565 0 0 0 0 0 0
3107 4 -6.32882 17.5911 7.55171 0 0 0 0 0 0
3108 4 -10.6713 26.0501 7.87864 0 0 0 0 0 0
3109 4 -13.8061 31.2722 6.49921 0 0 0 0 0 0
3110 4 3.27278 1.01982 7.40651 0 0 0 0 0 0
3111 4 3.20669 3.02467 9.81563 1.64952 0.595216 -2.71191 6.53226 21.3594 -20.788
3112 4 0.840818 7.26764 9.1791 -1.77439 -0.831462 -1.33852 -20.1378 3.93367 -22.7815
3113 4 -1.7269 11.2851 9.68011 -1.60674 0.0838788 0.617093 -26.0406 -10.2714 24.8684
3114 4 -3.33622 14.6708 9.34632 0.205918 0.959968 -1.88236 -14.5794 6.7223 -8.2156
3115 4 -5.52955 18.8756 9.48962 -0.606719 3.58857 -1.56664 -24.2948 -8.74656 19.1678
3116 4 -11.651 23.7278 8.69205 2.35166 0.042324 0.361337 -13.495 -11.5348 23.9507
3117 4 -13.5357 32.0028 9.66547 -1.41041 2.88326 -1.63231 1.91515 -11.0775 6.21701
3118 4 -2.1221 17.1092 9.49098 0.0671055 1.44135 -1.93073 -20.8703 14.7323 7.5237
3119 4 -6.96784 23.5857 8.72044 -0.604794 0.338279 0.73153 -22.0149 23.0193 -4.21275
3120 4 -8.25049 27.4058 9.14462 -1.7119 -0.210023 1.56088 13.7998 10.3597 20.1286
3121 4 10.7143 1.64671 9.27952 -2.0541 -3.31378 2.98649 7.2849 12.4495 -11.6901
3122 4 6.67746 4.16575 9.1594 -2.79059 2.49298 -2.11772 -16.0202 -8.58722 -0.91886
3123 4 10.9514 5.03345 9.15908 -0.530116 -2.7053 0.0975246 0.661048 24.3306 20.3674
3124 4 -5.04086 29.319 8.7448 -2.25992 0.891529 2.60831 4.31993 -0.994046 -21.2365
3125 4 8.07526 15.4529 10.3457 3.31005 1.24426 0.444471 -19.7746 9.05837 -0.329404
3126 4 6.22898 17.2382 9.55743 1.30786 0.00435715 0.667149 -24.5537 -14.5406 0.522154
3127 4 3.56087 19.4433 9.19931 -0.248104 0.114784 2.09042 19.638 -5.56926 -12.9277
3128 4 3.70192 22.7927 9.63254 -1.17816 -2.63439 2.29949 -13.507 -1.64773 -13.6206
3129 4 1.40502 23.3618 8.72227 -1.55277 3.48047 -2.30526 10.5012 10.8961 10.9916
3130 4 -0.832683 29.461 8.86641 1.39399 0.956927 -1.65056 13.5412 0.275289 -2.9797
3131 4 11.172 12.9988 8.8476 -0.00770238 -0.112189 -0.583481 -9.87052 11.0509 10.0765
3132 4 10.457 15.4978 8.94068 2.32386 -2.27788 -2.72113 1.78225 -18.6248 -7.39298
3133 4 8.6484 18.8862 9.42299 -0.776765 0.72968 0.256338 3.17348 10.3844 19.8607
3134 4 6.1287 22.7726 9.08673 -0.523595 -0.421533 2.37125 -6.2162 9.15071 -9.97762
3135 4 5.06911 25.0417 8.9423 -2.41196 -1.19088 -4.49748 7.41158 25.6229 22.2408
3136 4 3.29144 28.8829 9.70365 0.367592 2.44873 0.00823023 5.47646 11.0951 15.9906
3137 4 19.7682 4.38371 9.07191 0.325222 2.19371 -1.48282 20.8645 -11.9504 -17.2108
3138 4 14.4679 15.3254 11.4028 -1.6753 2.23615 1.9105 -18.8863 -21.9472 7.93204
3139 4 10.8786 20.3996 9.11876 -0.689034 -1.81401 2.17541 -12.0397 21.5444 9.75585
3140 4 8.97102 22.4553 8.90207 -0.397922 -0.620777 1.59151 13.8617 -20.8554 -4.61229
3141 4 21.1248 7.25223 9.51638 -0.867966 1.34031 -0.510128 23.6716 13.4039 24.0862
3142 4 18.1071 14.3335 9.10945 -1.81727 1.82841 0.116508 -13.9464 -26.6272 -20.3512
3143 4 13.8308 17.4816 8.69188 2.04607 4.8149 1.07387 1.08834 -22.0508 17.9712
3144 4 7.13706 29.2191 8.79809 0.895852 -0.0601178 -1.13564 -24.7557 16.4683 3.06449
3145 4 5.70074 32.0777 9.13453 -1.60786 -0.416688 -0.277348 5.60937 -23.026 -20.9604
3146 4 26.1816 2.22276 10.4939 0.46552 -1.63139 -1.31581 -14.5717 14.0704 -17.3757
3147 4 20.9312 11.9035 9.29028 -0.131122 -1.12317 -0.432837 -18.0062 23.9105 1.43372
3148 4 11.2093 26.8425 9.56717 -0.527869 -3.08959 0.692775 13.9342 4.57126 -17.1154
3149 4 9.33455 28.6046 9.6272 -0.110805 0.819345 1.77585 -25.1095 -15.687 -21.3416
3150 4 28.1789 1.3844 8.87463 0.168544 1.47355 -1.03063 -26.5132 -4.16336 13.7501
3151 4 26.1917 6.96813 9.24845 3.72656 -0.42839 0.8298 6.72637 15.2972 -17.4175
3152 4 22.3088 15.3563 10.0715 0.737014 0.71441 0.610157 25.3435 2.94755 10.778
3153 4 16.7787 25.2316 9.15713 2.05798 -1.48982 -0.719119 -15.0559 15.7151 4.81553
3154 4 13.2524 30.0725 10.2857 -0.786585 -0.906279 -0.216556 19.4907 -7.76895 -24.0236
3155 4 11.8718 32.1779 10.0771 -0.00066292 -0.439178 0.523447 19.5708 16.8343 -21.2701
3156 4 30.0604 7.81306 8.85279 0.684325 -0.70979 1.43154 -9.64212 -3.78358 -7.47187
3157 4 29.6038 10.1402 9.78907 -0.348656 -0.741724 2.36315 -18.4866 -14.8053 3.29502
3158 4 24.347 17.2465 9.88088 -2.31139 -0.674589 -1.20202 1.64061 9.76855 20.1888
3159 4 21.2422 18.9667 10.6076 1.95587 3.36807 -1.81504 0.392962 -2.68909 23.6147
3160 4 21.4283 23.3002 9.39639 -0.922423 1.05082 0.512137 -17.0067 -6.95843 10.4039
3161 4 20.3265 26.2914 9.62236 -0.858515 1.54499 -1.74038 25.0414 -0.106404 16.121
3162 4 34.6084 3.90124 9.42492 0.00853355 1.38751 0.861946 21.8332 -11.1445 11.7757
3163 4 -10.1429 19.0942 9.63273 -0.775658 0.629463 -0.971709 6.87908 8.09719 4.49068
3164 4 22.9083 20.0975 9.18077 1.59864 0.32453 1.92808 17.8924 -6.40332 -3.57903
3165 4 17.1401 31.4869 9.71342 1.47587 -1.34171 -0.52369 10.5895 17.3912 10.507
3166 4 0.134365 3.09125 9.34043 -0.82764 -0.825734 3.73266 -25.7185 17.9972 -17.9125
3167 4 -3.55967 6.4885 9.19831 -2.10606 0.249593 -0.121714 -1.51146 2.72959 7.54223
3168 4 -8.13132 18.4089 10.8931 0.583893 -0.500053 -0.216302 21.8253 24.4974 -5.70737
3169 4 -13.2706 29.6306 8.62823 0.853467 1.21311 1.55756 -11.6573 11.4631 -11.066
3170 4 2.08059 0.692598 9.72206 1.15749 0.215128 0.770623 -5.58775 -0.580603 17.9429
3171 4 3.55957 5.33344 10.5808 0.693588 0.128742 1.33893 10.7429 -12.6962 -20.6983
3172 4 -0.0172337 12.123 11.9104 -2.72893 0.725913 0.653213 13.2368 4.85684 20.9044
3173 4 -1.76512 13.4739 10.9292 -3.14789 -0.229115 1.12687 -21.0755 17.7628 -24.317
3174 4 -3.30828 17.8949 13.7991 -0.0536173 1.53594 -1.66121 17.6227 3.91885 -22.3335
3175 4 -6.71365 21.8429 10.7811 -1.97646 0.0257067 1.42447 3.35293 3.30222 21.8406
3176 4 -7.91797 25.0452 13.7647 -1.18164 -0.174021 2.54722 18.6049 19.6346 15.0474
3177 4 5.66059 6.82871 11.3748 2.22913 1.17011 -0.59704 -10.4136 13.6278 25.8691
3178 4 -3.30302 21.1552 11.3505 1.9219 -2.45708 -1.76576 -1.47999 2.47753 16.2517
3179 4 -4.6241 23.2597 10.2221 -0.12138 -0.101011 -0.752006 15.0034 10.5962 23.7411
3180 4 5.22229 9.34844 12.6457 2.66793 0.514924 1.75953 -4.85702 25.576 -4.20564
3181 4 3.56227 12.3093 12.2845 0.533439 -3.45292 3.45218 -7.81851 8.91541 1.53299
3182 4 1.3074 16.6829 9.86882 -2.28352 -0.989061 1.99471 -6.3235 17.8077 -16.1633
3183 4 -2.05452 23.2702 10.6382 -1.71471 1.55148 -0.687026 24.2193 19.6525 9.51583
3184 4 -6.04745 28.8222 12.1492 0.525035 -1.98038 0.714358 2.5137 -5.16872 -2.15377
3185 4 -7.33552 30.7222 11.3848 -2.14338 -0.497084 -0.646875 17.5864 -10.2909 -9.12861
3186 4 11.2165 3.00638 12.7482 -0.402531 -1.0805 -0.0799409 -0.308488 19.8301 13.3252
3187 4 7.90482 10.0073 11.3784 1.05081 0.18162 -1.109 -13.8488 -16.5358 8.62886
3188 4 5.05699 13.501 10.6453 -0.807331 -0.553414 -0.525482 -9.20861 -2.72335 -0.235313
3189 4 4.76549 16.05 11.464 -0.342458 -0.940955 -0.283236 12.8533 0.193145 0.850217
3190 4 1.45979 18.8043 10.9445 -1.56734 1.31509 0.863186 13.4877 14.6231 16.3219
3191 4 -4.84112 27.3674 10.4123 0.0718279 -0.304515 -0.461576 19.9361 14.7495 6.91217
3192 4 -2.62166 31.9451 10.7592 -0.710984 2.39622 0.0278454 12.3836 15.5247 22.3092
3193 4 13.3458 6.07496 10.8627 0.442408 0.51036 0.123462 19.7794 -9.1321 -2.74338
3194 4 10.7103 9.63513 11.8159 0.793455 3.34821 -2.31902 2.55447 19.3566 19.9556
3195 4 9.68352 13.6319 10.906 1.05723 -3.38083 -0.914098 -2.91698 19.4988 1.22038
3196 4 2.97625 20.921 11.2484 -0.350772 -1.34613 -2.52809 -18.9057 12.6597 -20.7649
3197 4 2.36635 24.7946 10.5095 -1.39037 0.635641 -2.64734 25.9241 22.2723 12.233
3198 4 2.00643 26.582 14.1514 1.97989 -0.232158 -3.20219 -11.5462 -6.49489 -6.96953
3199 4 17.468 3.47563 10.4327 0.65755 -1.31093 0.463609 -23.7374 5.51479 -2.33858
3200 4 15.814 5.63191 10.9395 1.30456 1.65451 3.07116 5.56578 24.4797 -0.926012
3201 4 14.034 9.33065 12.1438 0.200484 -0.0712131 -2.40845 -24.9034 -1.13267 12.4673
3202 4 12.7768 10.8046 10.559 0.858685 1.3521 -1.16937 -27.4377 6.0933 20.3864
3203 4 11.9418 14.4762 11.9616 2.07582 0.177133 1.95526 23.1477 -6.93123 -12.0205
3204 4 7.35079 19.6585 11.8456 -0.306171 -0.865381 1.53576 23.2225 17.8746 -9.03715
3205 4 5.69041 23.8228 11.6513 -0.628785 0.243427 0.14625 -8.37299 26.723 -11.9977
3206 4 5.84645 26.425 10.8698 0.518126 -0.2607 -1.06207 15.1342 -9.13188 -2.57418
3207 4 4.68479 29.1796 11.9041 2.25409 -1.57838 0.804723 13.1001 -6.25812 25.6059
3208 4 19.5011 2.58665 11.5327 3.91193 0.644551 1.58399 -11.3704 20.7076 1.48305
3209 4 22.0924 5.39633 13.323 1.17327 -0.988165 0.857379 -11.9519 -3.92411 -12.5699
3210 4 17.6181 7.47007 10.5784 0.534767 -1.04628 0.371423 13.4029 -18.5907 -21.4643
3211 4 9.29255 24.0455 11.9597 -0.544038 -1.87926 -1.81142 4.61447 11.5919 15.6657
3212 4 27.0308 3.96978 11.946 -0.119951 1.06827 -2.85202 15.3212 18.8297 13.5055
3213 4 20.7086 10.6763 11.3794 0.708418 0.00709026 -2.33955 -3.28182 6.55411 19.7563
3214 4 19.8831 13.6297 10.8156 -1.37059 1.18582 0.675324 5.40726 21.8933 -1.29758
3215 4 18.7837 17.5542 12.0212 0.0364366 -0.497965 1.01415 -24.0242 -7.61518 -15.6908
3216 4 13.657 27.4848 10.6411 -0.72234 0.899107 0.253493 23.3482 11.3352 -2.46959
3217 4 11.2769 30.7936 12.3713 -1.49864 3.37421 6.42788 0.25939 -2.94427 0.656125
3218 4 9.09167 31.7279 13.2801 -2.92162 3.83177 1.61788 0.700556 1.55579 0.374256
3219 4 29.2431 2.60586 10.7183 -0.122838 -2.33593 1.5077 -24.7114 -10.7539 -7.77915
3220 4 27.9846 5.82353 10.6056 -1.55007 -2.22492 1.41581 19.9032 -18.5836 1.50448
3221 4 26.4472 9.80796 13.2339 -1.07667 0.389907 -0.135441 -18.383 -4.44183 9.61898
3222 4 18.9655 21.9163 10.4808 1.00968 0.089389 1.15115 4.85621 -19.8675 3.53878
3223 4 16.1656 22.0728 10.7674 0.281307 2.2885 2.32168 26.058 -1.94578 19.2491
3224 4 29.1541 10.2136 13.0013 1.7781 -0.208496 -1.90737 5.7237 19.2125 3.60444
3225 4 22.5497 21.4216 13.6069 -1.32635 -2.62372 1.1033 -11.8093 -5.668 -1.01118
3226 4 20.6642 24.4523 13.7777 -2.39771 -0.503402 -0.324429 -20.8784 14.5911 -24.134
3227 4 34.3649 0.309239 11.5504 -1.31978 -0.52937 -2.87145 -21.9721 18.2322 23.7884
3228 4 24.7075 21.1598 11.9366 -1.86161 0.0416477 0.860745 16.7103 25.2904 -11.7893
3229 4 20.2034 28.9051 9.29367 -1.53727 -0.820173 1.49309 -13.5895 16.4792 -8.88049
3230 4 35.7328 2.47238 11.4576 0.859185 -0.678725 0.180095 24.5791 1.7693 -10.5997
3231 4 1.3192 3.9587 11.6795 0.28723 -2.81837 -0.108444 18.3873 24.6585 23.3451
3232 4 -3.9017 8.65944 10.7214 1.71786 0.483779 1.76357 12.9247 -7.70714 11.9981
3233 4 -3.38466 11.4483 11.8992 1.74671 1.4129 -1.09261 12.6781 -1.92733 25.8662
3234 4 -5.335 13.0286 10.9434 0.990809 0.254038 -0.724201 -9.45912 24.4716 3.30339
3235 4 -5.85345 18.1272 13.6867 0.675937 0.00683327 -0.0461561 12.4742 -23.4527 -21.612
3236 4 -10.7429 25.3013 11.9195 -0.32739 -1.3096 -0.118542 -14.1323 24.1954 1.93553
3237 4 -12.8777 28.7368 12.4957 1.85135 -2.48458 -1.30269 -25.2015 25.0753 1.38101
3238 4 -14.5313 31.1201 12.0937 0.867054 -2.09093 0.402245 -3.18066 22.4616 18.2196
3239 4 1.81241 1.29017 12.3908 -1.23362 0.419498 -0.697055 20.2954 13.7123 6.87148
3240 4 4.15744 2.49517 15.2354 -2.40634 0.825842 -2.30437 -13.5304 24.8419 9.11784
3241 4 3.08865 4.67935 14.3109 1.1892 -0.528956 0.956671 10.0533 22.15 -3.47313
3242 4 -4.37985 21.6605 14.9871 -3.7676 -1.05265 -0.0642348 26.7871 -0.0324132 -11.2305
3243 4 -6.99922 22.5622 15.367 0.72226 -0.849058 0.887717 0.761025 0.443758 -6.66117
3244 4 9.94358 4.6736 15.0133 0.866865 -0.642579 -1.30922 -1.6936 20.8023 18.5193
3245 4 4.84956 6.70872 15.1134 0.754318 0.973827 -0.215146 -8.6441 -14.0634 -19.6158
3246 4 0.803227 16.0527 15.3903 -1.41276 -0.932294 -0.603671 -23.1671 11.8836 -9.27395
3247 4 -2.42859 20.9382 13.6934 -1.41307 -0.364532 -0.231527 -21.2477 5.50758 6.50141
3248 4 -3.97805 24.2385 14.4174 2.22932 2.02795 3.01353 20.8886 -0.342953 -20.8516
3249 4 -7.31587 30.1741 15.5757 -2.117 2.69269 1.49943 -6.9397 -1.3619 -27.3104
3250 4 10.3598 0.608924 15.7004 -0.0457116 0.601483 -1.30543 -9.66296 -4.64005 0.542138
3251 4 6.77483 10.6025 14.4814 -0.571132 -0.273314 -0.865745 14.8798 -12.4451 1.08946
3252 4 4.25667 13.2019 14.8606 -0.0333182 2.20798 -1.85641 -1.37094 0.135915 -14.234
3253 4 2.48792 15.5915 12.8252 -0.910531 1.85224 -0.970339 12.4221 -22.7554 5.4353
3254 4 0.489065 18.3435 14.1659 1.92944 0.574295 -0.118345 -22.6781 20.531 -8.52421
3255 4 -4.53104 31.8503 16.0345 -1.25007 1.61043 -0.735093 -3.11011 18.9563 26.1544
3256 4 12.4529 0.828595 13.0574 1.51893 -0.452827 -0.356796 10.2876 9.16491 -2.75089
3257 4 8.88593 11.3261 15.8492 0.902659 -1.4528 -2.05116 10.8292 -12.0597 19.0697
3258 4 8.25167 14.0006 13.9569 0.442925 0.419229 3.31756 23.2271 -4.7958 14.1651
3259 4 -2.36587 31.7099 13.3271 -1.59854 -2.79228 -1.09938 -13.3592 -4.94871 -4.92905
3260 4 15.71 1.83907 12.8785 -0.356021 0.55893 -1.35726 6.11655 -5.07243 12.6142
3261 4 13.7907 5.73649 15.2502 -0.0408553 -1.58517 1.24741 -25.195 13.0575 -2.35103
3262 4 11.8589 8.4029 15.3181 2.41373 1.10112 1.87796 25.1866 -18.9957 -20.8394
3263 4 11.9843 10.7094 14.7319 0.918579 -0.341883 0.327298 9.32317 -10.7894 -12.042
3264 4 11.0199 13.0533 14.3853 2.4444 -1.15532 0.406169 -6.32292 -10.3709 1.36107
3265 4 20.0463 3.80465 13.9648 0.549893 -0.955231 -0.181631 15.888 -22.01 -18.3985
3266 4 18.0555 5.48942 14.7417 2.50902 1.57311 2.74276 -9.99999 20.5421 12.2983
3267 4 16.4347 7.75236 13.0265 1.31464 -0.53783 -1.05656 -6.79439 -2.23863 -19.2796
3268 4 10.1257 15.3684 14.9598 1.04504 0.158005 -2.39582 5.26709 -19.2226 14.3146
3269 4 4.81505 23.5862 15.4676 -0.778799 2.63052 -1.61161 -1.91739 -0.917044 -0.0309685
3270 4 3.31265 29.0496 14.3667 2.1137 0.550291 -0.13434 6.38878 19.8932 -12.2666
3271 4 21.4766 1.17743 15.3824 0.115934 -1.28047 1.31328 5.02133 -17.7822 21.8448
3272 4 11.3423 24.8699 10.8305 0.903971 1.63457 -2.34317 3.44826 -6.431 -0.685294
3273 4 12.7562 30.0939 14.3181 2.16651 2.11721 1.66584 0.0308482 -0.913153 -2.06
3274 4 20.1961 8.55251 15.0983 -2.70033 -1.281 3.41641 19.5685 -20.5561 -22.8448
3275 4 19.0107 12.8369 14.7194 1.75388 -0.566775 2.55168 10.1628 -26.1315 -25.9961
3276 4 16.6305 15.2812 15.6105 -2.57399 4.22824 -1.60686 -22.9516 12.9138 8.28169
3277 4 8.88271 18.0288 15.1621 -6.93192 -1.49034 -6.52857 1.82948 0.536759 2.26655
3278 4 16.8889 17.8423 14.5675 1.77161 0.657781 -0.0380252 -1.05627 6.38811 22.5469
3279 4 27.1348 3.17683 14.5685 -1.46966 0.00880945 -0.388956 3.2966 -8.11378 -22.9613
3280 4 25.9712 5.78253 15.8558 -1.68004 0.87155 -0.483906 -19.7303 5.37397 12.5166
3281 4 22.6886 10.0383 12.8702 -2.56616 0.612694 0.995025 5.64209 11.6103 3.46077
3282 4 21.2949 12.1316 14.0162 -0.657225 -0.961789 -1.43103 6.10688 5.58916 -21.4001
3283 4 21.1351 15.8712 12.4835 -0.574881 -0.061203 1.74094 17.5762 -18.6412 10.9823
3284 4 19.6909 18.5726 14.8364 -0.405649 -0.904683 -1.81594 -0.023387 0.968101 25.0518
3285 4 18.1395 20.9562 15.1251 2.28935 -0.107994 1.08059 4.32394 11.5566 24.5886
3286 4 16.7666 23.1323 15.5595 1.35488 2.05851 -5.16966 0.452256 -1.60347 2.51939
3287 4 29.1651 3.87164 15.4676 -0.706957 0.276375 -1.19967 -3.64951 -8.60019 1.93851
3288 4 25.8724 7.85692 14.677 1.22576 -0.63327 0.152421 22.0455 16.2924 -23.2723
3289 4 20.0685 20.6863 13.1809 0.0281694 -0.617169 2.6919 -9.98262 -24.7576 21.8255
3290 4 18.404 23.358 13.8548 -2.33014 -0.691442 -0.652625 19.0931 -12.4371 -6.09698
3291 4 16.3562 31.9897 14.0801 -0.916971 -0.694077 0.603526 19.007 -23.9863 4.36017
3292 4 31.4215 1.23335 14.6875 0.336695 -0.823115 -0.371597 -6.95705 11.8791 -14.1018
3293 4 33.4748 3.62151 13.7042 0.162403 1.56081 2.8973 -19.4357 21.7859 -24.0609
3294 4 -10.1311 17.55 13.8284 -0.800442 0.293509 -0.442882 5.93251 -16.304 -8.48531
3295 4 36.7599 0.611167 15.8384 -1.02345 -0.297619 0.35284 1.79382 -12.706 -7.79013
3296 4 0.33667 3.87636 15.6631 1.82035 1.33931 1.93398 -17.2067 -16.7452 -9.85133
3297 4 -7.71897 14.2498 15.3076 -0.00770939 1.64265 -0.541 4.62829 -17.0474 -0.046174
3298 4 -10.8606 21.3548 13.9319 -3.87492 0.945121 -0.918024 22.0081 -11.8225 11.3434
3299 4 -12.2954 23.4728 12.7894 -1.7631 0.740948 -1.40578 -18.6721 11.1718 -10.1248
3300 4 -15.2256 29.243 14.0608 -0.646969 1.02505 -0.787742 16.8662 -21.6536 -17.0533
3301 4 2.45311 3.78874 16.8759 -0.998648 -0.729411 1.74866 24.1787 -11.0756 -15.8083
3302 4 -1.85746 12.6463 15.4585 0.258079 0.136548 -3.29076 15.2992 -25.5981 -4.14645
3303 4 -5.42888 12.2044 14.3957 0.961404 -0.871442 1.22568 11.9206 -23.4811 14.9668
3304 4 -5.31419 14.54 15.2725 -0.547416 1.04041 -0.298769 5.67588 24.77 7.80272
3305 4 -9.98018 23.6272 14.2932 0.668752 0.165153 1.27699 16.2955 -12.721 -22.8449
3306 4 -0.0690917 10.0858 16.559 0.641536 1.82486 -0.726704 14.103 -17.3971 -11.8857
3307 4 -3.14592 12.2595 17.5239 -0.686389 0.609336 0.415357 -2.67909 -14.9357 15.893
3308 4 -8.96684 24.2021 17.4118 0.766011 -0.229661 0.0538617 -0.358114 -15.7072 9.99916
3309 4 -10.7768 26.8511 16.5248 0.633891 0.0340533 -1.23782 0.119635 16.2382 -4.17012
3310 4 -11.6226 29.564 16.1202 1.71208 -0.036002 0.438801 -20.5503 -26.2903 9.35678
3311 4 3.20626 6.10902 17.0043 -1.79471 -0.579149 -1.23613 -16.8691 6.97851 15.5583
3312 4 -8.6989 31.1717 17.484 -0.741061 -2.0131 -2.6039 -2.51323 -20.3243 13.4466
3313 4 -11.6065 31.8445 14.8417 0.930074 0.591199 -1.0289 -25.6125 -19.4327 20.6953
3314 4 7.21901 1.6982 18.5052 0.072461 0.142746 0.410764 -0.0894097 -0.0262303 -0.156889
3315 4 8.08593 5.45433 16.746 0.710034 -1.57507 -0.475595 -25.0788 2.28584 25.6286
3316 4 -1.00067 15.4485 18.4456 -0.086134 -0.175529 -0.103243 0.253413 -0.173822 -0.0432188
3317 4 -1.35755 18.7881 16.2425 1.96161 -0.442642 1.03239 -20.1429 20.4897 -11.3298
3318 4 -1.97353 22.7275 17.3235 -1.2983 -1.09353 0.0974871 5.27458 10.2341 -3.64191
3319 4 -4.71832 24.7566 17.5931 -2.20331 2.19106 -1.90301 -11.4078 -16.9844 6.62412
3320 4 12.0912 2.11941 16.9035 -1.09803 -1.53062 -1.38986 -19.5371 12.936 -6.30201
3321 4 11.7521 4.94717 16.7797 0.672874 1.31568 0.18199 2.24247 -25.5189 12.6521
3322 4 3.48258 16.7635 15.5372 -0.673519 0.791566 0.286792 13.2277 12.88 -6.3969
3323 4 2.07958 17.8669 17.1966 2.55642 -0.733196 0.0854108 20.3066 -5.4489 11.4268
3324 4 -0.482656 24.9297 17.013 -1.80122 -2.58188 0.977287 25.3533 8.71696 -13.7788
3325 4 -4.25198 27.8654 16.1781 -0.811724 -0.870097 -2.02195 -18.9382 0.902602 -20.3287
3326 4 -5.36527 29.9231 17.4486 -0.466865 -0.937235 0.0768813 12.4026 -3.97935 -18.9179
3327 4 12.7883 9.0645 17.9906 -0.917258 0.583031 -0.439297 21.6533 2.40478 -25.6316
3328 4 9.03094 9.77769 17.554 -2.88185 -1.39279 -0.299566 2.34893 -16.2859 -17.6571
3329 4 6.96642 13.2754 17.1248 0.365201 -3.31772 1.57083 0.677595 -10.6126 -12.4072
3330 4 1.4384 27.7861 17.4143 0.956909 -3.96241 1.16857 -13.049 10.0898 11.2682
3331 4 -1.86244 30.2924 17.1942 -0.0962859 -0.778918 1.06694 12.9629 7.43699 1.15241
3332 4 17.656 3.16992 15.3686 -1.82281 -0.237051 -1.9124 20.5666 6.20271 -10.2797
3333 4 14.5913 7.68657 16.816 1.72948 -1.42639 0.882718 3.74673 5.68841 1.57127
3334 4 11.4843 13.3037 17.1344 2.77381 0.63632 -0.760957 -4.02383 -5.41889 24.8735
3335 4 8.0391 15.6597 17.7505 -3.63269 -1.13519 0.30225 20.6913 -26.3286 7.05196
3336 4 6.13094 16.436 15.1625 0.289138 -1.67914 0.581871 -15.2877 10.1109 2.49076
3337 4 0.754012 30.0819 16.7361 -0.22802 -0.584749 0.945841 9.30336 -0.538968 23.8304
3338 4 17.8345 0.254923 16.7332 -0.704422 -1.02335 0.0121854 5.06625 -20.6921 -2.20402
3339 4 21.2321 3.17621 17.0027 -0.636145 1.95944 0.765813 -8.23723 19.2759 4.19311
3340 4 17.3681 8.00334 17.2819 1.67463 -0.996508 -0.429697 2.40698 -25.108 -23.8322
3341 4 16.3613 9.3037 15.2845 0.141418 0.282319 0.740381 -18.3453 -0.418927 -13.8905
3342 4 12.9484 16.508 15.6269 2.18921 -2.21564 1.17166 -21.5142 5.3497 20.3388
3343 4 3.26753 22.0601 13.9313 -3.02287 -0.94316 -5.81162 0.744802 -0.56284 -0.708023
3344 4 6.06283 20.7317 13.9682 2.56109 -3.52297 -5.27642 0.999648 -1.14445 -2.01505
3345 4 4.63334 26.1392 15.0797 -0.423936 6.44758 -0.0311666 2.70425 -1.1712 -2.47753
3346 4 4.7542 28.411 17.3618 -2.43705 6.39108 3.27215 0.836851 -3.04054 -2.56516
3347 4 3.03589 31.2827 17.2271 2.86646 3.3748 -0.0743218 4.92103 -3.87414 17.5751
3348 4 19.89 6.92093 17.2 -0.171633 -0.32806 2.6566 18.4013 5.52355 -0.365329
3349 4 16.4346 18.1412 18.3658 3.00181 -2.88134 -2.40461 1.09256 -3.25068 -2.10116
3350 4 14.5807 18.6531 15.3621 -1.95358 5.91052 6.03494 -0.702632 -2.63993 2.29327
3351 4 7.75173 26.2156 14.691 3.38447 -3.83432 -0.327507 -0.480957 -1.09424 0.300459
3352 4 26.9321 0.322282 16.7113 3.59075 -3.07782 -0.47572 -17.523 -3.29778 -2.19894
3353 4 23.8367 0.328906 17.1706 3.86921 -2.53575 -0.950442 -9.52127 3.8202 -22.1081
3354 4 25.6868 2.69847 17.4886 -0.111338 2.2281 -1.84911 -7.28851 -3.46256 -4.04313
3355 4 23.2626 6.52697 17.2859 -0.680757 -0.836702 0.941958 -24.0818 -4.91725 -9.38496
3356 4 22.2084 9.85007 15.5611 1.51177 -0.503838 1.44559 4.80035 8.48083 -21.2687
3357 4 19.1104 14.3643 16.6174 -0.897371 -0.46369 3.26297 18.7298 18.7342 19.8456
3358 4 17.875 16.4336 17.5627 1.02451 -0.159856 1.25236 -22.386 -7.98846 -0.445503
3359 4 29.4696 0.708166 16.4638 -0.542642 1.69717 -1.68176 20.5772 -3.31815 -7.47216
3360 4 20.2398 16.6206 16.4598 -0.992175 0.17661 0.395662 -22.9126 -8.27176 -22.2528
3361 4 18.5733 19.0507 17.1828 3.55998 0.743677 -2.38086 23.459 -12.6191 24.7153
3362 4 15.8113 27.7161 16.7906 -6.384 7.23158 1.3067 0.525815 -0.884471 -4.5101
3363 4 14.6364 31.8668 17.1894 -2.27372 -0.0589145 3.36815 -15.6184 -15.1406 13.5316
3364 4 30.9998 4.83112 16.878 0.421248 -1.17985 -0.708181 24.7723 -6.01174 16.5467
3365 4 28.8464 7.99321 16.8164 1.99402 0.543299 1.25742 -26.5576 15.0944 -5.22785
3366 4 24.4912 15.1827 15.2835 -1.32912 -1.0065 1.26092 -10.3676 -0.847309 -5.19886
3367 4 18.4221 26.5661 16.7798 1.24267 0.917355 -1.84045 -22.5947 15.8838 1.18227
3368 4 16.3638 29.5223 15.0534 -1.43231 1.80123 1.63178 8.71015 0.372801 -20.808
3369 4 33.9366 1.9243 16.5323 0.463591 -1.11094 0.0796267 24.4692 15.9581 -24.7065
3370 4 33.9126 4.65456 15.9319 0.245052 0.786789 0.834696 -19.5155 -18.6886 12.2992
3371 4 32.0481 7.2171 16.4836 3.00206 2.08535 -0.536972 11.3702 4.96065 -15.4835
3372 4 28.0972 14.7562 18.3435 -0.42498 -0.0107162 0.0491541 -0.0419933 -0.173379 -0.028157
3373 4 25.6153 18.5238 15.6525 1.42352 0.471521 0.751442 16.4649 16.062 -2.15533
3374 4 19.9937 28.5455 17.0087 -1.87714 -4.0993 -0.375242 -14.9843 -13.3977 15.8787
3375 4 -7.96643 18.2985 15.2741 0.53503 1.15031 1.60092 -11.0107 -22.4156 5.60253
3376 4 -11.7358 23.0536 16.3087 -0.449026 1.22821 1.24013 23.9756 3.30894 -20.2033
3377 4 -12.6875 25.9538 18.1312 -0.960473 -0.0965022 -0.0420787 -0.118912 -0.15968 0.176742
3378 4 -13.7654 27.5821 16.3096 -2.06924 1.05905 -0.641366 3.8388 -13.3449 -20.7273
3379 4 -15.5324 31.6201 15.4103 -0.140356 -1.81923 -0.474814 -17.7506 20.4206 -3.72611
3380 4 -0.849555 11.5502 18.536 0.668527 -0.113298 0.317759 0.388907 -0.15313 -0.147544
3381 4 -3.09775 16.3804 19.7347 0.352072 -0.0569263 -0.290158 -0.10507 -0.0453485 0.100085
3382 4 -8.22189 26.9774 17.281 1.14696 2.88348 -0.611472 13.8769 -11.3054 -4.07887
3383 4 -9.71564 28.6433 18.697 0.148774 -2.20364 0.3147 0.223059 -0.511136 0.0655439
3384 4 -12.1071 31.7665 17.4407 -0.547056 1.30628 -0.738118 -17.5318 -20.884 -17.0333
3385 4 4.39795 8.91852 18.6878 0.336651 -0.134377 -0.105068 -0.0824428 0.334545 0.416275
3386 4 1.10675 7.99088 17.4432 -1.03956 -0.599745 -2.21189 23.1968 -10.9792 -6.53103
3387 4 3.37058 12.1524 18.579 -0.689644 1.10688 0.321276 0.173374 0.638584 -0.0933906
3388 4 -3.01895 19.9927 17.5636 1.16268 -0.790786 -1.09821 5.69616 3.22168 6.30741
3389 4 -2.81272 21.8876 19.7151 0.121766 -0.13619 0.14106 -0.11921 0.0314989 -0.131869
3390 4 -4.36972 24.0685 20.0858 0.562263 -1.26461 0.605532 0.185656 -0.126013 -0.084718
3391 4 8.91244 4.57412 19.4467 -0.00108886 0.0658065 -0.975595 -0.050595 -0.0667129 -0.0999335
3392 4 -0.0776222 18.4119 18.4948 -0.71718 1.63999 1.05715 -0.175796 -0.177685 -0.180324
3393 4 -1.76688 24.7007 19.4998 0.0760717 0.600827 0.472224 -0.0807936 0.317556 0.203861
3394 4 -4.96568 26.7715 19.5035 0.524799 -0.42288 -0.391731 -0.127726 -0.388973 -0.314487
3395 4 13.4153 3.85682 18.511 0.215405 0.388707 0.157764 0.267023 -0.257964 0.0772021
3396 4 9.92003 6.4677 18.0485 0.133945 -3.02137 0.411706 -0.294355 -0.47912 -0.145742
3397 4 3.38138 18.9768 19.0592 -3.0646 -0.171501 0.504524 0.96429 -0.395544 0.337387
3398 4 -0.0825623 20.6039 19.4906 1.17946 -0.96362 -1.08119 -0.00589965 0.282109 -0.0428472
3399 4 -0.330721 26.8794 19.3989 0.468931 -0.179092 -0.911882 -0.0303151 -0.544391 0.00220063
3400 4 -3.71772 29.7021 19.7732 -0.203077 0.304866 0.0303799 -0.0150981 -0.0596451 -0.154666
3401 4 14.6803 6.06799 19.5664 0.0839482 0.0614703 -0.18828 -0.107294 0.154853 0.0491111
3402 4 9.15001 11.324 20.1125 -0.2578 0.320019 -0.673338 -0.0787093 0.0313929 -0.185747
3403 4 9.08828 13.4683 18.9163 0.512416 0.869857 -0.840701 -0.130755 -0.0157322 -0.306486
3404 4 4.83837 19.0943 15.2961 1.88972 -7.78634 3.41506 0.325016 -1.37932 -2.06838
3405 4 1.30818 21.1533 15.974 -0.149742 1.5442 -1.65115 -12.9383 -12.5647 -6.01508
3406 4 16.7763 7.23212 20.8051 -0.0222687 0.025867 0.108599 0.0195727 0.00657946 0.169506
3407 4 15.2381 8.95819 19.2599 0.450469 0.547375 0.776616 -0.107799 0.345812 0.374159
3408 4 11.974 14.9719 19.6263 0.827807 -2.65371 1.16664 -0.459618 0.0533753 0.751446
3409 4 10.0878 18.2767 11.7779 -0.85937 1.14888 -0.898182 -14.0754 2.72295 -0.603563
3410 4 6.19599 23.9379 18.2341 -5.52284 8.22129 -1.88324 0.334566 4.04734 1.36655
3411 4 3.00664 25.1945 16.948 -1.04954 -0.368727 -2.32583 -2.76619 -1.69694 -2.38845
3412 4 1.64153 30.8706 19.2188 -1.16564 0.717265 0.0233345 -0.143276 0.118155 -0.256215
3413 4 17.8672 3.27195 19.3743 4.16836 3.35203 -1.78016 -1.37432 -0.88809 -0.104384
3414 4 17.8615 9.17932 19.4041 -0.274775 -1.02782 -0.782508 0.1694 -0.350852 0.0672805
3415 4 16.1096 11.5692 18.3873 -0.598353 0.0982648 0.0855826 -0.512161 0.17021 -0.162315
3416 4 14.2271 18.3216 19.4407 4.34076 2.33174 3.84109 -1.08924 0.694532 0.110228
3417 4 7.45668 29.2766 16.4872 -9.75186 -1.26053 -4.25621 2.00919 2.81448 4.60363
3418 4 21.22 5.66499 19.7781 -0.0663027 0.0159797 0.358273 -0.144419 0.19437 0.183592
3419 4 20.0735 9.64132 17.5567 -0.42988 -1.74952 0.487435 -12.5752 7.79049 19.7165
3420 4 16.7156 15.2413 19.6329 1.74286 0.0817245 0.324691 0.251114 -0.229754 0.012648
3421 4 16.0526 24.2657 11.8947 1.51387 1.43695 2.6286 -21.7017 -26.6246 -3.7442
3422 4 6.07248 29.3505 14.5788 -5.32215 -0.599522 -0.896893 -3.7828 -3.79274 -1.73806
3423 4 22.8398 2.05417 19.5379 1.03525 -1.02705 1.24513 -0.104387 -0.0878671 0.244772
3424 4 26.1842 4.82123 19.6528 0.277488 -0.48399 0.0900319 -0.0318431 -0.0952169 0.155018
3425 4 25.3437 7.24917 18.78 -0.36053 0.175072 0.699232 -0.122905 0.0931773 -0.210191
3426 4 23.8594 9.13585 17.2319 0.155716 0.0364515 3.62368 18.8927 -20.5727 7.50931
3427 4 20.3672 17.2984 19.052 -0.157004 0.436265 0.42764 0.181961 0.00146707 0.272084
3428 4 9.51652 27.9498 11.9739 -0.656287 -1.86078 2.86548 8.35224 11.0376 6.68151
3429 4 12.7719 32.2597 18.9142 0.585352 -0.581604 4.09028 -0.30594 0.412369 0.0275341
3430 4 27.9139 2.15751 18.547 0.68509 -1.06353 -0.120743 -0.104346 -0.825241 0.18309
3431 4 28.8979 4.85788 18.9376 0.087154 -0.199635 -0.105195 -0.139316 0.168206 0.374237
3432 4 26.1068 9.77086 18.2045 -0.358401 0.502981 0.288022 0.202462 -0.0712397 0.243434
3433 4 23.6304 12.1639 18.5022 -0.123097 0.62886 -1.0317 0.142355 -0.0730932 0.480275
3434 4 18.5022 28.149 19.7073 -0.290917 0.334372 -0.946095 0.22046 0.263225 -0.254469
3435 4 6.22843 31.8514 15.1252 2.9027 2.5949 -0.609558 26.4767 19.9035 -14.9392
3436 4 31.3567 6.19918 19.1247 -0.207638 0.0474954 0.303059 -0.256635 0.125304 0.238735
3437 4 25.2553 13.9453 18.9159 -0.346711 -0.626003 -0.0586474 -0.0103114 -0.113983 0.0914427
3438 4 23.8742 16.6957 17.1912 2.15626 0.0732195 -0.688287 -19.9977 24.6233 13.7375
3439 4 20.582 26.2741 18.708 -0.198507 -0.262805 -0.132111 0.261784 -0.134619 -0.237318
3440 4 18.2902 30.4573 17.3129 -1.17868 1.13153 1.30364 8.6164 -1.55243 -12.5556
3441 4 -2.52409 7.68488 18.7573 3.58505 0.694976 1.5128 1.03144 0.649746 0.205139
3442 4 29.9048 9.63107 18.1679 0.153561 0.986883 -0.0292902 0.620391 0.411988 0.529369
3443 4 -9.59699 17.4026 18.3359 -3.24225 0.7479 1.24706 -0.322191 0.208461 0.215054
3444 4 24.2269 21.2839 17.2937 -0.629928 -1.97848 -1.65685 -4.42455 9.43273 -5.05282
3445 4 -13.5626 24.0145 19.8532 0.79906 -0.119701 -0.734848 0.0802016 -0.135593 -0.0773203
3446 4 -9.75607 21.3426 17.9501 -3.59996 0.153298 -2.05693 -10.3642 -14.6842 -17.7213
3447 4 -10.4969 24.8589 19.5173 -1.23722 0.598392 -0.436628 -0.1342 0.0724697 0.00177
3448 4 -13.9306 30.127 18.3324 -0.340146 0.772687 0.0110219 -0.21485 0.119984 0.204959
3449 4 4.91343 4.6814 19.0371 0.0779771 -0.331236 -0.864313 0.210278 -0.00555866 -0.177014
3450 4 3.36053 6.62487 19.7925 0.658822 -0.75714 -0.216875 0.399186 -0.217255 -0.132354
3451 4 -0.867029 13.6358 20.7837 -0.590895 1.02234 -0.674587 -0.15086 0.147699 -0.214183
3452 4 -2.03743 15.8497 22.1563 -0.0634138 -0.146728 0.732547 0.01512 -0.0389142 0.13929
3453 4 -4.17573 18.7626 19.5595 0.0080612 0.103245 0.41553 0.207146 0.0893655 0.560516
3454 4 -11.4079 31.2479 20.2915 0.0661106 0.16092 -0.0742695 -0.017252 0.0475671 -0.0178941
3455 4 6.20681 8.85567 20.6848 0.143277 -0.0434891 0.0710194 0.0195628 -0.0078953 0.0675198
3456 4 5.25232 11.0081 19.9337 0.387079 -0.463498 0.495246 0.151492 -0.0162531 0.411371
3457 4 1.68853 13.7282 21.6357 0.143753 0.131604 0.756499 -0.029314 -0.0760006 0.243166
3458 4 -6.7714 26.2466 20.8891 -0.594493 0.619995 -0.354448 -0.209322 0.179401 -0.188044
3459 4 9.95888 3.39443 22.5167 0.0551941 0.00590956 -0.206376 0.0120409 -0.0747926 -0.0564425
3460 4 5.91963 13.624 20.9218 -0.685986 -0.0535387 -0.418672 -0.0715399 0.220627 -0.386019
3461 4 -1.71134 27.2726 22.5768 -0.195006 -0.242956 -0.114173 -0.292248 0.0608482 -0.0638909
3462 4 14.6573 3.75132 20.7664 0.175737 0.032889 0.0300779 0.123881 0.0448551 0.0725358
3463 4 11.1649 6.05105 20.4006 -0.143451 0.110329 -0.440077 -0.0689279 0.0648423 -0.0796031
3464 4 2.26174 19.5415 22.5478 -1.27023 2.08076 0.283208 0.721654 1.77169 -1.03571
3465 4 0.0603274 22.8981 21.3893 0.623659 0.297005 0.677416 -1.0992 -1.0271 0.134528
3466 4 12.004 10.3551 21.8374 -0.0339553 -0.0687132 0.191825 -0.190669 0.0132271 0.144355
3467 4 10.6087 12.9238 22.1094 0.436702 -1.79349 -1.77615 0.0757932 -0.630663 -0.576316
3468 4 3.09502 21.5557 17.5491 -2.95046 2.96202 -1.66803 -0.0826121 4.62245 -3.32669
3469 4 1.45871 23.7794 19.1665 1.03248 0.55719 1.17409 0.0375767 -0.487415 -0.124371
3470 4 2.23399 27.6758 20.0733 -4.15372 2.58721 -0.278221 0.105332 0.14386 0.921069
3471 4 -0.229949 30.3492 20.859 -0.276483 -0.297441 0.072701 0.21739 -0.423622 0.0736933
3472 4 17.3864 0.969998 20.6571 0.512392 0.872609 -0.551304 0.00182577 -0.229727 0.158291
3473 4 18.856 3.5302 22.6234 0.230005 -0.440439 1.13658 0.120919 -0.0430739 0.447293
3474 4 14.0904 12.2855 19.6479 -0.477506 0.979352 0.124931 -0.145314 -0.19245 -0.123947
3475 4 5.71119 16.3908 19.3825 -0.723245 1.68902 -1.6212 -0.550132 -0.578243 -0.399242
3476 4 3.7098 30.3111 20.3197 1.67276 2.44183 -0.13894 -0.583774 2.40313 -2.21697
3477 4 20.785 1.69223 22.2737 0.837015 0.340046 -0.414926 0.174282 0.124067 -0.133154
3478 4 16.4257 13.0532 20.7336 -0.632529 -0.118395 -0.303714 -0.284813 -0.052305 -0.264711
3479 4 14.9639 15.5959 21.5823 -1.61006 -0.468407 1.29878 0.133706 0.208206 -0.0162057
3480 4 24.87 4.04031 22.2812 -0.80776 -1.0352 0.721194 0.0897515 -0.294367 0.39907
3481 4 23.0118 6.24488 21.5431 0.0698491 -0.0278706 -0.12708 -0.0332594 -0.178199 -0.00612723
3482 4 21.4858 8.49633 20.8424 4.61052 1.31379 -4.64683 -0.905112 -0.884101 0.103601
3483 4 19.1718 15.5935 20.7951 -0.115874 0.073357 -0.288767 0.0665889 -0.0982452 0.137322
3484 4 25.0936 2.04216 20.5171 -1.63198 2.5127 -3.60508 -0.167086 1.13362 -1.92596
3485 4 27.3452 3.53147 22.1544 0.698216 0.172107 0.581978 0.107041 -0.168924 0.225949
3486 4 25.4594 8.48078 21.9307 0.0117472 2.99627 -15.7757 0.294158 -0.352739 1.07273
3487 4 22.9117 11.8775 22.4624 -0.22262 0.0157356 0.606633 -0.113462 0.0493348 0.146267
3488 4 21.3255 14.8107 19.8701 0.0418 -0.366811 0.739046 0.0238095 -0.24162 -0.0278704
3489 4 20.2127 17.8769 21.7733 -0.4011 -0.496527 -0.656014 -0.0154361 -0.144902 -0.281669
3490 4 16.2487 21.3218 17.631 -3.17106 -5.33602 -1.88249 0.298289 4.81009 -6.28155
3491 4 29.7923 0.89143 20.4868 3.63086 -1.54856 1.63271 1.06722 7.43541 -5.6565
3492 4 26.1492 11.3007 20.278 0.979252 -0.699232 0.415585 0.21635 -0.0924792 0.06351
3493 4 21.7622 20.1563 21.9275 0.409689 -0.378085 -0.246478 0.112849 0.132568 -0.180688
3494 4 19.4366 25.3106 20.7803 1.45312 2.70771 0.248012 -0.0641421 0.284702 -2.07532
3495 4 32.5825 5.96077 21.5905 1.10069 -1.32732 0.428583 0.115459 -0.562734 0.106234
3496 4 23.4696 19.9276 19.6311 -0.170106 -0.167646 -0.0773546 0.222998 0.17738 -0.101088
3497 4 21.7097 23.2879 18.8196 -0.22365 0.707537 -0.151594 -0.392777 0.300145 0.254436
3498 4 18.5767 32.0877 20.2117 0.295061 0.30881 -0.210831 0.190405 -0.0595191 0.150761
3499 4 35.0403 0.937 21.4541 0.114777 0.480893 0.896087 -0.175372 0.0601426 0.110091
3500 4 -1.99583 5.87482 20.3015 -0.25269 -1.7244 0.81872 -0.295952 -0.0914843 0.162025
3501 4 -3.63606 8.61571 20.8597 -0.440625 0.374286 0.0883246 -0.137154 0.0942146 0.00576264
3502 4 -10.5647 19.9097 19.9681 0.246177 0.117981 -0.581156 0.0346122 0.0255257 -0.0166007
3503 4 -12.7209 22.3101 21.66 6.16065 2.40373 -1.21106 -1.59817 -0.724841 0.366422
3504 4 -14.8196 32.1075 21.7863 -0.116039 0.312406 0.0286252 -0.0494919 0.0910324 -0.0742998
3505 4 -0.33245 2.07873 18.8023 0.212783 0.269739 -0.565239 0.249931 0.0750738 -0.269757
3506 4 1.58938 2.66034 20.3218 -4.78853 1.52744 -1.40511 -0.356427 0.0737811 -0.211747
3507 4 -4.95905 14.8618 19.1215 -0.347571 -0.16643 0.157397 0.0710888 -0.188276 -0.112017
3508 4 -8.6745 22.9527 19.8549 0.488433 1.31641 -1.22212 0.181705 0.250813 -0.195942
3509 4 3.58484 1.35774 19.2872 0.256396 -0.4629 1.52336 -0.348498 0.0446574 0.401441
3510 4 4.54197 2.28619 23.4013 1.4269 0.317556 -1.21994 0.381419 -0.0503259 -0.321077
3511 4 1.01909 4.78061 24.8743 0.0284117 -0.521193 -0.0979247 -0.0224683 -0.10999 -0.0331918
3512 4 -4.80205 15.712 24.8501 0.0452494 0.109505 -0.113047 -0.0439706 -0.0817393 -0.0576754
3513 4 -6.8956 18.0439 24.4652 -0.187428 0.0342519 0.00480861 -0.0202716 0.0637573 0.000247736
3514 4 -8.60337 21.7565 24.147 0.0584827 0.204924 1.53487 -0.0488119 0.0876588 0.157585
3515 4 -9.94742 24.1565 24.3111 -0.0618285 -0.0439595 0.0519089 -0.0471078 0.112184 0.0104046
3516 4 5.96931 3.88959 24.8114 0.958114 -0.495303 1.2529 0.0971085 -0.110161 0.169909
3517 4 -0.828755 15.2112 24.5747 0.0477027 -0.109738 -0.0477693 0.0660398 -0.114643 -0.102833
3518 4 -2.99406 17.4386 24.0919 0.00423928 0.686313 0.389306 0.0480321 0.051728 0.016106
3519 4 -4.77441 19.2313 23.4845 -0.40837 -0.348555 -0.45906 -0.144213 -0.119453 -0.089814
3520 4 -6.04965 26.0814 24.3706 0.111816 -0.0788571 0.266357 0.124425 -0.0401096 0.00587278
3521 4 -8.38983 26.9758 24.7591 0.484613 0.303696 0.456912 0.0801978 -0.0153 0.122722
3522 4 7.72304 7.32076 24.3332 0.611529 -1.07893 0.548702 0.0802546 -0.167625 0.0179792
3523 4 2.79184 11.5801 23.8729 -0.28133 -0.355424 0.106782 -0.00163467 -0.209181 -0.00306407
3524 4 3.00138 13.4594 25.4648 0.253943 -0.930762 -1.0573 -0.098638 -0.143515 -0.185806
3525 4 -5.05253 29.1192 23.5845 0.505044 1.16762 0.0625134 -0.0537518 0.145388 -0.112177
3526 4 -7.98053 29.1555 26.3487 -0.250571 -0.233658 0.0416761 -0.165707 -0.100983 0.0881483
3527 4 -8.79521 31.7774 23.4983 0.0449854 -0.253165 -0.124683 -0.0247762 -0.0777777 -0.00449546
3528 4 11.5138 2.5292 24.3003 0.137561 -0.068442 0.0270492 0.024227 -0.0860836 -0.0523349
3529 4 5.40009 14.44 23.2216 2.16811 0.813689 -0.429107 0.559402 0.0470008 -0.229875
3530 4 -2.93899 29.9711 22.2452 0.476775 -0.252916 -0.090078 0.0603427 0.0168444 0.00801527
3531 4 14.509 0.147725 23.7623 -0.229471 0.0453081 0.0952207 -0.0768941 0.0405315 0.12165
3532 4 0.150314 24.8578 23.6829 -2.03971 -0.451545 1.11243 -0.831878 -0.169956 -0.234573
3533 4 17.6896 2.74501 24.736 -0.0227166 0.113801 -0.0112319 -0.05832 -0.169085 0.0129618
3534 4 11.7742 11.7706 24.0669 -1.16587 -0.162432 -1.05499 0.181301 -0.119088 -0.018727
3535 4 1.71417 26.4508 22.5788 -0.342789 1.82137 -3.0059 1.61599 -0.07548 -0.18659
3536 4 23.2029 0.980418 23.5402 -0.398989 -2.44677 2.93061 -0.0156049 0.160957 -0.116898
3537 4 0.854468 31 22.9435 1.70409 -0.0732156 -0.70292 -0.0608167 -0.248106 -0.175677
3538 4 18.1464 0.867764 23.2803 0.379017 -0.444543 0.0702037 -0.0370759 -0.0356913 0.104985
3539 4 13.9344 13.7335 23.6016 0.330908 -1.54809 -2.22188 0.626424 -0.118569 -0.32023
3540 4 12.1068 17.1542 18.5146 -1.58648 7.0177 -2.93587 1.45629 1.95691 -1.9812
3541 4 2.87627 29.726 23.4344 -2.94165 0.0137036 1.31025 -3.48962 3.57659 0.465924
3542 4 21.5838 6.41029 23.8244 0.198602 0.14366 0.0127733 0.052461 0.121485 -0.13466
3543 4 16.5501 14.7406 24.275 2.02892 -1.58544 -0.558065 0.379083 -0.592731 0.28875
3544 4 17.0086 19.3376 20.5321 4.4357 -2.32256 -3.33804 -0.331766 0.0675989 2.06402
3545 4 15.5215 17.9703 12.4543 1.09015 -1.88911 0.505655 20.6885 1.09514 -4.32143
3546 4 12.6419 26.8111 13.3712 -2.97462 2.18005 1.85201 1.8162 -0.459753 3.38962
3547 4 24.8981 6.69662 24.1343 0.262248 0.568931 -0.703866 -0.00795728 -0.143526 0.0680352
3548 4 18.9807 13.7025 24.4422 5.34332 1.67303 -2.24598 1.2099 0.204311 -0.610326
3549 4 19.0577 21.1297 19.6719 -0.530125 -1.93512 -0.0302562 -0.800548 -0.0961233 -0.190566
3550 4 16.6651 31.6966 18.5747 -0.802616 -2.20497 -0.336891 0.0386275 0.623715 -0.314849
3551 4 17.1788 30.8564 22.0825 0.114623 -1.17864 1.0405 1.56589 1.74801 -0.0200211
3552 4 10.0462 29.5669 15.211 3.80175 -4.45537 -4.90888 -2.52172 2.71291 0.702116
3553 4 26.9183 2.65416 24.5567 -1.2786 -0.233287 2.10939 -0.0153005 -0.47798 -0.249269
3554 4 24.304 10.5159 23.9004 0.392597 0.105252 -0.109049 -0.0864318 0.0104797 0.0642247
3555 4 19.8236 19.3126 23.7356 -1.86218 0.186004 -0.246028 -0.388483 0.248765 0.121202
3556 4 20.1791 21.6389 23.1777 -0.563355 0.709222 0.0509908 -0.094766 0.266479 0.175056
3557 4 18.6544 27.3777 23.5453 -2.45876 -0.684346 -3.90988 -0.819498 -1.47639 1.1258
3558 4 30.7867 1.17573 22.7563 -2.41352 -0.685402 -5.24698 -0.906931 -0.218058 0.6593
3559 4 29.9343 3.25637 23.9605 -0.801859 -0.615722 1.27232 -0.0772506 -0.384413 0.429606
3560 4 30.9731 5.64982 23.7697 -0.247261 0.0410957 -0.298454 -0.128181 -0.00130185 -0.0786005
3561 4 26.5579 9.49949 24.0834 -0.645615 -3.28779 -5.11032 -0.031894 0.312176 0.243264
3562 4 27.2628 12.7061 23.041 0.066164 -0.631155 -0.28128 0.0366131 -0.0535455 -0.00699431
3563 4 22.1288 22.7542 24.3086 0.0829269 0.583614 -0.0806827 0.184955 0.155239 -0.149031
3564 4 33.2704 1.57252 23.6504 3.4338 -0.0163974 0.396366 0.421782 -0.306261 -0.291629
3565 4 34.1844 4.52361 23.7231 -0.609392 -1.37705 0.283694 -0.183936 -0.228621 0.0934643
3566 4 30.0155 8.13763 23.9584 -0.432682 0.0154108 -0.013931 -0.166001 0.0980193 -0.0465059
3567 4 29.7592 12.4628 24.3596 -0.0586438 0.117939 0.047529 -0.046508 0.0498486 -0.0305384
3568 4 -17.4547 31.3965 22.6461 0.616747 0.891752 0.240675 -0.248869 0.537804 0.235044
3569 4 35.5523 2.10775 24.317 -2.38635 -1.24242 0.552317 -0.127478 0.151511 0.203042
3570 4 0.825689 2.47348 23.8208 -0.776036 -1.02644 0.0198924 -0.351535 -0.174033 -0.0397079
3571 4 -2.08138 6.92268 23.5922 0.68227 -3.74949 -3.34033 0.0145689 -0.684557 -0.664903
3572 4 -7.13149 15.9 23.1705 0.0267559 0.144154 0.038063 -0.0492999 0.052768 0.0129873
3573 4 -15.6552 30.7671 24.6226 -1.15333 1.73263 -1.38589 -0.584586 0.371403 -0.159647
3574 4 2.79055 0.934951 24.3088 0.559379 5.69989 2.79894 0.177945 1.31835 0.647497
3575 4 0.702548 10.4814 26.2022 -0.475199 -0.107749 0.737786 -0.0672319 -0.0613969 0.191467
3576 4 -0.937149 12.1119 25.2056 0.0564547 -0.0146055 0.0386749 0.0742666 0.0344852 -0.0823334
3577 4 -6.78457 20.7222 25.9215 0.103773 -0.172045 -0.0237339 -0.0306144 0.053117 0.0144366
3578 4 -8.64497 24.7151 26.7127 -0.0877688 0.274121 -0.331612 -0.00382256 -0.0548414 0.0633874
3579 4 8.00573 2.57783 25.5065 0.506717 -0.380488 0.194526 0.0864369 -0.0235728 -0.0252586
3580 4 4.87719 6.34186 26.096 0.545971 -0.0808774 3.24587 0.0808105 -0.0328302 0.46542
3581 4 -3.47232 18.7611 26.3025 -1.33236 0.201363 1.1409 -0.275683 -0.00422494 0.136411
3582 4 -4.5111 22.5413 26.0202 -0.477532 -0.408609 0.0925557 -0.191687 -0.0794213 0.0640868
3583 4 -6.87319 23.5901 24.8262 0.630493 0.134295 -0.789289 0.25093 -0.163965 -0.243849
3584 4 -10.2592 31.7575 27.0184 0.0218982 -0.0224851 0.0110077 0.0528571 -0.0126027 0.0807692
3585 4 9.03934 1.88989 27.5601 0.336491 -0.261057 0.335313 0.0584386 0.016918 -0.0307543
3586 4 8.6306 7.97066 26.6022 0.170048 0.236779 0.284861 0.0294195 0.0437747 0.084614
3587 4 1.3521 12.768 27.2352 0.191056 0.187019 -0.280078 0.124767 -0.0189951 0.13275
3588 4 -0.0886376 18.4817 25.1831 0.0588994 0.0950634 0.620533 -0.377884 -0.130085 0.106937
3589 4 -1.98039 23.5034 25.1374 -0.219291 -0.179959 0.052896 0.00723955 -0.0120222 0.0539045
3590 4 -3.2591 24.8559 26.9918 -0.0319385 0.0409347 -0.143527 -0.0666642 0.111509 0.0256714
3591 4 -6.04451 31.8185 26.1674 -0.00970611 0.0109246 -0.0217006 -0.048955 0.0656398 0.0107448
3592 4 10.2493 0.622289 25.7097 0.0337805 -0.105565 -0.0693407 0.00267895 -0.0305038 -0.0475531
3593 4 5.822 13.194 26.0727 -1.39649 -1.34213 3.24447 0.147894 0.143667 -0.242338
3594 4 3.27479 15.9028 24.4667 -0.992667 -1.29488 0.076968 -0.499653 0.503305 0.00724186
3595 4 2.17835 17.8365 26.1112 -0.35859 -0.961168 0.618996 -0.827072 -0.606575 -0.541731
3596 4 -0.158849 21.24 25.0151 0.6072 -1.43309 2.12752 0.945822 -0.0959869 0.581503
3597 4 -1.39526 26.0958 25.4022 -0.780056 0.658808 0.168044 -0.254944 0.135166 -0.192671
3598 4 13.9312 2.32677 25.2189 0.0493122 0.00390467 0.0927708 0.0485441 -0.0142415 0.0167062
3599 4 14.2711 4.38491 26.7225 -0.0375362 0.118365 -0.0405985 -0.0229488 0.0285895 -0.0225256
3600 4 11.1332 8.35621 25.7006 -0.0503502 0.0215892 0.223939 0.103135 -0.108924 0.0431843
3601 4 7.28476 15.0765 25.4679 -0.818554 1.03259 -0.231862 0.581252 0.71475 -0.296607
3602 4 2.91109 21.9629 22.1373 -2.93806 -4.47075 -6.81594 1.66649 1.43653 2.99746
3603 4 0.417378 29.3165 24.9749 2.8023 -3.24837 0.263781 0.361904 -0.27787 0.345095
3604 4 16.1525 1.69304 26.405 -0.0574357 -0.0904296 0.20063 0.150774 -0.0536216 0.148681
3605 4 14.8778 8.23679 26.2642 0.0971477 0.108738 0.0901885 0.0248977 0.0447772 -0.000146828
3606 4 13.3235 10.8025 25.6938 0.618757 0.274431 0.881588 -0.0677877 0.0986546 -0.00760342
3607 4 8.52617 20.6048 16.6428 -1.15281 -2.89851 -3.53748 -0.727981 -4.20157 -0.0373767
3608 4 17.8127 5.73613 26.8135 -0.110791 0.0703457 0.0129777 0.0185382 -0.0413869 -0.131121
3609 4 16.9654 8.81372 25.2259 0.0329717 0.0333591 -0.0258757 -0.0375605 -0.0434467 -0.0844431
3610 4 14.9728 13.5114 25.8933 1.3412 -0.68188 0.776771 -0.0921201 0.103935 0.208806
3611 4 11.6136 16.0904 26.8996 -0.128666 2.52246 1.03204 0.34595 3.62264 1.56051
3612 4 7.0771 26.2942 17.7255 2.97228 0.221149 -0.413684 2.96475 -2.53248 -5.1059
3613 4 5.83762 31.3183 20.1676 -5.10403 -1.05345 -0.378636 -3.19946 -0.64279 -0.71441
3614 4 20.1242 5.59821 26.026 0.0992844 -0.462972 0.155134 0.0340069 -0.210747 0.0752035
3615 4 20.2932 9.94797 27.0777 -0.00490083 -0.321762 0.171256 0.0404264 -0.179683 0.0308618
3616 4 17.3104 12.5205 26.4359 0.524531 0.682163 0.28588 0.179728 0.114441 -0.124636
3617 4 20.5723 24.2266 23.1353 0.0078789 -0.000832414 0.355472 0.44135 0.133512 -0.3972
3618 4 10.7656 24.4777 17.0831 1.17264 -3.63361 -2.0249 -1.59731 -3.08301 -0.983539
3619 4 27.7863 0.11395 25.1146 5.16385 3.15071 -0.0836603 -0.176633 3.19472 -3.70516
3620 4 24.733 2.49097 26.0537 -0.962493 -2.03189 1.11103 -0.0080104 0.311351 -0.1076
3621 4 26.4735 4.37714 26.0912 0.720674 0.790935 -0.42528 -0.152161 0.409521 0.270585
3622 4 19.6508 15.9285 25.5764 -1.85067 1.71447 -2.73602 -0.0862536 0.045491 -0.226232
3623 4 18.6249 28.2437 27.244 -1.6333 -0.598691 0.195372 0.415759 0.0250045 0.00911905
3624 4 21.9251 16.7266 25.1401 0.727682 0.427417 -0.27244 0.195089 0.0612154 -0.127638
3625 4 19.908 21.1781 25.491 3.82477 0.735864 1.18682 0.0981734 -0.908032 -0.226044
3626 4 20.0647 25.8413 25.9488 1.3982 1.65295 0.0899601 -0.0329006 0.389568 -0.105026
3627 4 29.3971 2.64342 26.2892 -0.195566 -1.3847 -0.862811 -0.10468 -0.486341 -0.139593
3628 4 32.0484 3.90396 25.4941 -0.47202 -0.168186 -0.118834 -0.132961 -0.189967 -0.0605185
3629 4 28.5654 10.4376 25.9112 -0.200538 0.238918 -0.302153 -0.00919442 0.14475 -0.0298832
3630 4 26.5569 13.6801 25.1452 0.023081 -0.229619 -0.444572 -0.0170708 0.0550084 -0.067624
3631 4 27.0055 16.405 24.7022 -0.0244847 0.397839 -0.463189 -0.0138656 0.201238 -0.180442
3632 4 23.1479 20.0881 25.7861 0.0340525 0.0694795 0.0640642 -0.174512 0.27513 0.117684
3633 4 36.3101 0.116366 25.5098 1.11546 0.712184 -0.767265 0.142869 0.0920716 0.0233396
3634 4 33.5499 2.436 26.8637 0.00666479 -0.393633 -1.06686 -0.107802 -0.106329 -0.0351476
3635 4 31.6366 8.83097 26.3399 -0.324844 0.348579 0.0420419 -0.118748 0.171141 0.0611847
3636 4 -7.01834 14.1597 26.6489 0.0485267 0.0438311 0.05669 -0.0104452 0.0114327 0.0481481
3637 4 -8.77125 16.7032 26.8493 -0.169466 -0.103716 0.0125933 -0.038885 -0.0737472 -0.0380395
3638 4 -9.92646 19.689 26.3321 -0.0851242 0.177123 -0.127822 -0.0444038 0.0444696 -0.033826
3639 4 -14.8145 26.5259 25.8244 -1.41105 0.233916 -2.15152 -0.0181101 0.304046 -0.568101
3640 4 20.1128 29.4773 25.7562 0.768563 -0.597054 -0.290292 -0.100725 0.108395 0.481454
3641 4 -17.5022 31.7345 26.6245 -1.05934 -0.434063 1.75617 -0.0199132 -0.0592365 0.399022
3642 4 0.688701 1.93667 27.4604 -0.0781024 0.116771 0.0780116 -0.170322 0.0543966 -0.0388508
3643 4 -0.718818 7.37012 26.0954 0.0346271 -0.229332 0.11424 0.00105977 -0.0617437 0.062818
3644 4 -4.39312 11.6395 26.0392 -0.0613277 0.0230436 0.164624 0.00219222 0.0340722 0.0529508
3645 4 -11.6681 26.54 25.5957 -0.0132916 -0.0311417 0.143016 -0.0416773 -0.0218021 -0.0214924
3646 4 -12.3317 30.6692 25.4654 0.315845 0.174224 -0.23356 0.0375547 0.0707298 -0.0668395
3647 4 0.1764 9.33851 28.472 3.5174 -2.68378 2.91056 0.620068 -0.561439 0.559147
3648 4 3.73508 5.78443 28.2662 -0.582716 -0.252666 0.924832 -0.13807 -0.142449 0.129129
3649 4 -1.36584 17.5897 27.4486 -0.0511299 -0.187397 -0.240429 -0.0352548 -0.0492519 -0.153714
3650 4 -2.48149 21.3467 28.6496 -3.40874 3.18571 -0.106191 -0.214757 0.324581 -0.0297032
3651 4 8.94122 6.11763 28.5231 0.158299 -0.236106 -0.107593 -0.0435842 -0.0556412 -0.0482553
3652 4 3.78813 11.732 28.3807 7.55571 4.15289 -5.08293 -1.53706 -1.07414 1.08861
3653 4 2.59155 15.5544 26.775 -0.0966086 0.507408 -1.08493 -0.260307 -0.168679 0.0824687
3654 4 1.38136 18.1135 29.387 -2.0633 0.367199 -0.764136 0.789138 -0.0478202 0.07023
3655 4 -0.21068 20.0908 29.8332 0.266874 2.46752 0.582891 -0.542649 0.153975 0.0966836
3656 4 -1.44744 23.72 28.3645 -0.696077 -0.480658 1.23016 0.0265797 -0.290685 0.103099
3657 4 12.0175 3.36518 27.8325 0.0455 -0.0700589 -0.133515 0.0243446 -0.0224733 -0.0830997
3658 4 7.28919 13.9278 29.4822 0.259589 1.28034 0.579133 0.397563 0.420867 -0.0350223
3659 4 14.6796 23.4062 26.348 2.83168 -0.336544 8.11742 3.11847 1.74139 0.662099
3660 4 -0.212099 26.0996 28.3283 0.993516 -1.2998 -1.42107 -0.0343568 -0.344086 -0.360837
3661 4 -1.68175 28.3356 27.2585 0.0270856 -0.755574 0.101976 -0.3523 0.0678449 -0.040835
3662 4 16.4881 2.89026 28.5938 0.339026 0.113995 -0.00786523 0.0968069 0.144705 0.0142546
3663 4 15.1044 6.53464 28.3842 -0.0412933 0.0456451 -0.0597017 0.0820756 0.000962792 -0.0121217
3664 4 12.5864 7.4561 27.9321 0.0764743 -0.148168 -0.535697 0.00419303 -0.137924 -0.0242526
3665 4 10.2298 9.66136 27.719 -0.0130645 -0.566958 -0.243543 -0.0467953 -0.0608159 -0.00958266
3666 4 10.9806 11.8519 28.4212 0.89321 0.497939 -0.494147 0.0987791 -0.0451058 -0.145438
3667 4 1.70975 20.3644 26.4212 9.02241 2.31188 -2.32922 -2.81295 -3.07233 0.389376
3668 4 0.305429 28.9943 28.5074 0.235473 0.187034 -0.474328 0.542688 -0.173373 0.0549226
3669 4 0.117772 31.0939 26.5795 1.40371 -0.478646 0.445427 0.113583 -0.471667 -0.286065
3670 4 14.6971 10.4425 27.95 -0.150678 1.03084 -0.469871 0.0669642 0.0215959 -0.049039
3671 4 13.1985 12.6931 27.428 -0.655091 -1.51965 2.0392 0.20482 0.148527 -0.131853
3672 4 12.5861 15.319 28.9842 1.11245 1.58721 -0.534043 0.359289 0.465701 -0.211111
3673 4 4.27193 26.9077 21.4375 9.61058 5.12081 2.55993 -0.164574 -1.65999 0.847461
3674 4 2.41452 31.128 27.6937 0.924766 -2.62236 -1.31309 -1.44604 0.59397 0.0765181
3675 4 19.3218 0.949523 27.8897 0.272966 -1.39447 -0.617634 0.0163934 -0.192601 -0.133304
3676 4 20.8533 3.0717 27.4924 -0.394771 -0.563449 -0.0950365 -0.0976409 -0.0789015 -0.196392
3677 4 20.307 5.32051 28.6919 -0.139161 0.221539 -0.270113 0.0820343 0.0593859 -0.00330616
3678 4 18.0708 9.40518 28.1163 0.157534 -0.422139 -0.753461 -0.011272 -0.0716811 -0.15659
3679 4 22.6959 1.17687 27.329 2.09119 -1.22016 0.629067 -0.115294 0.0534832 -0.200228
3680 4 24.5559 4.3012 28.1125 0.0747686 -0.0234811 0.219092 -0.0517166 -0.192147 0.00755767
3681 4 22.5735 5.67457 27.0771 0.146467 -0.0755822 -0.0112243 0.0499405 0.0283163 0.0731164
3682 4 22.8405 7.87361 28.3039 -0.0840497 0.0428771 -0.0464635 -0.10581 0.0907113 0.081013
3683 4 18.4623 13.0354 28.7507 0.0682286 0.169582 -0.556368 0.104564 0.0800694 -0.175222
3684 4 17.9613 15.2555 27.2126 0.146996 0.805638 0.293486 0.255211 0.414007 0.128579
3685 4 26.2335 2.1637 28.673 2.33281 -6.10646 -2.48104 0.644474 0.408634 0.103689
3686 4 26.4685 6.3309 27.6343 0.17882 1.56575 0.00331958 -0.0808073 -0.0929954 0.116081
3687 4 21.3085 14.6425 27.1937 0.504436 -0.512834 0.514716 -0.034132 -0.0837785 0.0380444
3688 4 15.3047 21.6129 24.5282 -0.661512 -6.81472 4.00846 -7.65503 -5.73401 -8.61866
3689 4 28.9403 4.511 27.7921 0.191369 -1.02838 0.781148 0.0535922 -0.0109768 0.0133475
3690 4 26.9822 9.05625 27.9762 0.411272 0.674772 -0.679384 0.0192686 0.0844029 -0.0749572
3691 4 25.0762 10.973 28.3601 -0.105309 0.049231 -0.0985858 -0.0887435 -0.0293948 0.0282104
3692 4 23.4954 13.8954 28.4302 -0.256201 0.226914 0.0563724 -0.0512276 0.130589 0.0784521
3693 4 17.7142 24.5635 21.9767 4.64813 4.75275 -0.267067 -1.80907 0.208604 6.77778
3694 4 16.6432 31.6897 27.8872 -0.672543 -0.36229 0.87871 2.78132 1.3959 1.66214
3695 4 32.3374 2.0341 28.939 -0.816808 0.671837 1.49404 -0.450422 -0.20653 -0.244653
3696 4 28.7852 10.8364 28.9193 -0.405476 0.929433 -1.22861 -0.0867168 0.158052 -0.112798
3697 4 29.0184 13.6888 28.7992 0.0294645 0.0257501 -0.061229 -0.00909667 0.0291567 0.0301143
3698 4 27.6926 16.4275 29.3262 -0.408906 0.950353 0.271554 -0.00399476 0.118524 0.0695579
3699 4 26.0695 18.4951 28.8841 -0.0402681 0.114349 0.195063 0.155994 -0.0486629 0.0818186
3700 4 22.2492 23.3761 27.881 -1.51833 0.540975 -1.52817 0.232215 0.0443698 0.157363
3701 4 21.3617 26.5551 29.0732 4.16593 1.48472 -1.52624 0.324021 0.29552 -0.0670311
3702 4 19.1348 31.0334 28.8794 0.57911 -0.54772 0.705987 0.380772 -0.154479 0.112101
3703 4 35.5526 1.90238 28.9939 -0.296022 0.557184 0.498406 0.0120635 0.424127 0.182316
3704 4 -12.9362 25.2033 27.395 -0.551998 0.143276 0.0238089 -0.16005 0.0690828 -0.0275903
3705 4 -15.7887 29.0125 29.223 0.156171 -0.125207 -0.180261 0.0778699 0.141485 -0.163508
3706 4 2.66505 0.459555 28.5838 0.204464 -0.0318894 0.460026 0.0775913 0.0686456 0.155731
3707 4 1.93211 2.74069 29.7716 -0.0209234 0.15523 0.407359 -0.167176 -0.0120969 0.192936
3708 4 -1.92555 6.86853 29.2838 -2.49803 -2.3423 -4.86448 -0.0708951 -1.10913 -0.588571
3709 4 -2.40997 10.9169 27.2049 -0.0484063 0.280189 -0.0681258 -0.0172472 0.0986779 0.0360933
3710 4 -10.2308 22.075 27.3986 -0.11252 0.0345014 0.165925 0.0064544 0.0525664 0.122404
3711 4 -10.9818 24.1462 28.7089 -0.0155377 0.366661 0.0358169 -0.0600694 0.150225 -0.0602498
3712 4 -11.663 28.3624 27.057 -0.242965 0.25814 0.0059743 -0.0854589 0.00927243 0.0777367
3713 4 0.231847 6.68109 30.6376 -2.52903 -1.88901 -2.7039 -0.0540927 0.534421 0.0148817
3714 4 0.711827 9.00278 31.4291 2.78896 -7.64642 7.53437 2.01488 0.705884 0.466062
3715 4 -2.10015 12.7184 28.8223 -0.0611814 0.153951 0.129557 -0.0364477 0.0320768 0.0695406
3716 4 -4.47775 15.4335 30.0249 0.16979 0.179116 0.0297961 0.096397 -0.000536956 -0.0164924
3717 4 -5.90893 18.7496 29.7019 0.216009 0.0520374 -0.179627 0.0709292 0.142849 -0.161613
3718 4 -7.28499 22.9143 29.4033 -2.64102 2.33994 4.74105 0.654014 -0.685388 -1.43768
3719 4 -9.10291 25.0298 31.1618 -6.04112 -1.19772 -0.480675 0.569867 0.652935 0.396019
3720 4 -3.7973 17.7158 30.6014 -0.202996 -0.190412 -0.322021 -0.00519927 0.0339077 -0.122898
3721 4 -9.01303 27.653 30.3606 -0.40308 -1.45292 0.0784802 -0.155582 0.263345 0.0966386
3722 4 7.27095 7.5165 30.2486 0.0354316 -0.153809 -1.0306 -0.0241916 0.0390765 0.109386
3723 4 4.70271 8.88919 30.772 0.239112 -0.0915079 0.280938 0.0113814 0.160479 -0.038556
3724 4 -6.11728 26.8104 28.8892 0.0594642 0.0428358 -0.0379136 -0.0378199 0.0543712 0.0374808
3725 4 -6.29086 29.192 29.8002 -0.276751 0.0920365 0.047393 -0.438033 0.0633657 0.0629593
3726 4 9.6629 7.30774 31.3913 -0.180158 -0.0794588 -0.0119295 -0.0131134 -0.00752709 0.142226
3727 4 7.85069 9.97178 30.6836 0.164356 -0.221073 -0.173553 0.126846 0.0424842 -0.0110187
3728 4 -2.85566 27.1696 29.7008 -4.70643 0.549946 7.94654 0.325389 0.0934334 -0.64152
3729 4 -3.83451 29.9604 29.9714 -0.463139 0.291924 -0.317801 -0.988703 0.657586 -0.49194
3730 4 15.8609 2.15342 31.0007 -0.0145942 -0.200774 -0.296012 -0.0114669 -0.0446514 -0.082641
3731 4 15.1776 5.79697 31.313 -0.184516 -1.75057 1.99746 -0.111062 -0.00200272 -0.198061
3732 4 -0.682399 26.4014 31.1833 0.47281 -1.0815 -0.486545 -0.016653 -0.125085 -0.199622
3733 4 17.0135 4.49618 30.3773 0.0453479 0.133134 -0.0502665 -0.0179264 -0.00621994 0.00548929
3734 4 13.6161 9.43934 31.6068 0.0873524 -0.252789 -0.0979178 -0.00235266 -0.049646 -0.0639096
3735 4 12.1937 11.6094 31.6412 -0.921969 -1.82782 4.01054 -0.139975 -0.200375 0.440606
3736 4 10.4261 13.0892 30.3582 0.258824 0.48804 0.444179 0.105185 0.207803 0.260911
3737 4 2.30539 27.1977 32.8342 -0.153643 -2.05534 -0.483985 1.43116 0.0888817 -0.548971
3738 4 1.04225 30.2723 30.7468 -0.329497 -0.640886 -0.0268826 0.177484 -0.339603 0.114003
3739 4 19.8167 3.76665 31.915 0.567917 -0.304544 -0.0135797 0.00351669 -0.00302066 -0.0273048
3740 4 7.129 26.136 24.9202 -3.89865 -6.73597 5.07849 0.51945 -3.27586 -3.77499
3741 4 20.3061 0.423652 31.3656 -0.1857 0.48701 -0.370235 0.0264918 -0.000418362 -0.130004
3742 4 23.4765 4.26181 31.7065 -0.930261 0.342831 -0.212219 -0.126959 -0.067631 0.0804708
3743 4 19.7673 9.35649 29.9655 -0.359219 -0.0910912 -0.737135 -0.0613574 0.0773086 -0.0745907
3744 4 18.4323 13.0079 33.4108 3.66152 -1.84677 4.52046 0.427388 0.176372 0.505734
3745 4 6.42887 18.2469 20.6184 2.83168 0.190622 2.19404 -1.50263 1.08849 -2.57916
3746 4 14.7171 25.6667 14.7096 1.34651 1.38766 6.54061 1.04735 1.04389 1.08909
3747 4 23.8681 0.764097 29.5355 1.56618 -1.76496 0.713929 -0.214417 0.467628 0.213859
3748 4 21.2618 13.0679 29.4319 -0.147554 0.101828 -0.0507286 -0.144398 -0.0328117 -0.0799108
3749 4 19.0523 15.4364 32.8634 2.14452 -0.841379 -0.436818 -0.0987518 0.271245 -0.0162601
3750 4 18.3871 18.5237 30.1944 0.239238 -0.255938 -0.175068 1.54798 -0.204773 0.0242237
3751 4 15.7167 17.4073 25.5082 0.378063 -7.66787 1.25768 1.5319 -1.32588 -1.8713
3752 4 27.5047 5.6201 30.4137 0.0655957 0.448636 -0.543628 0.0177103 -0.126323 -0.249136
3753 4 25.0185 7.31322 30.9011 0.0367629 0.275855 -0.238177 -0.0742785 0.147788 -0.117768
3754 4 22.3556 15.1015 32.3894 0.0197572 -0.0757104 0.143733 -0.00437578 -0.0596784 0.0257418
3755 4 19.8866 22.6883 27.4275 1.63858 -1.50077 -0.592196 0.384213 -0.325246 -0.166002
3756 4 17.4453 29.9851 33.2075 1.77921 -7.52214 3.15262 -1.80016 1.05585 -3.29395
3757 4 29.2097 2.79404 31.9237 7.46191 5.89143 0.844998 -1.37144 -0.596455 0.22366
3758 4 31.6317 4.83095 29.4551 0.34779 -0.311092 0.0741808 0.194585 -0.0817835 -0.101282
3759 4 29.3849 8.36036 28.7809 -0.163882 0.309531 -0.0263442 -0.0625288 0.0672832 -0.0364681
3760 4 26.172 9.7376 30.6509 -0.0534321 0.767517 -0.205997 -0.0843393 0.248424 -0.0336822
3761 4 25.2857 12.222 32.039 -0.722653 -1.63431 1.32059 -0.295723 -0.375566 0.211076
3762 4 17.8891 30.466 30.8327 -0.166211 1.01293 -0.307339 0.396182 0.491938 0.932442
3763 4 34.3983 1.68336 31.568 -0.117028 1.79227 0.996502 -0.0726612 -0.496255 0.533401
3764 4 23.1875 23.6893 32.7006 -0.564359 0.590839 0.0430335 0.197189 -0.40725 -0.0644258
3765 4 -16.4533 28.7804 32.9114 -1.48507 0.713164 -2.00119 0.439003 0.26991 0.158952
3766 4 0.768989 2.28837 31.9843 -0.250764 -0.0119296 0.59289 -0.00997757 0.238292 0.275842
3767 4 -3.17737 7.6313 31.6485 0.0378458 -0.324158 -0.261008 -0.113943 -0.117067 -0.0601114
3768 4 -12.5103 22.8757 31.0927 0.527062 -0.360975 -0.236682 0.0112002 -0.177802 -0.0582898
3769 4 -12.8924 26.7081 32.2449 0.459363 -0.42745 0.436359 0.0845274 -0.201312 0.18143
3770 4 3.15559 3.33828 32.5522 -0.215125 0.117806 -0.14288 -0.133396 0.00603553 -0.060629
3771 4 0.175871 9.15494 33.8195 -0.983862 0.375026 1.69712 -0.0658975 -0.0335818 0.00894254
3772 4 -1.24568 11.0388 33.8915 -0.197598 0.645957 -0.238126 -0.0272081 -0.0348783 -0.0626308
3773 4 -2.9842 12.848 34.0894 -0.0185995 -0.0318867 -0.0210982 0.0149523 -0.0377997 -0.0570657
3774 4 -4.49981 15.5886 34.0544 -5.2913 2.16141 5.44293 -0.73162 0.41466 0.925594
3775 4 -5.04533 18.2367 33.0003 0.0888327 0.624773 -0.280064 -0.00641148 0.0475869 -0.277555
3776 4 -7.2459 23.4849 32.4355 -0.41071 0.166133 -0.417528 -0.0696611 -0.0104447 0.0768848
3777 4 4.03059 5.95075 32.5059 -0.4023 0.194879 -0.229856 -0.152246 0.0803157 -0.135743
3778 4 -1.81532 16.9167 32.7268 -2.48724 -1.42461 -1.26057 -0.416281 -0.259195 -0.161513
3779 4 -7.24273 27.1013 32.4646 -2.74053 0.605729 1.64329 -0.52291 0.076373 0.323425
3780 4 -8.25017 29.3855 32.324 -0.305859 0.588904 -0.356287 -0.0367748 0.184109 -0.0467687
3781 4 -10.7309 29.8507 32.7303 -0.0444348 -0.530733 -0.04323 -0.216049 -0.0162787 -0.0680406
3782 4 5.9672 2.7737 33.791 -0.118697 -0.0494484 -0.378983 -0.0807708 -0.13627 0.0268461
3783 4 7.60237 6.26575 33.2225 0.174939 0.0199511 -0.0424487 0.0182233 -0.113428 -0.124071
3784 4 6.69047 9.12678 32.8182 0.221276 -0.0185392 -0.161497 0.101296 0.0652857 -0.0285391
3785 4 4.31887 10.9934 33.3286 -0.303938 -0.0316225 0.0397663 0.0688156 -0.0813905 -0.181201
3786 4 1.39522 16.0235 32.2185 1.79435 -3.99219 -6.09126 0.176761 -0.243141 -0.461353
3787 4 -0.565001 18.8561 33.7194 -1.53366 -0.820229 -2.47547 -0.344559 -0.196033 -0.380931
3788 4 -3.8611 24.0786 32.5129 -0.172933 -0.222132 -0.265596 -0.0435916 -0.234931 -0.106273
3789 4 -4.51278 27.4521 33.5192 -0.418603 0.0431937 -0.153232 -0.133478 0.0412687 -0.0140009
3790 4 -4.83158 29.463 32.2421 -0.0213913 0.0347355 -0.0623467 -0.067736 0.0440311 -0.0781597
3791 4 11.9975 1.82842 32.8605 0.201491 -0.139173 -0.14938 0.0313709 -0.0103008 -0.0904678
3792 4 3.58539 17.3887 33.5027 -2.40265 0.886886 1.58787 0.285594 1.01358 -0.644819
3793 4 -1.54389 28.0468 33.108 -0.216807 -0.0447736 -2.14935 -0.178591 -0.011404 -0.359146
3794 4 -1.46317 30.129 31.4701 -0.0395628 0.938733 -0.435556 -0.144778 0.109625 -0.163616
3795 4 14.0514 5.52236 34.2847 0.0102644 0.00236249 -0.0597717 0.0372221 -0.0219851 0.0626069
3796 4 10.1191 11.1607 33.4514 -0.835202 -0.170707 1.4176 0.0192146 -0.436692 0.41763
3797 4 7.93117 13.3372 32.7206 -3.10213 1.15398 -0.942577 -0.97145 0.102549 -0.166834
3798 4 5.10181 15.0759 29.0607 1.41064 3.95153 -2.5862 0.456175 1.23395 0.157494
3799 4 17.1414 28.4324 48.3617 -3.7379 1.14972 -0.443427 -0.0440753 -0.616793 -0.957144
3800 4 15.813 2.63814 33.5823 -0.320778 0.537572 -0.674104 -0.025802 0.138164 -0.106831
3801 4 13.0931 12.8042 33.6806 0.125419 1.59127 -1.35179 0.00958298 -0.174201 -0.507662
3802 4 10.1312 15.0629 23.2074 -1.40361 1.68416 0.958148 0.664672 -0.838471 -0.898999
3803 4 0.725685 22.7821 33.9579 -0.720319 -0.68726 -0.193927 1.554 0.118536 1.02658
3804 4 3.72561 20.8039 31.1871 -2.50199 0.10136 -7.36676 1.08835 7.72326 -1.63685
3805 4 17.5169 22.6427 43.4745 4.03125 -13.2258 2.24153 1.01605 -3.2887 4.14702
3806 4 9.60654 20.2568 25.7658 -9.52668 -8.46563 4.74372 3.7999 2.75954 2.49802
3807 4 14.3367 22.0676 14.9423 3.12862 6.69107 9.97226 -0.462499 3.54836 -4.47478
3808 4 22.1421 0.475765 33.9179 0.201769 -0.81261 0.781133 0.252052 -0.0955676 0.0696291
3809 4 21.8999 2.4715 32.4196 -0.0602276 0.945933 0.524784 0.0606308 0.0187146 -0.126377
3810 4 22.6876 8.37945 33.0071 0.132864 0.188747 -0.235064 0.0750193 0.115484 0.0273081
3811 4 18.2465 11.0552 34.7996 -0.766139 -1.35875 0.109279 -0.07316 -0.361699 0.131336
3812 4 16.8368 16.1899 33.4314 -2.21052 0.624166 1.99828 -0.268428 0.287562 0.232357
3813 4 9.73601 15.5961 29.0056 -0.177898 -0.382881 -0.162125 -0.469601 0.0447879 -0.0238813
3814 4 17.6051 18.4869 36.3197 0.341892 -1.71368 0.727909 2.09469 -2.64523 2.49039
3815 4 14.7649 30.7279 24.4999 2.91665 9.62153 5.85052 1.1257 0.308249 -0.508848
3816 4 2.29526 27.0152 51.113 -3.72056 2.69425 -4.95337 -0.9307 -0.60058 -0.0819826
3817 4 26.6893 0.847712 34.5139 5.40127 0.708593 5.11861 2.02559 -0.0126602 0.551541
3818 4 24.5747 2.06307 31.9342 1.50827 -1.41122 -2.30963 0.0598573 -0.0151621 -0.114183
3819 4 21.6774 10.9916 34.3607 0.327125 -0.196419 1.24196 0.0548069 -0.142101 0.172157
3820 4 22.7851 13.5519 34.3949 0.11732 -0.0309787 -0.0540094 0.0339622 -0.11034 0.0329716
3821 4 18.9535 17.6784 34.4209 -1.02389 0.583074 0.510318 0.120407 -0.224611 0.0139783
3822 4 20.1992 22.0894 35.354 2.68164 -2.45535 -0.499143 -0.0581162 -0.993792 0.241825
3823 4 19.7877 23.0039 30.8905 0.544001 0.694872 -0.345026 0.00203951 0.0924179 -0.668623
3824 4 29.1999 4.51236 34.4662 0.355014 0.0681031 -0.141131 0.206416 -0.0319965 0.0115676
3825 4 27.8287 6.74833 34.4745 0.0350003 0.175723 -0.243447 -0.0143469 0.0191657 -0.149495
3826 4 26.7466 8.46943 32.932 0.0279339 0.27169 0.0313205 0.0474176 0.218122 -0.0467302
3827 4 23.7349 19.4261 32.695 0.672239 -0.244361 -0.17676 0.204593 -0.10642 0.0478626
3828 4 19.5868 20.594 33.2538 0.418019 0.562204 0.110358 -0.131505 -0.0551419 0.123109
3829 4 14.895 32.2274 33.6544 0.693853 2.62393 -0.769586 -0.467226 0.624003 -0.900979
3830 4 30.9651 1.72956 34.6366 0.807865 -0.072307 0.942907 0.275158 -0.246007 -0.332339
3831 4 31.6155 3.40211 32.9656 3.06147 -0.700819 -0.179285 0.0624376 -0.41301 -0.151318
3832 4 30.4175 5.80311 32.5517 0.0697806 -0.413648 0.0547657 -0.027606 -0.141385 -0.0297525
3833 4 29.8329 8.44425 32.6915 -0.115786 -0.0735648 0.168607 -0.0445394 -0.0344711 -0.021352
3834 4 28.2343 10.4358 33.0716 0.0887219 0.00190172 -0.114308 0.0784515 0.0225035 -0.0984931
3835 4 0.129906 4.88379 33.3882 -0.28039 0.122175 0.142167 -0.0866795 -0.0169676 0.0530152
3836 4 -3.20389 8.94078 33.7594 -0.0780096 0.0237095 -0.227168 -0.0568509 0.0340349 -0.0593048
3837 4 -5.1304 11.3121 33.6424 -0.00740277 0.237726 -0.144564 0.021537 0.013764 -0.0354759
3838 4 -6.10397 13.6572 32.8757 -3.04395 2.00817 2.42979 -0.205287 0.219087 0.221591
3839 4 -6.90177 15.9909 32.7057 1.09565 2.73967 -2.62075 -0.41308 0.119022 0.747002
3840 4 -9.19075 19.0085 32.986 0.917702 -0.630841 -0.0713667 0.261112 -0.190519 0.0401009
3841 4 -10.4604 21.7497 34.0159 -1.93372 7.26984 -0.297153 -0.347916 1.21699 0.0266436
3842 4 -9.60455 24.4075 33.6284 -0.00907258 0.40469 0.351431 -0.0740802 0.0126697 0.0892946
3843 4 2.34706 0.762618 33.4613 0.292743 0.277584 0.612283 0.00499197 0.0893779 0.0949315
3844 4 2.95183 6.46598 36.0661 0.00934735 0.177059 0.0723109 -0.045567 0.112614 -0.00822766
3845 4 2.25551 9.32581 36.3797 0.345869 -0.0716182 -0.117307 0.130196 0.051013 -0.0856384
3846 4 -10.8463 30.9678 36.8201 0.14916 -0.144395 -0.260789 -0.0537616 0.321019 0.127111
3847 4 5.8675 0.14284 34.8307 0.681051 -0.862229 -1.0348 0.160792 -0.017323 0.0273558
3848 4 7.71937 3.67234 35.3246 -0.198058 -0.213171 -0.0853179 -0.104961 -0.0813184 0.0730737
3849 4 5.24843 7.35784 34.2301 0.0327742 -0.0337908 -0.240884 0.00356472 -0.0514763 -0.179909
3850 4 -0.656779 15.8083 34.7994 1.17088 -0.00707663 -0.680832 0.258055 -0.0565133 -0.329068
3851 4 -3.89515 22.5829 34.525 -0.120828 0.0585323 -0.0443855 -0.118788 -0.101431 0.0824271
3852 4 -4.79061 25.2769 34.8101 0.122352 -0.0888721 0.0511606 0.0208652 -0.0273529 0.0799187
3853 4 11.7804 2.38675 35.3115 0.508324 -0.190307 -0.132349 0.243345 -0.0369075 -0.020088
3854 4 2.01506 15.3796 36.0565 -0.23103 -0.502295 0.498139 -0.162338 -0.0889934 -0.103614
3855 4 1.5474 18.7413 35.9441 -0.649143 -0.244647 -0.133941 0.223311 0.381375 -0.0861509
3856 4 -2.18189 24.9805 35.2129 0.124031 0.332739 -0.313591 -0.17695 0.0341809 -0.351412
3857 4 -3.19744 28.5935 35.8757 -0.601737 0.459238 0.854136 -0.157318 0.140671 0.146364
3858 4 14.6124 3.02408 35.7876 0.218315 0.0501845 0.0357873 0.17053 0.0078929 0.00668795
3859 4 11.4124 5.30922 34.5156 0.0950573 -0.045079 -0.00234844 0.0184601 -0.116875 -0.0430146
3860 4 7.40522 12.0641 34.8811 0.623371 -0.879636 -0.387281 0.406986 -0.422427 -0.0015865
3861 4 3.80065 13.5383 34.8914 -0.833193 -0.432861 0.296032 -0.0970765 -0.199537 0.0444206
3862 4 29.0092 2.15978 56.9086 4.97643 10.7985 0.104093 -0.732022 0.139685 -0.783568
3863 4 -0.616606 27.2089 35.4335 0.0323254 1.16663 -1.21586 -0.123335 0.233902 -0.13129
3864 4 -1.40668 30.0395 35.0061 0.0248145 -0.0892512 0.350029 0.0568238 -0.0452805 -0.0689455
3865 4 17.4322 3.98582 35.1035 0.454872 0.190333 0.36228 0.0311412 0.175647 -0.148632
3866 4 15.9264 6.12011 35.6711 -0.0219678 0.014987 0.0339017 -0.0986858 -0.0745166 0.0198001
3867 4 12.3967 8.93125 35.26 -0.169737 0.0987662 -0.170579 -0.0636806 -0.120419 -0.0818377
3868 4 11.2269 12.1643 35.9272 0.16842 0.245274 -0.679244 0.267711 -0.868134 -0.251885
3869 4 9.5815 13.7323 35.324 -1.93079 -1.30437 1.60619 -0.352938 -0.0142243 0.540154
3870 4 4.20709 16.6167 37.059 -0.665001 -0.416601 -1.68446 -0.0100472 -0.49135 0.266308
3871 4 18.3253 0.281092 34.3606 -0.245248 -0.2613 -0.0820982 -0.0111618 0.0235625 -0.0239805
3872 4 15.1665 0.115046 34.3644 0.233146 0.276344 -0.209652 0.119459 0.0780901 -0.179183
3873 4 17.7399 21.5899 21.919 6.76937 -5.35078 -12.6002 0.462914 2.0795 3.61621
3874 4 8.88779 20.821 21.5531 -6.40281 -1.65884 -0.488622 -1.84162 -0.954566 -1.72295
3875 4 20.463 5.68906 35.1578 0.112916 0.114642 -0.0082064 0.0558823 0.0763835 -0.0851457
3876 4 19.0153 7.94011 35.5996 -0.232061 0.283022 -0.144495 -0.0526031 -0.00269125 0.0828941
3877 4 5.49863 31.9014 37.2148 -5.50285 6.12294 -1.70454 0.141604 0.877789 -0.597137
3878 4 24.9307 3.59112 35.2379 -0.236694 2.39438 -0.452722 0.209159 -0.00680935 -0.392954
3879 4 22.8079 6.17979 34.4601 0.0245806 -0.0384623 -0.361504 -0.0204206 0.0732228 -0.136991
3880 4 22.5362 9.73555 36.3055 0.452049 -0.802765 0.929714 0.242663 -0.0980314 0.0869316
3881 4 20.7059 12.0784 36.7085 -0.0339609 0.229554 0.188492 0.0713128 0.0710684 0.0686987
3882 4 18.0907 16.981 23.9812 3.90343 -2.34291 0.620954 0.178114 0.177902 -0.142308
3883 4 4.47342 31.0745 24.5056 3.76062 0.137731 0.765285 1.39449 0.502535 0.381909
3884 4 29.2094 2.68815 35.9849 0.179359 -0.0109576 -0.50951 0.0780771 -0.0264219 -0.198825
3885 4 25.634 10.3332 34.6819 -0.137092 0.600375 1.22553 -0.00184585 0.190222 0.31629
3886 4 24.0337 14.6379 36.1774 0.332887 -0.187798 -0.262905 0.185987 -0.018468 -0.134765
3887 4 22.7872 17.6288 34.5337 -0.229827 -0.468484 0.334285 0.0505619 -0.0962564 -0.0600682
3888 4 21.6624 20.1015 34.6464 1.29892 -1.78947 -2.33727 0.187653 -0.32829 -0.104376
3889 4 24.7925 18.6774 35.7372 0.0261024 0.0382678 -0.0860607 -0.0341599 0.114862 0.0171792
3890 4 23.1858 22.132 35.4922 0.261812 -0.385812 -0.030189 -0.155246 -0.134667 0.254936
3891 4 21.4063 24.0464 36.146 0.341768 -0.864586 4.27822 0.0206609 -0.381337 -0.0467617
3892 4 20.4442 24.9352 34.0765 -6.34988 2.0646 -3.30528 -0.302704 0.498483 0.124436
3893 4 20.6759 28.1541 36.3495 0.336159 0.206129 -0.197523 0.485562 0.175938 0.0558739
3894 4 35.265 3.2073 34.637 -0.0953771 -0.263501 0.468683 -0.175751 0.0799613 0.220642
3895 4 26.807 17.275 34.4512 0.208872 -0.114872 0.107002 0.104769 -0.097807 -0.0844476
3896 4 -10.0949 19.4568 36.0376 -0.220183 1.26858 -1.30632 0.132344 0.0855137 -0.391104
3897 4 -14.8938 26.5413 35.0649 0.230526 0.235058 0.120024 0.0115762 -0.192138 0.102616
3898 4 -13.3498 28.6696 35.248 -0.0998764 -0.0511881 -0.176974 -0.00769637 -0.0616376 -0.00118735
3899 4 -16.5719 30.9724 34.8383 1.62505 1.66213 0.72268 0.0194074 0.135887 0.478709
3900 4 -0.182283 0.416872 35.0481 -0.986096 -0.621762 -1.31696 -0.198814 -0.544178 -0.21534
3901 4 2.40915 3.7353 36.2264 -0.598426 -0.137904 -0.450392 -0.27156 -0.0993053 -0.225692
3902 4 0.266449 6.36628 35.4181 -0.0828041 0.0969347 -0.0507966 0.0107302 0.0239598 -0.0457329
3903 4 -6.78852 18.1328 35.0053 0.180869 -0.38102 -0.901823 0.029878 0.228036 -0.14168
3904 4 -7.9455 20.8942 34.822 -2.131 5.09913 -1.85622 -0.427599 1.00943 -0.372121
3905 4 3.63111 0.471142 35.8778 0.821043 -0.172562 -0.324513 0.123402 -0.0805202 -0.0136254
3906 4 0.33136 9.93169 37.6947 0.254538 -0.486776 0.0439378 0.104563 -0.0558069 -0.0442368
3907 4 -3.04329 12.8108 36.9202 0.0348534 0.0332299 -0.0328061 -0.0286199 0.021708 0.0184068
3908 4 -10.5688 25.9537 36.3541 0.0611556 0.0337196 0.239409 0.0595431 0.00408835 0.0923273
3909 4 4.46435 7.78704 37.7082 0.803178 1.56225 -1.61977 0.25603 0.171115 -0.448381
3910 4 3.77864 12.0951 37.3214 -0.372912 0.297143 -0.378204 -0.0425813 -0.0671444 -0.0987303
3911 4 0.0679215 12.5304 36.6828 0.0479786 0.389268 0.023264 0.065306 0.0098919 -0.0182438
3912 4 -1.67211 16.6736 39.2994 -0.0874176 -0.0966541 -0.0321963 -0.0311786 -0.1254 -0.0196858
3913 4 -9.38453 28.6269 35.9756 0.0962251 -0.127506 -0.0652435 -0.0778248 -0.0693924 -0.0314692
3914 4 8.50762 1.34267 37.9745 0.672371 1.40049 -0.348613 0.167722 0.406158 -0.304935
3915 4 9.15575 3.84329 37.3078 -0.0415685 3.31231 -0.999475 -0.148126 1.22962 -0.289037
3916 4 6.83784 7.02501 36.8797 0.0300095 -0.241209 0.302018 0.0101302 -0.264059 -0.0824968
3917 4 5.05359 10.1886 36.5744 -0.0442857 0.210787 -0.0738723 -0.0563019 -0.124491 -0.124027
3918 4 -0.0260369 16.7597 37.056 -0.737663 -0.622811 -0.779283 -0.122902 -0.00447269 -0.19501
3919 4 -1.92953 18.8545 37.8777 -0.182108 0.161665 0.475415 -0.0722446 0.117281 0.0858552
3920 4 -4.01085 24.3352 37.0545 0.331116 0.0281402 0.0609393 0.106174 0.0779587 0.00422744
3921 4 -5.75294 26.3782 37.0776 -0.0964775 -0.341131 0.0233435 -0.0772708 -0.0685111 0.00568174
3922 4 12.1261 0.203766 36.7654 0.198583 0.0150236 0.0745351 0.142855 0.0382896 -0.000372737
3923 4 -1.94407 27.2323 37.9454 -0.0789977 -0.560499 -0.946197 0.115792 -0.351683 -0.287557
3924 4 12.37 6.38143 36.3062 -0.186722 -0.0850475 0.0892248 -0.125638 -0.0264361 0.000897884
3925 4 10.7538 8.19366 37.1989 -0.38342 0.254746 -0.0231839 -0.117693 0.030817 -0.0512112
3926 4 -0.111779 29.1535 38.5266 -0.501726 -0.514462 -0.525768 -0.515404 0.199112 -0.495769
3927 4 -2.34887 30.6405 37.5996 0.337271 0.509949 -0.312321 0.0448275 0.102022 -0.125655
3928 4 14.1772 7.37815 37.5313 -0.0953958 0.12222 0.0123434 0.0167651 0.0541417 -0.00404878
3929 4 13.7533 9.95494 36.9522 -0.539985 -0.289644 -0.231105 -0.082277 0.00989435 -0.204936
3930 4 9.55402 29.5193 24.1782 19.4812 -7.56522 5.40761 -0.550604 -1.61874 0.909462
3931 4 0.120816 31.28 36.5063 -0.211098 0.406271 -0.773952 0.402674 0.240869 0.0317034
3932 4 18.486 1.98177 36.1537 -0.11787 0.372519 0.188393 0.173455 0.110888 -0.0279973
3933 4 16.2463 9.87887 38.0548 -0.401377 0.00164241 0.134047 -0.179624 0.0677229 0.0128915
3934 4 15.057 12.0774 36.9493 -0.0798938 0.155616 -0.112013 -0.197357 0.13946 -0.0658684
3935 4 13.8118 14.2347 37.0504 -0.395757 0.894822 0.0920325 -0.273614 0.51197 -0.397367
3936 4 1.47882 23.1857 24.6583 -0.565844 1.4496 0.378281 -0.035022 -0.686496 0.515677
3937 4 21.2657 2.55762 36.303 0.158896 0.500072 -0.176061 -0.0259028 0.21865 -0.149061
3938 4 23.5101 2.49747 37.0607 -0.47686 0.824065 -0.268042 -0.276831 0.537443 0.0795721
3939 4 21.1082 6.73674 38.6319 -0.113863 -0.0245998 0.103793 -0.0203485 -0.175185 0.0206179
3940 4 20.1018 9.3904 37.5045 -0.0556797 0.310025 -0.0953238 0.0310242 0.0546085 -0.00355724
3941 4 18.194 12.3631 37.4668 -0.251447 0.17515 0.164762 -0.168388 -0.083411 -0.0577247
3942 4 17.8615 14.6801 36.6008 1.19987 0.625743 1.59875 0.0368601 0.0398363 -0.153837
3943 4 30.7138 2.12179 38.8277 0.553804 1.84425 -0.306053 -0.158773 0.281977 -0.00180067
3944 4 6.9811 30.0879 22.3682 -3.20243 -5.08625 -6.20309 2.00282 -2.5198 -0.247401
3945 4 26.315 3.01635 37.3852 -0.798253 -1.04023 -0.421228 -0.442251 -0.510014 -0.434315
3946 4 23.5825 5.32397 36.8797 -0.963341 0.865552 -0.499343 -0.15202 0.113144 -0.0758589
3947 4 27.5616 5.05033 36.3222 -0.363385 -0.0553561 -0.403317 -0.102168 -0.0840145 -0.105074
3948 4 21.1459 16.0939 37.0721 0.631748 -1.20518 0.21813 0.0770469 0.0716161 -0.0501184
3949 4 19.6114 25.2936 38.2659 -2.45543 -2.29573 -2.53413 -0.284187 -2.14819 -2.40758
3950 4 17.4038 29.1843 36.8523 3.11481 3.13146 -1.24449 -0.28304 -0.14333 3.90497
3951 4 14.3973 32.0639 36.97 -0.59407 0.761143 -2.19525 0.027064 -0.10797 -0.175744
3952 4 29.1887 9.41 36.4829 -0.055444 0.03728 0.02244 0.104012 0.0243984 -0.00315864
3953 4 25.8734 12.3433 37.231 -2.58188 -0.0602821 0.274778 -0.642949 0.0653268 -0.0135654
3954 4 22.9512 17.4854 38.7332 0.17088 -0.330664 0.286306 0.0524859 -0.0986645 0.0165451
3955 4 21.6951 18.5211 36.6923 0.424885 0.922726 -0.546895 0.0573317 -0.0994396 0.0374206
3956 4 18.4967 31.508 37.2894 -1.3639 -0.941968 0.269627 -0.146632 -0.282138 -0.40258
3957 4 33.9699 2.14908 36.9632 -0.325739 -0.339697 0.123508 -0.307369 -0.101309 -0.0846844
3958 4 -4.49407 8.1 37.5028 0.0104863 0.265057 -0.239495 0.0550303 0.0114536 -0.0554187
3959 4 30.7979 10.5535 37.9544 0.124753 0.525568 0.158817 0.0100758 0.0733786 0.000956287
3960 4 28.4675 13.0976 37.8239 -0.368278 0.0487151 -0.191373 -0.0942485 0.0865772 -0.103882
3961 4 -14.164 24.7172 37.4534 1.26515 0.112832 0.925463 0.20813 0.189449 -0.101715
3962 4 20.8571 27.7233 38.8371 0.783452 0.103127 -0.321668 -0.506661 -0.0658314 0.00918371
3963 4 -4.15397 10.3255 36.8163 0.070754 0.124609 0.0391057 0.00481609 0.049173 -0.0180189
3964 4 -6.11478 12.9393 36.7223 0.0369644 0.0823521 -0.0731492 0.0218337 0.0405183 -0.0318979
3965 4 -11.8034 25.0261 38.4764 -0.00104583 -0.03442 -0.154917 0.174588 0.00122536 -0.102443
3966 4 -12.973 27.0246 37.0221 -0.288906 -0.253723 -0.0162034 0.125386 0.0982201 -0.140203
3967 4 -0.540868 11.7631 41.5822 -0.244712 -0.178272 -0.22359 -0.104403 -0.0465148 -0.172699
3968 4 -3.60902 15.0399 38.8227 -0.109741 -0.252269 -0.0707389 0.0193376 -0.0526086 0.0207679
3969 4 -5.32022 18.7937 39.2735 0.434813 -1.35283 -1.97487 0.056572 -0.283641 -0.21045
3970 4 -7.74908 22.8318 38.9124 0.0199416 -0.540786 -0.6258 0.0152037 -0.184405 -0.190068
3971 4 -9.75921 26.2592 41.9044 -4.67407 -2.94238 2.49175 -0.440926 -0.290227 0.361053
3972 4 -11.3108 29.4238 41.1822 0.0700927 0.0218486 0.140179 0.0912536 0.0821859 0.0648066
3973 4 4.55514 7.16927 41.1037 -0.151629 0.620881 1.0324 -0.0252227 0.166033 0.0891503
3974 4 2.98172 9.25939 39.6283 0.357386 -0.226323 -0.0362701 0.0650843 -0.108107 -0.0120436
3975 4 3.12269 11.1462 41.0402 0.0424516 -0.118262 -0.0635844 -0.00632111 0.000873795 -0.107413
3976 4 0.57159 13.8117 40.0118 1.27928 0.134417 0.83786 -0.0488877 0.00400454 -0.214658
3977 4 -1.47577 18.8486 40.9211 0.202534 -0.0252429 0.0233679 0.116224 -0.0913298 0.0302995
3978 4 -6.81616 26.1326 41.4166 -0.394775 -0.182617 0.0547579 -0.022732 -0.124102 -0.0162944
3979 4 -9.11009 28.7705 42.2998 -0.288851 -0.741853 0.368185 0.0363977 -0.131522 -0.166672
3980 4 -8.60473 31.952 41.2121 0.271092 -0.189655 -0.15092 -0.000697426 -0.0354202 -0.129786
3981 4 6.9274 5.76501 39.1744 -3.1261 -2.49983 0.753607 -0.618999 -0.435756 0.197204
3982 4 6.29554 8.75576 39.4949 0.453718 0.508535 0.491667 -0.0630387 0.0212203 0.0298198
3983 4 2.48772 14.1081 41.476 0.155424 -0.910589 0.608514 -0.153595 0.166121 -0.147565
3984 4 -4.53132 23.8972 39.4991 0.0204635 -0.342344 -0.128526 -0.0125287 -0.118415 -0.151756
3985 4 8.98397 1.77814 41.8476 0.0224181 0.0447684 -0.431482 -0.0165838 -0.006064 -0.177581
3986 4 10.9246 6.46106 40.3992 0.200692 -0.496856 0.0555953 0.0339631 -0.2074 0.21066
3987 4 9.03612 9.80274 37.7363 -0.413107 0.202753 0.341212 -0.210149 -0.201759 0.164893
3988 4 -0.129834 20.7325 39.475 3.87201 -0.231761 2.05127 0.232248 -0.0416232 -0.325824
3989 4 12.3188 8.54987 39.8682 0.0273267 -0.185304 -0.377451 -0.00830902 -0.132443 -0.0966398
3990 4 5.37195 15.1127 33.263 1.12887 3.25324 -2.06239 -1.07464 -2.42448 0.282443
3991 4 17.4908 22.6216 36.8493 -3.60316 7.33173 1.65277 -0.640994 2.68853 0.792512
3992 4 16.0758 17.8653 29.6311 5.42379 -1.18186 1.40516 0.643501 -1.38266 2.90256
3993 4 16.5831 18.4634 32.3035 -7.17546 -1.5511 -2.28109 0.942515 -0.166734 1.9456
3994 4 18.021 23.1 49.4428 0.0762317 -0.146023 0.118715 0.0283025 0.168695 0.0639254
3995 4 1.0026 29.1813 41.1676 -0.734901 1.50537 0.392779 -0.146958 0.669875 0.396312
3996 4 20.1539 0.611493 37.7273 0.0212819 0.402142 -0.132886 0.0941939 -0.014852 -0.0908411
3997 4 16.5629 10.731 40.461 -0.217741 -0.0337881 0.116967 -0.0997802 -0.0158156 0.0971624
3998 4 14.6388 12.4663 39.4747 -0.0506139 -0.0103694 0.0934605 -0.185215 0.0224013 -0.032379
3999 4 7.62408 15.6248 35.4966 1.58932 1.2019 -0.633377 2.4208 -0.0469694 -0.222034
4000 4 3.97113 19.5209 24.9326 5.17042 11.3517 -0.00751766 -0.573304 -0.0374451 -3.08552
4001 4 27.1785 0.315185 52.6383 -7.41818 30.9363 -10.7852 0.449267 0.194188 -0.785265
4002 4 22.2654 0.622775 40.6242 -1.74195 0.467535 -0.295813 0.206939 -0.158798 -0.24839
4003 4 22.355 3.08074 40.6662 0.140295 -0.222244 -0.160463 0.157692 0.0194211 0.0118643
4004 4 17.4628 13.7793 40.0913 -0.159496 -0.749499 1.11052 0.476272 0.14642 -0.259657
4005 4 16.8577 15.145 42.0357 1.3408 0.628706 -1.68311 0.226579 0.0519953 -0.495755
4006 4 16.2011 17.9603 38.7272 0.230841 2.0748 -1.81398 0.288589 0.681347 -1.03929
4007 4 10.1909 29.1731 17.8707 4.70854 1.02758 2.70528 0.124368 0.569609 -2.22343
4008 4 30.104 0.700964 50.6086 -3.67056 -0.405966 0.817523 -0.102352 -0.682093 -0.155521
4009 4 24.5176 2.13758 39.3027 -0.549208 -0.416827 -0.166877 -0.191835 -0.167769 -0.134605
4010 4 25.9102 3.44601 41.1103 -0.589388 0.233847 0.749528 -0.251698 0.227484 0.0430708
4011 4 19.2051 16.2257 38.6672 0.0357683 -0.452871 -0.201102 0.188767 -0.223256 0.000643026
4012 4 15.8444 15.0527 38.4992 1.47116 0.00921054 -1.33103 0.282432 -0.196644 0.119214
4013 4 15.3827 29.422 22.4067 -4.67677 18.5997 -10.9863 5.8528 0.255976 -1.93527
4014 4 1.54663 20.4996 49.6631 -4.81904 6.57952 -5.91981 0.785094 0.0646923 -1.01022
4015 4 29.6824 4.15692 42.0937 1.03399 -2.29126 -0.270494 -0.045993 -0.283291 -0.232682
4016 4 25.5099 10.6991 39.3103 0.269545 -0.470744 0.0223614 0.0016479 -0.0235208 0.0303817
4017 4 21.9532 15.5053 40.0898 0.362751 -3.02863 -2.25601 -0.246805 -0.103657 -0.146352
4018 4 19.9001 22.8298 40.5511 -2.81881 1.13365 2.73322 -0.350692 0.477442 0.585355
4019 4 19.1253 31.15 39.6859 -1.58608 -0.399822 -1.46037 0.65392 -0.0709745 0.312526
4020 4 5.7961 17.3481 28.0113 -5.00668 -6.42039 -1.70038 -1.33115 -1.59584 -0.788726
4021 4 31.4361 4.90327 40.6515 0.30837 -0.866418 -0.36735 0.0496532 -0.290733 -0.286957
4022 4 30.6648 7.47514 41.0361 0.706854 -0.369466 -0.0233821 0.198443 -0.150571 -0.0599589
4023 4 28.0631 10.6686 39.872 0.303385 0.55356 0.468263 -0.0692725 -0.0950106 -0.0169895
4024 4 28.7258 13.5585 40.5995 -0.0263866 -0.0131876 -0.136104 0.0349717 -0.00700729 -0.168879
4025 4 24.4724 19.3609 39.0854 0.0358356 -0.435206 0.857928 0.0790371 -0.105029 0.25977
4026 4 35.3057 0.384772 38.5507 0.793443 -0.342566 0.0448489 -0.0255712 0.0299212 -0.440665
4027 4 33.9545 2.47803 40.3575 -0.858203 0.96633 -0.469634 1.17868 -0.744343 0.357735
4028 4 -2.46795 4.55307 38.0023 -0.358068 1.19787 -0.403637 0.0325789 0.272429 -0.218431
4029 4 33.503 6.22695 39.4528 -2.60619 1.42777 -0.997431 -0.326704 0.195101 -0.226196
4030 4 31.1022 10.2967 40.5731 0.19106 -0.285427 -0.0226598 0.0545871 -0.056393 0.00684393
4031 4 -6.14201 12.5609 41.4789 -0.0988042 -0.0366759 -0.210298 0.0456603 0.198754 -0.0411773
4032 4 -4.15901 8.69244 41.3359 0.135758 -0.569835 0.114974 -0.011972 -0.0906978 0.0237884
4033 4 -3.1874 12.2765 41.2431 -0.797404 1.30562 -0.988951 -0.224567 0.387466 -0.210948
4034 4 -10.9277 22.5276 38.7623 0.0605726 -0.247541 -0.203832 0.0503314 -0.146302 -0.154074
4035 4 -11.9698 26.9132 41.1686 -0.33834 0.949996 -0.516174 -0.275494 0.015469 -0.203354
4036 4 5.07697 2.84039 42.6629 0.0467586 0.269105 -0.162024 -0.026307 -0.0238184 -0.125765
4037 4 -3.83607 18.8792 42.8341 -0.0125257 -0.492929 -0.396546 0.118302 -0.0616905 -0.190294
4038 4 -5.65082 20.698 41.8082 -0.177444 0.122187 0.00689487 0.0624211 0.0302074 -0.107446
4039 4 -7.60959 22.8794 42.3212 -0.185202 0.047084 -0.0493928 -0.131466 0.0394475 -0.0521392
4040 4 -8.036 25.1424 43.3372 -0.000702821 0.0425394 -0.254488 -0.0439427 0.0603097 -0.0446046
4041 4 4.98741 5.48298 42.8933 0.0376389 0.061625 0.0166075 -0.0162569 0.0126215 -0.046577
4042 4 0.565071 13.8083 42.9983 -0.125332 -0.98361 -0.994398 -0.0275731 -0.121354 -0.238673
4043 4 10.1715 5.0475 43.2576 0.415262 0.066841 -0.478175 0.0368114 0.0199355 -0.252743
4044 4 7.24092 7.12365 41.5324 0.703293 -0.275548 -0.356471 -0.0792263 -0.234547 -0.135973
4045 4 5.59818 13.0594 42.6426 0.129862 -0.202737 -0.916534 0.166139 -0.122797 -0.311594
4046 4 2.94706 16.176 43.1746 -2.86169 1.18838 1.22671 0.0197057 0.437248 0.122726
4047 4 -0.431542 20.4888 42.6856 0.16624 -0.129292 0.443463 -0.32621 0.254429 0.142981
4048 4 -1.25341 24.3829 41.0643 -0.345727 0.0175709 -0.449042 -0.154225 0.042017 -0.319978
4049 4 -5.46747 29.5271 42.7151 -0.109997 0.599966 0.333983 0.0927867 0.0462335 -0.00906687
4050 4 12.1473 1.14258 41.1273 -4.16297 6.31576 -2.23484 -0.484234 0.817328 -0.340477
4051 4 12.3886 2.45253 43.3614 -0.0677457 0.21251 0.140823 -0.176457 0.0753274 -0.167512
4052 4 11.6728 6.93925 42.8923 1.59074 -1.25667 -0.827208 0.37806 -0.213053 -0.146917
4053 4 5.41724 16.1278 43.0405 2.70222 4.07627 0.835559 -0.33872 0.117888 0.245437
4054 4 2.1732 19.7305 43.0004 -0.45444 0.0436731 -0.310395 -3.54192 -1.66064 -0.303359
4055 4 -0.143599 23.3485 43.1258 -1.3281 -0.290778 0.835995 -0.398081 0.0447803 -0.681608
4056 4 -2.80583 30.2838 42.1002 -2.29934 -0.199671 -2.83343 -0.0441533 -0.128783 -0.163092
4057 4 15.1927 0.615793 41.9256 -0.00600196 1.06309 -1.27549 -0.025848 0.163361 -0.176321
4058 4 14.702 3.32642 42.5391 0.0208261 0.205006 -0.0450001 -0.00526155 0.0308748 -0.0853604
4059 4 11.8683 10.5064 41.5181 0.330967 -0.0689722 -0.0930734 0.125448 -0.162098 0.0935216
4060 4 11.2833 13.2063 42.2346 0.503453 2.13957 -1.48133 0.0832629 0.75442 -0.0438713
4061 4 8.93561 13.962 42.5919 1.84465 0.820982 -2.40498 0.173427 0.0562253 0.225148
4062 4 1.06003 19.0327 46.5822 2.32309 1.43162 -0.0992073 -0.0469784 -0.27316 0.388637
4063 4 13.6534 14.0382 41.7913 -3.2055 1.09381 -0.794438 -0.166476 0.35837 -0.188666
4064 4 16.0138 27.726 20.2449 6.50704 11.4508 -4.27456 1.27721 4.24885 -17.2441
4065 4 18.6211 0.823091 41.5994 -0.363977 0.329353 -0.336494 -0.0799951 0.0632434 -0.076226
4066 4 19.4211 3.35734 41.9964 0.397519 0.545306 -0.233676 0.162369 0.250324 -0.252184
4067 4 16.3538 4.75992 40.7348 0.783543 -1.01049 -1.42512 0.0589632 -0.257184 -0.243204
4068 4 16.1175 7.52438 43.2918 0.223053 -0.234424 0.114839 0.156896 -0.0120381 -0.0768978
4069 4 17.416 18.6704 40.92 -0.470692 0.82254 0.194727 -0.132235 0.22936 0.026156
4070 4 2.33121 17.9341 39.5713 -0.81894 0.126945 -0.619739 0.665051 0.863616 0.282046
4071 4 12.6753 18.1327 32.8472 -8.99268 1.49912 9.82938 0.639756 -0.711372 2.1733
4072 4 1.87122 31.8752 42.6452 0.269314 -0.0820822 0.049708 -0.0100181 0.175027 -0.0414748
4073 4 18.7991 9.77654 41.4135 0.0871483 -0.207673 0.145697 0.0236798 -0.0476273 0.0983029
4074 4 5.62641 32.1722 41.9461 3.91416 -1.29484 0.0710402 -0.294659 -0.452859 -0.185188
4075 4 24.8258 3.22038 43.3772 0.643273 0.674518 -1.19156 0.0125821 0.0341471 0.222893
4076 4 23.0121 7.97112 43.8153 0.61016 0.0242854 0.277453 0.1834 -0.017626 0.0913318
4077 4 7.33654 18.503 22.424 0.978255 13.5205 -1.31629 6.10835 -4.06721 7.96667
4078 4 27.6393 3.33658 43.2806 -0.463328 0.095214 -1.22489 -0.14558 0.0264495 -0.00755175
4079 4 25.537 5.61217 42.4298 0.412075 -0.165644 -0.353123 0.148927 0.120415 -0.204654
4080 4 24.9577 8.07015 42.3209 0.170141 -0.277307 -0.460117 0.0860045 -0.147307 -0.241205
4081 4 21.9819 11.6488 42.8791 -0.284601 -0.301645 0.0836212 0.129121 -0.00889092 -0.0915832
4082 4 19.4807 16.8369 41.2009 -0.44855 0.115506 -0.565537 -0.0704809 -0.0265636 -0.392545
4083 4 18.4364 28.6263 39.7901 -6.93939 -1.5088 -0.162448 -3.22932 -0.166059 1.64249
4084 4 31.3631 1.20976 43.1847 -1.11462 1.06517 0.308955 -0.250343 0.456684 -0.0987471
4085 4 27.1518 12.2838 41.9732 -0.251878 0.270929 0.027729 -0.0691457 0.0898392 -0.111253
4086 4 24.0689 12.7621 41.3912 -0.0446912 -0.133653 -0.169666 0.0503163 -0.0224023 -0.0651426
4087 4 23.6147 17.0135 42.5022 0.184755 -0.0557521 -0.253656 -0.0269785 -0.0611887 -0.129064
4088 4 22.3483 20.3846 41.8727 1.05241 0.252387 -1.10039 0.36195 0.220303 -0.126722
4089 4 19.3781 26.3126 41.7381 5.01765 -0.640766 -3.39523 1.80341 1.38985 -1.12715
4090 4 33.3039 4.03316 42.1253 0.36432 0.547939 -0.410833 0.123555 -0.00281864 -0.282101
4091 4 25.6864 17.2465 41.2485 0.23042 -0.233145 -0.230105 0.0995177 -0.140556 -0.114149
4092 4 22.1618 24.0786 41.5379 0.840717 -2.64927 0.106155 0.435855 -0.42303 0.0168331
4093 4 -1.028 4.48336 41.5915 0.137607 0.122339 -0.563473 -0.0803965 0.0389837 -0.304864
4094 4 -2.08212 7.14152 41.2469 -0.140764 -0.241534 -0.210022 -0.0141101 0.0628832 -0.0649837
4095 4 -14.2965 26.6661 43.2469 0.323752 -1.72285 0.238258 0.10132 -0.167624 -0.144259
4096 4 -17.5464 30.8869 43.4558 -0.912858 0.555916 -0.844176 -0.0972821 0.00264434 -0.298243
4097 4 1.66817 3.43499 42.1413 -0.706715 -0.300125 0.503378 -0.22903 -0.116314 0.23735
4098 4 0.490882 6.51822 41.8231 0.132256 0.485658 -0.0770607 0.0493458 -0.102928 -0.230259
4099 4 -6.50172 16.2588 42.9809 8.59728 1.28249 -2.35471 -1.96442 -0.121316 0.4617
4100 4 -7.19293 18.5056 41.5421 0.34838 0.12154 -0.59108 0.105154 0.0325693 -0.165847
4101 4 -7.77323 19.2929 43.8622 0.129771 -0.0088797 -0.395458 0.0660933 -0.0381269 -0.228684
4102 4 -9.49698 22.5876 40.7692 -0.458287 0.22339 -0.570297 -0.00293389 0.0150505 -0.130968
4103 4 -15.1337 30.2287 41.7049 0.233271 -0.0679984 0.37183 0.223526 -0.107325 0.0933108
4104 4 4.54586 0.387709 41.3959 0.502666 0.118527 0.0477911 0.107532 -0.0219972 0.0461676
4105 4 3.24525 2.55897 44.4704 -0.0208871 -0.0928839 -0.112328 -0.0324929 0.0685791 -0.0834994
4106 4 -1.54458 9.30555 44.1462 0.235493 0.00658605 -0.0509232 0.0950987 0.0667257 -0.0649158
4107 4 -2.43314 12.4639 44.7064 -0.277322 -0.205666 -0.122514 -0.125469 -0.112153 -0.0658774
4108 4 -4.52333 14.3599 44.3791 -0.0989329 0.205064 -0.355659 -0.0818413 -0.0282663 -0.0207355
4109 4 -5.32572 17.9085 44.625 0.067627 0.439866 0.399143 0.114386 -0.0920115 -0.308895
4110 4 -9.58775 21.0763 43.2641 0.186128 -0.233609 0.0758236 -0.00116088 0.115936 -0.203249
4111 4 -10.2238 24.8051 44.5215 -0.553612 0.635538 -0.410111 -0.215632 0.235594 -0.243466
4112 4 -12.4826 28.8918 44.2774 1.23399 -1.86542 0.344652 0.190996 -0.219991 0.108054
4113 4 -13.569 32.0032 45.3168 -0.309774 0.00407291 0.0431038 -0.0876733 0.0417257 -0.045377
4114 4 -6.08862 23.251 44.3328 -0.399456 -0.404444 -0.306193 -0.0150804 -0.0759591 -0.153304
4115 4 7.7874 4.56532 44.0488 0.65071 -0.02428 -0.0854734 0.196416 -0.0801513 -0.0608735
4116 4 6.6236 6.84498 43.9673 0.119436 0.0201539 -0.295717 -0.0215029 -0.0625243 0.0125562
4117 4 4.00204 11.621 44.3047 -0.363502 -0.0860173 -0.75919 0.0707308 -0.139863 -0.0663349
4118 4 0.833732 15.7491 44.5821 0.221405 1.25498 1.19589 -0.181237 -0.321171 -0.330481
4119 4 -8.03025 31.4044 44.2152 0.576735 -0.181296 -0.770911 -0.00427988 -0.042219 -0.264289
4120 4 8.28266 8.68215 43.3843 -0.162035 0.0735411 -0.297757 -0.122068 -0.0241878 -0.165596
4121 4 4.24389 14.0826 44.4689 1.63416 -0.966215 -1.73436 0.233203 -0.333595 -0.139439
4122 4 -0.568905 21.4917 44.8765 -1.2861 1.45651 0.135532 0.0404339 -0.107732 0.00598594
4123 4 -2.43928 22.9536 43.6241 -0.979874 -1.10835 -0.0239639 -0.211413 -0.527429 -0.186886
4124 4 -3.90935 26.3665 43.4472 0.128263 0.169768 -0.108624 0.0738797 -0.0221676 -0.100202
4125 4 -3.73123 28.7735 44.3298 -0.695946 0.0860702 0.244803 0.00779293 -0.0453305 -0.050143
4126 4 -5.89796 32.0668 43.1001 -0.542178 2.44011 -2.94707 -0.102184 0.316477 -0.414479
4127 4 7.48086 13.2474 44.4625 -1.26562 -0.617595 1.40842 0.016437 0.566187 -0.0907253
4128 4 6.80244 15.9483 45.2642 0.0735479 -1.80033 -0.876969 0.417716 0.121725 -0.00539786
4129 4 -0.785904 25.514 44.2671 -3.01029 -0.168452 -1.86581 -1.08607 -0.0860826 -0.800062
4130 4 -1.05803 29.9932 43.8793 6.65704 -4.24899 4.86448 0.350181 -0.260277 0.229487
4131 4 -2.99871 31.8021 44.4512 0.0408436 1.7394 -0.73333 0.0418792 0.182472 -0.249371
4132 4 17.8468 2.54008 43.9185 -0.269841 0.383283 -0.276127 0.00226835 0.172715 -0.0979831
4133 4 16.5602 5.05056 43.1873 0.412609 -0.397319 -1.22484 0.150158 0.0100026 -0.294016
4134 4 14.3956 5.52313 44.5397 0.134241 -0.124659 -0.117449 -0.0392732 -0.189269 -0.118247
4135 4 13.0442 9.80818 43.6997 -0.18468 -0.289214 -0.037032 0.0537736 -0.218305 -0.119488
4136 4 11.9904 12.0349 44.3539 0.123752 -2.35127 -1.16735 -0.291392 -0.45091 -0.479194
4137 4 11.0703 14.236 44.6829 0.857166 -2.00275 1.00534 0.08673 0.563564 -0.297435
4138 4 13.5761 17.9359 29.225 -12.9006 2.33281 2.66428 2.56993 1.82416 -0.629169
4139 4 1.40694 27.2748 44.3862 0.813151 -0.772591 1.01584 0.0834161 -0.397146 -0.0517976
4140 4 20.3881 8.11788 44.0354 0.596614 0.367127 -0.864705 0.315117 0.039662 -0.194148
4141 4 17.0407 9.98265 44.4382 0.451093 -0.460112 -0.0072464 0.0577323 -0.00452593 0.123676
4142 4 15.3048 11.7468 43.7281 -0.830096 0.456825 -1.47362 -0.0162702 -0.0616258 -0.0950449
4143 4 12.3249 16.0734 45.8611 3.79016 -1.09158 1.53171 -0.945373 1.37168 -0.0206392
4144 4 14.714 17.0007 34.858 -6.72168 7.20911 1.13714 -2.29358 1.34937 -2.18633
4145 4 4.01169 31.304 43.6751 -0.367947 0.578129 2.27126 0.217846 -0.543139 -0.257348
4146 4 22.8313 4.93163 43.8781 -0.00749355 0.21025 0.0981577 0.061857 -0.0307982 -0.143301
4147 4 17.972 16.737 44.655 0.931529 -0.890134 0.334462 -0.286708 0.848668 0.0202164
4148 4 16.1334 18.3951 43.3879 0.918698 -0.206967 2.0373 1.48068 -0.638402 1.1576
4149 4 14.2557 16.4358 27.2386 1.57209 2.35523 1.73311 -1.33691 0.785959 1.03011
4150 4 26.4759 1.69036 44.7797 1.06344 0.900361 -0.420284 0.011713 -0.309213 -0.160163
4151 4 28.1001 4.61824 45.5128 0.449561 0.539844 0.58742 0.143714 0.20087 -0.000801274
4152 4 26.3167 9.49525 43.971 -0.0800644 -0.245439 -0.234742 -0.104221 -0.108558 -0.0197591
4153 4 23.9841 11.8207 44.4229 0.625921 -0.0223258 -0.520201 0.252234 0.089059 -0.389243
4154 4 20.9543 16.6258 44.9188 0.315115 -0.193812 -0.615585 0.171666 0.00222329 -0.111175
4155 4 20.6824 21.0308 44.8814 -2.70931 1.62536 -0.904854 -0.803678 -0.323294 -0.430455
4156 4 17.3403 29.8448 41.3455 5.33318 1.28418 -1.62219 -2.16861 4.87544 -1.44971
4157 4 14.8457 31.5235 44.208 0.945034 -0.96161 1.41889 0.34096 -0.603561 -0.11884
4158 4 29.8639 0.837077 45.2432 0.235115 0.19802 -1.0376 -0.131104 0.169181 -0.266826
4159 4 27.0263 14.2773 43.4795 0.0307293 0.118227 0.0192974 -0.0216652 0.00486144 -0.0899417
4160 4 24.1483 19.7191 43.4857 0.526502 8.29436e-05 -0.0349842 0.0803158 -0.0379565 -0.0855212
4161 4 32.4628 7.1482 43.41 0.773859 -0.414478 0.616652 0.149197 -0.138283 0.138193
4162 4 21.323 23.5619 43.7957 2.66977 0.640051 1.59766 0.610196 -0.00115569 0.676004
4163 4 20.5742 28.4488 42.9704 0.296756 -0.384682 -0.528225 -0.0575143 -0.181375 -0.163382
4164 4 -0.00886286 2.73987 44.0305 -0.193806 -0.0943558 0.156554 0.129138 0.0498442 0.0750973
4165 4 -2.49524 6.53312 44.7988 0.401986 -0.41506 0.148507 0.234305 -0.105994 0.0421855
4166 4 -3.87713 10.1379 43.4902 -0.0752376 -0.256019 -0.153269 0.0622137 -0.0284726 -0.00147762
4167 4 -12.9948 27.193 46.0723 0.250073 -0.257951 0.773589 0.091634 -0.00210786 0.00794311
4168 4 -16.1802 29.9902 45.1999 -0.902204 0.24602 -0.201631 0.323879 0.181194 -0.20685
4169 4 1.12954 0.820244 45.1522 -0.241601 -0.203446 0.20271 -0.0130889 0.130493 -0.0296121
4170 4 -0.00392644 11.0406 45.5242 0.542042 0.378508 -0.149346 0.120469 0.112059 -0.0741425
4171 4 -2.46981 14.4073 46.1966 -0.0645153 -0.218498 -0.163975 -0.126081 -0.113149 -0.0260126
4172 4 -3.56865 17.4912 46.5412 0.19454 0.241873 -0.102349 -0.0630548 0.0645034 -0.130585
4173 4 -7.56289 21.4311 45.922 -0.0908766 -0.147441 -0.234746 -0.110587 -0.0837451 -0.168243
4174 4 -7.87971 24.0425 45.7022 -0.193768 0.331947 -0.162608 0.00770224 0.0270699 -0.174401
4175 4 4.73082 8.08409 46.1325 0.0818308 -0.0928365 0.0280529 -0.0146062 -0.0878497 -0.132405
4176 4 2.73237 8.1617 44.7669 -0.676207 0.105951 -0.0623957 -0.235774 -0.0279014 -0.0809552
4177 4 2.68083 10.0845 46.076 0.122247 -0.00966028 -0.0509808 0.0737671 0.0129483 -0.0467744
4178 4 1.0874 13.6067 46.7137 0.226726 0.534097 0.128209 -0.0838277 0.040683 -0.22626
4179 4 -5.54297 23.3961 46.7508 0.788859 0.152094 -0.788832 0.00208812 -0.114806 -0.491541
4180 4 9.1611 0.410605 45.7528 0.856233 -0.00409088 -1.55156 0.144639 0.0100023 -0.284462
4181 4 7.08398 9.5125 46.6609 -0.0180867 -0.21386 -0.196547 -0.100376 0.00585802 -0.211772
4182 4 3.48201 12.3588 46.699 0.76261 0.483375 -0.210026 0.535974 0.077104 -0.143278
4183 4 1.45178 15.5424 48.3432 -0.278742 1.11114 1.04178 -0.0426193 0.10717 0.0768754
4184 4 -3.33489 23.8869 45.8473 0.0268616 -0.444437 -1.76934 0.145193 -0.0120828 -0.288127
4185 4 -5.10223 27.0084 45.7956 0.310597 0.359219 -0.710062 0.10476 -0.0898481 -0.0969361
4186 4 -5.44865 31.5698 45.4419 0.803643 -2.37524 -3.30592 0.0465155 -0.0657313 -0.437338
4187 4 10.5457 2.26583 45.7251 0.606646 0.13165 0.610264 0.080692 0.0932973 0.0357579
4188 4 3.81738 14.8633 46.8932 -0.600079 0.0296884 0.254157 -0.264623 0.0264238 -0.0512558
4189 4 -0.508898 27.3685 46.3909 0.297912 0.576824 -0.817428 -0.0965071 -0.225534 -0.0877681
4190 4 -1.41074 31.8747 46.972 -0.0530418 -0.0300862 -0.112504 0.045929 0.0140691 -0.194208
4191 4 16.4119 4.83321 46.1265 0.638706 0.077788 -0.860091 0.000474392 0.0538617 -0.0796131
4192 4 14.594 8.85614 45.5129 -0.0302453 -0.0268776 0.145991 -0.067151 0.04449 0.000592377
4193 4 13.3893 11.3043 46.1347 -0.85077 1.08875 -1.38477 -0.0568392 0.239103 -0.168941
4194 4 14.1102 17.1308 44.2233 1.07117 4.56751 -3.82104 1.59668 -0.847845 -1.54556
4195 4 1.5244 26.377 40.7567 -0.709196 -1.36567 0.521563 0.257349 -0.161286 -1.06955
4196 4 2.54621 32.2445 46.5336 -0.123069 0.645558 -0.342081 -0.0719397 -0.0147286 -0.0381741
4197 4 19.4327 1.22475 45.2724 0.459117 0.163019 -0.0826453 -0.0109545 0.0965498 -0.0855608
4198 4 17.5046 12.4239 45.1146 0.0186823 -0.200175 0.0691326 -0.0551619 0.00369554 -0.076553
4199 4 14.5884 14.497 47.0892 -0.836942 0.555184 1.19693 -0.0869171 -0.0410069 0.21065
4200 4 2.44899 23.1885 36.9405 -13.5632 2.43584 -11.4092 3.54387 -0.187631 -2.36371
4201 4 3.02464 29.1578 31.4097 0.916373 1.01399 -1.18107 0.480116 -0.575704 -0.305274
4202 4 14.8566 20.0399 42.3443 9.25477 -23.1535 -0.740101 0.837271 1.42171 -1.02678
4203 4 21.1113 2.26238 47.3391 -0.239106 0.351829 -1.06071 -0.185272 0.268381 0.0542479
4204 4 24.1251 3.77003 46.6055 -0.899088 -0.755419 0.21166 -0.107151 -0.104842 0.217572
4205 4 16.4353 15.5086 45.9852 -0.574515 0.684433 0.414201 -0.385884 -0.303079 -0.274636
4206 4 2.92049 19.9527 34.2732 1.81013 -0.0161729 -1.45506 1.09434 0.108073 -1.1073
4207 4 26.073 5.00802 47.8192 -1.03692 -0.811087 -4.73682 -0.0899212 -0.0855841 -0.27821
4208 4 18.5036 19.5278 46.6929 0.605511 0.900645 -0.173659 -0.991314 0.40551 0.902051
4209 4 8.04889 25.7625 34.3874 -13.2765 -0.915355 10.7836 -0.48504 0.307332 -0.713403
4210 4 2.42073 20.7291 39.9987 2.31691 -1.19431 1.49374 -0.300223 1.07279 1.23176
4211 4 24.8754 0.368136 46.5043 -0.887506 -0.782309 0.173548 -0.220963 -0.850464 -0.182616
4212 4 27.8433 6.99149 46.7504 3.04434 0.161912 0.784111 0.09139 0.111718 0.0253418
4213 4 20.8941 18.6919 46.2117 -0.497534 -0.620346 -0.0316346 -0.356872 -0.0367561 -0.0659109
4214 4 19.1533 24.269 43.0559 0.379876 -0.24216 2.51548 1.21398 -0.13724 -1.79761
4215 4 13.5655 16.8183 49.8932 -0.948014 -0.00049378 -1.369 -0.576999 1.11797 -0.926474
4216 4 32.906 2.74557 46.2813 -0.1708 0.195964 -0.388308 -0.165128 -0.0130861 -0.149357
4217 4 29.8377 3.0301 46.3506 -0.268142 0.0414833 -0.248419 0.069078 0.308331 -0.117173
4218 4 30.4379 6.33422 44.751 -0.0367007 -0.072345 -0.0350353 0.0185144 0.123197 -0.148548
4219 4 29.3868 9.89539 46.5564 -0.284806 0.252213 -0.313685 -0.115738 -0.00500367 -0.177907
4220 4 24.6756 14.2231 44.8646 -0.304904 0.0587707 0.0162263 -0.16947 0.0470204 -0.0236638
4221 4 24.4286 16.5433 45.6575 -0.137249 -0.158976 -0.135942 0.0326706 0.122006 0.00213234
4222 4 31.2601 9.13565 44.7374 -0.00502151 -0.0496934 -0.0740378 -0.152328 0.011483 -0.115861
4223 4 -12.8829 24.947 44.9411 -0.283424 -0.000713506 0.335207 -0.0289539 0.0337026 0.0429282
4224 4 21.9426 25.2385 45.6168 -0.0518783 -0.418623 -0.32122 -0.070213 -0.000277066 0.0754255
4225 4 1.23396 5.19377 46.9418 0.268884 0.0566001 0.09264 0.137908 0.070259 0.030034
4226 4 -2.42238 10.4846 46.4399 1.30211 -0.00849251 0.421187 0.25197 -0.0146368 0.063564
4227 4 -5.27973 11.6737 45.1326 0.0715954 0.011888 -0.119406 -0.00790951 0.0486588 0.025922
4228 4 -7.58529 14.2898 44.4656 0.418964 1.15788 -0.996885 -0.116852 -0.300232 0.0664204
4229 4 -6.30912 17.2955 47.0204 0.495331 0.103739 -0.54873 0.0761308 -0.00947494 -0.24789
4230 4 -11.22 21.4784 45.6866 0.105439 0.0982067 -0.0819573 -0.031013 0.0395662 -0.176102
4231 4 -11.3438 24.1805 46.6496 -0.0684351 0.0352039 -0.334301 -0.0512851 -0.0587102 -0.135731
4232 4 -10.8369 26.7189 47.6156 0.470245 0.102207 -0.147003 0.214947 -0.00454571 -0.102889
4233 4 -14.1916 29.6849 46.4494 1.92092 -0.636865 0.558201 0.0722008 -0.0876802 0.116799
4234 4 2.26442 2.23908 46.9846 -0.07061 0.0577924 0.106908 -0.14963 -0.152806 -0.0262633
4235 4 -4.73578 19.8245 46.9866 -0.260058 0.173317 -0.241923 -0.00754616 -0.035573 -0.224754
4236 4 -10.8296 31.4279 47.4016 -0.957508 2.68651 -2.46364 -0.108583 0.436005 -0.383065
4237 4 7.12996 6.50041 49.4521 1.56544 -0.222628 -0.564768 0.168264 -0.0341726 0.114008
4238 4 5.37593 8.25599 48.5791 -0.401959 -1.79727 0.302854 0.0859889 -0.145121 0.0183722
4239 4 -0.959048 17.6085 46.9073 -0.836924 -1.40388 -0.868272 0.151753 0.0504462 -0.23142
4240 4 -5.12099 26.1141 48.3352 3.40336 -0.371219 -1.6712 0.167798 0.0311381 -0.270185
4241 4 -8.24939 31.0279 47.9292 -1.35347 -1.02809 -0.785333 -0.1064 -0.0436923 -0.0800196
4242 4 9.44456 0.938952 48.5907 1.28691 0.104531 -1.80281 0.234899 -0.0230811 -0.300807
4243 4 11.1116 4.54848 46.626 -0.287169 -0.179926 -0.0889323 -0.200181 0.0157296 -0.136088
4244 4 8.40861 7.45598 47.3999 0.212965 0.22744 -0.409749 -0.0455653 0.0314806 -0.0810497
4245 4 6.50216 11.4995 47.9357 -1.20465 0.760099 -0.928045 -0.525728 0.235881 -0.422646
4246 4 2.14016 17.6323 49.7959 1.11617 1.3966 2.06725 -0.0503426 0.00686677 -0.190645
4247 4 -0.648789 19.5847 48.7378 -0.123083 -2.31175 -2.18178 0.169133 -0.0383751 -0.289418
4248 4 -2.68966 25.8643 47.2902 2.63115 0.562658 -2.56519 0.153296 -0.0187058 -0.298062
4249 4 -3.14806 28.4168 47.861 2.48614 0.223437 0.208932 0.247018 0.140083 -0.230199
4250 4 12.4317 1.07178 46.9083 5.33451 -0.346243 -4.03255 0.391928 0.025005 -0.415727
4251 4 13.3017 3.79158 47.8294 0.352543 0.140605 -0.286073 -0.0811688 -0.191237 -0.00670218
4252 4 8.35002 9.40166 49.1505 0.805255 -0.27337 1.00498 -0.394224 0.0576321 -0.120685
4253 4 3.29855 17.5315 46.7754 -0.113135 0.163597 -1.4028 0.650699 0.148704 -0.164846
4254 4 2.89216 31.1851 39.2211 -2.0355 1.99654 2.1689 0.627857 -0.25281 -0.253271
4255 4 -0.421736 29.6603 47.2428 0.426139 -0.150685 -0.017696 0.0978055 -0.0938709 0.0623632
4256 4 14.9412 5.97314 47.7739 1.20085 1.10836 -1.93789 -0.103966 -0.178734 0.0569778
4257 4 9.57991 12.7014 48.5177 0.544786 0.855675 -0.953341 0.0547634 0.103576 -0.223644
4258 4 8.42289 15.3085 49.1412 0.757969 -1.17083 0.473981 0.224258 -0.704775 0.882575
4259 4 19.8126 3.95646 46.176 0.370517 0.0733083 0.204959 -0.0147088 0.117941 0.118575
4260 4 10.8409 14.497 47.3996 -0.00645295 -0.805868 0.238538 -0.282674 0.60883 -0.312826
4261 4 -1.89664 21.9519 49.3575 -2.62664 -4.64532 -2.25055 0.0234314 -0.381565 -0.309398
4262 4 2.08109 29.0009 49.6151 -5.34889 7.23153 4.4583 -0.285463 0.085157 0.453077
4263 4 3.16222 31.3979 49.6113 1.24049 4.31587 0.402852 -0.0173961 0.299688 -0.0379027
4264 4 20.0379 0.917257 49.5116 -0.117026 3.34109 0.0425535 -0.0764175 0.321832 -0.0480166
4265 4 22.0411 3.90324 49.0057 -2.621 0.32042 1.63975 0.867483 0.139105 -0.600702
4266 4 16.3536 12.7413 47.5189 1.06966 0.11585 -0.415448 0.10184 -0.0294044 -0.18613
4267 4 14.0673 14.2969 49.6702 -0.0931082 -0.708172 0.53877 0.238056 -0.0124871 0.032489
4268 4 20.1208 24.8975 49.6529 -1.91121 0.221043 -0.440638 0.724231 0.0322534 0.421141
4269 4 6.99058 22.7047 36.836 8.00353 -13.8676 -5.86572 -0.83882 0.316082 -1.26579
4270 4 5.6921 29.0016 31.5856 2.19396 0.895349 -9.40925 -0.264933 0.93769 1.14746
4271 4 23.2451 1.63776 48.6171 0.036271 0.124835 0.374509 0.0216559 -0.124869 -0.114787
4272 4 21.4422 8.41554 49.0654 -0.134869 0.868441 -0.191717 0.00358944 0.185575 -0.0815509
4273 4 20.6491 10.4046 46.8621 -0.582861 0.00717352 -0.26107 -0.0614161 -0.00789654 -0.106399
4274 4 18.8865 12.6785 48.2907 2.81069 -2.22493 -2.63177 0.570711 -0.00146139 -1.20915
4275 4 17.8476 16.359 48.7758 1.57913 -2.20747 -0.493668 0.301634 -1.02586 -0.0377814
4276 4 17.4876 18.8942 48.7953 -3.31322 -0.933449 -0.0816422 -1.69242 1.06624 -1.75915
4277 4 22.9675 10.2043 47.8422 -0.251365 -0.0353199 -0.830419 0.0601113 0.0633623 -0.213906
4278 4 23.4947 12.8321 48.4475 1.57707 -0.597581 -0.833649 0.0705792 0.0389289 -0.218094
4279 4 18.9083 19.6751 43.1913 -1.09915 0.442619 -0.0280489 0.967609 0.226656 -0.217331
4280 4 3.45525 24.6891 22.5407 15.5628 1.05622 -2.76092 2.88952 2.09767 2.39484
4281 4 20.4616 25.3549 69.2268 18.218 1.66716 13.2826 0.00202803 -0.0211822 -0.0201568
4282 4 29.2286 2.525 49.2956 -0.540796 0.251501 -0.661476 0.0255393 0.29485 -0.0351319
4283 4 29.253 5.40627 48.4598 1.31267 0.335746 1.8244 0.00747135 -0.0216525 -0.17489
4284 4 26.4722 9.34004 46.9179 -0.127711 -0.347518 -0.43288 -0.123383 -0.0470707 -0.138382
4285 4 22.9663 15.7274 48.7982 -1.8657 -0.591327 -0.361373 -0.259847 0.233268 -0.171514
4286 4 19.0886 29.0314 46.7234 3.85435 2.72734 -2.73019 -0.00283617 0.128957 -0.878229
4287 4 19.2559 29.3895 49.3243 -0.54684 1.80074 -1.61818 0.600714 0.291625 0.185172
4288 4 34.2581 0.660296 46.5823 -0.727342 0.605646 -1.05384 -0.334207 0.108797 -0.302383
4289 4 32.686 2.12937 48.7628 3.09516 -3.18791 -1.72855 0.199028 -0.156933 -0.35582
4290 4 30.5128 8.0281 47.8348 5.38719 1.99722 -4.59541 0.786119 0.312737 -0.759846
4291 4 26.1326 15.2133 47.0365 0.12756 -0.0942477 -0.236223 -0.0635495 0.0757655 -0.054197
4292 4 24.6743 18.2592 48.3731 -1.33372 7.83925 12.0305 -0.397979 -1.02851 -2.63354
4293 4 24.3142 20.6424 47.2858 0.588073 0.314266 -0.347122 0.0555245 0.191705 -0.25181
4294 4 -1.60481 4.72666 47.2515 0.0710184 0.0623413 -0.559875 -0.0359723 0.0564542 -0.3475
4295 4 -8.93702 16.097 46.2422 0.0197058 -0.0999637 -0.197146 -0.012361 0.0602513 -0.145278
4296 4 -10.7263 21.8465 48.3589 -0.0820049 -0.0619645 -0.23429 0.0577 0.0381848 -0.077544
4297 4 -12.9737 23.0719 48.4672 0.297973 -0.188782 -0.432473 -0.0092995 -0.0642417 -0.174236
4298 4 1.39833 1.391 49.3146 0.0211479 -0.139937 -0.00349643 0.00293592 0.131746 -0.0476179
4299 4 2.93189 4.31218 48.5399 0.239636 -0.0713284 -0.112028 0.132727 -0.0505121 0.102856
4300 4 -0.583242 6.89004 48.0334 0.0391279 0.269148 0.361119 -0.00357351 0.0782391 -0.0732986
4301 4 -2.79799 7.40079 48.876 0.331364 0.571026 -0.320884 -0.00341495 0.0553712 -0.242557
4302 4 -4.86058 14.4237 47.2524 -0.350033 -0.534702 -1.20309 -0.0419887 -0.124714 -0.360607
4303 4 -7.93496 16.9924 49.0741 -0.507154 -4.75273 -2.7287 -0.0328438 -0.499006 -0.244978
4304 4 -9.49415 24.3006 48.4726 0.00457952 0.100407 -0.276787 0.0300386 0.0416432 -0.0720433
4305 4 -11.9843 29.1735 47.8562 0.509458 1.10451 0.0870474 0.244056 0.396658 -0.0893067
4306 4 11.1901 15.324 39.1196 1.05734 -1.19516 0.262022 0.293776 0.580431 -0.371129
4307 4 0.90109 25.0831 36.8774 0.670155 3.02794 1.94302 -1.52393 -0.150734 2.55743
4308 4 9.13224 10.1955 52.2855 -4.16308 -8.00091 -4.78521 -0.74097 -0.477595 0.501729
4309 4 6.23302 15.3656 37.6085 -0.642305 1.68415 1.95159 -0.0484549 1.33716 0.526176
4310 4 -1.36056 13.6543 60.0075 -8.89774 -5.3091 3.52784 0.766023 0.520142 -0.798645
4311 4 18.7062 23.333 58.9684 15.1517 0.92944 8.60664 0.345852 -0.484454 1.32616
4312 4 2.08092 27.651 25.1537 3.86933 3.65606 8.12563 -4.94101 -0.794099 0.361775
4313 4 5.22416 22.9566 22.0033 -2.82909 4.86087 3.62482 -1.02555 0.268423 -3.77938
4314 4 12.4747 15.1358 33.8246 1.98082 -7.98572 -7.06262 0.399646 1.29135 -0.726532
4315 4 7.87683 30.8471 40.1803 -0.0561739 6.99836 -2.07003 -2.13021 3.91094 -2.89362
4316 4 30.1041 0.663586 28.6832 -2.24836 1.33885 -0.300908 -0.43465 -0.587563 1.66775
4317 4 4.65393 17.5034 22.9196 -6.41722 -13.9382 -6.61022 1.61167 1.73698 1.87321
4318 4 6.6808 18.1201 17.1586 3.62183 1.17726 -1.56555 0.0651678 0.342359 -2.09102
4319 4 8.39896 21.6433 14.2338 -4.86051 -0.257056 -1.035 1.66508 -1.73748 -0.784933
4320 4 13.7396 19.464 11.5122 -2.40803 -2.73174 2.81567 17.7594 5.76393 -5.07234
4321 4 10.2588 25.4155 22.2018 -0.882927 -6.63109 8.07439 1.71871 -1.11832 1.67512
4322 4 12.7173 19.0675 16.9744 0.874025 -1.0201 4.80732 -1.2332 -1.98037 -0.118109
4323 4 18.2028 23.0616 18.3577 1.74426 -5.67619 4.33157 -0.772447 -0.814488 2.20215
4324 4 19.8064 26.6206 53.3051 8.50992 3.66409 5.35587 -0.0501156 -0.16379 0.04877
4325 4 13.2865 16.1414 23.3172 -0.947358 -6.51042 -5.43655 -0.1939 1.1497 2.3746
4326 4 5.15683 20.2963 17.5958 0.613078 3.03695 6.22535 2.57909 -0.945985 0.284039
4327 4 13.6565 16.4787 38.2243 2.50486 -0.450199 -2.0722 0.722776 1.02343 -0.62802
4328 4 16.824 15.9257 62.8983 16.9359 -22.6438 33.1565 0 0 0
4329 4 7.23841 24.3994 22.2998 3.96873 -14.0195 5.17333 4.02119 -1.15156 3.82744
4330 4 1.91634 25.6567 27.0405 4.22505 3.29689 -2.04394 -0.747864 -2.15172 -0.419933
4331 4 7.32713 29.6284 12.4979 -5.47148 1.35563 -7.66213 -1.08609 1.58376 -2.52006
4332 4 9.33577 21.0536 11.4092 0.117976 2.91076 1.10757 19.8508 1.13399 19.0021
4333 4 10.8853 16.6351 21.2686 2.52855 -4.20529 4.17979 1.09437 -2.12127 -4.75715
4334 4 15.7992 18.7586 54.471 2.63673 -1.81605 1.01587 0.942532 0.171193 -0.626541
4335 4 8.50851 16.9177 19.4955 5.87334 -2.70431 4.90317 -2.66137 1.71508 1.67227
4336 4 18.0768 24.3271 32.792 3.14518 -0.37424 3.58182 -1.52037 1.29792 0.314494
4337 4 9.41737 15.5765 37.3008 1.53277 1.12927 -0.0615619 1.36463 -0.0384889 -0.586454
4338 4 3.66039 16.6434 61.9994 -3.86147 -26.9616 35.7518 -0.573581 1.21864 -1.09581
4339 4 5.18557 28.5615 19.7001 0.987144 -4.55509 4.4557 -1.41709 0.972442 -0.448834
4340 4 18.8746 28.1081 34.6119 1.74372 0.436067 -0.706668 -1.49359 -0.825032 0.446269
4341 4 19.2981 22.9761 46.9085 -1.57081 -0.263628 -0.971007 -1.53918 0.261164 -0.495248
4342 4 12.2315 21.1983 15.7662 2.01403 3.52486 9.26127 -4.15829 -1.36408 -2.72123
4343 4 3.39835 23.6483 54.7483 -17.1715 -2.64081 11.9129 -1.27843 -0.732583 -0.184101
4344 4 4.28665 24.2183 30.469 4.31395 -8.25525 12.9994 -0.0312184 -0.902931 -0.421868
4345 4 8.24918 23.3585 16.8886 1.91673 3.5693 0.81122 -1.55216 2.42464 -4.52155
4346 4 7.68236 26.7658 22.5088 -12.5472 -1.09073 6.07511 -0.724935 1.38938 -0.906582
4347 4 3.77622 22.8363 28.0813 -4.14437 -12.5239 5.47557 -4.45635 2.1536 0.407322
4348 4 13.4973 25.0592 11.9441 -1.36176 -0.86849 4.16733 21.263 -19.2478 6.29574
4349 4 34.2035 1.28741 51.2919 -8.42275 0.192811 9.81001 0.226626 -0.945325 -1.21666
4350 4 34.5378 2.67255 55.106 11.1503 7.8545 -2.07995 -0.865002 0.536975 1.11334
4351 4 18.8674 26.5621 46.2107 -1.49885 -1.11039 -1.30773 -0.467845 0.306095 -0.0460198
4352 4 13.029 31.1601 22.7096 7.57876 4.73803 4.29958 -3.56237 -8.73829 -5.218
4353 4 18.3503 24.844 27.3337 -2.40409 0.000533127 1.50105 0.763506 -0.200529 -1.28
4354 4 2.66765 29.3288 35.8251 -1.82105 2.89353 -4.46742 0.213191 0.897698 0.271237
4355 4 15.0604 26.9692 27.8855 7.53466 -0.578162 12.4346 0.494004 1.43651 0.461443
4356 4 5.14571 21.0441 45.8846 -6.46321 -1.74416 -2.02761 0.452215 -0.266646 -1.14806
4357 4 5.04044 28.9618 23.6465 -4.85047 11.7114 6.78839 8.39133 -2.2945 0.132753
4358 4 9.16755 16.7732 24.2418 4.70617 3.3534 -4.46258 -1.57813 -1.12275 -1.56087
4359 4 -0.468429 21.1122 59.1579 -0.546806 -10.9738 23.743 0.615938 0.362601 -1.08974
4360 4 0.827438 15.14 57.7263 -10.999 -4.23724 0.835043 -0.429381 -0.269031 -0.0883469
4361 4 16.7841 19.5515 25.8311 4.64671 2.33029 1.68603 -2.08589 1.05981 3.63597
4362 4 35.9498 0.274312 48.8303 -6.09435 0.935701 -4.41013 -0.38939 0.112684 -0.043677
4363 4 14.9257 14.6271 31.3909 -0.270442 -1.42822 -0.401526 0.00965669 -0.582116 -0.000490857
4364 4 4.91489 22.2799 32.7507 -7.68744 -4.56461 3.0925 -0.57297 0.00528649 0.606439
4365 4 11.5882 19.4717 13.4414 -7.40581 3.04464 2.9264 -1.94369 2.51952 1.02623
4366 4 20.8146 21.6682 65.7186 9.24393 -8.6661 9.27089 -0.0576372 0.043858 -0.108548
4367 4 7.2453 19.9597 18.9723 7.11602 2.65587 0.407471 -0.67381 -2.51361 0.68732
4368 4 9.97117 13.5195 65.8716 2.08889 -20.0934 20.8686 1.02396 0.620666 1.50403
4369 4 19.2704 26.749 30.3477 -4.32993 -1.35387 -4.49784 -0.72596 -0.199041 0.852257
4370 4 13.7341 23.8561 18.6362 5.31972 7.88593 -3.91318 -1.45768 -0.355537 -3.10082
4371 4 8.43166 30.8055 18.4606 -0.433602 3.06607 3.61127 -1.85092 1.20778 -1.51678
4372 4 9.91996 18.5943 22.0343 -4.19687 -4.73001 0.890351 -2.39874 1.98464 -0.934132
4373 4 3.6976 16.3185 53.0742 0.560508 2.58027 4.05057 -0.377424 0.847843 -0.518495
4374 4 19.6501 24.4856 55.6418 -0.68676 -6.50818 13.4432 -0.233689 0.195322 -0.987144
4375 4 0.940101 22.0609 31.0348 3.12629 3.97757 -7.91921 -2.18797 -1.69051 0.244338
4376 4 12.3207 22.0672 11.4649 -1.8939 -1.66381 0.471547 -27.5257 9.09946 -6.08821
4377 4 10.1453 27.2822 14.9633 -1.261 1.19869 2.94115 -2.58042 0.337148 -3.32464
4378 4 14.4892 21.6251 12.4967 -1.01792 0.692929 3.33347 -0.00446991 -1.77432 0.592913
4379 4 1.45328 23.3539 45.3144 3.70738 -1.24016 0.915346 -4.47614 -0.0248654 -3.85624
4380 4 6.34579 16.0776 40.5601 1.50871 0.12131 1.2916 -0.182963 0.0170421 -0.353672
4381 4 7.53599 23.8877 13.728 -2.52174 7.91548 -3.03908 -0.133049 -1.70457 0.850535
4382 4 13.813 29.6194 16.8116 -3.12664 3.40414 2.07373 2.94015 0.0940116 -2.55701
4383 4 6.26866 19.6192 26.6442 6.52152 -1.55211 -2.62303 -1.92896 -1.87818 1.0657
4384 4 15.3552 29.4653 31.9067 -8.22163 4.31827 0.627062 -0.259475 0.182813 1.77793
4385 4 13.2121 32.2801 26.0154 -0.511093 -6.89792 1.68796 1.85179 4.3286 2.90316
4386 4 7.9288 16.4852 42.9188 0.112722 1.20955 -1.30372 -0.239427 0.81248 -0.24305
4387 4 14.6086 30.7135 27.5575 -1.22173 1.30395 -0.732137 3.28551 -7.43151 -2.81548
4388 4 7.91311 20.3529 23.7474 -0.721019 -4.19221 -3.50127 1.9426 2.42779 -2.50388
4389 4 15.4364 15.8702 84.0661 5.26317 -7.9015 26.5332 0 0 0
4390 4 8.01688 29.1249 20.2456 -3.14313 6.09059 -8.27085 -4.24478 -3.4532 -2.18306
4391 4 9.87051 24.1515 14.7212 1.84253 0.406698 7.95027 0.0354317 1.04252 -1.13626
4392 4 5.89052 23.0721 24.3701 5.7226 -1.03497 -1.59783 -0.557375 2.5768 6.38458
4393 4 17.4126 20.6133 50.7178 1.20065 1.04482 -1.77894 -0.0328947 0.30183 -0.414274
4394 4 19.647 21.8759 51.0744 1.56224 0.658398 -0.533053 0.41366 0.053973 -0.595868
4395 4 12.9027 26.944 16.3621 -4.07884 -6.11952 -1.33141 4.7851 2.28116 2.29961
4396 4 15.9228 24.1545 18.3957 -1.86219 6.87784 -2.89935 -0.802824 -4.59847 -0.977924
4397 4 8.06379 17.7953 34.093 -5.61221 5.28606 -5.15018 2.79125 0.0898519 1.51299
4398 4 19.0537 24.2286 52.7801 9.52379 7.07057 -2.56683 0.403308 -0.323336 -0.100955
4399 4 2.43366 21.3868 19.6505 0.448533 1.83657 1.40708 -0.209861 0.533672 2.46685
4400 4 2.59285 18.61 60.012 0.654088 -8.67578 19.0451 0.500356 -1.13795 1.16726
4401 4 13.628 21.2132 18.1837 2.97765 -1.01193 7.66264 6.45636 5.15508 -2.37437
4402 4 10.473 28.3688 20.6764 2.45166 -7.79692 -3.18459 5.23966 3.26864 -5.03583
4403 4 16.9495 22.3101 25.4458 5.79928 4.19883 3.42413 12.6754 -0.826976 6.78224
4404 4 32.6894 1.69862 57.5581 2.02662 15.803 18.7192 0.336388 0.387106 0.176679
4405 4 17.2524 28.0743 43.5202 -3.45746 1.39569 5.58806 11.7014 -3.28035 -0.280353
4406 4 10.0075 26.4016 18.8142 -4.91579 -3.86837 -1.57868 3.71656 -8.81124 3.55897
4407 4 14.1131 22.3825 40.9162 -0.46883 -1.83636 10.8804 1.21589 -0.657495 0.00533435
4408 4 10.8195 20.7553 17.7368 2.26897 -4.83866 -0.949286 -1.15331 0.511631 0.137801
4409 4 18.8989 20.6219 28.8997 0.705134 2.48498 0.815894 -0.188851 1.14629 0.751043
4410 4 17.6864 32.0345 53.5684 20.8316 8.25884 17.006 -0.525361 -0.0152478 -0.55841
4411 4 5.76838 27.4864 39.7474 -4.04328 20.5434 9.50144 0.504231 3.17405 1.74701
4412 4 12.0745 29.4634 31.1162 -18.4466 -8.03525 -2.27982 -7.96339 -4.65929 3.80994
4413 4 6.67724 32.1897 75.0664 2.6098 5.21556 9.36497 0 0 0
4414 4 -0.787648 27.4913 50.7446 -34.4443 -8.93244 -21.9981 0.430643 -0.860737 -0.326213
4415 4 3.97015 25.1977 18.9784 -2.82667 4.96692 -0.997916 -4.41559 -1.366 4.24057
4416 4 11.2713 30.3483 28.3238 10.5077 -4.08593 -7.6624 0.563176 1.67302 -1.12157
4417 4 15.7376 23.6404 32.8234 -1.32112 0.399569 12.649 1.5223 -1.53601 0.288926
4418 4 -2.92488 29.0828 59.2452 -18.1738 9.74565 14.5845 1.23394 -0.201672 -0.128918
4419 4 16.2734 14.9839 51.613 -1.55804 -2.74661 10.2984 -0.531306 0.682719 -1.2671
4420 4 3.88248 24.4159 25.8643 1.76797 -0.460998 -9.37016 -0.15928 -0.667728 3.72343
4421 4 1.71797 15.7175 55.1393 -2.68867 -6.62349 2.51874 0.105132 -0.0603641 0.459684
4422 4 9.7205 13.2801 50.961 -4.77172 -8.0896 1.51425 0.656893 1.20854 -0.457535
4423 4 2.24276 29.6954 52.3042 -12.8927 0.613303 6.27516 0.428891 0.0396134 -0.321401
4424 4 14.8363 18.4166 22.1593 5.32799 -1.49525 -5.00977 1.10926 -0.336129 -1.93972
4425 4 30.647 4.73493 51.1007 10.1088 15.8309 22.1755 -1.03504 -0.569172 -2.80833
4426 4 7.7349 27.7809 26.4649 -4.40338 8.9424 -4.5555 2.17399 1.3562 0.656677
4427 4 6.29422 31.3862 34.9615 2.90769 9.49573 1.62571 -0.166743 1.19875 0.309692
4428 4 11.4771 22.1884 19.6083 -6.15378 -10.3321 -5.84917 -5.11903 -4.85253 -1.06827
4429 4 7.77005 22.416 19.8028 -0.980781 -3.78747 2.11128 1.1746 3.03534 -1.33359
4430 4 15.1823 31.4978 40.1789 -2.5004 -0.212749 -3.30346 0.400713 -1.50903 1.09708
4431 4 16.1776 27.7479 24.863 11.41 7.95376 6.42471 4.36667 4.40101 -5.39142
4432 4 13.2599 18.721 23.9449 2.71575 1.23412 -1.91922 -2.62415 -0.162102 1.59683
4433 4 0.200598 26.1834 57.1422 -9.76582 -7.82556 -18.1662 0.00380705 0.729051 0.586474
4434 4 16.8109 26.2283 18.4122 8.79603 -15.4236 -12.4586 1.20956 3.2225 1.68396
4435 4 3.90505 25.6823 45.2315 3.92812 0.344995 12.1901 -2.84911 0.0185029 0.00421634
4436 4 6.92121 16.0733 51.2316 0.410993 -4.56028 0.279533 0.00907389 -0.0803815 -0.63544
4437 4 4.23274 30.2429 33.6788 1.18077 -2.30871 4.39546 0.838935 -1.01641 0.0722344
4438 4 25.5726 0.656631 22.3077 -1.55422 -5.42901 6.73826 0.37129 -0.831903 2.9774
4439 4 17.157 19.0778 23.0758 0.00569626 -4.33478 2.81189 0.860747 -0.970803 0.751423
4440 4 12.2969 19.0003 21.2956 -3.3398 -6.92003 -7.18971 2.81904 -0.389675 1.05375
4441 4 -2.55529 25.732 51.694 -35.7651 1.55268 -30.1601 1.14619 0.110343 -0.139054
4442 4 12.8084 29.884 18.8999 0.518742 -4.95973 -10.7665 1.60908 -1.64175 -1.7435
4443 4 13.532 27.8659 21.5629 1.50308 -1.6097 -8.01569 -1.7059 -0.976013 -3.38599
4444 4 25.8479 0.144212 31.1098 0.867506 -1.79242 1.9866 -0.722337 -0.321021 0.574705
4445 4 6.90784 16.648 68.0693 -14.3633 -21.4759 18.07 -0.662699 -0.0541436 -1.73666
4446 4 2.00031 25.4557 29.822 2.92841 3.95963 -1.27725 -1.05207 -2.22796 0.26328
4447 4 32.7348 0.468837 60.0374 0.814643 10.008 26.9019 0.180429 0.821467 0.106989
4448 4 16.2367 24.794 28.4421 -1.65802 3.11225 -9.74804 0.0233525 1.78022 -0.798932
4449 4 15.285 25.3948 21.0549 12.9957 -2.12642 -1.16968 -0.121306 -1.39784 -6.26855
4450 4 7.78721 8.75732 54.5081 -1.87622 -20.4219 8.5195 0.717672 0.800357 -1.18017
4451 4 6.6348 31.7406 26.7781 3.75884 -2.14302 -4.46919 2.24301 -1.66275 -3.01672
4452 4 13.2935 24.4011 16.2665 2.20643 -0.610895 2.2226 -1.13245 -0.127 -0.494136
4453 4 18.4431 24.9796 24.2954 11.178 -1.93368 -1.09072 2.83891 -1.23308 1.10726
4454 4 10.1869 30.8015 19.9964 -4.75565 -5.70782 1.39211 -2.98036 -4.07542 -2.16645
4455 4 20.3752 20.1065 55.9416 8.32231 -6.90668 15.8666 -1.02831 0.315137 -0.911219
4456 4 9.13922 31.4049 22.8389 12.2687 0.69553 2.41011 -0.947041 0.837429 -2.58423
4457 4 2.69571 19.3618 51.8418 -9.21636 12.2405 -0.78969 0.493494 -1.1799 -0.311479
4458 4 11.0373 32.1834 31.1663 -2.07322 -3.5738 5.97888 3.30832 -3.55666 -9.83253
4459 4 17.8595 21.8299 34.4697 -0.602071 0.141358 4.84663 -0.121667 1.78086 0.77406
4460 4 6.06792 29.3557 36.2343 -12.0542 -3.1404 6.34309 -3.08205 -0.0943262 1.75964
4461 4 14.2354 18.5463 46.2233 0.734636 0.24966 -0.82282 -0.362824 6.59689 -3.90267
4462 4 10.0213 15.1605 33.3224 0.055422 0.694022 0.665107 0.346431 1.37516 1.00457
4463 4 2.38244 18.1762 54.5592 -7.66581 -5.31482 -3.36421 0.263363 -0.072846 -0.747113
4464 4 5.374 18.4376 45.3378 5.10693 7.95336 5.46647 -2.06174 -1.85401 -0.160721
4465 4 13.0974 19.5295 40.4507 8.48405 9.49968 5.35643 1.00397 -1.3279 -0.21993
4466 4 15.6122 30.3751 35.2214 4.67746 5.48862 -5.36244 0.180518 -1.04865 -0.124574
4467 4 10.1893 23.7762 36.8464 -2.04852 20.106 19.3981 -0.813745 -0.228264 0.231636
4468 4 27.8156 0.31643 27.8041 -1.06596 1.19574 4.59592 0.321829 4.34375 -0.313463
4469 4 17.162 17.2906 52.6018 6.9516 -0.670789 0.504641 0.0537482 0.392185 0.745712
4470 4 18.5103 26.8099 50.0707 -0.885354 -0.138357 -1.55712 0.149543 -0.110891 -0.649925
4471 4 18.1796 20.6377 53.9293 1.17549 1.03867 -2.27461 0.422795 -0.616334 0.212342
4472 4 23.979 0.785426 51.365 -21.0561 -16.7761 3.74941 0.647244 -0.134119 -1.08967
4473 4 12.1197 26.2818 20.3657 2.55605 -2.37731 4.57912 -1.29962 -1.93628 1.69147
4474 4 5.38809 19.2751 32.2021 -3.33296 6.87143 3.65808 -0.185593 0.643063 -1.85162
4475 4 14.5688 23.2118 29.0723 4.12354 6.21126 -4.4792 -0.751677 -0.34521 -0.706358
4476 4 3.08531 29.0339 44.0081 0.0651606 -0.236293 -0.725707 0.0501827 -0.69958 0.0390321
4477 4 12.7244 30.2048 25.5207 -3.10953 -9.30339 -15.437 -1.67326 -1.97998 1.83182
4478 4 26.844 4.95079 58.085 17.8965 23.141 -2.35009 -0.152364 -1.1254 -0.833251
4479 4 3.82632 19.0843 27.5383 -9.40355 -5.96001 1.86027 2.26581 1.1968 -1.10594
4480 4 6.94868 26.4327 20.2479 3.04299 -2.78674 -13.8989 -1.53549 0.414691 -1.50085
4481 4 6.44925 11.9049 57.9747 -10.7939 -28.8745 2.34817 0.847456 0.738282 0.0724455
4482 4 14.3304 20.5965 20.6263 3.15604 3.93873 7.36704 -1.89449 1.97622 0.674029
4483 4 10.2164 17.9318 44.3176 -1.90794 6.21764 1.5808 -1.08227 -3.70568 1.18642
4484 4 2.27149 23.7582 32.2121 4.93196 -2.0895 5.24081 -0.0598381 0.241201 -0.397924
4485 4 13.0211 23.3256 20.6508 11.5478 0.828683 2.81684 2.30034 4.44852 7.26498
4486 4 25.0828 0.690486 54.1145 3.36727 12.5508 10.9446 -0.552598 -0.0227056 -0.332594
4487 4 1.68674 23.9508 41.7249 0.821175 -0.642807 -0.588702 0.476671 -0.318791 -1.55624
4488 4 -14.0518 28.2926 62.4924 23.1104 9.61749 2.96297 -0.211773 0.00770291 -0.297359
4489 4 17.0802 28.2216 30.5369 4.67404 5.86763 -0.988929 -0.199147 -1.55758 -0.773058
4490 4 19.0804 22.3753 61.7049 11.8341 4.17936 25.0958 -0.176912 0.572423 -1.57172
4491 4 3.44249 27.1324 29.2049 -6.50249 7.94428 4.24366 -1.6223 1.55807 -0.454155
4492 4 10.2889 14.4611 56.1261 -3.06738 -8.46582 -1.4107 -0.297515 0.0134852 -0.260188
4493 4 12.5624 31.0597 32.883 -5.22368 -5.8752 1.17655 2.96895 2.86925 1.22476
4494 4 5.45952 29.8657 46.6418 -0.161719 9.54222 -5.79315 -1.37975 2.81994 -0.782631
4495 4 14.1295 26.5924 18.8908 -5.64388 -1.12673 6.50369 -1.39257 -5.02458 1.04075
4496 4 0.604601 23.1564 51.1116 2.26105 13.9861 18.889 -0.524937 -0.300254 0.15738
4497 4 29.3774 1.07174 54.0109 -1.2119 3.29286 1.58487 -0.450473 -0.169562 0.00595864
4498 4 3.99863 30.8037 54.0512 -11.3358 0.0640121 0.714602 0.00797865 0.194047 -0.644571
4499 4 0.110279 28.6335 58.9315 -9.32454 7.45933 10.8582 -0.490435 -0.331749 -0.30275
4500 4 9.05454 14.2849 58.3112 -3.51303 -11.237 -2.99626 -0.686156 -0.729776 -0.347879
4501 4 14.6674 31.0106 49.0491 -13.9561 10.502 19.0101 2.39987 0.707763 0.346477
4502 4 4.84448 21.9895 19.4237 0.722461 0.721136 -6.07212 1.32453 1.68963 -0.533862
4503 4 11.9973 20.9058 27.878 -13.8362 6.95875 7.65805 -1.35672 -1.92421 -0.403558
4504 4 11.6583 14.4981 68.2955 5.77806 -11.6159 23.1424 -1.04793 -0.601503 -1.49704
4505 4 8.90246 24.8537 20.5732 -1.47903 -6.31547 -10.0575 -1.35549 -1.1311 0.628532
4506 4 11.2593 29.711 22.335 -14.3967 3.16695 -9.20541 -0.0513288 -6.30227 8.39173
4507 4 8.12724 18.487 25.3278 5.9863 3.46309 -0.536815 -5.18933 -0.766186 1.43509
4508 4 7.68381 18.0721 30.2249 8.81618 0.643882 4.39992 0.215825 -6.94655 -2.91453
4509 4 5.85162 23.0437 27.127 6.54027 7.38333 -2.85873 3.72679 -4.84489 0.166989
4510 4 28.4482 0.337956 37.7739 0.323872 0.820107 1.81178 -1.70899 -1.96959 -0.453421
4511 4 0.398691 25.1421 64.2848 16.8211 9.68439 3.83778 0.0434806 0.114958 -0.169722
4512 4 12.4395 25.6025 27.2185 -8.1911 9.01408 -0.40975 0.186229 1.02397 -1.73155
4513 4 33.2487 4.9652 56.7189 2.97146 25.3961 9.91756 0.461912 -1.61697 -0.558532
4514 4 2.20031 20.8556 28.8292 -7.92917 -3.25813 2.25338 0.391591 1.16335 0.840772
4515 4 16.0073 2.12323 54.3637 -14.998 28.0125 12.4508 7.78533e-05 -0.00072436 -0.00463086
4516 4 1.23893 24.9321 49.3192 -0.246219 -2.07681 0.00191157 -0.603101 -0.217629 0.135057
4517 4 11.8793 15.7486 41.6776 2.69557 8.6899 -2.85054 0.395757 -4.46234 -2.09516
4518 4 12.2673 17.6967 42.8785 -1.28329 20.33 16.9115 0.37387 2.23537 -1.55696
4519 4 9.85092 18.8159 28.7609 8.44785 -1.77175 -2.47019 2.70791 -1.30037 -0.982061
4520 4 9.44907 14.7048 53.2756 -6.68864 3.42265 -7.11122 -0.15222 -0.166352 0.300864
4521 4 3.09695 30.6979 59.5515 -12.6634 3.33859 14.4378 -0.826588 -0.797133 0.019025
4522 4 1.15235 21.9302 53.9441 -3.48495 -2.43637 9.94667 0.592877 1.04041 0.277597
4523 4 5.51753 17.1768 34.9608 -0.690062 0.552125 -1.4652 -0.877656 0.0957964 1.49964
4524 4 15.4299 22.8961 44.4542 -9.94726 0.975744 -1.41027 -2.49262 3.1796 -0.506544
4525 4 31.2886 0.419984 40.6494 -1.55049 -0.555044 -0.799877 -0.556943 -0.166365 -0.234143
4526 4 15.7089 22.9714 21.1576 0.268097 -4.44985 -1.62313 2.47483 0.388999 -0.147548
4527 4 3.14429 23.3377 46.6095 1.82335 4.37214 14.4274 3.36731 0.329931 3.74829
4528 4 5.86112 16.5865 65.4082 0.184086 -11.3822 9.36688 0.594807 0.037353 1.58738
4529 4 15.991 17.6886 50.3471 -1.24061 -1.01972 -5.16264 -0.961044 -0.757378 -0.736172
4530 4 6.35597 17.2064 32.5665 9.90768 9.18079 -6.90239 5.69245 -0.531769 -2.35824
4531 4 13.4415 16.3976 31.0618 0.788524 -2.00672 2.79695 -0.292409 -1.80839 2.35128
4532 4 8.4325 22.8923 38.6966 7.82665 15.8637 0.721384 0.935905 0.601092 1.37193
4533 4 14.1812 20.5903 26.5357 -3.19035 3.76739 3.02433 2.12114 1.95273 2.0338
4534 4 8.87585 31.0323 29.5603 -4.88714 -14.5571 16.6349 1.24147 -4.67664 0.780169
4535 4 7.90446 19.0308 46.7115 4.30423 -0.18916 -9.62317 -0.317322 -1.46852 -0.411678
4536 4 0.613462 22.2077 56.5711 -3.46693 1.98169 6.61574 -0.0917955 -0.22895 0.32747
4537 4 -15.6771 30.3718 52.1331 25.2113 24.482 -4.36896 -0.791714 -0.255546 -0.701075
4538 4 2.82176 30.2699 67.1833 1.04868 16.5381 13.1034 0 0 0
4539 4 17.9822 24.7088 30.2082 -0.268963 1.51974 -2.31786 0.484448 0.844798 0.603112
4540 4 3.89145 18.9057 29.8981 2.88811 -0.369 0.121253 0.78234 -1.09 0.0679932
4541 4 12.4161 27.1848 39.5052 -8.92717 -13.2288 -5.96639 0.0681312 0.434726 -0.445178
4542 4 17.1268 22.4969 39.7478 6.00209 -3.09377 12.016 -3.36541 0.878048 5.18214
4543 4 16.3549 29.0849 26.8288 1.27792 -1.42185 -2.56606 -0.188325 -1.63742 0.522053
4544 4 5.35518 27.6456 26.9486 -6.32743 7.26555 -3.51571 1.92728 -6.31258 2.24501
4545 4 10.344 30.6876 52.033 8.38863 4.53627 12.9843 0.00950351 1.12362 0.0105009
4546 4 15.4164 28.493 43.4454 -1.9915 12.9726 -0.52963 -17.9963 -4.96624 -12.3646
4547 4 12.5276 23.12 26.8267 18.2891 -3.80277 -5.71591 -4.82222 -0.069887 0.467384
4548 4 16.3817 21.3252 28.3036 3.25435 3.51298 5.53004 0.882833 0.249211 -3.30955
4549 4 9.53987 26.7259 24.0559 7.75693 -12.921 2.86185 2.78947 3.2939 0.574982
4550 4 3.99912 29.4116 27.5343 9.66148 0.374956 1.00587 2.41947 1.43821 -3.05287
4551 4 15.6358 20.3776 39.0128 -6.54921 22.2528 11.3047 -12.1973 1.89821 5.30105
4552 4 14.8667 26.1446 22.901 7.05713 0.370288 -2.55025 3.66383 7.812 13.4011
4553 4 8.78301 22.4999 28.0858 15.1114 3.2918 13.9149 -0.819964 -2.23129 -0.943588
4554 4 16.1649 24.3067 41.9571 2.81284 9.17752 -1.90518 -1.25454 -5.13714 -3.26009
4555 4 5.56397 29.7162 42.1767 20.1101 -1.60001 10.315 -1.7033 -0.540247 -0.505557
4556 4 11.961 21.6001 22.0148 -10.4129 -0.125431 10.2672 0.855215 2.28775 -2.70259
4557 4 17.5929 30.9049 75.3718 9.03596 3.96686 28.2235 -0.594203 -0.220812 -1.37277
4558 4 4.49014 26.4971 24.8389 2.87147 -4.02607 -0.293493 0.684787 -1.58813 2.90009
4559 4 5.9409 30.5515 29.5602 10.4038 -6.57962 12.0301 0.652529 -2.05906 3.37184
4560 4 1.28301 27.4802 60.833 -14.738 1.65127 9.27619 0.0534377 0.271779 -0.201356
4561 4 13.4919 24.293 33.3645 -2.96139 -11.609 -7.29592 -1.4046 0.651115 0.362914
4562 4 7.41788 30.0744 25.3934 10.733 4.43971 0.859983 2.24459 -4.50305 1.89359
4563 4 9.92569 17.0046 41.4088 16.2303 21.0133 18.1253 -0.458019 1.59908 -0.241575
4564 4 16.9785 26.0069 34.916 -3.97989 0.815839 -19.7424 7.10844 -3.60587 -1.08362
4565 4 22.8206 24.7753 51.4572 22.2295 -7.07974 32.4448 -1.28902 0.150616 -2.54117
4566 4 17.9579 29.5734 53.93 6.37796 4.73132 -1.06192 0.00521438 -0.0195378 -0.646099
4567 4 8.80549 19.5359 32.0884 6.48512 -1.10336 4.05183 -0.530373 0.802138 -0.9385
4568 4 28.7789 0.966907 40.3287 -0.754816 1.1704 -0.976732 -0.964188 -0.128708 -0.145983
4569 4 1.95536 26.8302 47.9511 -1.73301 1.04431 1.65619 -0.372508 -0.152466 0.0580436
4570 4 32.9524 2.70737 62.4237 8.59019 11.5658 14.6324 -0.109744 -1.05263 -0.642477
4571 4 11.0912 18.0176 25.4191 2.31858 -3.48278 -2.13607 1.71778 -0.652403 0.205708
4572 4 15.6551 30.1705 51.6229 16.9888 -2.71047 15.5206 0.146368 0.870658 -0.127681
4573 4 14.6442 19.6577 31.7574 -11.7369 5.17767 9.21642 1.30926 -2.58433 1.86271
4574 4 10.3583 16.2173 51.4462 11.2822 0.333537 0.718604 -0.433181 -0.236236 0.0260539
4575 4 13.3725 8.05857 53.8221 8.75869 -39.8442 11.2445 -0.0220666 0.0106896 -0.0134508
4576 4 13.6835 31.5466 63.6994 10.6475 9.35292 21.4852 -0.10732 0.828909 -0.134781
4577 4 12.3017 22.0646 24.3797 -3.46379 0.281603 0.187076 2.43013 1.57324 1.48583
4578 4 3.51467 27.5438 38.8217 7.24009 -15.1376 -5.75348 9.68731 -3.02987 -5.18762
4579 4 8.88023 17.0997 27.1086 -7.64638 4.55913 9.94032 1.10514 -6.21562 -1.6982
4580 4 8.8858 27.0219 47.5254 -2.32602 4.41256 13.8257 -0.0756961 0.0658073 -0.0190736
4581 4 11.3498 17.3787 30.1791 10.8624 1.95207 5.64094 -2.56385 -0.426756 -0.556889
4582 4 8.10634 28.6801 40.4303 -6.26442 -6.58593 -21.8049 0.320207 -4.16711 0.131728
4583 4 10.2267 17.7695 47.1512 -8.74436 12.5728 8.6027 0.0474915 -3.22809 -0.60312
4584 4 13.389 29.0711 63.6603 14.1143 8.32546 24.2548 0.470002 -0.149222 -0.581675
4585 4 11.2634 30.8787 36.5408 4.51489 2.29187 0.358672 2.36689 2.86988 0.0377263
4586 4 9.18321 22.7778 23.368 0.152689 6.91413 -7.25657 1.98226 1.87737 3.8871
4587 4 16.8768 22.0544 30.9204 -0.773777 9.75653 7.89472 -2.58415 -1.16074 -6.60844
4588 4 4.48856 19.6613 39.1357 -1.85417 2.37725 20.2657 1.57949 0.236962 -1.97379
4589 4 29.0724 0.611023 32.9263 8.74644 -1.61356 -3.86287 -3.69677 3.27264 10.0001
4590 4 13.5389 21.5456 33.8434 6.37148 13.9274 4.55409 3.60146 -0.020403 -3.87162
4591 4 17.1854 24.9479 37.9168 -10.6549 -3.67206 2.24362 -2.25765 7.56273 -3.64871
4592 4 7.78581 24.9207 28.4308 2.45363 -24.3178 11.772 0.893046 -0.266868 -3.13199
4593 4 3.07254 20.6463 47.0597 6.26357 4.27146 1.32009 -0.25443 -0.854268 2.58824
4594 4 15.7276 30.7148 62.4663 5.66467 6.36623 17.3322 -0.631874 -0.556428 -0.570038
4595 4 7.79588 32.0127 43.2674 -1.27151 -1.88273 -0.977638 -0.04475 -1.27616 -0.674632
4596 4 3.47097 29.1776 40.4315 2.13797 -2.19242 -4.22534 0.270472 0.331103 1.4297
4597 4 5.52262 27.1065 29.707 -3.54974 3.10031 -1.25742 6.71182 -0.125669 0.986401
4598 4 16.2952 30.4227 72.3737 8.32603 16.2197 35.2347 0.594203 0.220812 1.37277
4599 4 2.73242 26.3704 36.2731 12.1487 -7.38215 7.60099 -2.0979 2.42837 -0.923299
4600 4 -0.153843 24.9911 53.3518 -16.6687 -2.69315 7.85886 -0.112939 -0.379156 -0.949617
4601 4 9.76803 28.863 37.1823 5.10879 -3.01806 1.64249 -0.603231 0.442909 0.467725
4602 4 10.8964 24.428 24.8894 -6.97206 1.01191 0.303767 -2.34816 3.64976 5.68106
4603 4 7.7338 26.7724 31.7035 15.3005 17.3002 1.99767 -0.354488 0.165541 0.235187
4604 4 14.2078 19.4913 37.5967 -4.88753 -12.1758 -1.27574 -2.13905 -0.759871 -0.00831016
4605 4 13.3333 24.9626 30.554 -4.09336 1.28753 -7.49494 0.613932 -0.155528 -0.915265
4606 4 4.17979 20.6047 43.0093 -4.31516 3.8837 6.8945 2.19945 -0.228532 -0.0618052
4607 4 13.9181 21.4166 30.5501 5.28826 14.0389 3.01344 -0.903979 1.50312 -0.740334
4608 4 6.26406 21.948 30.5256 -11.9766 -11.6901 7.181 1.20245 2.60764 0.296421
4609 4 15.3461 27.1437 34.0385 4.66843 -3.10435 -4.74333 -2.55701 2.95458 -2.51999
4610 4 16.9041 26.1162 40.1254 13.6752 -6.37326 -22.2787 0.185552 1.87149 -0.428172
4611 4 27.3488 0.00817441 64.0027 -1.96061 6.5869 13.1418 0.0195301 -0.00295105 -0.00119005
4612 4 16.415 20.2328 35.7806 -13.3695 -9.78005 0.441134 -13.0996 1.80971 -0.170434
4613 4 6.28614 23.5397 41.2101 -10.5766 9.81832 -3.6126 -0.00724356 0.257612 -1.0898
4614 4 13.6479 30.1401 30.0838 1.46559 -2.85282 -3.30446 5.43567 10.2042 -6.44823
4615 4 14.8725 23.8689 23.9739 8.09652 -18.0356 10.6192 -7.05952 6.92623 0.277685
4616 4 4.68846 26.4237 34.1528 4.73203 1.99043 4.2817 -1.64609 0.0490949 0.117287
4617 4 8.47816 17.8946 38.9022 -11.1596 -17.9669 8.72492 -0.148402 -2.89666 0.816946
4618 4 8.38329 30.3916 32.2043 15.9226 5.88879 -7.70295 -0.109669 0.621033 0.474238
4619 4 10.0354 30.2096 34.6914 -21.7493 -6.07457 0.699021 -1.47345 0.902825 -2.21189
4620 4 8.91059 16.9668 31.6607 -0.359914 -3.70181 9.68826 3.59076 -2.83882 2.98968
4621 4 3.14564 23.1322 39.236 7.78052 -1.90482 4.44336 -1.44199 0.732246 1.73104
4622 4 11.1222 20.0707 23.3945 0.863995 -3.1127 -6.77042 -0.866389 -2.13002 5.58966
4623 4 3.46584 23.6389 34.4653 -1.4039 -1.09933 8.33967 -2.50843 0.586322 0.849622
4624 4 12.7967 18.3892 36.0876 -4.34971 -11.1069 -17.3989 -0.851905 -4.55106 -2.54071
4625 4 26.1091 2.91424 56.4164 -6.30075 29.5871 6.41123 1.12705 0.366115 0.571014
4626 4 10.892 24.9733 29.4329 0.852119 -3.48396 -0.461276 -0.995227 -0.293441 -1.74431
4627 4 13.7013 26.8889 31.9825 10.7428 2.78945 -0.246329 1.29726 1.97718 -0.353522
4628 4 15.8205 20.7886 45.2141 -2.03523 -1.99185 -1.40152 3.29425 -5.8941 1.15278
4629 4 20.7661 28.3824 59.027 35.7786 -1.57129 20.0449 0.207143 -0.0212928 0.290479
4630 4 12.9826 21.0187 35.9685 -12.7643 6.54997 1.41457 -0.196447 0.110685 2.45433
4631 4 4.70081 25.9771 37.4946 -4.19215 -9.14293 6.41774 -2.75133 -0.279709 -4.10555
4632 4 8.87133 27.7366 28.7546 10.4427 -8.26904 -17.7681 -0.265475 -0.215554 0.0813195
4633 4 11.8251 28.2797 24.6103 4.78211 -5.72026 4.57312 -0.566219 -2.5982 -1.65893
4634 4 6.3355 25.3938 38.7488 4.90543 -8.91776 -104.895 5.98526 -4.87517 3.47935
4635 4 14.3173 28.5542 60 0 0 -105.316 0.156207 0.598313 0.82305
ITEM: TIMESTEP
4000
ITEM: NUMBER OF ATOMS
4635
ITEM: BOX BOUNDS xy xz yz pp pp mm
-1.8642987430510001e+01 3.7285974861020001e+01 -1.8642987430510001e+01
0.0000000000000000e+00 3.2290601434510997e+01 0.0000000000000000e+00
-1.0000000000000000e+01 1.0000000000000000e+02 0.0000000000000000e+00
ITEM: ATOMS id type x y z vx vy vz fx fy fz
1 2 18.5461 32.2699 3.94166 0 0 0 0 0 0
2 1 0.0316457 1.74732 2.06017 0 0 0 0 0 0
3 3 1.1639 0.795549 0.610904 0 0 0 0 0 0
4 1 0.188269 1.85961 5.55948 0 0 0 0 0 0
5 1 -1.41434 2.75991 7.84307 0 0 0 0 0 0
6 1 0.162604 0.136489 17.9313 -0.487514 -0.764806 2.46697 16.0551 -12.2391 -7.43843
7 1 1.74363 1.00472 15.2341 -0.211769 0.67401 5.00892 -7.14697 2.27288 3.42428
8 3 0.677947 2.02398 16.7637 -5.32952 -0.141646 -5.48804 -5.9022 -0.413255 3.15383
9 2 -1.48356 2.59233 3.85583 0 0 0 0 0 0
10 1 -0.828756 4.52016 10.7024 -2.04861 -2.1966 -0.957341 3.19611 11.5065 15.1546
11 3 -1.52319 5.69578 9.26019 6.17843 1.02678 2.10089 8.76783 -3.3461 -4.79678
12 3 0.274166 3.76233 7.18554 0 0 0 0 0 0
13 1 -1.2307 2.90769 16.8649 -0.698278 1.85854 2.34874 -17.5284 -4.58268 4.91082
14 2 0.0601166 5.7244 12.7652 0.275702 3.90784 2.42569 0.0922303 -3.15048 3.38274
15 3 -1.37353 4.85094 16.5317 -1.15806 -2.41367 -2.44312 7.68704 -4.17451 10.7833
16 1 -3.10716 7.17569 2.22916 0 0 0 0 0 0
17 3 -1.72972 6.28201 0.783527 0 0 0 0 0 0
18 1 -1.38228 7.11683 10.6528 -1.43985 -0.85249 -1.18812 -14.3321 -17.2913 -0.306524
19 1 -2.62285 5.61213 17.8663 0.924168 -1.54169 3.20647 14.7353 -3.44496 -0.809144
20 2 -1.45577 7.90077 13.0931 -0.711854 -3.32195 -6.9724 9.86734 0.772358 8.10982
21 1 -1.462 6.11001 14.9692 1.186 2.02443 -0.971362 -18.0792 -8.29953 11.5808
22 3 -2.94471 6.91292 16.4256 5.6748 -2.5973 -2.86178 1.2739 -4.37571 6.47862
23 2 32.404 8.40592 3.98447 0 0 0 0 0 0
24 1 -4.51214 9.87322 1.90885 0 0 0 0 0 0
25 3 -3.10065 8.8433 0.797443 0 0 0 0 0 0
26 1 -4.73977 9.96332 5.93089 0 0 0 0 0 0
27 1 31.0103 10.5564 8.19779 2.05121 0.57009 3.20543 6.26537 -5.42977 -10.3329
28 3 -5.07828 9.35861 9.0867 -2.79501 -5.10067 -0.946955 7.65635 -3.74214 -3.74302
29 1 -4.82518 10.8888 10.3934 -0.36613 0.919601 -0.905538 1.76335 13.0761 -9.45737
30 1 29.4963 12.9469 8.17672 -2.88099 -1.1347 1.99686 17.2639 -4.4443 -7.89208
31 3 -6.40323 11.9885 9.46254 0.197141 -5.67647 2.33041 -3.66885 -7.9445 -3.73019
32 3 -4.78769 11.4643 7.35678 0 0 0 0 0 0
33 1 -6.05655 11.1471 17.0486 1.23937 1.07815 0.240447 -6.7175 -9.24317 -9.47046
34 3 -6.40145 12.8177 16.1364 5.39395 3.67216 5.12787 -5.36353 5.92721 6.98728
35 1 -7.46816 15.3411 5.85453 0 0 0 0 0 0
36 3 -6.25912 14.3866 7.299 0 0 0 0 0 0
37 1 29.3568 13.2315 17.2514 -0.141711 -2.29804 -4.22793 -2.74718 -4.52948 0.641107
38 2 28.0911 15.8469 3.85373 0 0 0 0 0 0
39 1 -9.40118 17.7369 2.14695 0 0 0 0 0 0
40 3 -7.923 16.9077 0.797968 0 0 0 0 0 0
41 1 -9.22138 17.7239 5.50015 0 0 0 0 0 0
42 2 -8.05631 19.0152 13.1061 -4.04066 2.74668 6.94608 -10.8967 0.332129 -11.7386
43 2 26.2268 18.7913 4.18862 0 0 0 0 0 0
44 3 -9.27699 19.6887 0.608713 0 0 0 0 0 0
45 1 -10.8751 20.6301 6.07086 0 0 0 0 0 0
46 1 -9.41825 20.33 11.4513 -0.485699 2.3064 -2.1988 -5.74774 2.4918 -8.43724
47 1 24.8914 21.4426 8.5302 -1.70325 -1.63812 -1.22605 14.2879 -0.697996 3.73975
48 3 -11.0092 20.9956 10.087 -0.731694 -7.33559 -1.53788 7.11263 -8.34505 -1.43133
49 1 -10.6502 19.3582 17.4472 -0.398259 -1.31943 -0.0423653 -1.09 7.59929 -9.65017
50 2 -8.51814 21.7908 13.4376 -2.02913 -2.75665 5.41387 4.48205 -13.7666 -4.75544
51 1 -9.6516 19.7486 14.9077 -1.74435 0.149486 3.41924 -9.97274 -9.80098 0.384697
52 3 -11.0456 20.9025 16.1932 8.32285 3.71208 8.07012 -5.74033 8.75635 -4.5535
53 2 -12.3967 21.528 4.0999 0 0 0 0 0 0
54 1 -12.5785 23.5438 2.09611 0 0 0 0 0 0
55 1 -12.238 23.3236 5.89478 0 0 0 0 0 0
56 1 -11.1324 22.6865 10.8546 1.59048 -0.556001 2.52306 16.328 6.73937 -6.55585
57 1 23.3662 23.937 8.42413 3.83538 -0.896843 -2.17463 4.54656 12.3798 -5.89305
58 3 -12.9771 22.9546 10.1008 -2.4845 -4.7338 3.27871 -1.07954 -2.60797 -0.120618
59 3 -10.7389 22.4838 7.18478 0 0 0 0 0 0
60 2 -13.9178 24.3562 4.04052 0 0 0 0 0 0
61 3 -12.4823 25.1664 0.812998 0 0 0 0 0 0
62 1 -13.8514 26.1517 6.15981 0 0 0 0 0 0
63 1 -12.9543 24.8904 10.9607 0.530428 -1.62522 0.11291 -13.8771 5.08669 14.7245
64 1 -15.3541 27.5497 8.68152 0.766123 -0.66461 0.883887 12.8963 3.30651 -6.03701
65 3 -14.6157 25.6011 9.32539 -2.73413 -0.50957 2.08412 -5.70334 0.50432 -2.75226
66 3 -12.4938 24.9462 7.15575 0 0 0 0 0 0
67 1 -13.7109 23.8421 17.6147 1.68601 -0.755723 -2.82684 0.115419 -12.5465 -6.21958
68 2 -12.5188 26.3569 12.9956 -1.84758 0.88994 -3.28102 11.8441 8.03088 -8.19219
69 1 -12.1355 24.7267 14.7632 -4.05822 -1.123 0.0906085 -9.94272 -11.9184 -13.0394
70 3 -13.2174 25.5052 16.2152 -3.74144 2.68839 -2.17819 8.13014 -11.1909 6.87339
71 1 -15.311 29.066 2.18021 0 0 0 0 0 0
72 1 -15.467 28.7039 6.11813 0 0 0 0 0 0
73 3 -13.9143 27.9367 7.25335 0 0 0 0 0 0
74 2 20.2213 29.5545 4.17429 0 0 0 0 0 0
75 1 -17.5227 30.9896 2.1771 0 0 0 0 0 0
76 3 -15.5498 30.6153 0.827037 0 0 0 0 0 0
77 1 -17.1727 31.5221 5.78393 0 0 0 0 0 0
78 2 3.73099 0.76695 13.554 0.351874 0.358238 -3.19609 11.5458 1.11905 3.83552
79 3 -17.3693 31.5326 16.506 4.90158 -7.34337 4.81093 -4.01394 6.42078 -0.291655
80 2 -15.4473 32.018 4.00546 0 0 0 0 0 0
81 1 2.85535 1.02431 1.78348 0 0 0 0 0 0
82 3 4.73202 0.88585 0.917102 0 0 0 0 0 0
83 1 3.12089 1.84871 5.32028 0 0 0 0 0 0
84 1 4.10177 1.0772 11.0165 -1.65716 -0.877608 -1.03883 -0.841102 -0.525303 -2.84832
85 1 1.78569 2.60201 7.99621 0 0 0 0 0 0
86 1 -15.3332 32.0981 17.6561 1.29018 -3.67365 -0.995739 -14.1491 -9.47624 -13.6678
87 2 3.43158 3.08473 12.3502 4.99201 -2.59868 1.55242 -7.13065 6.44627 1.28745
88 1 5.05732 0.481944 15.557 0.593102 -0.787637 2.35102 8.67003 6.69857 -16.6472
89 3 3.25673 1.4171 16.7322 -2.64085 -1.28016 -1.96099 -8.93068 -3.80736 -3.36372
90 2 1.51902 2.91549 3.72958 0 0 0 0 0 0
91 1 1.5365 4.69757 5.83644 0 0 0 0 0 0
92 1 0.135325 5.34492 8.35102 1.37579 -4.2159 -0.836824 2.1184 0.96402 -14.7703
93 3 1.49682 4.49109 9.6593 0.289621 1.20361 -1.80157 9.96039 -2.81139 1.93091
94 3 3.20492 3.72175 6.98616 0 0 0 0 0 0
95 1 1.87422 2.27657 18.1792 1.26447 -0.0681972 1.4964 -2.58957 -1.13164 -1.16923
96 2 -0.0687399 5.52084 4.11024 0 0 0 0 0 0
97 1 -0.0262304 7.14265 2.21229 0 0 0 0 0 0
98 1 0.102835 7.2497 5.91248 0 0 0 0 0 0
99 1 1.60917 6.19591 10.9405 0.197031 3.65229 1.91265 1.71291 -3.09741 11.4592
100 3 1.50104 6.39571 7.19363 0 0 0 0 0 0
101 1 0.505952 5.56602 17.1253 -0.619872 -2.82664 2.878 -15.1496 -14.2628 -11.7768
102 2 1.84033 7.67608 12.8978 -6.10916 -1.36703 -1.66534 1.90145 9.11219 3.44868
103 3 0.0395454 7.05354 15.8706 3.92268 -6.47382 -3.36901 8.30791 6.03417 -0.365957
104 2 -1.55358 8.07265 4.15001 0 0 0 0 0 0
105 1 -1.61206 9.84437 2.31049 0 0 0 0 0 0
106 3 -0.216987 8.74103 0.459978 0 0 0 0 0 0
107 1 -1.60712 9.92508 5.95387 0 0 0 0 0 0
108 1 -3.26356 10.5567 8.2884 -1.88595 2.40244 1.27724 -2.62242 17.6738 10.3536
109 1 -1.18837 8.02129 17.0906 0.02715 1.19862 -0.227957 -13.1654 15.829 6.81674
110 1 0.44427 8.65494 14.7209 0.436571 -2.3243 0.213581 12.0631 -0.224383 -9.12135
111 2 -3.11231 10.7664 4.08062 0 0 0 0 0 0
112 1 -3.0301 12.5504 2.22434 0 0 0 0 0 0
113 3 -1.55358 11.6605 0.961352 0 0 0 0 0 0
114 1 -3.10424 12.4412 5.9325 0 0 0 0 0 0
115 1 -4.91993 13.186 8.50139 -2.33698 -0.946477 -1.33797 -5.68408 14.491 7.851
116 3 -3.43076 12.4914 9.79805 2.75704 1.1169 3.92011 -0.387045 -6.53773 -0.811016
117 3 -1.51478 11.6077 7.33764 0 0 0 0 0 0
118 3 -3.87406 12.9353 15.6222 -1.36181 5.20089 1.27345 2.49862 4.02483 2.33875
119 2 -4.60693 13.44 4.19633 0 0 0 0 0 0
120 1 -4.52237 15.0679 2.13623 0 0 0 0 0 0
121 3 -3.03821 14.3163 0.903122 0 0 0 0 0 0
122 1 -4.56535 15.103 6.15388 0 0 0 0 0 0
123 3 -3.25625 13.933 7.36069 0 0 0 0 0 0
124 1 -4.7876 13.704 17.2804 0.859708 -0.098362 0.966596 10.8136 6.4999 -7.75178
125 1 -2.95153 14.633 15.3425 0.549149 -2.3997 2.96902 14.8817 16.353 -11.843
126 3 -4.30915 15.541 16.6482 1.3271 6.46107 2.88856 -1.40359 0.269833 -1.68842
127 2 -6.12786 15.944 3.836 0 0 0 0 0 0
128 1 -6.47647 17.7575 2.01192 0 0 0 0 0 0
129 1 -5.93432 17.9123 5.35998 0 0 0 0 0 0
130 1 -7.81864 18.8802 8.65006 1.24526 0.975684 -0.127001 6.63335 -0.354078 -5.88248
131 1 -6.23043 16.1063 17.2133 -0.893174 -3.42297 3.00834 -5.73462 2.03951 -3.02007
132 2 -4.34786 19.7685 12.9583 0.799595 4.17275 -5.44914 4.83963 -2.07047 -3.09062
133 1 -4.64776 16.8232 15.1819 -1.57265 -1.08013 0.43136 12.8903 12.9894 -9.87531
134 3 -6.03881 17.977 16.1272 -5.2636 8.1001 6.2209 0.826144 -5.66952 8.00955
135 2 -7.70746 18.9989 3.97811 0 0 0 0 0 0
136 1 -7.63519 20.4452 1.93185 0 0 0 0 0 0
137 1 -7.77434 20.6438 6.02942 0 0 0 0 0 0
138 1 -6.2629 19.7546 11.4388 -0.6602 0.413394 0.467116 -13.849 0.172874 -0.997217
139 1 -9.39188 21.3189 8.538 -1.51363 3.50692 -0.508767 -16.334 12.0601 -2.54591
140 3 -7.82207 20.323 9.83813 6.45158 0.773876 10.1319 -6.16441 4.55843 5.24845
141 3 -6.18961 19.8618 7.19662 0 0 0 0 0 0
142 1 -7.64655 18.7342 17.3928 -1.14332 -0.0646903 -3.51314 8.15979 -7.19544 21.4277
143 2 -5.86722 21.7649 13.0894 2.87481 0.140707 -0.957023 5.07149 -0.76162 7.43924
144 1 -6.2727 19.9226 14.8702 -0.352505 -0.25789 1.489 -18.1267 -4.58047 -7.87553
145 3 -7.89487 20.4276 16.2091 -5.71749 2.98285 6.83583 0.53741 0.344052 4.1235
146 2 -9.2342 21.6503 4.16458 0 0 0 0 0 0
147 1 -9.2879 23.3912 6.01879 0 0 0 0 0 0
148 3 -7.81624 22.4012 7.25838 0 0 0 0 0 0
149 1 -9.20409 22.1669 16.0137 -1.08132 -1.64874 -1.37613 -17.2379 -0.76274 -9.50432
150 2 -10.8505 24.1177 3.97677 0 0 0 0 0 0
151 1 -11.2725 26.1631 2.17682 0 0 0 0 0 0
152 1 -10.956 25.9766 5.64764 0 0 0 0 0 0
153 1 -12.7049 26.708 8.64167 1.87145 0.337756 -1.92516 -17.9024 7.35674 -15.1507
154 2 -9.3699 26.8229 13.3374 -1.40318 -2.74095 -0.739434 -5.54551 -1.65613 8.31428
155 1 -9.27526 25.3696 15.4856 -0.391737 2.55663 0.79892 15.1128 4.67747 13.0772
156 2 -12.5756 27.0863 4.10496 0 0 0 0 0 0
157 1 -11.9858 29.0074 2.22934 0 0 0 0 0 0
158 3 -10.8922 27.8008 0.94548 0 0 0 0 0 0
159 1 -10.9924 27.767 11.3633 -1.55833 1.49222 1.01371 7.55612 -9.17205 7.30694
160 3 -12.3755 28.4641 10.0792 5.36825 -2.60758 3.16017 -3.58606 5.94118 -0.776655
161 2 -11.0696 30.0124 13.1985 -1.62097 -3.17705 -0.0183494 13.326 -6.53811 8.52847
162 1 -11.1741 27.93 14.5559 1.5438 -1.02118 0.0568501 -16.4794 1.0977 -10.3631
163 1 -13.6081 31.4421 2.34435 0 0 0 0 0 0
164 3 -12.4149 30.5331 0.896531 0 0 0 0 0 0
165 1 -12.6023 30.4706 10.9243 0.300296 0.686755 -1.63099 -5.40765 2.19122 -9.03181
166 3 -11.9469 30.0929 6.96351 0 0 0 0 0 0
167 2 6.01569 0.152162 12.7183 -0.490938 -1.39388 -2.13935 3.51217 9.8499 -9.02872
168 1 -13.3694 30.4667 14.1067 -0.868919 1.30557 -0.37357 16.1962 12.1565 -8.66589
169 3 -13.6564 30.9026 16.2598 1.46684 -7.44493 3.67876 1.27905 -3.94084 -6.26703
170 3 7.67288 0.832675 0.878057 0 0 0 0 0 0
171 1 6.18319 1.80777 5.92967 0 0 0 0 0 0
172 1 7.07876 0.892096 10.5948 1.25387 0.520882 2.84544 14.562 0.308176 3.66318
173 1 4.59335 2.71894 8.07205 3.18656 0.578564 2.08185 3.82541 8.06363 0.553154
174 3 5.52488 1.76681 9.55098 1.0704 4.59818 3.03466 7.16428 -2.75401 7.39147
175 3 8.06318 0.846277 7.04307 0 0 0 0 0 0
176 3 6.24301 1.56228 16.5329 -1.57165 2.34388 -2.57809 5.54623 3.7362 0.896785
177 1 4.87291 4.86663 6.17476 0 0 0 0 0 0
178 1 5.28008 3.75921 10.7733 -0.276973 0.716846 4.16022 -9.28562 10.8268 14.9688
179 1 2.86116 5.30583 8.36282 1.86266 -0.95212 0.320122 8.60598 12.5398 11.4372
180 3 4.64471 4.44932 9.01897 5.72551 1.5101 -0.727491 -8.17099 3.90541 2.31227
181 3 6.11696 3.51345 7.12843 0 0 0 0 0 0
182 1 4.80713 2.76646 17.5394 -4.92049 -0.617767 -1.43732 -8.1222 12.9631 1.04552
183 3 4.38091 4.45878 16.1528 -2.27205 4.58949 -5.4522 -6.44213 6.578 2.94954
184 2 3.12415 6.03286 3.78904 0 0 0 0 0 0
185 1 3.06515 7.18273 6.08097 0 0 0 0 0 0
186 1 5.13894 6.29352 9.23662 0.383456 -1.64929 0.496466 9.33842 13.8591 3.79954
187 3 3.12196 7.1274 9.32009 1.22067 -1.14874 -6.5456 3.62966 -0.935949 3.46211
188 3 4.39302 6.40995 7.46943 0 0 0 0 0 0
189 1 1.22182 9.71605 1.58577 0 0 0 0 0 0
190 3 3.10716 8.96961 0.961352 0 0 0 0 0 0
191 1 3.37224 8.43852 10.8588 0.368961 -0.652412 -0.94153 19.4488 15.1718 13.1384
192 1 0.0120577 10.4768 8.61623 -2.68292 -2.69361 2.63213 1.80108 5.54043 -10.6305
193 3 1.73084 9.54844 9.66755 1.08144 3.58209 -2.6023 1.33237 5.07696 -0.0289714
194 2 2.89969 10.1892 12.8356 1.72789 1.89547 -0.613705 10.0952 6.10997 10.5094
195 1 3.38559 8.61331 14.7989 2.37843 0.865286 -0.548403 -6.33727 -4.07638 -12.7951
196 3 1.97951 9.51264 16.0662 2.5259 -5.16395 -0.126726 -10.1616 -5.50833 1.69568
197 1 1.83517 11.4635 10.8501 -1.70594 -0.658383 -2.34196 8.39967 6.08194 -10.3825
198 1 -1.61593 13.3616 8.641 0.528395 -3.30539 1.82906 7.50886 1.67727 -13.2811
199 3 0.0463942 12.4557 9.74572 0.791908 4.05863 -2.2507 -1.42134 -3.42096 -4.70015
200 2 1.69231 13.3639 12.9358 -5.50323 -0.379946 -2.33433 6.35518 -7.34625 3.41784
201 1 1.63079 11.4203 14.9751 -0.175778 2.3448 0.305702 -1.85212 -16.2176 2.46048
202 3 -0.0251872 12.2772 16.3982 -2.42532 -4.48551 -2.81089 6.17222 -6.23862 6.78995
203 1 -1.55358 15.2483 2.22916 0 0 0 0 0 0
204 1 0.338161 14.2994 10.762 -3.42416 1.16492 -2.76697 -14.892 0.0461315 1.84185
205 3 -1.19725 15.2785 9.86898 -0.366127 1.65443 8.22615 -3.48138 -9.89566 -3.99193
206 3 -0.0242833 14.3636 7.32159 0 0 0 0 0 0
207 1 -1.41156 13.5793 17.5122 0.2894 -0.287637 -3.77902 -11.7397 8.76703 -9.1633
208 1 -0.0395915 13.9098 14.9946 -0.757383 0.69912 -0.153873 12.4747 -5.97902 7.46594
209 3 -1.24823 15.3209 16.2538 -7.39356 1.25802 7.24428 -3.45789 -7.52917 -5.83487
210 3 -1.55358 17.0423 0.961352 0 0 0 0 0 0
211 1 -0.600837 17.1437 11.2491 3.19341 3.71069 0.775843 3.33658 -3.80873 7.61062
212 1 -2.83985 16.356 17.5069 1.61684 0.361076 -1.36376 18.7362 6.55491 21.7722
213 2 -1.50164 18.9247 12.8727 3.43718 0.744918 3.91258 14.1154 5.08082 9.02115
214 1 -1.36097 17.0351 14.6606 0.703059 -0.30802 1.75257 -13.4934 13.8136 -12.6884
215 3 -3.19052 17.7786 16.0454 -1.14108 2.13044 0.392407 1.84424 6.7304 0.828433
216 1 -3.27454 18.9805 10.7499 -5.35727 -1.41139 -1.24198 -7.29407 -13.4265 12.1371
217 1 -6.37922 21.3591 8.53028 2.44373 0.774991 -0.521529 8.87927 16.19 -14.3765
218 3 -4.9101 20.7852 10.0133 -3.26527 -4.18005 -3.02314 3.75054 3.01309 -0.66279
219 1 -4.76632 18.5949 17.4386 -0.854694 1.69117 -3.49469 7.46377 9.58935 9.00958
220 1 -3.26538 19.5691 15.1971 0.134309 -0.6201 4.29298 -14.5357 9.45603 -16.0218
221 3 -4.8237 20.2137 16.3779 0.71569 1.81931 3.61957 1.15927 -7.20016 1.82173
222 2 -6.20439 21.5388 4.03501 0 0 0 0 0 0
223 1 -5.97445 23.4323 2.15749 0 0 0 0 0 0
224 3 -4.72521 22.3883 0.877806 0 0 0 0 0 0
225 1 -6.21656 23.1221 5.96563 0 0 0 0 0 0
226 3 -4.75435 22.3678 7.51299 0 0 0 0 0 0
227 1 -6.14366 21.5307 17.1566 0.796208 1.9064 0.395164 9.28717 -14.3462 6.34609
228 3 -5.13805 23.2462 16.0729 2.87211 -11.1495 -2.85608 0.333236 -0.740498 5.25441
229 3 -6.30941 25.0101 0.858699 0 0 0 0 0 0
230 1 -6.24888 25.208 10.8102 -4.03293 -2.21254 -0.732137 9.76879 -2.15348 16.5224
231 3 -6.22183 24.8435 7.11661 0 0 0 0 0 0
232 1 -6.80986 24.1016 17.2072 2.88449 -5.1577 0.28634 1.20248 0.131564 -15.5169
233 2 -6.29764 26.6258 12.9674 -2.26047 -2.00591 -3.26403 7.23087 0.00390469 3.66835
234 1 -6.0586 24.7482 14.8641 3.00542 1.02637 3.38362 1.0464 -1.70769 -13.4422
235 3 -7.31332 25.5927 15.9719 4.20157 7.82293 6.76074 -5.78595 -1.11721 4.33455
236 1 -9.17115 28.2018 2.19509 0 0 0 0 0 0
237 3 -7.64601 27.7718 0.86196 0 0 0 0 0 0
238 1 -7.87728 27.789 11.3234 0.674173 1.32685 -5.88763 -14.715 13.4757 -13.2964
239 1 -10.8358 29.3939 8.58846 -0.938923 -1.7355 -6.94741 -3.62505 -1.53157 1.60599
240 3 -9.40442 28.8647 10.1015 4.74206 -2.57574 2.49105 -1.28319 8.06466 1.78896
241 2 -8.19139 29.3588 13.2379 -1.32452 -1.11041 4.10656 6.79667 3.32675 -7.35526
242 1 -7.70831 27.6529 15.0788 0.357473 -1.18232 1.34407 -6.17046 -0.913426 -6.56841
243 3 -9.44852 28.6526 16.3733 8.60858 -3.69734 2.21906 0.0633223 4.88256 7.12428
244 1 -9.57929 30.6625 11.1269 -3.90208 1.79084 -4.78617 -13.2356 -8.07171 -11.9492
245 1 -12.2567 32.2133 7.94106 -0.523043 -1.26558 0.594768 -0.943126 0.4324 -0.621376
246 3 -11.2144 31.338 9.47968 2.01608 -5.61081 -11.2246 -5.87699 -2.0059 0.832259
247 3 -9.12289 30.5267 7.48934 0 0 0 0 0 0
248 2 -8.5302 31.8527 13.4216 -1.17392 0.915072 -0.903786 5.90889 -1.00884 -11.5621
249 1 -9.56386 30.4089 15.2755 -0.293775 1.21682 0.0897879 -8.4764 -7.88373 -3.52686
250 2 9.46087 0.362618 3.89774 0 0 0 0 0 0
251 1 9.00822 1.93617 2.01271 0 0 0 0 0 0
252 1 9.53153 1.81751 5.95271 0 0 0 0 0 0
253 1 10.9738 0.786025 11.3256 -1.4752 -3.0829 1.44355 -15.9967 -1.63385 -2.3325
254 3 10.9466 0.944556 7.38381 0 0 0 0 0 0
255 2 7.66526 2.69429 4.12638 0 0 0 0 0 0
256 1 7.56152 4.48155 2.03961 0 0 0 0 0 0
257 3 9.33238 3.61181 0.790335 0 0 0 0 0 0
258 1 7.77331 4.62081 5.85886 0 0 0 0 0 0
259 2 9.63336 5.32208 12.8148 -0.524919 6.2235 -1.31012 8.77593 -9.59855 7.59425
260 2 6.17531 5.48368 4.13582 0 0 0 0 0 0
261 1 6.25461 7.31137 2.23258 0 0 0 0 0 0
262 3 7.69541 6.29398 0.840511 0 0 0 0 0 0
263 1 7.77382 5.92383 10.5353 -0.487254 4.24482 4.27088 -11.3396 4.23573 10.6852
264 3 6.91276 7.11673 9.07222 4.23397 5.36419 1.00524 2.40732 -8.90201 -9.18911
265 1 5.90376 5.42495 17.1633 -0.133454 1.6398 -1.53669 4.41108 0.655368 7.25802
266 2 7.92041 7.80311 12.5337 0.901005 4.1324 -1.34187 2.73153 -3.2868 -9.67795
267 1 8.11087 6.25523 14.5985 1.11829 -1.09037 -0.817862 17.4526 2.12921 12.5097
268 3 6.74175 6.97049 16.0577 5.02163 6.31739 1.26314 -9.09984 2.22934 -2.29516
269 1 4.98085 9.9416 2.05363 0 0 0 0 0 0
270 3 6.31948 8.90142 0.86437 0 0 0 0 0 0
271 1 6.3791 8.62985 10.3288 0.892279 -0.630355 0.619148 16.1024 -9.64277 14.1618
272 1 3.03112 10.3707 8.59517 0.405726 -4.52585 -3.50895 11.3932 -10.6 5.43377
273 3 4.64466 9.50114 9.45433 5.34738 2.67219 -0.661008 10.5521 1.0069 -7.01712
274 1 5.19854 8.04306 16.9229 -1.09118 -4.69178 0.618578 1.9354 10.2386 -5.29525
275 1 6.42735 8.40611 14.5716 -1.57395 -2.37343 3.29343 8.58885 17.4018 11.5048
276 3 5.08891 9.66158 15.7378 -1.97779 -4.61097 1.00825 3.48216 -7.47799 0.835974
277 3 4.65929 11.6682 0.95644 0 0 0 0 0 0
278 1 4.70976 11.0474 10.7317 3.64506 -0.277582 1.9742 15.8142 6.57715 -10.1987
279 1 1.54745 13.1326 8.32817 -2.34546 2.42622 2.1729 16.916 6.53981 14.398
280 3 3.32277 12.3663 9.71473 -4.70499 -4.95489 -4.48799 -3.5699 8.00771 -1.51182
281 1 3.61335 10.4588 17.0981 0.0654023 -3.80321 3.0517 -1.35959 -14.3656 -12.6428
282 2 4.44159 14.3734 12.9261 -0.127669 0.661399 -2.93445 -8.24755 -2.98389 7.49691
283 1 4.63216 11.1401 14.519 -1.57238 1.9077 -0.0360748 5.00685 3.65362 -16.4645
284 3 3.02304 12.3154 16.1404 -2.70723 1.6932 -3.84433 2.11287 3.96132 2.58476
285 1 1.53576 15.2374 2.20755 0 0 0 0 0 0
286 3 3.10716 14.3514 0.961352 0 0 0 0 0 0
287 1 1.51187 15.2459 6.0236 0 0 0 0 0 0
288 1 3.05233 14.4344 10.7919 -0.515181 2.01074 -1.08371 -15.9466 8.303 -11.1415
289 1 -0.196334 16.2071 8.3138 -3.84423 -0.631086 -4.48605 3.04385 0.175578 12.7225
290 3 1.54646 14.8389 9.23813 5.75766 0.156756 0.0830465 5.9846 4.75699 -5.47213
291 3 3.0637 14.3659 7.2547 0 0 0 0 0 0
292 1 1.43505 12.8693 17.569 -2.01218 0.186536 1.9416 17.4602 -12.0701 -3.05576
293 1 2.63498 14.5545 14.9299 -1.56643 3.74901 0.456878 -4.9416 2.07012 -11.0972
294 1 0.030201 17.8082 2.18656 0 0 0 0 0 0
295 3 1.55364 17.0409 0.95884 0 0 0 0 0 0
296 1 -1.55502 18.9478 8.44861 -3.39399 4.25581 3.06316 -2.70504 -3.32275 1.84212
297 3 -0.18059 18.1744 9.58846 4.01021 -3.58608 -1.1574 -4.04211 -0.288125 7.17951
298 3 1.50278 17.0021 7.31861 0 0 0 0 0 0
299 1 -1.42914 20.346 2.23517 0 0 0 0 0 0
300 3 0.0401593 19.7087 0.914631 0 0 0 0 0 0
301 1 -0.33596 20.0664 11.0981 1.97116 -1.90701 3.39573 7.02749 -14.6769 10.3329
302 1 -3.301 21.7469 9.01685 0.650433 -0.614317 -2.03023 -10.7263 4.29262 -4.10979
303 3 -1.84986 20.4795 9.75838 1.12181 6.10013 2.40597 -4.47949 -6.22115 -5.24673
304 3 0.160797 19.8511 7.58297 0 0 0 0 0 0
305 2 -0.735121 22.0358 12.6059 3.74874 1.03217 -1.54962 -1.58641 4.17679 7.1693
306 1 -0.490653 20.2682 14.6996 0.207419 -2.15323 2.23069 -1.15638 1.29275 -9.16031
307 3 -2.08328 21.0302 15.889 5.3225 -1.08736 5.64592 5.74979 6.6956 4.49208
308 1 -3.13308 22.7258 2.15821 0 0 0 0 0 0
309 3 -1.49831 22.3915 0.882305 0 0 0 0 0 0
310 1 -3.25028 23.2018 6.29535 0 0 0 0 0 0
311 1 -4.88014 24.1423 8.29216 -4.01325 1.52622 -0.786322 8.19227 11.2988 -1.12589
312 3 -1.91697 21.8414 7.17835 0 0 0 0 0 0
313 1 -2.15303 22.7377 14.9866 -2.55821 1.29989 0.940367 -2.40628 11.6318 9.91471
314 3 -3.72653 23.3304 16.3588 9.10381 -2.03328 -2.79342 3.57537 3.50819 1.28278
315 2 -4.6049 24.1417 4.12101 0 0 0 0 0 0
316 1 -5.20348 26.301 2.04135 0 0 0 0 0 0
317 1 -4.67642 25.9807 6.33759 0 0 0 0 0 0
318 1 -3.22864 25.2583 10.9247 0.827078 1.4122 0.525737 3.61096 -8.66477 2.96657
319 1 -6.17033 26.8719 8.59325 3.31727 2.83166 2.86991 -16.2498 9.64287 9.74345
320 3 -4.72834 25.5482 9.53099 -1.88178 -2.21378 -1.39628 -8.17591 -6.89447 -3.98957
321 3 -3.37393 25.0508 7.65176 0 0 0 0 0 0
322 2 -3.08524 26.485 13.2046 4.91538 -0.230836 0.534368 -1.58928 7.05108 1.50816
323 1 -3.04498 25.4432 16.0589 1.31607 -1.81965 -0.0585305 -14.4743 -5.86512 -8.509
324 3 -4.90668 25.91 15.7636 2.45413 4.66977 3.98623 -5.07073 -7.76082 0.563839
325 2 -6.65502 26.9487 4.1769 0 0 0 0 0 0
326 1 -6.35092 28.9864 2.25281 0 0 0 0 0 0
327 3 -4.7366 27.8649 0.766804 0 0 0 0 0 0
328 1 -6.21433 28.7028 6.07086 0 0 0 0 0 0
329 1 -7.7733 29.6988 8.81095 -5.85476 -2.26062 -0.361236 0.543329 -16.538 2.90937
330 3 -6.54066 28.6392 10.0385 -6.08704 -3.94242 -0.490474 -0.289912 7.06138 -9.34188
331 3 -4.71733 27.8528 7.35722 0 0 0 0 0 0
332 1 -5.90723 26.7648 17.3969 0.80892 0.382504 0.264417 -7.24363 -17.8108 10.2176
333 3 -6.37391 28.4483 16.3237 2.99128 1.30195 -6.62169 6.54574 -8.92155 9.80344
334 2 -7.86058 29.6431 4.17031 0 0 0 0 0 0
335 1 -7.64296 31.2669 6.24429 0 0 0 0 0 0
336 1 -9.37755 32.2986 8.48875 -0.900663 2.68501 -0.638601 -0.863946 7.25414 3.07766
337 3 -8.01168 31.6861 9.77709 -3.5935 1.59136 0.373354 -5.16957 3.90389 -2.69367
338 3 -6.18151 30.3934 7.42303 0 0 0 0 0 0
339 1 -7.70338 29.1445 17.5803 2.653 0.822102 2.02066 9.26094 -7.99694 -5.115
340 2 -6.23165 32.1171 4.36823 0 0 0 0 0 0
341 1 11.9146 2.03523 1.67283 0 0 0 0 0 0
342 3 14.1161 0.958878 0.661661 0 0 0 0 0 0
343 1 12.4569 1.79385 6.07179 0 0 0 0 0 0
344 1 14.1509 0.938171 11.3446 2.32462 -2.00185 -2.52537 -2.57106 -16.3786 -5.794
345 3 12.6594 1.59401 10.2267 0.921612 -9.5368 5.75371 -4.32728 3.4862 3.05257
346 3 13.9827 0.902217 7.3416 0 0 0 0 0 0
347 1 -6.45391 32.1171 16.9537 1.54683 -2.21419 -2.64293 -3.75385 -15.8246 13.1836
348 2 13.6175 2.93799 12.9368 -4.9772 3.79282 1.53552 -9.04055 -6.14706 15.2899
349 1 14.2676 1.17229 14.548 -0.864703 -2.63087 -0.656526 -9.71915 6.98408 -8.9265
350 3 12.4422 1.00355 15.1919 0.621625 -3.75388 7.48013 -9.94073 -0.196127 3.50887
351 1 10.6679 4.66545 1.98945 0 0 0 0 0 0
352 3 12.4824 3.81687 0.783101 0 0 0 0 0 0
353 1 12.4519 3.66158 10.8219 -3.87306 1.25649 3.31111 3.60973 14.2315 14.6895
354 2 12.2977 5.14268 12.9473 0.340554 -3.01695 2.11823 8.69813 1.76804 -9.57017
355 1 12.1134 3.35434 14.8982 3.00495 1.02323 1.71733 2.99854 11.3154 16.7424
356 2 9.10383 5.25629 3.84386 0 0 0 0 0 0
357 1 9.17863 7.18096 2.15326 0 0 0 0 0 0
358 3 10.8846 6.39664 0.873975 0 0 0 0 0 0
359 1 11.0153 6.25049 10.9654 1.89825 -0.92597 0.650162 9.27971 9.14479 -14.2593
360 3 9.45795 6.56162 9.3493 -11.8864 -3.78133 12.4909 -5.74135 1.11302 -6.84343
361 2 11.1515 7.74849 12.9685 0.509386 -0.649695 -3.13774 9.15857 -7.35994 -4.38687
362 1 11.4257 6.26335 14.9945 2.51693 1.4641 -0.0271854 1.87904 -6.21086 -10.1018
363 3 9.67274 7.00523 15.9889 0.75326 -0.456385 1.71556 2.79739 1.83116 7.99884
364 1 7.90493 9.81724 2.13639 0 0 0 0 0 0
365 1 9.32704 8.42658 10.4216 -0.9211 -2.51699 -2.16645 -8.78004 5.46679 11.5672
366 1 6.05158 10.3623 8.03902 -1.3049 -3.03578 -2.94881 -7.71053 -7.71021 -2.04803
367 3 7.81658 9.46382 9.20878 3.75807 4.14001 4.70089 -8.54805 -2.09702 -1.93671
368 3 9.61544 8.86137 7.38546 0 0 0 0 0 0
369 1 8.05001 7.72586 17.3036 1.05754 -0.497978 -0.180281 -13.3411 18.3751 -5.31216
370 1 9.52823 8.83344 14.8322 1.03463 6.13793 -1.17975 12.0538 -0.234534 -14.1405
371 3 7.85657 9.32154 15.8278 4.89773 3.3769 10.6077 4.54608 -4.36166 -2.51335
372 2 6.219 10.9343 3.99764 0 0 0 0 0 0
373 1 6.21455 12.6218 2.15575 0 0 0 0 0 0
374 3 7.71381 11.666 0.866204 0 0 0 0 0 0
375 1 6.01718 12.5305 5.90796 0 0 0 0 0 0
376 1 4.61575 13.3613 8.33366 1.35923 0.288802 0.597837 15.1363 13.4687 -10.8519
377 3 7.87963 11.1796 7.15653 0 0 0 0 0 0
378 1 6.7355 10.7084 16.8334 -2.49644 0.636141 1.11657 17.3962 -12.0182 2.31273
379 3 6.02158 12.262 15.5484 1.14558 3.5788 -5.59256 -3.47645 7.70719 2.6775
380 2 4.61426 13.4694 4.06823 0 0 0 0 0 0
381 1 4.66075 15.2483 2.22916 0 0 0 0 0 0
382 1 4.48749 15.2537 5.82173 0 0 0 0 0 0
383 1 3.0345 16.0509 8.27359 3.21124 -0.436306 0.440004 -7.04673 -10.7964 -6.51049
384 3 4.53267 15.5144 9.45223 5.45452 4.57562 -10.0543 0.818367 -6.6556 1.66342
385 1 4.65386 13.2812 17.1095 1.97433 0.122137 -3.05804 10.5639 -9.12076 5.83361
386 2 6.73672 15.4111 12.5118 -7.75964 1.39962 6.67477 6.04824 -10.3736 -11.8704
387 1 6.14875 14.2371 14.7851 -0.347997 1.69773 -6.5086 -15.6166 -14.5877 -10.1193
388 3 4.52556 15.0372 16.0514 3.13516 -3.97049 -5.40859 -8.11772 1.20649 11.6289
389 2 3.02714 16.1344 3.99796 0 0 0 0 0 0
390 1 3.15998 17.8699 2.20784 0 0 0 0 0 0
391 1 2.91742 17.8083 5.84736 0 0 0 0 0 0
392 1 3.35229 17.434 10.5635 1.31981 0.96579 4.88634 0.964616 12.5131 11.343
393 1 1.49016 18.8058 8.51833 -0.896715 -1.26969 -0.160614 6.83549 8.23865 3.42045
394 1 2.6559 15.6453 17.3382 0.746846 1.5517 -1.56211 8.32719 4.31738 -0.410248
395 1 4.61152 16.8601 13.536 -1.59001 -0.258275 3.69747 -15.212 7.07687 20.3891
396 2 1.48164 18.7026 4.01076 0 0 0 0 0 0
397 1 1.70985 20.4135 2.2066 0 0 0 0 0 0
398 3 3.16285 19.7061 0.911766 0 0 0 0 0 0
399 1 1.52368 20.3832 5.8578 0 0 0 0 0 0
400 1 -0.0805755 21.5386 8.55632 -2.68257 -1.37093 4.05241 3.40657 1.79145 -7.70524
401 3 1.53246 20.6289 9.7433 -5.5329 2.30474 -11.1513 6.47106 4.72778 0.214058
402 3 3.00321 19.4883 7.1043 0 0 0 0 0 0
403 2 1.49096 20.2781 13.0774 -3.07716 2.00677 -3.79247 3.01677 -8.16553 2.0929
404 1 2.37511 19.0356 15.2077 2.31865 0.0287371 5.94058 -10.4615 -17.4556 5.79676
405 3 0.64487 19.2688 16.4659 3.48146 4.37729 4.48102 -0.687862 -8.60976 5.73906
406 2 0.0522192 21.2852 4.0122 0 0 0 0 0 0
407 1 0.11985 22.8689 2.0831 0 0 0 0 0 0
408 3 1.69696 22.3681 0.838062 0 0 0 0 0 0
409 1 -0.345701 22.6256 6.08088 0 0 0 0 0 0
410 1 1.26647 22.4444 10.8924 0.472409 2.85627 -0.0715155 -12.3288 -16.4463 -3.61809
411 1 -1.76972 23.9483 8.44702 -0.661312 -1.24113 1.7255 7.55007 8.3545 13.6289
412 3 -0.280594 23.2131 9.71812 4.96234 -2.01234 5.31032 5.12844 8.11909 2.47464
413 3 1.48522 22.3841 7.0635 0 0 0 0 0 0
414 1 -0.643538 20.8989 17.2417 2.36879 -2.23027 -0.664441 4.96586 5.07086 -15.127
415 2 1.4077 24.4596 12.6989 0.273215 1.96595 0.682818 -9.24619 9.90685 -13.7073
416 1 1.05327 22.5528 14.1906 0.349532 1.08534 -2.58195 -13.9059 11.0153 -8.00605
417 3 -0.279545 22.872 15.9531 -6.83221 3.36697 3.54485 -6.23429 -3.91778 4.45257
418 1 -0.0354314 25.0293 10.6274 -0.379038 0.515765 3.4054 8.12707 8.16273 -16.1289
419 1 -3.25906 26.9848 8.64998 -2.88759 2.95171 2.33589 4.28505 -1.98131 -10.0024
420 3 -1.59279 26.0036 9.57196 4.37366 -1.8208 3.88397 4.9439 5.66714 -1.58956
421 3 -0.596782 24.4278 7.06931 0 0 0 0 0 0
422 2 -0.171464 27.0365 13.1041 -4.04873 1.12901 -4.86643 -10.1722 -6.21717 9.88489
423 1 -0.203712 25.0801 14.7601 -4.31268 2.87625 -3.39327 11.7926 10.2275 7.38595
424 2 -2.53917 27.651 3.9919 0 0 0 0 0 0
425 1 -3.33646 28.8358 1.94375 0 0 0 0 0 0
426 1 -3.27074 28.8078 6.08022 0 0 0 0 0 0
427 1 -1.60081 27.7396 10.9215 -2.03317 1.58641 3.09321 13.4016 -6.3444 -8.57918
428 3 -1.82089 28.0773 7.36577 0 0 0 0 0 0
429 2 -1.54928 29.4542 12.8161 -0.575064 3.4743 -3.7339 8.08826 -3.47829 10.4624
430 1 -1.8834 27.9136 14.878 -0.964209 -0.867931 -4.56987 -9.96617 14.8094 -12.5713
431 2 -4.79557 29.5489 4.1335 0 0 0 0 0 0
432 1 -4.76472 31.3767 1.66733 0 0 0 0 0 0
433 3 -2.96003 30.516 0.793338 0 0 0 0 0 0
434 1 -4.71678 31.3433 6.30918 0 0 0 0 0 0
435 1 12.4131 0.0681832 8.6589 -1.04443 -1.05143 -2.83263 8.57457 6.97814 -9.78293
436 3 17.4076 1.00732 0.44149 0 0 0 0 0 0
437 1 17.3643 1.36174 11.2632 0.600029 -2.73743 -1.05976 -5.26139 14.6299 -11.9008
438 1 14.0868 2.5339 8.73886 0.592768 -3.6867 -3.75625 -12.4946 -7.66304 13.4924
439 3 15.6948 1.85438 10.0076 2.19258 -5.75214 -4.27595 -1.1536 -6.95942 -2.28151
440 1 15.7215 0.282151 17.2592 -3.19008 -1.6851 0.385679 7.53723 2.80422 -14.8623
441 2 17.6291 3.20274 12.9862 -2.56988 1.80576 -1.73461 7.32472 1.19746 -4.77866
442 1 17.1461 1.09731 14.614 1.04396 1.35114 -3.65861 19.1523 1.43117 12.3397
443 3 15.8387 1.94499 15.928 6.7739 1.98529 -10.4162 -8.61702 -6.67604 -0.179214
444 1 14.0381 4.05305 2.3062 0 0 0 0 0 0
445 3 15.5849 3.51458 0.957677 0 0 0 0 0 0
446 1 15.4341 3.47059 11.3681 2.3092 1.13562 -0.731803 5.30692 -13.7428 -11.7558
447 1 13.0765 5.18555 8.52945 -1.9228 -1.67659 0.0477815 -10.8966 -16.8657 -4.70024
448 3 14.2906 4.38785 9.91692 1.77307 7.90681 8.88941 -3.64714 3.18562 1.50112
449 3 15.5377 3.58435 7.3388 0 0 0 0 0 0
450 1 14.2785 2.48646 17.0628 3.5783 -0.846572 4.33044 3.24378 11.8761 -2.73903
451 1 15.3978 3.80753 14.7277 -0.890867 -0.811583 2.71271 2.59287 -18.359 -15.3443
452 3 13.6256 3.99064 16.2734 -0.973808 0.964488 -3.38501 5.97704 3.54041 -5.01843
453 1 12.8124 6.62976 1.64992 0 0 0 0 0 0
454 3 14.3205 6.05876 0.350737 0 0 0 0 0 0
455 1 10.9352 7.59642 8.12192 -1.35336 0.368921 -0.26846 3.58219 -16.4476 -7.69133
456 3 12.3023 6.89862 9.31585 -3.28116 2.55375 8.32381 -4.05374 10.7306 4.36447
457 3 14.1948 6.15843 7.23501 0 0 0 0 0 0
458 3 12.4554 7.06058 16.8431 -2.13374 1.01706 1.5052 4.32109 -8.87657 6.06531
459 1 10.6533 10.0727 6.0649 0 0 0 0 0 0
460 1 12.4705 8.56591 10.7779 -2.26766 -0.0372273 2.46255 8.147 -7.36613 14.7162
461 1 9.40451 10.5101 8.46434 -1.07868 2.78585 3.05087 -13.2222 3.08467 5.75981
462 3 11.0196 9.55287 9.59335 -2.9849 1.02336 -1.30759 6.30054 -7.39449 -4.14213
463 3 12.5138 8.70878 7.25948 0 0 0 0 0 0
464 1 10.8565 8.26923 17.2647 1.18549 -0.126052 0.523249 -15.1118 -7.79696 -7.5779
465 3 10.6517 9.93677 16.191 -2.71687 10.5301 -11.8226 -10.2001 3.12694 -8.27722
466 2 9.18232 10.9782 3.94047 0 0 0 0 0 0
467 1 9.26865 12.6524 6.06834 0 0 0 0 0 0
468 1 10.6113 11.4683 10.5554 0.553244 1.66859 2.82392 15.8071 13.6108 11.09
469 3 10.9436 11.6389 7.40925 0 0 0 0 0 0
470 2 7.66684 13.5007 4.17255 0 0 0 0 0 0
471 1 7.89753 15.2575 5.93166 0 0 0 0 0 0
472 3 9.63225 14.2303 7.47688 0 0 0 0 0 0
473 2 9.74688 15.4146 12.4976 1.13184 0.354103 1.56595 -1.96232 -8.84911 2.93263
474 3 7.6332 14.9316 15.8732 1.67142 -3.98637 -2.14931 -3.64909 -0.374919 -0.447831
475 2 6.1959 16.0598 4.18897 0 0 0 0 0 0
476 1 7.99737 17.424 11.3061 -1.36873 -1.63295 -0.154033 -9.47869 -9.09471 3.86869
477 1 5.80171 15.8609 17.2908 2.28907 -1.5037 0.519357 -3.45693 5.02966 4.79734
478 2 5.39735 18.3619 11.4629 4.49561 -0.0229738 2.90701 6.48688 -4.03539 6.99532
479 1 8.13548 16.2781 14.252 -3.66764 -4.42938 -1.5705 -15.2996 19.3927 0.25503
480 3 5.51022 18.5498 18.783 11.3676 -1.94125 -2.25697 -0.842155 -7.02013 0.25888
481 1 2.84443 21.3659 8.21136 0.90392 -1.66491 -3.07338 -2.75202 -18.6972 -6.91575
482 1 4.30248 18.1028 17.2242 -0.358312 5.1184 4.29405 11.6761 10.3369 -0.947299
483 2 2.49937 17.8952 12.927 -2.66956 -0.265482 -3.71894 12.5369 10.3268 -12.3175
484 1 3.97837 19.7242 12.9116 6.64468 0.951849 5.45608 2.09733 2.26229 0.318786
485 3 3.23882 19.6927 16.8104 -3.55412 1.46609 -3.67848 3.96049 -5.35945 1.48236
486 2 3.07809 21.3234 4.14489 0 0 0 0 0 0
487 1 3.13555 23.2531 5.97168 0 0 0 0 0 0
488 3 4.50606 22.2502 7.17516 0 0 0 0 0 0
489 1 1.70961 19.9908 18.0311 3.00483 -3.51368 -1.74604 -1.34256 -2.68347 0.424542
490 1 3.46232 23.1384 11.8892 0.748787 -0.328169 -4.81019 -5.02667 12.3834 19.003
491 3 2.67177 22.9955 15.6754 9.29588 -6.70444 8.9606 -1.21092 -3.22596 2.21891
492 1 -0.273406 27.1613 8.3599 2.34996 -0.41066 1.60655 12.096 -10.7199 5.03632
493 3 3.07586 24.6334 8.05578 6.34464 7.35007 2.38871 0.034621 -4.28728 8.14235
494 1 1.33835 23.5247 16.9087 4.3632 -3.46425 0.784595 -1.54221 -14.013 -11.8584
495 1 2.8882 24.5881 14.6638 -6.37711 -8.14701 -0.65091 0.84293 2.76036 0.242487
496 3 1.23367 25.9452 16.153 -0.527592 -2.33036 13.2843 -4.02816 2.92284 2.9036
497 2 0.208907 26.7291 3.43399 0 0 0 0 0 0
498 1 0.282017 28.6223 1.80775 0 0 0 0 0 0
499 3 1.73074 27.8789 0.528383 0 0 0 0 0 0
500 1 -0.354073 28.7873 5.82488 0 0 0 0 0 0
501 3 0.520551 28.4093 10.0478 -2.12833 -2.69268 2.12076 2.76237 -4.46606 -2.07885
502 2 1.28301 29.763 13.2259 -1.34455 4.48411 -3.41537 4.86889 -3.66537 5.41268
503 1 0.910009 28.2627 15.2444 0.554363 -1.53919 1.98863 -8.73194 -17.6111 -1.90443
504 1 -1.38177 31.0033 2.17586 0 0 0 0 0 0
505 3 0.114397 30.4542 0.851814 0 0 0 0 0 0
506 1 -0.14356 30.4675 11.0067 -2.50579 0.0774171 1.57238 1.17485 -1.02433 7.2295
507 1 15.7067 0.268787 8.48778 1.55622 0.115367 -2.87991 -11.8297 10.5947 5.7783
508 2 18.5887 0.0543529 12.8916 -0.0534237 1.02938 -0.332348 6.30555 -6.49351 -2.36811
509 1 -0.637538 30.7967 14.9374 2.54055 -1.89814 -4.2063 -15.1102 10.8231 11.818
510 3 -2.3868 31.6231 15.4967 3.42739 -2.66417 -2.76836 -8.12638 -8.34422 7.18269
511 3 20.2711 0.91151 0.921965 0 0 0 0 0 0
512 1 20.2263 0.654594 10.7161 1.15012 -0.688855 0.214529 0.878689 -1.57575 6.5922
513 1 17.0352 2.60994 8.47577 2.07111 1.50362 -4.17047 -11.4534 7.46306 -7.00267
514 3 18.6441 1.77161 9.62007 0.516011 2.14929 -3.65553 0.149247 2.51562 5.82786
515 3 20.1966 0.896961 7.33867 0 0 0 0 0 0
516 1 16.8709 4.77301 2.13431 0 0 0 0 0 0
517 3 18.6977 3.64939 0.867532 0 0 0 0 0 0
518 1 17.0895 4.4661 6.05747 0 0 0 0 0 0
519 1 15.7586 5.3269 8.61403 0.864552 3.32624 -2.93331 8.23483 10.0642 1.36623
520 3 18.643 3.58784 7.33867 0 0 0 0 0 0
521 1 16.911 3.00623 17.3474 1.15137 3.03053 -0.118334 -13.1541 -7.56746 -3.96338
522 3 16.4606 4.91224 16.1242 -4.5746 1.01986 1.54551 -1.36024 5.48166 2.7323
523 1 15.5627 7.38646 2.31017 0 0 0 0 0 0
524 3 17.1869 6.29165 0.76214 0 0 0 0 0 0
525 1 14.109 7.87233 8.41948 -1.3075 3.06329 2.00473 10.7545 -11.1046 9.43702
526 3 15.6884 7.2046 9.57716 8.22846 -3.07783 -2.25716 9.56927 2.71694 0.0867046
527 3 17.0998 6.149 7.26411 0 0 0 0 0 0
528 1 15.0382 5.33008 17.4214 1.75477 -3.49507 0.543099 17.8306 16.359 13.6831
529 1 16.292 6.9119 15.3765 -1.69145 3.21048 0.538035 -11.0428 9.31183 -11.9101
530 3 15.5344 8.96708 0.961704 0 0 0 0 0 0
531 1 14.1358 9.5902 5.85872 0 0 0 0 0 0
532 1 15.7612 8.7193 10.8758 2.59933 1.13249 -1.67192 5.44803 15.3277 14.7918
533 1 12.5187 10.3811 8.34721 1.33334 -0.149952 1.95566 -8.94983 3.78532 0.0880268
534 3 14.1321 9.43009 9.74348 10.775 -7.6451 -0.356723 3.60057 -2.78572 -2.72556
535 3 15.7523 8.72321 7.21595 0 0 0 0 0 0
536 3 13.5333 9.684 16.0386 -4.21199 -4.2363 -5.07078 -6.14528 -5.26031 3.93912
537 2 12.1253 10.7529 3.905 0 0 0 0 0 0
538 3 14.0107 11.4953 0.691211 0 0 0 0 0 0
539 1 12.2296 12.5266 5.80799 0 0 0 0 0 0
540 3 14.1224 11.1279 7.24564 0 0 0 0 0 0
541 1 12.1629 10.971 17.0952 2.0117 -0.537436 3.79957 -6.83677 -7.60076 3.44839
542 2 13.9628 13.4524 12.9805 2.07884 3.85318 1.20536 -10.9897 -7.92561 9.64171
543 1 14.1291 11.318 14.8576 -1.67533 -0.454778 -2.78421 -6.14148 -17.1979 -9.79886
544 3 12.7689 12.4547 15.7913 6.26968 -1.1585 4.92174 -2.16868 -5.44532 -0.42835
545 2 10.6991 13.5058 4.09533 0 0 0 0 0 0
546 1 10.8265 15.1403 5.98024 0 0 0 0 0 0
547 1 8.6311 16.3458 8.19456 0.0188522 -3.30897 -3.86685 -8.27412 -5.31936 9.34698
548 2 12.9928 16.109 13.0519 -1.72745 -7.6832 -2.64562 8.26915 -11.1314 9.07829
549 1 12.6595 14.3598 14.9172 -1.43332 4.28989 2.94327 0.950608 11.0295 14.4724
550 2 9.1947 16.0411 3.94731 0 0 0 0 0 0
551 1 9.27291 17.9475 5.77881 0 0 0 0 0 0
552 1 11.2403 16.6237 10.8312 -2.2392 1.64431 2.72478 -14.9655 1.65543 -14.8198
553 3 9.57751 17.1749 9.82723 5.45659 1.16494 0.92606 6.36915 -5.12655 5.14685
554 3 10.5984 16.9284 7.00066 0 0 0 0 0 0
555 2 6.68528 18.3139 13.6678 4.13433 -8.07052 -6.46327 -2.7428 -4.03848 -6.13926
556 2 7.67873 18.5585 3.6687 0 0 0 0 0 0
557 1 7.76791 20.6301 2.22916 0 0 0 0 0 0
558 3 9.34937 19.7718 0.872721 0 0 0 0 0 0
559 1 7.50262 20.3005 5.44887 0 0 0 0 0 0
560 3 9.2587 19.4711 7.42446 0 0 0 0 0 0
561 3 6.46573 20.3943 16.03 2.7117 -4.46542 2.51278 -1.15143 -3.05925 -0.142756
562 2 6.01634 21.5282 3.86204 0 0 0 0 0 0
563 1 6.1342 23.2191 2.0287 0 0 0 0 0 0
564 3 7.76791 22.424 0.961352 0 0 0 0 0 0
565 1 6.22269 23.0023 5.8667 0 0 0 0 0 0
566 1 7.67792 22.9362 10.7899 0.672989 0.218586 -1.08073 -6.03356 -1.13886 16.5968
567 3 6.791 24.6507 10.1819 3.99714 -2.08357 4.94767 6.32396 -5.18706 -7.15737
568 3 7.37446 22.5479 7.52658 0 0 0 0 0 0
569 1 4.25918 21.0942 15.7233 0.123957 -0.307475 -1.07733 0.911629 -0.399312 -1.65315
570 2 5.58437 21.4155 11.3424 6.65746 0.782968 6.86199 -12.2246 14.2312 5.17954
571 1 5.31359 22.7999 13.3756 10.4915 -7.71676 1.02613 1.37618 2.1742 1.82584
572 3 5.28684 22.0098 17.1444 -1.81517 10.3514 -2.67551 -6.27769 -1.67067 -2.18749
573 2 4.35679 23.9686 3.80323 0 0 0 0 0 0
574 1 4.7641 25.8033 1.8979 0 0 0 0 0 0
575 3 6.31495 25.0748 0.734974 0 0 0 0 0 0
576 1 4.90145 25.6026 5.6109 0 0 0 0 0 0
577 3 6.18641 25.2507 7.21517 0 0 0 0 0 0
578 1 3.78262 23.4397 17.9388 -4.15705 1.37587 -3.79707 2.25314 2.84062 -0.574728
579 3 5.98548 25.1969 13.4503 -11.1355 -12.3629 1.2474 -1.03522 1.65575 -1.03366
580 2 3.47763 27.0557 3.63307 0 0 0 0 0 0
581 1 3.2747 28.6165 1.69474 0 0 0 0 0 0
582 3 4.77586 27.8267 0.502439 0 0 0 0 0 0
583 1 3.45648 28.611 5.65407 0 0 0 0 0 0
584 1 1.46809 29.6085 8.56339 -0.592939 -6.52727 -0.631372 18.325 -11.755 -4.90542
585 1 3.27357 27.2333 16.1355 -0.0143042 9.13848 -2.31118 0.312756 -2.2575 -0.435714
586 3 2.8397 29.2632 16.4046 -6.17913 3.82551 10.2006 -0.273097 8.35154 1.07132
587 2 1.54604 29.5396 4.09326 0 0 0 0 0 0
588 1 1.88154 31.1496 2.15841 0 0 0 0 0 0
589 3 3.2679 30.4728 0.777022 0 0 0 0 0 0
590 1 2.83701 30.4553 11.2872 -0.705156 0.430273 1.45267 -6.01073 -3.0007 -5.2258
591 1 -0.083685 32.2157 8.74055 0.821347 -0.0561838 -3.61618 5.27363 7.63035 -12.2507
592 3 1.48028 31.1844 9.65191 -5.24555 -3.43103 -1.08111 -0.493106 8.47688 -1.46996
593 3 2.98215 30.4364 7.1287 0 0 0 0 0 0
594 2 21.3548 0.327487 12.9651 0.41811 -0.0263413 -5.12791 -5.36801 -5.94208 -7.42722
595 1 2.37447 31.1177 15.0605 4.69882 1.77212 0.477288 -3.14191 12.8504 5.42499
596 1 21.6286 1.79843 2.22948 0 0 0 0 0 0
597 3 23.221 0.847713 0.881811 0 0 0 0 0 0
598 1 23.2557 0.666075 11.1143 -0.74645 -0.892866 1.76194 0.453406 -3.24506 -2.8848
599 1 20.1907 2.41017 8.30751 3.37533 2.29735 0.381878 -1.45653 3.01782 5.84229
600 3 21.8163 1.60146 9.60449 0.835426 0.911351 5.39888 6.75907 7.87287 -1.33026
601 2 22.764 3.1254 12.8208 -5.98999 -1.5577 4.38702 -9.46283 2.27348 -1.35883
602 1 23.4742 1.20051 14.3718 2.56369 3.13329 1.20734 16.0209 6.92252 -7.53678
603 1 20.1728 4.46868 2.20003 0 0 0 0 0 0
604 3 21.7502 3.58784 0.961352 0 0 0 0 0 0
605 1 20.0992 4.17916 5.8441 0 0 0 0 0 0
606 1 21.5588 3.49999 10.6831 -1.11399 0.64657 1.53409 -7.85153 -13.9029 11.1014
607 3 21.7452 3.58523 7.33159 0 0 0 0 0 0
608 1 21.9853 3.80422 15.0615 0.923516 -2.4396 0.44768 2.5446 -5.22058 8.2489
609 3 19.9576 4.7166 15.9877 -3.13321 7.53562 3.95173 5.28415 -2.52806 -3.23098
610 2 18.643 5.38177 4.15001 0 0 0 0 0 0
611 1 18.4791 7.2193 2.08806 0 0 0 0 0 0
612 1 17.2073 7.92823 8.41905 0.0926776 -2.73202 3.41249 1.46779 11.2658 -0.762368
613 1 18.1049 5.61347 17.0984 -0.217003 4.344 -1.7375 8.5291 -7.31169 10.4859
614 2 20.605 7.65084 12.7026 -0.367645 4.80084 3.01507 14.7452 -11.4913 -7.39049
615 1 20.3165 6.23537 14.8708 1.29931 -1.38626 -0.411547 16.1476 8.65152 -15.3393
616 3 18.4645 7.31228 15.6649 -3.13439 2.60353 -2.59558 -5.13076 2.03518 1.66473
617 2 17.2097 8.20574 3.99852 0 0 0 0 0 0
618 1 17.0217 9.92131 2.17475 0 0 0 0 0 0
619 1 17.0976 9.70926 5.98879 0 0 0 0 0 0
620 1 19.0638 9.13179 11.1557 1.73199 1.91058 2.44248 -7.12806 -9.10016 -8.95022
621 1 15.6809 10.4959 8.55113 0.240921 -1.43164 3.1039 10.7467 -1.16509 15.9139
622 3 17.3644 9.63365 9.7645 14.0658 -0.287961 -0.664689 -6.90401 3.88034 6.45278
623 2 19.0861 10.9422 13.1527 -2.36975 -0.402131 -1.11298 -9.94422 9.70205 5.59898
624 1 18.2708 8.64301 14.0849 0.984075 3.18671 -0.330824 12.2869 -11.5121 16.608
625 3 18.4647 9.6278 16.1159 -0.723933 -4.69831 3.0116 1.50213 1.05549 -3.17075
626 2 15.5224 10.6879 4.02717 0 0 0 0 0 0
627 1 15.4477 12.5295 2.13346 0 0 0 0 0 0
628 3 16.9506 11.4787 0.606679 0 0 0 0 0 0
629 1 15.3313 12.296 5.92765 0 0 0 0 0 0
630 1 17.5101 11.5418 10.93 1.72311 1.54032 0.763702 7.51929 8.71047 4.06361
631 3 16.1552 12.452 9.45887 8.33304 -5.844 -1.45789 -7.26826 -2.59067 -0.131571
632 3 17.1175 11.3467 7.25636 0 0 0 0 0 0
633 1 15.1863 9.85722 17.1455 -1.02792 4.43934 1.44807 -12.7636 -3.32561 14.9593
634 2 17.2134 13.0399 13.0746 -1.98567 -1.90988 3.25192 -12.3162 9.56049 -6.61928
635 1 17.4152 11.2627 15.1801 -1.3547 3.2526 1.3202 6.2717 -1.75145 9.46742
636 3 15.7544 11.9011 16.2693 -3.76287 3.20376 -1.65686 6.16638 0.440435 9.2038
637 2 13.6076 13.2917 3.6393 0 0 0 0 0 0
638 1 13.9208 15.2332 2.10088 0 0 0 0 0 0
639 3 15.5413 14.3544 0.953738 0 0 0 0 0 0
640 1 14.2925 12.8543 17.3085 1.71755 -1.2514 3.20876 -19.1667 -6.78505 -4.4504
641 2 16.18 15.6283 12.9788 0.256597 2.05178 1.60872 5.70009 -5.88847 6.79382
642 1 15.5186 13.5935 14.8304 -0.352599 0.00466065 0.264431 3.97174 12.5447 -3.12783
643 3 14.3745 14.8383 16.188 -3.6935 7.01024 2.54927 4.88718 8.09849 -1.1484
644 2 12.371 15.9573 3.9197 0 0 0 0 0 0
645 1 12.2528 17.6619 2.0991 0 0 0 0 0 0
646 3 13.9814 17.0419 0.960716 0 0 0 0 0 0
647 1 12.3302 17.643 5.76116 0 0 0 0 0 0
648 1 13.8415 17.3725 10.9723 0.731146 1.86143 2.52489 9.91805 8.08499 5.74586
649 1 10.8608 18.2915 8.40296 -1.10189 -0.667772 -1.6116 13.6272 -6.33683 7.09858
650 3 12.2536 18.3949 10.0917 -6.67131 -1.01978 -3.65219 0.9077 7.00836 0.102697
651 1 12.8725 15.3149 17.5588 0.887437 -3.97136 -1.28341 -3.45899 -11.3798 -12.2937
652 2 15.5748 19.9424 13.8817 -8.53726 6.10947 -6.49633 0.806569 -1.59005 0.320945
653 1 15.0312 16.4811 14.822 -3.95229 -0.0321015 3.74817 1.60321 -12.7697 -14.9915
654 2 10.8977 18.8563 4.11492 0 0 0 0 0 0
655 1 10.8858 20.6076 2.18712 0 0 0 0 0 0
656 3 12.2403 19.7166 0.590709 0 0 0 0 0 0
657 1 11.6531 19.9698 11.1831 0.257851 1.28162 1.54598 -6.98523 -16.7204 -11.0627
658 3 12.6827 19.0103 7.2759 0 0 0 0 0 0
659 1 9.2513 23.2321 2.21448 0 0 0 0 0 0
660 3 10.8751 22.424 0.961352 0 0 0 0 0 0
661 1 10.5408 22.6896 10.4818 -2.93418 -0.230707 -2.49545 4.94227 -9.4793 7.37478
662 1 7.80046 24.4735 8.3697 -1.21973 1.19313 -1.57608 4.41197 -6.16519 -6.97448
663 3 9.34401 24.1551 9.92796 1.20112 -1.69501 -6.02396 -0.133371 3.4886 3.57885
664 2 11.4924 28.6871 10.9944 3.29511 3.39093 -2.52664 -15.595 13.6717 2.35595
665 1 8.34206 28.1631 13.6801 10.395 -0.365053 4.16844 0.472767 -0.617534 3.19561
666 3 7.01961 22.0199 12.4531 -3.75198 0.17594 -10.8055 3.24268 -0.848549 0.997311
667 2 7.30782 24.2699 3.9889 0 0 0 0 0 0
668 1 7.77069 26.078 6.03604 0 0 0 0 0 0
669 1 9.45834 26.0684 10.708 -0.976611 -0.699113 -0.736373 -19.1702 -10.2838 9.56084
670 1 6.04861 27.0739 8.42338 1.13848 2.2389 0.693945 -9.35944 -16.5142 -10.177
671 3 7.69612 26.4429 9.42969 5.22454 4.3332 2.30225 2.44006 8.27431 4.00233
672 3 9.32743 25.2951 7.1549 0 0 0 0 0 0
673 2 4.19267 25.4737 12.4658 9.30983 -9.17514 6.677 1.72699 -1.98606 -2.56432
674 1 7.40506 25.3413 12.1171 -7.54512 -6.61803 -7.20313 0.623158 1.04552 0.352132
675 2 6.37151 27.0602 4.21495 0 0 0 0 0 0
676 1 6.35086 28.7699 6.06625 0 0 0 0 0 0
677 1 7.44106 28.0311 10.8063 -2.97062 -1.46712 -1.45291 -10.1262 -16.0231 7.0396
678 3 5.57445 28.4526 10.0505 -4.96728 -2.08809 1.36458 6.61223 -3.31451 3.8055
679 3 7.77012 27.8317 7.30188 0 0 0 0 0 0
680 2 6.12203 27.2892 13.1092 8.08695 -3.15209 -2.32181 -1.3291 -1.23377 -1.05035
681 2 4.81671 29.6772 3.85203 0 0 0 0 0 0
682 1 4.7978 31.3665 2.01348 0 0 0 0 0 0
683 1 4.60468 31.2899 5.93259 0 0 0 0 0 0
684 1 6.09375 30.4059 10.6103 -1.90515 -2.18539 -1.1453 -0.656213 -9.90754 -3.41539
685 1 3.17175 32.0921 8.46554 0.919097 0.66392 0.995439 -14.7869 16.7056 6.20039
686 3 4.23207 30.7902 9.88537 -1.30113 3.22444 4.56377 -6.79332 6.49659 3.69413
687 3 6.33395 30.716 7.36639 0 0 0 0 0 0
688 1 4.97329 30.2646 16.2084 -1.0792 2.31511 4.71533 -1.24974 -1.56254 2.5429
689 2 6.74616 31.9908 12.7645 1.974 3.31941 6.06241 -11.2299 0.510568 -0.937504
690 1 4.69187 30.8395 13.5645 1.81321 -1.34283 -5.22946 -5.67432 -11.5456 -11.7387
691 3 4.20437 31.7768 15.5445 -2.26344 3.42944 -0.636329 3.31042 1.39631 -2.89263
692 2 6.20555 32.2818 3.86218 0 0 0 0 0 0
693 1 24.5555 1.78939 2.15482 0 0 0 0 0 0
694 1 23.2864 2.68067 8.51248 0.400163 3.67339 -2.81646 -11.6437 12.238 2.83528
695 2 25.3793 2.55564 12.9706 2.79315 -2.68764 1.7583 -0.846461 11.8065 9.80923
696 1 26.5524 1.09699 14.6534 2.28712 -0.87724 0.175834 -0.21215 11.7358 7.85478
697 3 24.8463 1.69044 15.8808 -5.32569 -7.37772 2.14935 -0.479022 -10.2381 1.74324
698 1 23.2831 4.47233 2.20388 0 0 0 0 0 0
699 3 24.8573 3.58784 0.961352 0 0 0 0 0 0
700 1 22.9732 4.73266 5.92209 0 0 0 0 0 0
701 1 24.6022 3.78905 10.9708 -0.194451 5.58906 -0.134148 8.10149 5.1179 7.20383
702 1 21.8084 5.24075 8.48721 2.77061 -2.02322 3.86657 5.7287 -10.3279 -6.92934
703 3 23.1218 4.54694 9.72656 6.86306 4.2363 5.8939 7.36079 -2.25556 -3.79478
704 1 23.3554 2.66415 17.4411 0.977996 -1.58767 -0.492935 -7.2263 -11.7569 17.5291
705 2 24.6545 5.21155 13.1462 -3.4315 -0.903827 4.8343 -8.04432 1.2825 -5.34262
706 1 25.0905 3.75166 15.3125 0.0593039 -2.00619 1.83248 -11.4231 13.6356 -14.1105
707 3 23.3138 4.52075 16.4573 0.423915 -1.27114 2.61544 8.66579 3.65516 2.22036
708 2 21.6172 5.4848 3.9651 0 0 0 0 0 0
709 1 22.7931 6.32947 11.1896 -1.09302 -3.57995 -2.04363 4.90217 3.42658 -8.42139
710 3 23.3037 6.26507 7.36261 0 0 0 0 0 0
711 1 21.5174 5.43387 17.5458 -1.34223 1.46911 -0.611405 -10.9835 -3.19272 -11.1869
712 2 23.2391 7.79955 13.2092 3.5047 1.22341 5.4887 13.0223 -3.80811 8.25205
713 1 23.5441 6.28968 15.1375 1.64464 0.019531 -2.21387 -9.40617 -6.9923 -2.413
714 3 21.7012 7.23839 16.007 -1.09494 7.3222 -4.00149 -7.23412 5.74912 9.87451
715 2 20.1344 8.03496 4.35922 0 0 0 0 0 0
716 1 20.284 9.94802 5.95675 0 0 0 0 0 0
717 1 21.9467 8.88093 10.9229 1.37508 2.83396 -5.79668 -13.3634 4.11651 3.94032
718 1 18.8504 10.6334 8.43483 2.67614 -2.32542 -2.01697 -3.99918 3.48396 1.11673
719 3 20.4064 9.41155 9.38784 3.1219 2.75629 -7.55202 -5.25492 -5.95045 4.73549
720 3 18.7671 12.3126 9.47957 3.3113 3.92552 1.72398 -5.17143 -7.24974 0.839583
721 3 20.2865 11.5613 7.25502 0 0 0 0 0 0
722 1 18.2348 10.8864 17.9718 0.71647 1.98043 -3.21041 15.9937 1.33281 14.043
723 1 20.1188 10.9166 15.5717 0.353044 1.05784 -2.83752 6.29656 -3.27109 5.02426
724 3 18.8026 12.1942 16.6688 -3.80732 3.3407 8.06692 3.9936 -6.25547 9.95933
725 1 17.0086 15.1253 2.23301 0 0 0 0 0 0
726 3 18.5397 13.8475 6.85271 0 0 0 0 0 0
727 1 17.1764 13.3799 17.2106 1.30863 1.25678 -1.54087 1.11644 15.606 -1.66078
728 1 15.5292 17.6784 2.18297 0 0 0 0 0 0
729 3 17.0272 17.0204 0.913614 0 0 0 0 0 0
730 1 16.9914 17.1112 10.7898 -1.39466 0.351716 2.16626 -1.44729 -14.7614 -10.86
731 1 13.8603 19.6172 9.0624 0.38115 0.901887 0.130127 3.56611 13.1392 -8.78741
732 3 15.4199 18.4171 10.0458 6.91448 -6.65257 -9.86789 -7.28779 6.12865 -7.43615
733 1 15.7867 15.466 17.6705 -2.06325 0.470751 -2.3688 -9.23913 7.67458 2.86551
734 2 17.888 19.533 13.1149 -2.6963 -2.79153 -1.29863 1.60426 3.63786 5.80118
735 3 16.0599 17.157 16.4555 0.942057 1.24847 2.91634 -6.69501 -3.88457 9.52978
736 1 13.8384 20.3986 6.25203 0 0 0 0 0 0
737 1 15.8379 19.9691 11.2825 1.45854 -0.597262 -3.34108 -11.7804 -14.3254 -12.7409
738 1 12.4846 21.9545 8.77445 3.56113 -3.01804 2.08695 12.5818 -16.812 1.68307
739 3 13.9117 21.1743 10.3423 5.63885 4.00291 -7.46459 -2.21466 -2.54799 0.405216
740 3 15.3854 20.0317 7.57883 0 0 0 0 0 0
741 1 14.2988 17.5234 17.4269 4.6004 -4.25965 -1.14494 -6.27943 -16.2539 2.02342
742 1 12.3889 23.3479 2.23036 0 0 0 0 0 0
743 3 13.7091 22.687 0 0 0 0 0 0 0
744 1 14.0613 23.1315 10.8966 -1.28828 1.27941 0.386798 13.0075 6.00112 -9.74177
745 1 10.7545 24.7855 8.76095 -2.45844 0.918351 2.03548 17.3042 -10.976 8.56604
746 3 12.3723 23.5585 9.64599 -6.27679 -3.36873 -7.98964 -7.45346 6.05976 8.28659
747 3 13.9182 22.5339 7.33087 0 0 0 0 0 0
748 2 10.1896 26.0313 13.0146 1.60969 2.35452 -3.58674 -0.897596 0.878219 -0.309769
749 3 9.38091 29.7358 13.2759 1.29494 4.89695 -2.09404 1.05013 1.20238 -0.0978125
750 3 12.4287 25.1149 0.961352 0 0 0 0 0 0
751 1 9.2112 26.9323 8.22502 -3.46451 -0.503932 -1.27707 14.147 8.98591 2.3426
752 1 13.6604 18.283 13.5408 -1.66149 2.27202 0.515147 -1.64169 3.83989 0.0298763
753 2 14.192 28.115 15.1404 -10.483 5.92305 4.23347 1.6593 -1.12732 -1.1415
754 1 11.7611 27.011 19.3695 -1.51028 -12.97 -0.0999211 2.09833 -2.77777 2.87228
755 3 11.5413 26.8199 11.6648 -8.69061 5.79506 0.591791 -2.84186 5.36613 11.3921
756 2 9.26437 27.1685 3.63807 0 0 0 0 0 0
757 1 9.27511 28.7611 5.92039 0 0 0 0 0 0
758 2 11.6825 30.7651 17.3059 -0.62267 2.58184 1.93244 0.45807 -0.76074 1.19658
759 1 13.7004 28.7506 12.6483 -1.42472 4.20663 -10.3991 0.736565 2.12528 -0.11682
760 2 7.75775 29.6638 4.10351 0 0 0 0 0 0
761 1 7.52699 31.4445 5.83856 0 0 0 0 0 0
762 2 27.755 1.75888 12.4344 -0.266117 3.56261 -1.8603 10.4446 13.4542 4.02057
763 1 7.95272 30.618 14.4489 -1.76393 -5.50443 -2.4732 0.913334 -0.538341 1.5102
764 3 9.83197 31.1354 16.7294 -10.7931 10.498 2.91682 -0.11539 1.07609 1.30651
765 2 9.14556 32.2689 4.12546 0 0 0 0 0 0
766 3 29.4531 0.935918 0.799955 0 0 0 0 0 0
767 1 27.9811 1.82837 5.79118 0 0 0 0 0 0
768 1 26.4686 3.03419 8.28449 -1.93339 0.00222151 0.645031 8.72663 -11.4963 5.9794
769 3 29.4587 0.920401 7.31456 0 0 0 0 0 0
770 2 29.5086 3.60468 13.0359 -1.70423 2.80516 1.56692 -8.62432 10.5907 -12.6533
771 1 29.2093 1.8399 14.6405 3.49333 0.459549 -2.96972 -13.5769 -5.88905 13.116
772 3 27.9122 2.25342 16.34 3.53123 -2.15225 -1.87779 -5.63253 1.68419 8.71999
773 1 24.83 5.38611 8.56637 -4.2259 2.84753 -2.20376 -0.106383 3.96726 -16.4153
774 3 26.4447 4.46302 9.69662 -12 2.82074 6.27998 2.67786 -6.71322 1.53583
775 3 28.193 3.80048 7.04569 0 0 0 0 0 0
776 3 26.9321 4.11317 16.6749 1.15205 1.1821 -0.985623 -2.30133 10.5569 9.17198
777 2 24.7571 5.3381 4.02374 0 0 0 0 0 0
778 1 25.4422 6.69611 2.04365 0 0 0 0 0 0
779 1 24.9061 6.93184 5.94002 0 0 0 0 0 0
780 3 26.4109 6.30971 7.29692 0 0 0 0 0 0
781 1 25.0296 5.26792 17.7765 -0.523897 0.213888 3.02518 -5.81475 -8.56191 -0.647369
782 3 24.7837 7.43877 16.4667 -0.564421 -2.88485 0.458084 -6.80445 9.83687 0.247667
783 2 23.2993 7.9567 4.32634 0 0 0 0 0 0
784 1 23.1809 9.91366 2.23762 0 0 0 0 0 0
785 3 24.7873 8.933 0.825166 0 0 0 0 0 0
786 1 23.2723 9.92921 5.85695 0 0 0 0 0 0
787 1 24.5908 9.21749 11.5897 -1.59465 1.32019 0.56238 -3.92134 18.4073 -11.1535
788 1 21.8675 10.3529 8.19924 -1.97188 -1.73645 -1.22721 15.5146 -7.98049 6.4288
789 3 23.1514 10.1392 10.0041 0.528215 -3.38534 -6.76503 3.62702 11.6367 -5.99438
790 2 24.5793 11.3791 12.9594 0.883288 0.342503 -0.276689 -8.96625 -8.70604 8.98442
791 1 24.4347 9.4168 14.8767 2.21534 2.23333 1.03742 -19.7206 12.8086 -13.3274
792 2 21.7225 10.7616 4.08506 0 0 0 0 0 0
793 1 21.8277 12.4599 6.14225 0 0 0 0 0 0
794 1 23.0392 11.8458 10.9453 0.954702 0.489876 1.02757 -12.6788 -8.57703 4.0522
795 1 20.0222 13.5195 8.16826 3.81899 -1.93798 -1.11735 1.46264 -11.0682 -7.92733
796 3 23.3093 11.6243 7.32323 0 0 0 0 0 0
797 1 21.9995 10.8245 17.6622 -3.60331 -0.406377 2.93481 4.12581 -5.6972 -17.9254
798 1 23.2571 11.8437 15.0366 -2.31638 -5.2702 -2.78421 9.04087 -15.9046 -4.02408
799 3 21.6995 12.3195 16.2513 -6.38438 7.32775 -3.83252 -2.12233 3.27916 6.473
800 1 18.7338 16.4117 8.59668 -2.56322 2.31379 -5.08137 -13.6506 -4.08176 10.8639
801 3 20.1699 15.2401 9.43167 0.554406 -9.84314 5.16998 -8.07691 2.59665 -4.49665
802 3 21.7566 14.3127 7.21121 0 0 0 0 0 0
803 1 20.6315 13.2326 17.7288 -2.67794 -1.44725 -4.41665 -0.500719 7.52357 12.1089
804 1 21.0585 14.1127 15.2402 -3.18889 1.7564 -1.63877 17.4828 7.01463 -11.7584
805 2 18.6387 16.2032 4.18434 0 0 0 0 0 0
806 1 18.6542 17.5483 2.08081 0 0 0 0 0 0
807 3 20.1291 16.9831 0.741545 0 0 0 0 0 0
808 1 20.4358 16.8347 10.5976 3.35579 2.58799 1.90107 14.8781 6.5389 7.22393
809 1 17.1132 19.0536 8.69951 0.608054 1.21405 0.293102 -12.6376 12.2516 -7.31861
810 3 18.918 18.0151 9.75227 -1.80103 -0.547519 -2.16767 -7.50556 -5.21401 -0.931455
811 3 20.0828 17.0544 7.22911 0 0 0 0 0 0
812 2 20.8065 18.4438 12.7837 -0.505246 0.86469 -2.5096 -8.34639 -13.3038 -5.26847
813 1 21.2412 16.8042 14.5675 2.70464 0.289328 1.50747 7.1102 4.05181 -6.08315
814 1 19.0854 19.6949 10.9702 -2.32124 1.31495 1.07762 -3.6352 -18.4707 5.92981
815 1 15.5826 21.8045 8.65761 -0.407349 -2.72973 -1.2065 0.97975 -9.57273 9.22458
816 3 17.3183 20.5946 9.83827 -0.600269 -1.34257 -0.445825 1.36088 3.79917 0.277413
817 3 18.7579 19.6391 7.29098 0 0 0 0 0 0
818 2 15.6058 21.3493 4.13383 0 0 0 0 0 0
819 1 15.9455 23.4768 1.58643 0 0 0 0 0 0
820 1 15.4564 23.1795 5.93052 0 0 0 0 0 0
821 1 13.9451 24.4482 8.25167 0.730596 -3.07743 -3.26735 0.424816 4.93594 2.61893
822 3 15.3837 23.7637 9.72266 -6.21996 -0.695032 -6.24119 -0.987925 -4.39311 4.74782
823 3 17.2791 22.1744 7.06639 0 0 0 0 0 0
824 1 16.5463 19.2794 16.4082 -2.80072 1.56726 -2.91876 -4.00657 11.1522 -7.01816
825 3 12.8446 24.6262 13.9646 -3.34983 5.61696 -10.8263 -2.25689 3.80093 -0.902717
826 2 14.2374 24.2301 3.99564 0 0 0 0 0 0
827 1 13.9459 25.941 2.12908 0 0 0 0 0 0
828 3 15.4068 25.2832 0.729 0 0 0 0 0 0
829 1 15.0377 25.716 10.46 -0.933264 2.19406 -0.274032 7.66791 -9.58577 16.9469
830 3 15.9159 24.7354 7.21751 0 0 0 0 0 0
831 1 16.6549 22.0248 13.1692 4.02079 -0.649787 2.26858 0.164191 -0.33549 1.86208
832 2 15.1025 26.5517 12.7299 -4.51474 3.38632 -1.03518 0.708745 0.732389 1.01332
833 1 16.6145 24.8692 14.1239 2.72283 -7.44895 9.52716 -1.66176 -0.723528 -1.86499
834 3 15.9669 21.0331 15.4739 -3.84254 -11.3522 -13.2378 1.84745 1.99806 0.493987
835 2 12.5526 27.0117 3.90296 0 0 0 0 0 0
836 1 12.4225 28.7826 2.14761 0 0 0 0 0 0
837 3 13.7147 27.9043 0.464103 0 0 0 0 0 0
838 1 12.1923 28.7543 5.66028 0 0 0 0 0 0
839 1 9.2592 30.1491 11.3495 3.24013 4.70592 2.27033 -10.7838 -10.889 13.1163
840 2 13.784 31.4314 12.5798 -2.23596 -3.37845 -2.11461 -14.1351 -0.654804 10.9339
841 2 10.7025 29.7318 3.91118 0 0 0 0 0 0
842 1 10.9359 31.3864 2.05589 0 0 0 0 0 0
843 3 12.441 30.4896 0.951965 0 0 0 0 0 0
844 1 10.7748 31.5537 5.88772 0 0 0 0 0 0
845 1 28.8994 0.0502426 18.5232 3.05849 0.813168 -0.126725 -2.88535 0.65917 2.29503
846 2 30.1782 0.806266 12.5331 -3.8727 4.32507 5.39971 1.40649 -14.469 -2.80419
847 1 14.658 30.9572 15.0481 -3.09546 -1.7406 -1.07844 -4.17535 -5.5619 2.59345
848 3 12.7095 31.6174 15.8712 6.89325 6.76324 4.96594 0.915041 0.699901 -0.783833
849 2 30.7239 0.242276 3.95981 0 0 0 0 0 0
850 1 31.3273 1.78928 2.09516 0 0 0 0 0 0
851 3 32.4671 0.962875 0.531889 0 0 0 0 0 0
852 1 30.8954 2.09599 5.70241 0 0 0 0 0 0
853 1 32.3411 0.935011 10.7986 -1.30403 -0.598144 1.43217 -7.70548 -16.3999 -8.32324
854 1 29.6157 2.94844 8.27091 -0.790558 -3.04816 -3.99201 7.25188 3.17643 9.31903
855 3 31.0151 1.90432 9.40265 -1.77599 0.278107 -5.92324 6.29104 0.239099 -5.39687
856 3 32.8527 1.3224 7.07472 0 0 0 0 0 0
857 1 31.5745 0.972431 16.8799 2.77627 2.01014 -3.95916 -6.70844 -15.8608 19.8815
858 3 30.8009 2.65675 16.2457 6.96446 -6.12402 5.65787 3.08864 6.56837 -4.64602
859 3 31.0846 3.54481 0.915378 0 0 0 0 0 0
860 1 31.1546 3.69632 10.7765 1.24098 -1.21488 2.47817 -3.65609 18.0748 16.9708
861 1 27.9281 5.45413 8.46402 1.49497 0.667105 3.07202 5.47899 -8.6366 -17.3465
862 3 29.5247 4.61581 9.70501 -2.10235 -1.11801 5.39347 2.1768 4.56636 -4.59827
863 3 31.129 3.65358 7.26012 0 0 0 0 0 0
864 1 29.5663 3.17434 17.5594 -5.69857 -4.14123 -0.986616 -2.86513 3.56945 6.59982
865 2 31.7908 4.98211 12.7876 0.578664 -7.40934 -1.06863 -5.85992 -5.18252 2.73709
866 1 31.5536 3.67843 14.9472 -1.85431 -1.41468 2.88212 -11.7194 -8.96185 -3.46232
867 2 27.9558 5.46779 4.00523 0 0 0 0 0 0
868 1 28.3215 7.19518 2.22584 0 0 0 0 0 0
869 3 29.5832 6.23256 0.895531 0 0 0 0 0 0
870 1 28.1079 6.96551 5.99722 0 0 0 0 0 0
871 1 30.1183 6.32872 10.9361 1.35994 -2.29425 -2.83908 10.4706 -2.51988 15.2099
872 3 29.5542 6.34946 7.34508 0 0 0 0 0 0
873 1 28.2723 5.6824 16.7698 -1.71953 -3.29222 0.73534 -4.82737 -16.3402 16.834
874 3 27.636 7.05525 15.4011 -1.86473 -10.243 2.63819 -8.26281 6.54876 -2.17892
875 2 26.4109 8.07265 4.15001 0 0 0 0 0 0
876 1 26.1691 9.74207 2.13829 0 0 0 0 0 0
877 3 27.7966 8.82473 0.772027 0 0 0 0 0 0
878 1 24.6881 10.7771 8.68003 -2.15811 -0.540671 -1.69535 1.26248 1.33676 3.57234
879 1 26.6278 7.95648 16.943 3.3286 -5.13528 3.27502 -13.613 -7.64598 11.7305
880 1 27.969 9.089 14.8148 0.450217 2.07095 0.485173 1.69545 4.68809 -2.61573
881 3 26.3403 9.82674 15.936 4.63754 2.6546 3.63621 6.39354 5.89281 10.4275
882 2 24.8643 10.6386 4.06908 0 0 0 0 0 0
883 1 25.2585 12.5404 1.97421 0 0 0 0 0 0
884 3 26.5981 11.5085 0.778882 0 0 0 0 0 0
885 1 24.8878 12.3711 5.86699 0 0 0 0 0 0
886 1 26.3497 11.7425 11.1673 -1.77369 -1.15888 1.98116 3.2328 8.34558 -4.5493
887 1 23.2873 13.4391 8.40963 0.197832 -0.178142 3.76387 2.18845 0.354133 11.0143
888 3 24.8046 12.6659 9.74881 0.506254 1.93592 2.05562 -7.08842 -7.74329 3.16766
889 1 24.9493 11.1406 16.9439 4.7506 3.69545 2.03229 -4.54165 -6.13422 -4.82341
890 2 26.587 13.8431 12.7723 -3.43025 -3.46713 -1.46236 10.8173 -3.15017 -6.56466
891 1 26.5631 11.6299 14.5111 -0.863833 2.99921 -0.276742 -1.50085 15.6746 -13.9546
892 2 23.367 13.2132 4.0747 0 0 0 0 0 0
893 1 23.3666 15.2223 2.17112 0 0 0 0 0 0
894 1 23.209 15.2391 5.52553 0 0 0 0 0 0
895 1 24.8482 14.6532 10.8222 0.088864 0.802229 -2.08154 -6.15304 11.5912 -2.00912
896 1 21.4228 16.0513 8.11761 5.42823 0.416353 3.96415 -15.1406 -8.07092 -0.92359
897 3 25.151 13.9711 7.15495 0 0 0 0 0 0
898 1 23.4402 13.769 16.8378 -2.58013 4.51666 -1.63391 -11.9159 -19.871 6.18955
899 2 25.0208 16.4094 12.9406 -2.71397 0.847985 3.46349 -9.58065 -6.56956 -4.56463
900 3 22.473 15.5875 15.9268 6.81259 -2.83726 -5.93263 -10.4499 3.1413 3.08466
901 2 21.5637 15.9125 3.75459 0 0 0 0 0 0
902 1 21.6124 17.6901 2.00183 0 0 0 0 0 0
903 3 23.252 16.9105 0.524327 0 0 0 0 0 0
904 1 21.7561 17.8201 5.35412 0 0 0 0 0 0
905 1 22.8989 17.1345 11.688 1.19558 -0.661277 -1.63786 7.32423 -12.5588 -5.58881
906 1 20.5528 18.8507 8.40249 -2.30906 2.59165 1.92362 -2.29984 13.028 -7.82996
907 3 22.1825 17.4799 9.43277 2.4389 6.5224 -7.47491 -3.89194 -5.34566 13.0275
908 1 21.8063 16.0933 17.8211 2.99642 -1.52309 -2.32426 -12.8512 13.6263 15.8081
909 2 23.3418 19.24 12.8918 -2.08048 -1.13019 1.88211 -2.47417 -6.07396 1.34544
910 1 23.764 17.3404 14.8767 -4.66196 4.73519 0.475272 2.94951 14.7972 -10.2584
911 3 22.0734 17.7896 16.2443 1.16351 -2.98096 -1.30594 5.48549 3.77878 -3.85901
912 2 20.0185 18.7907 3.84652 0 0 0 0 0 0
913 1 20.6629 20.4596 1.97377 0 0 0 0 0 0
914 3 22.0052 19.5286 0.701105 0 0 0 0 0 0
915 1 20.0465 20.5661 5.90389 0 0 0 0 0 0
916 1 18.8786 21.3756 8.28463 -0.967907 0.840816 2.03289 -0.92103 5.76443 -2.58161
917 3 20.5435 20.7032 9.5018 -1.24025 -2.48164 2.07031 2.66511 -0.396709 -4.53233
918 3 21.7427 20.0335 6.96577 0 0 0 0 0 0
919 1 20.6672 18.763 17.2777 -3.32107 -1.00054 -1.19158 5.74125 17.003 -7.79007
920 1 21.6692 19.6821 14.7805 -4.38379 0.686941 -2.32257 7.35544 -4.9455 10.1157
921 3 20.1263 20.4222 15.9449 -2.75746 -4.46933 5.46838 4.36662 2.79652 2.03062
922 2 18.6583 21.4076 3.96957 0 0 0 0 0 0
923 1 18.7945 22.9549 2.01468 0 0 0 0 0 0
924 3 20.2988 22.3709 0.716897 0 0 0 0 0 0
925 1 18.5663 23.3373 5.7419 0 0 0 0 0 0
926 3 20.4322 22.6257 6.91042 0 0 0 0 0 0
927 1 18.7032 21.3254 17.2906 -4.77219 -3.13237 0.34486 14.7897 5.9097 13.6441
928 1 20.2964 22.4914 14.968 -1.63811 -0.523813 -1.85478 -17.4753 12.1683 -3.93047
929 3 18.7291 23.2195 16.113 -2.01505 2.12292 0.536447 -8.16479 2.94306 0.456784
930 2 17.1718 24.0125 3.76092 0 0 0 0 0 0
931 1 16.9989 26.207 1.68022 0 0 0 0 0 0
932 3 18.4865 25.1659 0.445911 0 0 0 0 0 0
933 1 16.7099 26.0706 5.09692 0 0 0 0 0 0
934 1 15.4631 26.84 8.05338 0.791362 1.66896 -0.227983 6.20877 -1.31001 -6.00406
935 1 17.2204 24.3909 17.1791 -5.64817 3.03724 8.11767 2.0799 1.37073 -4.08199
936 2 18.1681 26.1383 12.7194 -2.40003 -2.899 -2.95268 1.92287 9.78208 -11.7444
937 1 18.9298 25.2268 15.094 -3.54825 1.41272 0.535048 -2.63038 -4.04237 16.9235
938 3 16.6862 25.87 15.7151 -0.323524 13.9823 0.741454 2.53838 -4.63989 2.72959
939 2 15.4371 27.4477 3.44826 0 0 0 0 0 0
940 1 16.6501 27.9327 11.096 1.58947 2.04186 -3.55519 -14.6995 -7.50189 8.11329
941 1 14.2169 29.9193 8.08701 -1.86066 -1.77401 0.944166 13.8437 11.267 -4.34573
942 3 15.1792 28.6018 9.50524 2.59696 -4.55747 1.4477 0.212395 7.1295 -0.259887
943 3 16.757 27.9959 7.2737 0 0 0 0 0 0
944 2 16.0693 29.8045 12.931 1.61581 2.40989 -1.96658 4.30722 15.0014 -3.3559
945 1 16.7989 27.4307 14.5871 3.82065 -5.38125 5.16679 -0.564019 2.82643 -2.70512
946 1 13.9217 31.3239 2.13783 0 0 0 0 0 0
947 1 13.765 31.4104 5.42202 0 0 0 0 0 0
948 1 15.3122 30.5559 10.6644 -1.29327 2.29393 1.62711 -15.4424 11.032 -18.2594
949 1 31.3134 0.215061 7.90694 0 0 0 0 0 0
950 3 14.037 31.6635 9.24437 -1.07422 0.180222 -4.01185 -8.84855 3.93648 3.49641
951 3 15.3055 30.4689 6.43629 0 0 0 0 0 0
952 2 33.6514 0.572443 3.7762 0 0 0 0 0 0
953 1 34.2573 2.07473 1.87611 0 0 0 0 0 0
954 1 33.744 2.61573 5.26886 0 0 0 0 0 0
955 1 32.7471 2.85972 8.4435 2.89692 -0.427104 2.85743 17.1464 13.8394 -11.7989
956 3 34.0984 1.74829 9.88571 -1.48609 -5.98491 8.49632 4.36688 -6.56556 -1.67806
957 1 33.6162 3.47384 11.3661 1.00688 1.3751 -0.0740183 -6.84389 -2.75418 -11.5329
958 1 31.0062 5.48941 8.60409 3.13981 3.16451 0.901015 10.3612 1.39251 18.7513
959 3 32.6448 4.65166 9.68928 -4.48702 5.20514 5.66313 2.94708 3.94338 4.97677
960 3 34.2065 3.87992 7.33207 0 0 0 0 0 0
961 1 32.6516 3.44592 17.5023 -2.11132 0.100895 3.93903 -9.02436 -11.6336 -13.228
962 2 -2.4996 5.32017 12.5778 1.17282 0.577987 4.23098 -3.41779 -8.44466 12.258
963 1 31.2483 7.16678 2.15053 0 0 0 0 0 0
964 3 32.6414 6.28262 0.899177 0 0 0 0 0 0
965 1 31.021 7.3002 6.00445 0 0 0 0 0 0
966 1 32.9514 6.32165 11.2346 0.301458 -0.291544 -0.0595572 15.0587 1.46983 3.62316
967 3 31.8355 7.18992 9.83951 -1.9826 1.2277 1.50891 6.4401 4.56731 -5.12484
968 2 -4.55859 8.15322 12.9235 -3.69071 0.5479 -4.0044 -2.56881 -2.72499 12.033
969 1 32.9825 6.26322 14.5657 -5.27169 -3.10603 1.31641 -14.9124 6.47673 3.20902
970 2 29.4748 8.13649 4.23039 0 0 0 0 0 0
971 1 29.0773 10.0126 1.93424 0 0 0 0 0 0
972 3 31.0535 8.8983 0.819899 0 0 0 0 0 0
973 1 30.9947 8.83836 11.0666 -8.20224 0.717768 1.56125 -13.6824 15.0575 -7.84473
974 3 31.0742 8.91225 7.30319 0 0 0 0 0 0
975 2 -5.83151 10.8115 12.6483 -1.14577 2.74674 -1.74833 -5.36545 -13.8829 10.1854
976 1 30.9587 9.12574 14.4776 2.05856 1.02371 0.550511 -11.3164 -1.54071 8.20013
977 3 29.5771 9.94379 15.9904 2.97418 -3.05562 4.12617 3.59487 -4.89903 -1.84643
978 1 29.694 11.8445 11.2233 -1.83492 -1.00152 2.32022 4.46154 -2.82081 9.39888
979 1 26.5544 13.1594 8.48217 -0.494469 1.20026 -0.420337 9.89239 1.62566 3.30024
980 3 28.0646 12.1231 9.6356 5.65476 -1.67747 -2.54028 -3.73156 -10.0834 -3.63278
981 1 27.9628 10.6726 17.3122 1.94084 0.192668 -1.36545 16.8896 16.5066 2.64498
982 2 -7.40755 13.6406 12.9217 5.531 7.42498 -2.30169 -3.83801 2.20173 -2.33082
983 1 29.6284 11.7655 14.6054 3.40962 -3.65881 -1.37316 9.34845 -9.11407 -13.8917
984 2 26.5548 13.1625 4.01552 0 0 0 0 0 0
985 1 26.3247 15.2595 2.18053 0 0 0 0 0 0
986 3 27.9576 14.25 0.769481 0 0 0 0 0 0
987 1 26.5826 15.0376 5.67171 0 0 0 0 0 0
988 1 28.1624 14.2373 10.8187 -0.679939 -2.58549 -0.835714 -18.5287 16.983 11.2961
989 3 28.0531 13.8678 7.07135 0 0 0 0 0 0
990 2 -8.62676 16.3185 12.3708 0.518301 -0.564872 -0.701128 -11.2844 -11.7928 -7.96105
991 3 26.3709 17.0225 0.927972 0 0 0 0 0 0
992 1 26.6638 17.3219 11.1986 -1.00526 0.127291 1.24645 3.56936 -6.0903 -18.3941
993 2 25.9792 19.2483 12.8542 2.77989 5.83669 0.494395 6.34505 12.8006 0.830154
994 1 24.8418 19.491 10.5973 -1.03202 0.592596 3.322 -16.9749 0.828296 6.26414
995 1 21.7432 21.6164 8.01945 0.999862 -2.11608 2.28944 7.32475 11.8307 14.2781
996 1 23.5395 18.984 17.3463 4.5192 -0.660643 1.70088 5.98855 12.697 -13.5973
997 1 24.6787 20.3262 14.8257 -2.47011 0.384976 1.37055 5.83113 15.8963 1.74656
998 3 22.9621 20.6596 15.8264 5.01137 1.74781 -6.66124 4.27365 4.28648 10.323
999 2 21.8182 21.6337 3.88126 0 0 0 0 0 0
1000 1 21.8131 23.151 1.89448 0 0 0 0 0 0
1001 3 23.4331 22.3663 0.870733 0 0 0 0 0 0
1002 1 22.1208 23.3496 5.95497 0 0 0 0 0 0
1003 1 22.8492 22.1079 11.03 -0.066362 -3.67533 0.712999 -3.6167 9.18774 -12.642
1004 3 23.4761 22.3563 7.16539 0 0 0 0 0 0
1005 1 21.811 21.5179 17.2834 2.14319 3.46641 -1.70329 8.67214 -9.99174 11.7433
1006 2 22.7752 23.86 12.9686 -2.60298 -0.523931 -3.6168 10.9671 -8.9982 -2.62453
1007 1 23.491 22.6227 15.2005 -0.0647508 1.4347 -4.78493 6.14953 15.7321 3.23663
1008 3 21.9298 23.3282 16.3225 -1.09781 -2.90206 4.81537 -1.3829 11.1904 4.48367
1009 1 21.5436 25.0588 11.0482 -1.95094 -3.93616 1.73577 -2.86633 14.6392 3.71146
1010 1 18.6807 27.4091 8.47627 0.0619611 -0.0319843 5.51883 17.997 0.367966 18.2435
1011 1 20.3335 24.2967 17.439 0.97677 2.67651 1.52286 11.2785 -17.4751 12.7443
1012 2 21.8767 26.6373 13.0723 -2.40643 1.28929 -1.60514 -12.6787 -9.44373 -4.44161
1013 1 22.2187 25.1796 15.2626 0.767115 -0.436873 0.158769 1.84827 4.90375 1.71033
1014 3 20.5024 26.2718 16.4246 6.01999 -6.84541 -2.62812 -5.98608 2.44803 -1.50374
1015 2 18.3984 27.0759 3.55659 0 0 0 0 0 0
1016 1 18.9004 28.4974 6.01058 0 0 0 0 0 0
1017 1 19.8969 27.746 11.3469 -1.68789 0.999213 -1.42329 -8.2968 -8.29719 -9.47715
1018 1 17.0579 29.4459 8.70542 3.56461 -5.35731 2.81379 -2.16253 14.9222 7.63629
1019 3 18.3755 28.8452 10.1966 -3.36195 -5.28201 -9.43024 1.22809 4.54977 -3.41513
1020 3 20.5479 27.2691 7.11085 0 0 0 0 0 0
1021 2 -16.789 31.288 13.378 0.730661 4.98401 -5.83954 -9.91123 -7.22876 -7.99519
1022 3 17.7275 28.6507 16.4548 1.34282 -1.89561 5.06558 -2.91546 1.5421 6.45793
1023 1 18.1526 30.6005 11.689 1.30051 0.0491213 0.749341 17.6278 -2.71197 -14.3801
1024 1 34.222 0.0187403 8.21438 -1.39556 2.33513 0.91068 13.5425 -11.9935 12.1151
1025 3 19.071 29.7042 7.68477 0 0 0 0 0 0
1026 2 -0.204598 0.3411 13.3194 0.330396 -0.727059 -2.26392 5.62623 7.22094 5.21855
1027 1 18.1408 30.7436 15.0866 -3.30794 -2.87694 -2.69438 -4.21476 -0.625073 4.31619
1028 3 16.5042 31.5506 16.2845 -2.32202 -2.06282 -2.65312 10.649 -4.82923 -8.44108
1029 3 1.53163 0.742246 19.1889 -0.202467 -7.12534 -5.16092 0.717112 1.62884 -0.357782
1030 1 35.8412 2.175 26.6017 -1.33576 1.42512 -0.810172 0.421829 -0.331013 0.517503
1031 3 1.07695 1.03786 25.4501 1.25971 -0.137502 0.117474 0.250265 0.571143 -0.000629571
1032 2 35.0635 3.37872 21.7455 -0.738378 -0.486413 1.00559 -0.0233569 0.201522 -0.000591897
1033 1 -0.823296 4.1384 19.5673 -0.204195 -1.16557 0.217581 0.107382 0.49498 0.160241
1034 3 0.484782 3.80618 18.0144 -4.75162 -1.22609 -0.57904 2.87462 -1.6517 -1.09344
1035 1 -0.853217 4.1017 23.8703 0.0620521 -0.548621 -0.0568949 0.472876 -0.707473 -0.79421
1036 1 0.0332632 3.5635 28.8257 -0.957251 0.175781 -0.924444 0.186811 0.0168957 0.449639
1037 1 34.2821 4.47055 26.0493 -0.401929 -0.890205 0.724981 -0.289825 0.240699 -0.205919
1038 3 -1.6929 3.78825 27.5539 0.171651 0.739356 -0.133462 -0.0200471 0.141522 0.045391
1039 3 -0.236694 3.21445 25.5704 1.53675 0.483769 1.02145 0.124485 -0.00984469 0.12811
1040 2 0.894605 4.52611 31.0849 -0.787555 -1.4862 -0.131376 -0.559986 -0.926242 -0.388986
1041 3 -0.900203 6.23783 18.399 -0.97048 -0.532065 -1.23238 0.567172 0.0781856 -0.351771
1042 3 -1.39905 5.54679 25.0291 -0.573519 -0.342996 -0.731195 0.174726 0.110821 -0.0072329
1043 1 -3.06493 5.46747 34.974 -1.18028 -1.08139 -0.327271 -0.0219606 -0.111985 -0.0993382
1044 1 -1.4437 6.02343 32.1102 0.912565 -0.294764 -0.02464 -0.271753 -0.199122 0.105216
1045 3 -2.99107 6.92198 33.7089 -0.597062 0.168248 -0.220761 -0.0345962 -0.226908 0.0903208
1046 1 -4.97057 10.3858 19.8544 -0.60494 0.554502 -0.309549 -0.0506312 0.433252 -0.437427
1047 1 30.7094 11.3479 26.2963 -0.079936 -0.270224 0.254186 -0.0689614 -0.0565856 0.022118
1048 3 -4.60482 10.231 27.4585 0.292319 -0.459388 0.0518376 0.0795779 -0.153689 -0.219809
1049 1 32.7524 7.82235 35.2241 -1.00089 -0.0280288 0.194697 0.0270901 0.0962546 0.0296745
1050 3 -4.80046 9.70559 34.8639 -0.273881 -0.307748 -0.181172 0.0807873 0.12553 -0.0729345
1051 2 30.811 11.1116 21.8499 -0.455782 -1.21783 0.25659 0.0881563 -0.147949 0.0409454
1052 1 -6.46203 12.9066 19.8028 0.694425 -0.660834 0.805546 0.781841 0.0618174 -0.39022
1053 3 -4.90032 12.2046 18.7033 -6.2479 -1.47135 6.96904 -0.695141 -0.943637 2.1672
1054 1 -5.97058 13.7009 23.0287 -0.149742 0.0439072 -1.30357 -0.132046 0.0154781 -0.52575
1055 1 -4.27985 11.8903 28.4303 0.172802 -0.643138 -1.11578 0.0348007 -0.208287 -0.248184
1056 3 -5.88519 12.7346 27.6476 -0.154603 0.0173286 -0.0724922 0.00363279 -0.0318127 -0.0283458
1057 3 -5.43683 12.4574 24.567 -0.546996 1.08805 -0.0763199 0.0380828 -0.0527359 -0.032645
1058 1 -6.22098 10.7906 35.6982 0.0495665 -0.0124713 -0.262369 -0.0712164 -0.0670475 0.00534027
1059 2 -4.88603 13.1595 30.66 0.714852 1.83853 -0.731934 0.0767403 -0.246587 -0.0333976
1060 3 -6.53717 12.4175 34.5986 -0.0153295 -0.275791 0.265763 -0.0534027 -0.000206777 0.0271472
1061 2 29.1013 13.6377 21.8145 -0.645721 0.286537 0.0170278 0.35611 -0.0692447 -0.0192408
1062 1 -7.66435 15.3526 19.8545 0.788684 1.39584 1.506 0.260722 0.3719 0.242514
1063 3 -6.6951 14.3094 18.1901 -1.72854 -4.48659 4.85364 -1.65612 0.992236 1.72723
1064 1 28.6632 14.6166 24.3346 -0.631969 -0.2714 0.153557 0.164268 -0.0737582 -0.0201512
1065 1 -6.12721 14.5533 28.7698 -0.0436629 -0.0220644 0.393016 -0.0786372 -0.0510652 0.133321
1066 3 -7.66425 15.6019 28.111 -0.041635 -0.467363 -0.611392 0.0414596 0.00388553 -0.0393049
1067 3 -6.55713 14.609 24.7499 0.840729 -3.59648 -1.13387 0.127041 -0.238509 -0.163686
1068 1 29.3019 13.2653 35.4668 -0.455593 -0.287598 -0.438115 0.0427847 0.0700428 0.014022
1069 2 -9.15585 16.134 21.9445 -1.12723 -0.500618 -1.72272 0.210379 0.0920639 0.336384
1070 1 -8.97171 18.2427 20.3451 -2.20046 1.92825 1.15519 -0.63825 0.387842 0.622033
1071 1 -9.00065 17.9497 23.6363 0.0613437 -0.422287 0.864914 0.110782 -0.13366 0.181227
1072 1 -7.63677 17.4604 28.937 -0.0869071 0.0695143 0.232246 0.0570897 -0.08859 0.00880213
1073 3 -9.24773 18.2791 28.0176 -0.276791 0.23788 0.312105 -1.16876 0.254315 -0.525564
1074 3 -8.16465 16.5709 24.9671 0.531467 -0.613708 -0.416338 0.204741 -0.20912 -0.0184254
1075 2 -7.96593 19.2049 30.7664 -0.572491 -2.24507 1.23365 0.192784 0.79977 -0.0857963
1076 2 26.4651 18.7322 22.0227 -0.503303 -0.65501 0.0367406 -0.055142 -0.101784 0.0791
1077 3 -9.06048 19.4895 18.6096 1.7328 -7.2248 1.16045 1.35922 -0.896333 -0.535994
1078 1 -10.3267 20.3576 24.0945 -1.89058 -1.4863 -0.260452 -0.17078 -0.317215 -0.0109916
1079 1 -9.45232 20.0742 28.7175 1.09796 0.703716 -0.205132 0.0762674 -0.000771209 0.0782196
1080 1 -12.128 21.3664 26.3471 -0.780562 -1.92378 -0.767204 0.199822 -0.106936 -0.125764
1081 3 -11.2868 20.2473 27.7829 0.274146 -0.238133 0.208686 -0.102203 0.188624 -0.0961596
1082 3 -8.48072 19.7054 24.7834 -0.156507 0.0818846 0.143232 0.0984534 -0.0451215 0.0219239
1083 2 -9.06125 21.2002 32.0316 -6.76389 -2.21663 -1.66672 0.431484 0.186486 0.536038
1084 1 -11.921 23.0888 23.7698 0.251824 0.26654 0.454168 0.0817759 -0.166377 -0.109951
1085 1 -13.7066 23.8875 25.831 1.06798 -0.464661 -0.424027 -0.0149545 -0.39856 -0.0444014
1086 3 -12.2287 23.1816 27.1758 -0.295665 -0.201931 -0.117007 0.217976 -0.00255698 0.182647
1087 3 -10.4838 22.2967 25.295 0.0727634 1.10323 1.05257 0.0513773 0.0866969 -0.0369291
1088 1 -12.1016 21.3078 35.3774 0.49125 -0.554048 0.035389 0.238436 -0.150505 0.0408411
1089 3 -12.4909 23.0942 34.1562 1.29654 0.578553 -0.619234 -0.223091 -0.0466135 0.155973
1090 2 -13.5202 24.5524 22.0365 0.662136 -0.169417 0.509345 -0.214292 0.381539 0.174972
1091 1 -13.5529 26.3253 20.0665 0.068301 -0.484091 -1.06331 -0.112928 0.481481 0.448416
1092 1 -13.4916 26.0099 24.0603 -0.228081 0.231796 0.910865 -0.250311 0.359037 0.504136
1093 3 -12.0665 24.6906 24.8818 0.278777 0.150495 0.00333974 0.0612019 0.0101426 0.0468969
1094 1 -13.9009 24.2823 35.117 0.93229 -0.0274289 -0.704212 -0.175952 0.0523845 -0.112416
1095 1 -12.0533 24.561 32.7004 1.38206 1.38254 0.506541 -0.346275 0.931351 -0.301522
1096 3 -13.5729 25.5736 33.7616 -3.17143 4.44403 -0.390923 -0.358215 1.28643 -0.091891
1097 2 -14.9203 27.087 22.1322 -5.35318 0.177725 -0.433906 -0.204536 0.303014 -0.121064
1098 1 -15.1753 28.8706 20.1361 -0.386023 0.171123 0.0742909 1.12557 -0.0915733 -1.01845
1099 3 -13.6144 27.9452 18.604 -0.421343 0.126816 -0.311323 0.0378853 0.145349 -0.127166
1100 1 -15.2992 28.4719 24.4795 -2.11216 4.30434 -0.333031 -0.19326 2.03214 0.718394
1101 2 -14.3253 29.3162 31.1556 0.100977 -0.101671 0.193953 -0.00379316 0.15206 -0.0694638
1102 1 -14.3429 27.9848 33.3044 1.66291 0.0695989 0.755305 0.184005 0.448911 0.0804507
1103 3 -15.5023 29.0808 34.6882 -2.5158 0.426012 1.03083 -0.136299 -0.0636188 0.244292
1104 2 -15.7398 29.922 22.3606 0.426653 -0.326118 -0.567187 -0.0530091 -0.0153443 -0.433269
1105 1 -16.4144 31.589 20.2295 0.0868981 -0.195315 0.339792 1.03531 1.51665 -0.507159
1106 1 -14.9234 31.0989 29.5059 -1.56142 -0.640641 -0.649374 -0.381726 -0.677932 0.233226
1107 3 -16.1784 30.6733 27.7824 -0.97663 -0.302827 -0.212664 0.336495 0.0178468 -0.0624473
1108 2 2.36816 0.575381 31.1005 -1.27295 -0.492583 0.456789 -0.457613 -0.18971 0.067889
1109 1 -15.6258 30.7874 32.7661 0.500698 0.717129 0.09785 0.773919 1.26328 0.081678
1110 3 5.2932 0.787312 18.4357 -1.74033 3.159 4.71431 1.40214 0.556816 0.156676
1111 1 4.85731 1.22926 28.3945 0.0811268 0.186434 0.016711 0.116187 0.0681853 -0.186081
1112 1 1.70273 2.87437 25.8646 -0.0329853 -0.14747 0.153339 0.0502024 -0.0872776 -0.103113
1113 3 3.02958 1.91719 27.1679 -0.553242 -0.754942 -2.23003 0.100299 0.010566 0.0698318
1114 3 4.80842 0.784623 24.9802 1.21443 0.055518 -0.0222201 1.309 0.298824 -0.150725
1115 2 4.18393 2.45628 30.5027 -0.310003 0.387098 0.24164 0.180154 0.207953 -0.0610892
1116 1 4.51382 1.14684 32.6334 0.219504 0.187411 -0.402135 -0.106008 0.00239515 0.108304
1117 1 1.85868 4.76305 19.4938 -0.390837 0.365133 -1.03908 -1.14607 -0.155214 0.0246857
1118 3 3.23514 3.41812 18.8683 2.68298 0.693766 -0.938371 0.439016 1.17496 0.345489
1119 1 3.30817 3.58771 28.2995 -0.461412 0.4667 1.85015 0.266733 0.00995305 -0.157878
1120 1 -0.194155 5.25418 26.7133 -0.176892 -0.0919357 0.457584 0.0493523 -0.0477238 0.13648
1121 3 1.57812 4.34557 27.4334 0.270199 -0.233988 -0.575472 0.0223154 0.031773 0.0834304
1122 3 2.95297 3.56796 24.5869 0.0786041 -0.252844 -0.481146 0.00758842 0.152195 0.163202
1123 2 3.2127 4.92592 30.5514 0.615707 -1.03205 0.216354 0.162961 0.106634 -0.0254957
1124 2 -0.0273757 5.46099 21.7101 -4.30494 1.26634 0.799768 0.910526 -0.219079 -0.297139
1125 1 0.109048 7.31557 19.6735 -0.496505 1.33569 0.627242 0.714535 -0.270777 1.27408
1126 3 1.75 6.35071 18.4957 4.08711 1.82471 1.71743 -1.22481 0.397789 0.451826
1127 1 0.131624 6.87836 23.9791 -1.57268 -0.839771 2.47039 0.46866 0.223479 -0.31911
1128 1 1.64889 6.23022 28.957 0.344471 0.139741 0.551027 0.0622698 0.125054 0.00987668
1129 3 -0.015022 7.13276 28.1581 0.00188416 0.116496 0.188955 0.0863099 0.148992 0.018363
1130 3 1.22346 6.64004 25.6685 0.154151 0.54117 0.25566 0.0226681 0.100186 0.0535218
1131 2 2.63884 7.75573 30.7578 1.28103 -1.11231 -0.39057 -0.32828 0.255135 0.0529019
1132 1 1.69986 6.37476 32.415 0.924564 0.316879 -0.504593 0.598568 0.221362 0.0725095
1133 3 0.0382205 7.13769 33.3495 0.295277 0.190009 -0.10242 0.133479 -0.0630203 -0.0230306
1134 2 -1.41879 8.06763 21.5916 0.45073 0.715901 0.490933 0.0666372 0.0493371 0.0660734
1135 1 -1.86707 9.76156 19.7829 -1.15291 0.458786 1.7155 -0.255996 0.591269 0.837679
1136 3 -0.360374 9.17399 18.5739 1.61823 6.06381 6.0558 2.20531 -0.132686 -2.07003
1137 1 -1.46517 7.90794 34.7294 -0.783569 -0.242969 0.693279 0.138125 -0.129372 0.258198
1138 2 -3.19057 10.9049 21.6416 -0.271578 0.566006 -0.303179 0.012946 -0.0632618 0.0567396
1139 1 -3.08227 12.7864 19.758 -0.25536 0.139867 0.748302 -0.560053 0.0515781 0.437279
1140 1 -3.19141 12.5199 24.1355 0.0355446 -0.159512 -0.174545 0.0631086 -0.0384554 -0.0134396
1141 1 -4.84587 13.8295 25.985 0.0833336 0.0920099 0.0443421 -0.000405752 -0.00358488 -0.0189333
1142 3 -3.21375 12.9756 27.0636 -0.10126 -0.734562 -1.09046 0.0180713 -0.105612 -0.125133
1143 1 -3.1536 10.7802 34.8789 -0.252175 0.293795 0.18721 0.0122099 -0.0842596 0.137676
1144 3 -2.97951 14.4304 18.4841 1.48604 1.47586 -2.22453 -0.87055 -0.0535569 0.0728534
1145 1 -3.38006 14.4673 28.3616 0.320444 -0.083021 0.680478 0.0241932 0.0842156 -0.0262863
1146 1 -6.49115 16.3394 26.2079 -0.0936335 0.0688407 -0.111036 0.016647 -0.0230778 0.154643
1147 3 -4.8768 15.4715 27.2609 1.50912 1.27059 -2.95506 -0.0217622 0.00569683 0.0493347
1148 3 -2.96615 14.6149 24.9565 -0.510516 0.501977 0.229547 0.0785501 -0.0648754 0.0918108
1149 1 -4.89656 13.505 34.7016 0.02328 -0.143658 0.194358 -0.0673516 -0.0664528 -0.0867633
1150 3 -4.72596 16.9083 18.4889 -0.780408 -1.04568 -0.0114495 -1.32744 1.54753 -0.168742
1151 1 -4.93542 17.0862 28.5795 -0.598189 0.0457009 -1.45152 -0.0601407 0.0274408 -0.0910099
1152 1 -7.8809 18.7086 26.3355 0.13686 0.037977 -0.0679892 0.109257 0.00732665 0.030972
1153 3 -6.29236 18.2052 27.5072 0.562658 -3.58278 -2.33382 -0.018223 -0.306988 -0.133549
1154 3 -4.92905 17.7609 25.1785 2.53065 -5.36691 -2.42106 -0.293646 1.05076 0.217489
1155 2 -7.06791 18.2197 22.1029 0.255687 -0.058567 0.187897 -0.133906 -0.117928 0.0574818
1156 1 -7.92676 20.8643 19.3657 0.342123 -0.608543 0.0667663 0.671061 0.786682 0.0115623
1157 3 -6.18331 19.8066 18.5114 -2.892 1.65017 -2.37296 -0.42212 0.811008 -0.594442
1158 1 -6.91647 20.1854 23.6822 0.035284 0.661191 0.458242 -0.0313188 0.0742943 -0.245233
1159 1 -6.66432 20.3006 28.2493 -0.0523721 -0.21296 0.45668 0.179472 -0.155269 0.208635
1160 3 -8.3792 20.8276 27.2609 0.0276438 0.0999628 0.0264515 0.0482742 -0.0208078 0.0516262
1161 3 -5.51301 19.0796 25.5135 -4.54076 9.27203 1.10111 0.449796 -0.871181 0.0553911
1162 2 -6.09081 21.0432 30.527 -3.05955 0.37014 0.452646 0.94276 -0.097688 -0.47735
1163 1 -6.77691 19.8459 32.9599 0.301916 0.0820511 0.225858 0.244374 -0.261244 0.0714996
1164 2 -8.84253 20.4573 21.747 0.259865 -1.52735 -0.0714218 -0.013315 -0.00537118 0.0563947
1165 3 -7.80325 22.4826 17.9193 1.77116 -1.23777 -4.90768 -5.95245 2.20109 0.632582
1166 1 -10.8717 24.2869 26.4054 -0.411311 0.706238 -0.329097 0.430015 -0.754467 0.286707
1167 2 -10.7451 24.5611 21.8924 4.36326 -1.03085 0.451873 -0.224974 -0.0835051 -0.0878817
1168 1 -10.4224 26.9376 20.4696 0.0517833 -0.822882 -0.288318 0.0406902 0.236118 -0.290418
1169 1 -10.528 26.2578 23.7405 -0.144727 0.84005 -0.501002 -0.0604057 -0.599102 0.115765
1170 1 -9.21784 25.6635 28.8111 0.1745 0.206838 -0.751721 0.361758 -0.531938 -0.156872
1171 3 -10.89 26.1123 27.645 -1.38288 -1.49667 2.60673 0.0380273 0.017696 0.0786526
1172 1 -11.052 24.0629 35.2512 1.78649 -1.07185 -0.547828 0.181801 -0.0512123 -0.240565
1173 3 -11.0811 25.8964 33.8373 0.342635 0.0418435 -0.168371 -0.09468 0.044248 0.0915428
1174 2 -12.2247 27.2611 22.0613 1.56424 -0.0839757 -0.107056 -0.770479 -0.201634 0.161087
1175 1 -12.1161 29.0268 19.6472 -0.151206 0.262335 0.170536 -0.193163 0.0260277 0.0656373
1176 1 -12.0805 28.7312 24.1332 0.00559679 -0.14307 -0.105794 -0.170822 -0.0766757 -0.192627
1177 1 -10.7527 27.7872 28.977 0.410339 0.338273 0.229808 -0.755691 0.938346 0.140578
1178 3 -10.3112 28.1153 25.016 0.783259 1.4459 0.392417 0.0479903 0.0953108 -0.114152
1179 1 -12.4504 26.6915 34.8477 1.6676 -0.304423 -0.473699 0.0419051 -0.0772728 0.325795
1180 2 -11.175 29.7087 30.4772 -2.14661 -0.748774 0.591469 -0.63218 0.0595142 0.210993
1181 1 -10.8454 27.6086 32.2922 1.01173 2.8381 1.02827 -0.896993 -1.2945 -0.778707
1182 3 -12.2962 28.4395 33.459 0.0812522 0.00242625 -0.00101615 -0.144841 0.133473 0.0533995
1183 2 -13.0925 30.1085 21.7383 0.274388 0.27239 -0.372535 -0.249396 -0.490127 0.0714752
1184 1 -13.5892 31.7778 19.872 -1.3236 0.706193 0.695871 -0.445736 -0.329467 0.599317
1185 1 -13.8191 31.4647 23.7029 0.2874 -0.690294 0.331236 0.769271 -0.020056 0.353685
1186 1 -12.0891 30.634 28.2219 0.262874 -0.38213 0.0677132 0.186833 -0.0662999 0.08493
1187 1 3.1582 0.0476336 26.3183 -0.956593 0.335249 0.282543 0.0378719 -0.53716 -0.00785497
1188 3 -13.7595 31.7008 27.4835 -0.30444 -0.242159 -0.476318 -0.130723 0.0158582 -0.0629057
1189 1 -14.4335 30.5283 35.3525 0.598884 0.316701 0.232731 0.190573 0.101072 -0.0543326
1190 2 -12.8252 32.1823 30.513 -0.0785534 1.71133 -0.856413 -0.136162 0.0437201 0.140764
1191 1 -12.8883 30.634 32.8102 -3.5817 0.855913 -0.191891 0.9642 -0.733543 -0.0266918
1192 3 -14.5842 31.8644 33.9479 0.899424 -0.892937 0.544125 0.949388 -0.0387625 0.0978011
1193 2 6.1133 0.493901 21.8874 0.20186 -0.099335 0.234512 0.0233277 0.0903556 0.0645024
1194 1 5.73058 2.28493 20.0555 -0.419393 0.368512 -0.505489 0.387389 0.254683 1.21667
1195 1 6.64385 1.72201 23.9515 0.195346 -0.214133 -0.124143 -0.252639 -0.0615412 0.178373
1196 1 7.61938 0.859454 28.8671 0.0751058 0.308838 -0.219421 0.0906235 -0.534744 -0.107797
1197 1 4.47003 2.57813 25.8556 -0.603892 -0.0489006 -0.157597 0.0261949 0.232428 0.104227
1198 3 6.46594 2.0805 27.0851 0.167667 0.078941 -0.0275263 0.00538523 -0.0585263 0.0444992
1199 3 8.16621 0.484366 25.0376 -0.165653 0.21352 0.235529 -0.0824184 -0.0231751 0.0899903
1200 2 7.31124 2.81867 30.4087 -2.5219 3.46423 -1.64157 0.425563 -0.593398 0.130708
1201 3 6.72564 3.76972 18.3939 0.0568216 2.22345 0.268309 -0.977432 0.476775 -0.197124
1202 1 2.81676 5.49644 26.1317 0.198647 -0.339546 -0.342562 -0.18266 0.187454 0.2008
1203 1 4.07133 2.64832 34.8866 -0.622753 -0.00832584 0.553381 0.205075 0.00958302 0.111528
1204 1 5.30433 4.08265 32.0953 0.817238 -1.29115 2.92626 -0.0224391 0.385759 -0.735186
1205 3 4.4472 4.33574 33.9107 0.308803 0.950979 0.193528 0.0255326 -0.0923993 0.122629
1206 3 4.76395 6.66023 18.2125 1.32859 0.86502 -1.56201 -0.494306 1.14757 -0.108812
1207 1 1.31451 8.37821 26.7411 -0.144609 -0.0106053 -0.170562 -0.0618203 0.106328 -0.00562906
1208 3 2.8438 7.48896 27.5016 0.305955 -0.0168114 0.0810004 -0.0198525 0.106354 -0.0323883
1209 1 2.71621 5.02799 34.2987 -0.435555 0.245278 0.649261 -0.0240938 -0.00281138 0.144422
1210 3 3.11081 7.04273 33.9833 0.332793 1.30947 -0.629982 -0.0211435 -0.249304 0.132342
1211 2 1.16626 8.18978 22.0738 2.89948 -6.06214 -1.27864 -0.0399624 0.18873 -0.0383585
1212 1 1.04489 10.1461 23.9633 0.535043 0.815101 -0.423682 -0.0285171 -0.0643061 0.0406773
1213 1 3.21399 9.25803 28.899 -0.224508 1.35106 -1.38676 -0.0817842 0.205761 -0.326662
1214 3 1.98472 10.2268 27.7836 0.903431 -1.18148 -0.510685 -0.00311011 0.00330387 -0.0957488
1215 3 2.65037 9.66039 25.3531 0.0488957 0.307085 0.696623 0.0754457 0.0302747 0.0332147
1216 1 1.61178 7.92984 34.8551 -0.168712 0.232186 0.281239 0.0282627 -0.0766998 -0.0529063
1217 2 3.02702 10.6864 31.0784 0.00253713 -0.0632734 0.238142 -0.0643768 0.0611662 0.110812
1218 1 3.66118 8.80542 32.9262 0.501444 -0.936675 0.0308332 0.136787 0.217244 0.0848483
1219 3 2.13565 9.81011 34.2514 -0.189301 0.363033 0.173462 0.0437221 0.00354983 0.0781881
1220 2 -0.316276 10.9762 21.7865 2.01869 -0.757005 -2.41589 -0.223205 0.40819 0.130186
1221 1 -0.128797 13.1754 23.3804 0.864701 2.05177 -0.414318 -0.298758 -0.5365 0.217124
1222 1 1.17663 11.4742 29.118 -0.119972 -0.0526287 0.667495 0.138587 0.0937412 -0.121834
1223 1 -1.50341 13.8352 26.3324 -0.132494 0.29741 -0.268042 0.0585781 -0.0740956 0.231236
1224 3 -0.574326 12.042 27.4421 0.0247451 0.0119272 -0.0851575 0.0211193 -0.119102 0.0195308
1225 3 1.21412 12.1386 25.0623 0.352439 -0.780785 1.16905 -0.0436226 0.0637998 -0.134643
1226 1 0.312092 10.6605 35.4694 0.115349 0.140568 -0.292695 -0.0269722 -0.0863063 0.0099041
1227 2 1.44454 13.5837 30.7689 -1.46141 -1.21455 -0.113357 0.0939195 -0.117935 -0.169108
1228 1 1.21164 11.0798 32.9858 0.0425823 2.06731 0.634103 0.051522 0.190904 0.164704
1229 3 0.0686752 12.4891 34.3501 -4.22069 -3.40767 0.725338 0.311554 -0.324634 -0.162508
1230 3 -0.027419 13.4785 18.8581 0.352549 1.99761 -4.08115 -0.413066 -0.15865 1.03335
1231 1 -0.311193 13.9826 28.8332 -0.154189 0.273007 0.516243 0.104203 -0.0550467 0.0160204
1232 1 -3.22466 16.4743 26.3544 -0.292626 0.0771678 -0.0136332 0.0712045 0.00439909 0.0308407
1233 3 -1.6146 15.4189 27.656 -0.5105 -0.599258 -0.816484 -0.256892 -0.0203315 0.196879
1234 3 0.544409 14.0812 25.6809 0.49254 -0.461692 0.0511103 -0.0522211 0.0952239 0.0572877
1235 1 -1.42797 13.5093 35.3809 0.162153 -0.347855 -0.0816259 0.0125113 0.0141082 -0.174598
1236 2 -0.678799 15.5515 31.0389 -1.86886 -2.20172 0.738201 0.31078 -0.365883 -0.0792931
1237 1 0.00938799 14.2404 33.0251 -0.427818 -1.13508 0.191969 0.114664 0.0157878 0.0187498
1238 3 -2.17418 14.802 33.7583 -0.308626 -0.0584594 1.13669 0.0679257 0.0746588 -0.0570555
1239 3 -2.11307 17.9655 18.5214 -6.35963 4.65116 -2.02725 -3.00301 0.748592 -1.39009
1240 1 -2.06112 16.768 29.3974 -0.572588 0.544505 0.109526 -0.175368 -0.0658105 0.356045
1241 3 -3.31171 17.9053 28.235 -0.277991 0.00717381 -0.192893 0.0706098 0.0784291 -0.0316191
1242 3 -1.48758 17.0201 25.4349 0.767111 0.42063 -0.309755 0.490216 0.512547 0.042921
1243 1 -2.82293 16.2406 35.1953 -0.288637 -1.08254 -0.00975352 -0.247843 0.100119 0.0886977
1244 2 -1.85872 18.9144 30.9124 -1.10888 -0.201785 -0.363833 -0.318607 0.450548 -0.075313
1245 3 -3.10646 17.9397 34.0995 0.782718 -1.13022 -0.749514 0.287483 -0.126745 -0.480298
1246 1 -4.89053 20.9823 19.6108 -1.57152 0.619085 -1.89495 0.54266 0.894311 -0.0249026
1247 1 -3.80016 19.7044 29.5155 -0.396189 -0.280097 -0.77234 -0.355642 -0.540155 -0.233801
1248 1 -4.60596 18.6044 35.1273 0.182594 -1.25225 -0.626543 -0.792921 0.860549 0.891616
1249 2 -3.71521 22.0303 30.6865 -2.85066 -3.78846 0.621646 -0.120824 -0.59992 -0.0432155
1250 1 -3.29138 19.6268 32.769 1.33896 0.776518 1.21781 -0.144961 0.211665 0.174059
1251 3 -4.72233 20.4756 34.0424 0.685118 -0.478446 -0.552335 -0.0187391 0.23182 0.0658459
1252 2 -6.59475 21.8356 21.6237 -1.08377 0.355541 -0.424814 0.143367 -0.137766 -0.219203
1253 1 -6.44752 23.425 19.7402 -0.811643 1.47737 -0.967562 -0.599975 0.526721 -1.31792
1254 3 -4.62575 22.6256 18.4496 -1.92267 2.8206 -2.20775 -0.780646 -0.401688 -0.146337
1255 1 -4.89237 22.6127 28.4259 0.612031 -0.521279 1.24619 0.414479 -0.322046 0.626171
1256 3 -6.3907 23.3007 26.9462 -0.442145 -0.110526 0.8408 0.191377 -0.0865343 0.095342
1257 1 -5.88568 21.7064 35.2698 -0.816264 -0.392745 -1.00148 -0.00950939 -0.105834 0.530995
1258 2 -5.52531 24.0357 30.5594 0.0709609 -0.331537 0.315482 0.362605 -0.304119 0.114303
1259 1 -5.35862 22.2509 32.5899 1.14834 -0.653126 0.286582 0.89918 0.42753 0.794604
1260 3 -5.71194 23.5444 34.0764 -0.0801046 0.121657 -0.20989 -0.00535272 -0.0258815 0.0304337
1261 2 -8.01141 24.3555 21.6162 3.39775 -1.5123 1.52564 -0.183026 0.0708238 -0.0627397
1262 1 -8.28418 25.6979 19.2976 -0.476827 -0.278267 -0.256754 0.0130569 0.0654716 0.00424246
1263 3 -6.39632 25.2835 18.8621 -3.94073 -2.33438 1.5682 -0.133499 -1.73802 1.52337
1264 1 -6.73228 24.8621 28.1587 0.761282 -0.128768 -0.0372194 0.109033 -0.0971268 -0.0752662
1265 1 -9.60505 27.0199 26.537 -0.200871 -0.623259 -0.418579 0.0309863 -0.0658169 0.0470856
1266 3 -7.8626 26.5146 27.4311 0.0705059 0.499504 1.67729 0.131556 0.0165025 0.0935459
1267 1 -7.65173 23.7134 34.7139 0.61619 0.314148 -0.0319336 0.0936156 0.18031 0.0562446
1268 1 -5.77223 25.238 32.7307 -0.826384 0.278798 -0.539072 -0.239786 -0.160936 -0.349663
1269 3 -7.73174 25.4089 33.5053 0.144606 1.52605 0.484043 -0.147974 0.0888587 -0.0198522
1270 2 -8.63404 26.8213 22.2657 0.0839454 -1.22521 -1.10842 -0.0632095 -0.00923747 -0.00317472
1271 1 -8.27869 28.584 20.5718 0.381965 1.42372 -1.16184 -0.556049 -0.0238964 0.19415
1272 3 -7.19071 27.5646 19.0213 3.72888 2.03118 2.37656 0.0712175 0.850434 0.143289
1273 1 -8.90124 29.0537 23.8973 -0.0662499 -0.264658 0.413216 0.0131669 0.0668576 -0.081895
1274 1 -7.81623 28.0996 28.4734 -0.17106 0.1228 0.322142 -0.0244496 0.107829 0.137375
1275 1 -10.3448 29.7613 26.1566 0.123443 -0.0608403 0.172936 0.242734 -0.100349 0.0791562
1276 3 -9.55588 28.6824 27.6652 -0.0787919 -0.176434 0.000560927 0.19451 -0.00622079 -0.11811
1277 1 -9.3228 26.6435 34.6982 0.192127 0.0573648 0.443231 0.0859078 0.0594822 -0.0261311
1278 3 -9.49902 28.4268 33.7123 -0.421322 0.0464718 0.590084 -0.0947213 0.0533508 -0.0537895
1279 2 -10.4116 29.4126 21.7496 0.207626 -0.0325587 0.0432705 0.00627194 0.15557 -0.0491267
1280 1 -10.9704 31.2771 23.5674 -0.0648177 0.190389 0.239882 0.10725 0.131501 -0.0127414
1281 1 -9.1523 30.4398 28.6369 0.161595 -0.725496 -0.164177 -0.257859 0.456581 -0.0270931
1282 1 6.41867 0.402861 26.2466 -0.529143 0.0997069 -0.367099 -0.274387 0.0899055 -0.235483
1283 3 -9.12517 30.772 25.2634 0.00742127 -0.105602 0.0321509 0.050682 0.0296534 -0.0434252
1284 1 -11.1373 29.2969 34.7906 -0.243362 1.02406 0.144587 0.110967 0.353006 0.266106
1285 2 8.84061 0.324945 21.5435 0.195845 -0.170947 -0.272462 -0.0644041 0.0660124 -0.052969
1286 1 9.10707 2.16758 19.7579 -0.126368 -0.138213 -0.270414 0.0962501 -0.0442986 -0.235928
1287 3 10.599 0.945561 18.0742 -0.954679 -0.110104 0.633168 0.000137922 -0.33475 -0.154026
1288 1 9.36221 1.73794 23.8218 -0.18064 0.109158 0.262008 0.168629 -0.0933905 -0.0304195
1289 1 11.0386 0.886898 28.0078 -1.04382 1.3264 -0.314483 0.0141786 0.0382784 0.119263
1290 2 11.0602 2.50061 30.113 -2.22751 -3.36906 0.0511879 -0.0952517 0.0314715 0.065953
1291 2 7.71999 2.79676 21.8115 0.132213 -0.182538 0.00691323 0.0915408 -0.0428654 0.034565
1292 1 6.94025 4.75387 20.3428 -0.120616 -0.401906 0.672054 -0.246645 -0.208943 -0.225843
1293 1 7.9818 4.47 23.6863 -0.556828 -0.119937 0.326526 0.0818077 0.0687967 -0.0827468
1294 1 9.30237 3.69487 28.801 0.139125 0.624743 -0.245997 -0.112497 -0.200726 0.171942
1295 3 9.55096 3.80956 24.7547 0.290651 0.246635 -0.139504 -0.0170078 -0.0835281 0.101151
1296 2 9.38031 5.14205 30.7313 -0.337638 -0.0904741 0.427412 0.125083 0.0130087 0.0187681
1297 1 9.32854 3.10876 32.0863 0.0650805 -0.290694 0.699178 -0.0114967 0.0217002 -0.022117
1298 3 7.47283 4.18375 33.2845 0.13592 -0.62535 0.635574 -0.0896853 0.217662 -0.161644
1299 1 6.03166 7.12161 19.3917 -1.22334 -0.199792 -0.0985798 0.636653 1.01977 -0.269053
1300 3 7.45617 6.06408 18.6583 -5.25164 -0.21791 2.4951 -0.628255 0.884925 1.4956
1301 1 4.21122 8.50358 26.3506 -0.146906 -0.439996 -1.62061 -0.0194992 0.106448 -0.0885258
1302 1 6.05461 5.22168 34.625 -0.110271 -0.601164 0.883918 -0.00730474 0.0172042 -0.00889249
1303 3 6.50059 8.95276 18.2036 0.368551 0.306165 -3.53999 -0.0275851 1.38629 1.0107
1304 1 4.43156 10.1104 24.216 1.35408 -1.23335 0.3182 -0.286812 0.171272 0.0880989
1305 1 6.18278 9.25218 28.9288 0.936859 0.152396 0.305414 0.0446768 -0.0312561 -0.0571639
1306 1 2.95067 11.2823 26.3472 -0.0136109 -1.00523 -0.606978 -0.0468645 0.358896 -0.0856003
1307 3 4.57697 10.0021 27.5171 0.0520508 -0.0216424 0.166224 -0.0230758 0.0708328 -0.0509711
1308 3 5.31206 11.4886 17.9616 -1.3675 -4.84163 -2.45005 -7.27739 -8.84562 9.62531
1309 3 4.55551 11.8536 25.084 -0.414575 0.767184 1.52228 -0.103545 0.0697076 0.0879268
1310 1 3.35957 10.9772 35.3095 0.0188651 0.137473 -0.515966 -0.180154 0.266525 0.208033
1311 2 5.04302 12.9225 30.1884 0.0456144 -1.37777 -1.64942 -0.470026 0.11978 0.917351
1312 1 5.72194 10.8023 31.3683 0.170367 0.658124 0.998804 -0.426977 0.539568 0.209954
1313 3 2.58061 12.0839 33.9638 0.285125 0.0325151 -0.569217 0.188489 0.123904 0.211197
1314 1 1.00329 14.8763 19.5568 -1.82741 -2.19022 1.70801 -0.139358 0.80572 1.54272
1315 3 2.79503 14.1603 18.4296 2.99943 -2.46812 5.21939 1.53033 -1.14779 -0.0989042
1316 1 1.47609 14.8946 23.9734 -0.155813 -0.46845 0.131621 0.088748 0.0498124 0.21944
1317 1 3.07064 13.8951 28.4253 1.00649 -2.37709 0.0634173 -0.680962 0.928588 -0.233313
1318 1 0.131659 16.1645 26.5399 0.12248 0.502113 -0.174246 0.370842 0.277083 -0.0363687
1319 3 1.09689 14.7803 27.847 0.161492 -0.252095 -0.0201355 0.036273 -0.0156939 -0.211494
1320 1 1.48852 13.3861 35.0858 0.40686 -1.04975 1.61848 0.0509578 -0.34818 0.465947
1321 2 3.67068 15.2426 30.8116 1.7834 3.21295 2.62059 -1.32577 -0.308313 -0.711764
1322 1 3.39879 12.8972 32.3099 -0.0259118 -1.38038 1.26527 -0.186137 -0.269408 0.616329
1323 2 0.232673 15.4914 21.8891 -0.434596 0.9858 1.0684 0.0275642 0.00788698 -0.0329629
1324 1 -0.972376 16.9159 20.1048 0.579669 -1.00195 -1.22793 -0.654421 -0.555987 -0.684963
1325 3 0.803708 16.4638 18.2698 3.07472 2.24421 -1.31871 -0.950585 -0.462221 1.21584
1326 1 -0.653018 17.1887 23.4429 -0.554501 2.99792 -1.3605 -0.172419 0.372949 -0.366883
1327 1 1.29884 15.9344 29.6884 -0.746329 0.0712941 -0.0469817 -0.176626 0.839192 -0.0576383
1328 3 1.07829 16.6413 24.7274 0.465327 0.822884 -0.436089 -0.297029 0.0900944 0.326803
1329 2 0.224783 17.9244 31.5473 -2.15973 -1.4227 0.344821 0.418136 1.59209 -0.0289147
1330 2 -2.53492 18.2469 21.7328 -0.121701 -0.257978 0.101353 -0.147675 -0.093328 -0.0358771
1331 1 -2.091 19.6653 19.5978 -1.47193 -0.909768 2.32032 -0.657015 -0.937928 0.191468
1332 1 -2.47889 19.917 23.7358 2.18997 -1.67764 0.316745 0.580411 0.0517287 -0.26157
1333 1 -1.78105 18.6377 35.5252 -2.33601 -2.45098 -1.72018 -0.700703 -0.0502857 -0.315355
1334 2 -1.28788 22.0836 30.5149 -0.0289864 0.721254 0.196919 0.296742 0.545597 0.982624
1335 1 -0.259764 20.5022 32.266 -0.328304 -0.34761 -0.604132 -1.23056 -0.47385 0.0259225
1336 3 -1.84693 20.5427 34.0315 -2.93775 2.06058 0.702448 -0.326049 -0.435861 -0.508762
1337 2 -3.84459 20.7813 21.8014 -1.60079 1.63642 0.628488 -0.168899 0.189989 0.486368
1338 1 -3.78621 23.0348 23.6948 -0.47983 1.64807 -0.293144 -0.0513419 -0.168042 0.0112841
1339 1 -5.18742 24.6814 25.9097 -0.315839 0.112314 0.333785 0.00572656 0.0715443 0.0403018
1340 1 -3.12397 20.9526 35.7337 0.10599 0.334817 0.232161 -0.128542 0.073038 -0.239012
1341 2 -2.35658 24.5929 30.7315 -0.31736 -0.851298 0.771682 -0.368051 -0.228245 0.304639
1342 1 -2.39412 22.4174 32.8632 1.08279 0.506828 -0.371946 -0.773066 -0.0850267 -0.878065
1343 2 -5.42183 24.356 22.2111 -0.496915 0.557613 0.127143 -1.00434 0.123159 0.147773
1344 1 -4.1884 26.2818 23.3004 2.06353 -1.73388 -0.818489 0.548613 -0.378551 0.192632
1345 1 -4.06813 25.3805 28.993 -0.957074 -0.840874 0.461715 -0.329035 -0.353058 -0.207192
1346 1 -6.34536 27.2652 26.2436 0.267113 0.654811 0.986984 0.10999 0.0206752 0.0364667
1347 3 -4.94371 26.2198 27.2974 -0.350763 0.443926 -0.775127 -0.0822657 0.10362 0.232232
1348 3 -3.42407 25.1153 24.8843 -0.254011 -1.49517 -0.618274 0.0877553 -0.124795 -0.0274039
1349 1 -5.82043 28.9515 19.6309 0.196055 -0.353578 0.228861 1.14886 -0.123037 -0.103027
1350 3 -4.39182 28.2619 18.2399 0.757936 -1.02553 -1.69518 0.0296884 0.291518 -0.141436
1351 1 -4.49583 28.2355 28.3952 0.440802 -0.592496 0.803324 0.0362531 -0.116023 0.203728
1352 3 -6.12484 28.795 27.5169 -0.287284 0.321191 -0.538796 -0.0572165 0.201468 -0.352092
1353 3 -4.58106 27.6463 25.0405 -1.20904 0.833971 0.260231 0.0972642 -0.267454 0.0952083
1354 1 -6.48887 26.7541 34.6403 0.0940527 -0.0171989 -0.0240989 0.0438338 0.00896082 -0.126127
1355 3 -6.41236 28.7777 33.4121 0.577554 -0.604271 0.194998 0.133774 -0.071955 0.117552
1356 1 -8.19627 31.7306 19.5972 0.352036 -1.97354 -1.5614 0.542535 0.0178483 0.633587
1357 3 -6.79646 30.7452 18.6078 0.997195 2.36658 2.24064 0.0370594 0.635509 0.381186
1358 1 -6.25929 30.7087 28.1665 0.610816 -0.183063 -0.898377 0.152515 0.0425776 0.0281408
1359 3 -7.99238 31.2969 27.1141 -0.0876892 0.0514213 0.00761398 0.0163624 0.0456633 0.0688457
1360 1 -7.75816 29.4587 34.6235 -0.32769 -0.248583 -0.405509 0.226574 0.142996 -0.227073
1361 2 -5.73664 32.1958 30.1728 0.129815 -1.60673 -0.156877 -0.122288 0.173643 0.0623692
1362 1 -6.51377 30.8689 32.1893 -0.385414 -0.471989 0.0525838 0.0553129 -0.173027 0.0129971
1363 1 12.1816 1.80784 19.1182 0.325756 0.0157501 2.09446 0.0292288 -0.1373 -0.744308
1364 3 13.7682 0.856506 18.0153 -0.50076 -4.54024 -6.80435 -2.39611 -1.21382 0.0459619
1365 1 10.4841 3.03278 26.2695 0.335591 0.785864 -0.44425 0.0467819 -0.0396898 0.0437741
1366 3 12.0265 1.70738 26.3166 -0.390004 0.513262 0.0577399 -0.175377 0.225613 0.0519815
1367 1 12.6096 0.261735 34.5922 -0.0858478 0.0404904 0.149371 -0.0837882 -0.0803127 -0.0686007
1368 1 14.15 1.05859 32.3022 -0.91388 0.46733 1.15767 0.144953 0.0242812 -0.0996194
1369 3 13.8173 1.87046 34.1136 -4.2765 1.15699 -0.00835074 0.473372 -0.335827 0.513173
1370 1 11.0813 4.71489 24.0229 1.97236 -0.275113 -2.46513 -0.0965893 0.0347824 0.0735547
1371 1 9.39209 5.82627 26.2547 -0.991066 -0.730506 -1.06508 0.0930933 -0.0746196 0.0773059
1372 3 10.5187 4.80607 27.4641 0.902332 0.599246 -0.153322 0.127225 0.248001 0.118165
1373 3 12.387 3.88087 25.67 0.274479 -0.17902 -0.3342 -0.0789125 0.0772511 0.130465
1374 1 12.9574 3.63942 33.9381 -0.152576 0.121731 0.0322938 -0.142053 0.0431499 0.0273778
1375 2 12.716 5.16036 30.666 -0.3957 -0.707937 0.756223 0.183943 0.272301 -0.092465
1376 3 10.7476 3.63173 33.6161 -0.119928 0.172615 0.973299 -0.0530647 0.100471 -0.0413911
1377 2 9.35378 5.43354 21.8235 0.430323 -0.272903 0.307316 -0.127781 0.238676 0.0119192
1378 1 9.07539 7.01521 20.0709 -0.231209 2.17629 -0.00415238 0.513926 -0.745786 -0.345084
1379 1 9.7608 7.23265 23.4781 0.22023 -0.433367 0.59342 0.0849829 0.205111 0.115894
1380 1 11.0531 6.13846 29.1255 -1.15858 -0.210835 1.0818 0.200939 0.408745 -0.25094
1381 3 10.3991 7.50697 27.7037 -0.381944 -0.93855 0.77311 -0.226303 0.310294 -0.382889
1382 3 11.0071 6.38151 25.0738 0.299069 -0.41869 0.427627 0.0237527 0.0784587 0.146926
1383 1 9.21346 5.04656 34.4245 -0.129823 0.0127558 -0.676193 0.127939 -0.107303 0.777715
1384 2 11.7055 8.11588 30.5779 0.884314 -0.977979 -0.249134 0.205452 0.0378519 0.0325865
1385 1 11.0784 5.89084 32.441 0.43893 0.794473 0.391668 0.152048 -0.0561802 -0.0581413
1386 3 9.51643 7.01974 33.631 0.391231 -1.13086 2.45397 0.0426087 -0.0733765 -0.414294
1387 2 8.26061 8.52357 21.7868 -0.551906 0.304023 1.70188 -0.0753053 -0.112729 0.364714
1388 1 7.84022 9.72933 19.4607 0.450643 -1.03856 -1.42965 -0.756472 -0.00302439 0.103526
1389 3 9.44323 8.37008 18.8204 -0.260088 0.500614 -2.12927 0.655255 -0.111273 0.185698
1390 1 7.54112 9.67812 23.8516 -0.352923 0.531587 -0.132675 0.262279 -0.336802 -0.339243
1391 1 9.22669 8.41063 29.404 0.245129 -0.0685736 -0.490444 0.452889 0.241789 -0.673852
1392 1 6.21073 10.9272 26.5457 0.227371 -0.454839 0.34016 -0.156454 0.0856994 -0.0560515
1393 3 7.91739 9.53518 27.7971 -0.798141 0.558424 0.670982 -0.287258 -0.361708 0.00393297
1394 3 9.28795 8.78456 24.7772 -1.13785 0.924151 0.259739 -0.147533 0.544689 -0.0706667
1395 1 7.69097 7.83368 34.7664 -2.89939 0.279932 -0.830823 0.0544604 0.283348 0.171078
1396 2 10.1166 10.6774 30.9284 1.11071 -0.831527 0.299635 0.535426 -0.86725 0.233575
1397 1 9.3105 8.98009 32.7324 0.479972 -0.281348 0.390329 0.0266593 0.0841147 0.140982
1398 3 8.1296 9.83136 34.1598 -0.408908 0.680133 0.182206 -0.274775 0.11243 -0.191896
1399 2 6.93075 10.9532 21.575 1.2257 0.725872 -0.475396 -0.608727 -0.589092 -0.260338
1400 1 6.86685 12.4004 19.2778 1.42384 1.77296 0.288285 -0.518996 -0.616532 0.726659
1401 3 8.18867 11.6539 18.043 0.891527 -3.20884 -3.85591 0.378957 1.30882 0.887558
1402 1 6.26484 12.3449 23.7264 0.648516 -0.261148 0.743124 -0.526943 -0.435731 0.0831031
1403 1 8.65582 11.0025 28.7575 -0.394073 0.152716 0.393464 0.375984 -0.0452707 -0.546912
1404 3 7.6686 11.5476 25.0408 -0.237427 0.563167 0.222462 -0.137674 -0.390229 -0.136565
1405 1 6.15962 10.1892 34.7068 -0.641514 -0.470962 -0.127163 -0.102211 0.111861 -0.141782
1406 2 8.23242 12.3281 30.6836 -1.07841 0.787325 0.466861 -0.436498 0.644949 0.59966
1407 1 8.10125 11.1681 32.7366 -0.676303 1.31985 1.52229 0.514088 0.150485 -0.0593809
1408 3 6.37605 11.321 33.0935 -0.460784 0.104615 0.233973 -0.122284 -0.321991 0.0888951
1409 1 4.20011 14.8225 19.8234 -0.726515 -0.920664 0.135724 0.542014 -1.22286 -0.373534
1410 3 5.85183 14.2592 18.6531 -1.11217 -1.14676 1.95538 0.700212 -0.540935 0.569628
1411 2 6.30033 15.2416 31.184 4.32525 -1.63703 -0.58328 -1.52262 -0.522361 -1.20199
1412 1 5.71914 12.9341 33.6694 0.586618 -0.962345 -3.50153 -0.73753 0.135647 -0.93267
1413 2 3.37204 15.6032 22.1415 -4.32889 -4.50153 -4.29865 -1.33761 -1.11183 2.41249
1414 1 1.83865 17.4291 19.4747 -2.26421 3.21516 2.31945 -0.552478 1.66595 -0.570709
1415 3 3.76971 16.7542 18.6071 1.07014 -0.271881 -2.03087 0.402473 -0.122176 0.161549
1416 1 2.53683 17.8138 23.7831 -4.54645 2.63656 0.117833 -3.06604 1.28661 -2.93287
1417 2 2.94933 17.5361 31.2997 1.03578 2.03927 -6.26554 0.51923 -0.433219 -0.129772
1418 1 3.14386 15.191 33.3058 0.623485 2.79939 -0.302268 1.1506 0.317361 -0.282242
1419 2 0.260422 18.7143 21.1031 -0.130708 1.52129 0.917926 -0.208485 -0.145435 0.0291596
1420 1 0.203145 19.8579 23.362 5.54951 4.78416 1.01967 -4.28787 -0.60366 -1.88338
1421 3 1.66484 19.3777 24.6135 -4.24259 -0.163421 -2.72001 1.74869 1.35357 0.359903
1422 2 1.82742 19.8169 31.0386 -0.598987 1.03804 -0.310342 0.146982 -0.896331 2.00629
1423 1 1.62833 18.2945 33.6163 -0.0014957 -1.46102 0.506295 -0.480523 -0.776835 -1.04244
1424 3 0.816949 20.5431 34.1042 -0.314613 0.486247 0.158007 0.0261011 -0.0497705 -0.102542
1425 2 -1.39312 21.0227 21.4554 -1.29951 0.155878 -0.678921 0.967176 0.424577 0.305198
1426 1 -0.690292 22.7667 19.3654 1.78184 -0.269009 -0.912295 0.475836 0.73377 -1.21912
1427 3 0.920461 21.8851 18.1273 7.26828 -2.63344 4.71253 -2.50798 -0.730724 0.845475
1428 1 -0.72605 22.6826 23.4447 -5.98373 1.93724 -1.07676 1.69971 -1.72371 -0.584585
1429 1 0.212608 22.1273 28.5555 -4.83289 4.10434 0.737231 -2.49769 0.0165669 4.07274
1430 1 -0.809279 21.964 35.2021 -0.969162 2.11269 -0.37208 -0.097601 0.328808 -0.0197376
1431 2 0.117412 24.2869 29.9065 0.865745 0.810642 0.161999 -0.821005 1.3658 0.808714
1432 1 -0.214344 23.5842 32.1823 0.968669 -2.83262 -0.492849 -0.470788 0.520673 0.91828
1433 3 -1.22715 23.7626 33.8517 -0.775067 -0.144014 -0.799321 -0.157894 0.00900102 0.0744264
1434 2 -2.34322 23.5132 21.5362 -0.956972 -2.3931 -0.318741 1.06408 -0.393102 -0.190107
1435 1 -1.99075 25.1074 23.4598 2.58151 0.479454 -2.04993 0.493813 1.2873 0.393239
1436 1 -3.14393 27 26.2242 -0.43258 0.733762 -1.03962 -0.147896 -0.230918 -0.685081
1437 1 -1.97599 25.7025 32.972 -0.400694 -0.038077 1.81739 -0.330804 -0.268093 0.873918
1438 2 -4.04184 27.9974 21.4873 2.36975 -1.38737 -0.616742 -0.260824 0.389121 0.0646035
1439 1 -2.9916 28.453 23.9203 0.770773 -0.106205 -0.104696 -0.281866 -0.187325 0.00969122
1440 1 -5.00611 29.6761 25.8237 0.429197 0.0358178 -0.0153584 0.519807 -0.180403 -0.0599744
1441 3 -3.48046 29.0836 26.8122 -0.404777 -2.22051 -1.14391 0.0883199 0.0282703 -0.0878731
1442 3 -1.32629 28.1323 25.0562 0.415293 -2.56384 -2.79658 1.26103 0.621788 1.01064
1443 3 -3.1089 29.2986 33.672 0.185732 -0.244937 -0.0492398 0.0258353 0.0550955 -0.0363359
1444 1 -4.9248 31.6268 19.3397 -0.137564 0.422542 0.0756982 0.256124 0.903586 -0.104158
1445 3 -3.59119 30.8945 18.082 -5.45706 3.06322 2.20649 0.215999 -1.51199 0.133957
1446 1 -2.69015 30.4389 28.1548 0.207682 -0.284164 0.539146 0.159761 -0.0277359 0.0160508
1447 3 -4.42494 30.9998 27.3417 -0.40998 0.0479074 0.38075 0.0665103 -0.154897 0.157047
1448 3 -3.42826 30.4925 24.5123 -0.0346778 0.566583 0.588449 0.104956 -0.154173 0.0211764
1449 1 -4.8413 29.6161 34.5574 0.28287 0.219468 -0.471628 0.138177 0.0189732 0.0267865
1450 2 -2.91977 32.1302 30.368 -1.69213 0.445266 -0.0809462 0.0793695 0.0383408 -0.0846286
1451 1 -3.23913 30.8794 32.4838 -0.361368 0.320793 0.49369 0.162404 0.0255263 0.00960513
1452 3 -4.99367 31.4454 33.2737 -0.166831 0.0460297 0.358876 -0.0269089 -0.127104 0.0343487
1453 2 15.2349 0.373861 21.5165 0.103074 -0.0606989 -0.401283 -0.209561 -0.182929 -0.17314
1454 1 15.4246 1.93587 19.5909 -0.288403 0.506195 -1.09957 0.682507 -1.00919 0.650615
1455 3 16.9936 1.11335 18.575 -1.57517 -1.04646 0.827904 -0.179996 -1.52965 0.297525
1456 1 15.7745 2.15486 23.7865 -0.0980092 0.0719601 -0.310691 0.202796 -0.250133 0.212852
1457 1 17.0873 0.871268 28.3975 -0.277904 0.0805406 1.01692 -0.466586 -0.3494 -1.19318
1458 3 16.4326 0.623747 24.666 0.476851 0.606951 -0.27525 0.0833443 0.0961115 0.0502185
1459 1 16.9646 0.943484 32.5029 -0.42623 -0.452466 -0.518878 -0.093379 -0.108854 -0.109341
1460 2 13.6099 2.50636 22.766 0.0754264 0.0918986 -0.333965 0.130379 0.0511162 0.0393123
1461 3 15.5424 3.71177 18.5762 -0.976421 -0.936608 0.496487 -1.53266 0.0124761 -0.343727
1462 1 13.9376 4.59729 24.2905 -0.115201 1.04031 -0.238106 -0.0881039 -0.018743 -0.0518068
1463 1 12.2917 5.60015 26.5616 0.845219 -1.45531 1.63709 0.0676821 0.0955986 0.231532
1464 3 15.6292 3.84099 25.1515 -0.0601156 0.644337 1.66527 0.156556 -0.0170238 0.230744
1465 2 12.586 4.8798 22.0482 0.434135 -0.0351137 -0.819382 -0.0283907 0.0632165 0.157106
1466 1 12.592 7.34805 23.7589 0.329623 -0.0843675 -0.600912 -0.393816 -0.101614 0.0324591
1467 3 13.8324 6.54329 25.4169 -1.3235 -0.340115 -0.371746 -0.0443276 0.0338362 -0.193479
1468 2 14.2805 7.78422 30.1258 1.31689 -0.0202895 0.877489 0.710765 0.109408 0.327816
1469 1 13.6157 6.76281 32.4093 1.28147 0.568386 1.54116 0.223112 0.621832 0.144595
1470 3 12.4469 7.05895 34.0722 -0.56926 0.442425 -0.106448 0.0293743 0.138518 -0.156393
1471 2 11.1781 8.17596 21.5364 -0.272791 -0.355237 0.0546422 0.00107931 -0.0978704 0.293962
1472 1 10.8045 9.81787 19.4899 1.02655 0.141562 0.712692 0.290961 -0.26114 -0.830477
1473 1 10.8233 9.71058 23.7742 -0.576459 1.22193 0.398082 -0.456294 0.340311 -0.189747
1474 1 8.95514 10.3103 26.0777 -0.0712069 -0.499666 0.036195 -0.293085 -0.478794 0.581204
1475 3 12.5766 9.29242 24.484 -0.332137 -0.0193448 0.179893 -0.104509 -0.089916 -0.028523
1476 1 10.6547 7.53847 35.0744 -0.203446 0.569522 0.149466 0.0673985 -0.218987 0.053488
1477 1 12.1346 8.75928 33.0174 -1.09317 -0.0184899 -0.667402 -0.301432 0.364003 -0.00128163
1478 3 10.6697 9.34572 34.2357 1.77928 -0.677222 -1.48987 0.196248 0.15861 -0.200584
1479 3 10.33 11.532 18.1945 1.17255 -0.31253 -0.89332 -0.418152 0.213758 0.625713
1480 1 9.50112 12.0403 23.9094 0.123429 0.720087 -0.0443263 -1.07208 -0.433319 0.232576
1481 1 8.16219 13.1476 26.2113 0.531601 -0.565809 0.4916 -1.08555 -0.560463 -1.29495
1482 3 9.36773 12.0025 27.1429 2.22268 -2.6581 0.482801 0.329818 -0.843225 -0.0366633
1483 3 10.8567 10.679 25.5931 1.34592 -3.68953 -1.36219 0.561895 0.157006 1.49699
1484 1 9.43878 10.304 35.5423 -0.875867 0.943164 -0.360043 0.0278449 0.397204 -0.0606657
1485 2 8.18696 12.9542 21.5459 0.52343 -0.484291 -1.4293 0.320364 0.846793 0.114265
1486 1 7.44382 14.8617 19.8632 -6.04347 -2.14257 -1.75924 0.690926 -0.611105 -0.695936
1487 1 7.88599 14.6575 23.279 -0.721467 -2.77045 -0.482625 0.663281 0.0650575 -0.682383
1488 1 9.37823 13.5141 28.5056 -1.33976 1.10973 1.54379 -0.498234 -0.335458 0.693261
1489 3 9.68731 13.7468 24.8535 -4.94934 1.45589 3.01536 0.0411865 -0.0457322 -0.531845
1490 2 9.02303 14.835 31.1436 -0.515839 1.96271 -0.131753 1.30775 -0.0179269 0.992413
1491 2 6.19195 16.0681 21.644 4.40648 -8.905 -0.358835 -1.35566 0.707448 0.480374
1492 1 4.15066 17.6857 20.725 2.19986 -0.171466 -2.45145 4.85688 -1.51353 -0.261147
1493 3 11.794 18.0889 15.1875 4.9287 -3.06132 12.4464 0.814893 1.38548 2.29542
1494 1 8.8657 16.8812 22.0184 7.83707 6.42888 -3.30638 1.23775 -2.57561 -1.06129
1495 2 7.80916 25.6856 26.2139 -9.77743 2.8729 19.9782 -6.08303 -8.65562 2.55609
1496 1 7.7956 15.4026 33.2683 -5.40375 4.45182 -3.5739 0.859917 1.46248 3.75173
1497 3 3.7785 15.9147 35.0895 1.25874 2.81125 0.619832 0.376954 0.961487 0.135929
1498 2 3.93021 20.1238 20.8906 -4.41444 -8.6974 0.312411 -4.38217 -6.13751 -1.31015
1499 1 1.18918 21.0321 21.3168 0.888806 3.32933 -0.883653 -2.33426 -1.67627 -2.50181
1500 1 14.9122 22.874 16.7167 4.74479 -17.3985 14.173 0.649441 -1.33751 5.41353
1501 1 2.50536 21.268 24.4502 -14.0522 1.16346 -30.7656 -6.63759 -14.0401 -6.95766
1502 3 14.2594 18.83 26.1612 5.56057 7.77128 -14.4399 -5.49976 -4.16004 -6.76283
1503 3 5.28023 19.7085 19.5117 23.2041 -13.049 -7.86967 -0.154179 1.89859 -0.619304
1504 2 4.54113 17.4193 25.673 3.78135 -2.97915 -0.539911 -1.71978 1.1284 -0.465306
1505 1 3.45577 16.9546 28.4205 -0.613799 5.17641 3.86628 0.177655 -0.232411 0.469599
1506 1 6.56462 29.2103 28.2551 -2.58034 -16.2654 9.84602 -0.802338 0.58123 -1.4481
1507 1 -0.082196 24.4405 26.2109 6.45727 4.82403 0.381814 -1.40062 1.07559 -0.4764
1508 3 1.21194 24.0359 28.2774 -0.757068 -0.887664 0.281521 -0.413796 0.263079 -0.798607
1509 3 1.09159 21.8155 23.1868 4.11217 -5.65554 -3.1234 -1.50762 -3.6435 -0.385353
1510 2 0.475505 25.1243 20.8148 -1.06721 -5.04565 7.88514 -2.75804 -2.32392 1.48233
1511 1 1.66572 25.9469 18.677 3.38332 7.53509 -3.33783 3.57256 3.56232 -3.72799
1512 3 3.38156 27.2577 18.3457 -12.2818 -7.10216 -1.7764 -2.02878 -2.05344 -1.32887
1513 1 0.0560051 27.0536 23.9305 0.522714 1.41603 -0.126856 -0.317569 0.378767 -0.570243
1514 1 1.65416 22.5112 26.742 -4.65669 3.10576 -1.0558 -0.171196 -0.798763 -4.86487
1515 3 0.679996 26.0569 25.4291 -6.33952 -2.31574 -1.36788 1.41444 -0.936767 0.634611
1516 1 0.103221 25.0225 34.8176 -1.13302 0.301619 -0.506421 1.26242 -0.628053 0.0526517
1517 2 1.29918 27.6096 30.3223 -1.98746 1.30811 -2.96481 -1.47173 -0.400561 -1.48632
1518 1 1.14841 25.6161 32.023 -0.179117 0.931312 -0.127553 -0.0533373 0.455962 0.563825
1519 3 0.0259348 26.7241 33.387 1.47808 0.604091 8.16309 0.366911 -0.721488 -0.487618
1520 2 0.341329 27.8092 21.4327 -1.86989 2.54336 2.94524 -1.16493 0.193021 -0.692773
1521 1 0.271844 29.0155 19.0348 -2.00455 -0.350522 2.11032 0.490026 -0.567838 -0.469391
1522 1 -0.723701 29.4019 23.0063 -0.09583 -1.12088 0.0763409 0.366396 0.378131 -1.08947
1523 1 -1.78365 30.0283 25.7159 1.48304 -0.243597 2.16041 0.563373 0.199194 0.0409014
1524 3 1.17645 28.547 23.0968 -1.23072 5.58677 -0.197356 1.49809 -0.163799 0.585611
1525 1 0.696874 28.6653 32.4078 -0.241547 1.08919 -2.3837 -0.88674 0.814392 0.935906
1526 3 -0.378625 29.7769 33.313 0.226816 1.66637 2.19391 1.21211 1.17988 0.553758
1527 2 -1.78485 28.6887 20.5514 3.06467 -1.0479 0.168454 -1.49012 0.225638 0.348542
1528 1 -1.97822 31.2777 19.6945 -0.167873 1.00759 -0.368604 -1.08959 0.0132555 -0.6409
1529 3 -0.336239 30.9463 18.5195 0.161569 -0.0366368 0.589777 0.089103 -0.0657379 0.0185371
1530 1 -2.03437 31.6122 23.3151 -0.0275343 0.114649 -1.46355 -0.412885 0.232866 -0.376343
1531 1 -3.6649 32.2091 25.927 -0.442397 0.0258955 0.484775 0.0602309 -0.195777 -0.398063
1532 3 -1.887 31.824 26.791 -0.201108 0.0497925 -0.870709 -0.352201 0.509206 0.0704337
1533 3 -0.544486 31.1692 24.4569 0.172081 -0.503518 -0.205406 0.0449317 0.261406 0.322113
1534 2 -0.343062 32.1128 30.1929 -1.90491 0.721808 1.20602 -0.0599172 0.165337 -0.26644
1535 1 0.0318124 31.3832 32.473 -0.296404 0.70562 -0.140651 0.214115 0.280925 -0.103069
1536 3 -1.73582 31.439 33.4531 -0.673972 0.543768 1.25873 0.0546978 -0.189029 -0.0711317
1537 1 16.9344 3.74221 26.5283 1.03776 -0.966425 -0.638786 -0.12747 -0.439559 -0.16863
1538 3 18.1288 2.39754 27.0488 2.30707 0.61684 0.0547956 0.0796626 0.0149848 0.389481
1539 3 19.8524 1.47867 24.4031 -2.11011 0.997532 0.45385 -0.552979 0.590337 -0.574326
1540 2 18.2558 2.36504 30.6069 -0.0803204 -0.0635786 0.0241938 -0.039488 -0.189164 0.0644131
1541 1 19.625 1.75128 32.9372 0.903832 -1.36025 0.608457 0.31285 0.0912919 -0.0648729
1542 3 18.0408 2.31914 34.0056 1.17642 -0.480842 1.58237 -0.504969 0.145187 -0.767391
1543 2 16.6832 3.0013 21.672 0.159941 0.20894 0.11218 0.0190008 0.309253 0.0385698
1544 1 16.638 5.00478 19.9917 -1.65737 -0.261271 0.227838 0.705416 0.994348 0.95428
1545 1 17.0302 4.7795 23.7142 -0.214086 -0.404812 0.736606 -0.231785 0.0681841 0.384573
1546 1 18.5604 3.84125 28.5832 -0.336652 0.406701 0.12259 -0.193937 -0.258974 -0.0706688
1547 1 15.6407 6.032 26.3231 0.295438 -0.605356 -0.0850684 0.169875 0.0702494 0.0954731
1548 3 16.2935 4.83429 28.0557 -2.09027 1.41606 3.15206 -0.095567 0.317605 0.171169
1549 3 18.4148 4.61715 25.1984 0.167499 0.492835 -1.44876 0.119413 -0.258977 0.451502
1550 2 18.9551 5.54073 30.6059 0.237713 0.54544 -0.140025 0.124839 0.106529 -0.0479758
1551 1 17.6706 3.86565 32.66 0.721417 0.23492 -0.632702 -0.0491831 -0.301403 0.22655
1552 3 16.3536 5.06599 33.6872 0.938785 -1.04967 1.47598 0.160331 -0.210451 0.149847
1553 2 15.3018 5.71903 22.0285 0.0381952 0.0445054 0.296866 -0.335685 0.0953319 0.0633326
1554 3 16.594 6.66235 18.6742 -1.52592 -2.25079 -1.82901 -0.371118 -0.709474 -0.912773
1555 1 15.3244 7.55065 23.9827 -0.0979723 -3.18263 0.300188 0.445797 0.0512 0.0697142
1556 1 17.3403 6.3298 28.8822 0.789208 -1.48009 -0.256659 -0.302903 0.401482 0.0536695
1557 3 16.9091 7.60129 27.142 0.211298 -0.0958758 0.0880002 0.0434097 0.0345528 0.0322487
1558 3 16.9768 6.62977 24.9414 0.576688 0.820054 -0.0150411 0.0264044 0.0222852 0.00120635
1559 2 17.3242 8.31149 30.3927 -7.01722 -1.29365 1.19427 0.0762479 0.0878977 0.0654012
1560 1 17.0686 6.44139 32.1985 -1.40877 0.106184 -0.787794 0.540566 0.266044 0.231512
1561 3 15.4612 7.02107 33.6541 -0.305221 -1.10456 -0.192161 0.0399675 0.105684 0.00762629
1562 2 14.4327 8.48696 21.715 0.577008 0.339676 0.411607 -0.00423505 0.0184427 0.0734436
1563 1 13.3805 10.0815 19.9993 -0.514111 0.84008 0.276558 1.17789 -0.123782 0.809155
1564 1 13.7515 10.4287 23.3116 0.282428 0.220638 3.46699 -0.234217 -0.036784 0.365986
1565 1 15.8874 8.6803 28.3023 -1.95208 -1.23199 -0.333203 -0.161015 -0.0696056 0.125564
1566 3 15.0146 9.62132 24.6606 -0.0724939 -0.837581 -0.942489 0.022969 -0.0999829 -0.022248
1567 1 14.1518 7.67144 35.209 0.491962 1.17628 -0.527244 0.0977402 0.101834 -0.157312
1568 2 15.5378 10.4063 30.426 -1.97475 2.85762 -0.4093 -0.0172568 0.0183137 0.0155414
1569 1 15.5364 8.80871 32.5585 -0.559618 -1.85489 0.242479 -0.823037 -0.78935 -0.161592
1570 3 13.8694 9.63419 33.8765 -0.0379962 0.454481 0.0902238 0.0932566 0.249238 0.457602
1571 3 13.9445 10.8917 18.1549 1.12536 2.54751 -3.09985 1.48676 -2.50553 0.3427
1572 1 11.153 12.615 26.308 0.771502 1.14536 0.0309261 -0.595999 -0.651512 0.179114
1573 1 12.1274 10.9318 34.4315 -2.01032 -1.05118 0.779352 0.044146 0.588091 -2.58693
1574 1 14.34 11.3579 32.5829 0.875369 0.432406 -0.636756 0.129091 -0.791834 -0.680072
1575 3 12.9782 13.6577 18.5325 3.07542 -2.31592 -2.48073 1.30466 0.0571797 -0.112294
1576 1 11.8043 14.0555 24.0552 -0.947408 -1.32274 -0.451943 -0.156193 0.584776 -0.170724
1577 1 12.5013 13.2779 29.404 -0.907084 -0.689365 -0.750897 -0.344964 -0.398511 -0.741452
1578 3 11.2428 14.1845 27.6799 -0.884637 -1.06197 1.8421 -0.0452349 0.108368 0.198537
1579 3 12.9159 13.0173 25.3529 -3.76177 -1.37376 -0.816684 -0.575013 -0.229491 -0.156024
1580 2 12.5018 14.1356 31.6163 -2.61121 -0.367099 0.136315 -0.134265 2.16485 2.93072
1581 2 9.69279 14.7352 20.873 -2.33168 2.2375 1.42809 -0.222533 -0.660859 1.04616
1582 1 10.208 15.998 18.7843 4.87682 -1.81101 -6.61229 -0.0176974 -0.379975 -4.10706
1583 1 11.0198 23.5481 18.9863 1.60155 -5.63658 4.08589 1.51521 -0.378645 3.1829
1584 3 11.7318 15.8383 24.8744 -2.92676 1.26809 -3.68364 -1.28645 -0.852609 -2.42229
1585 2 4.95491 15.4015 26.7967 -3.48825 -1.23225 0.159854 1.87931 -0.623097 -2.50684
1586 1 10.4701 13.1948 32.4665 -0.150193 3.41617 -0.768972 -0.424177 -3.07917 1.42153
1587 3 5.94573 19.493 21.8669 37.7867 7.46457 15.8282 -0.21869 -2.76367 -0.885054
1588 2 10.8432 16.8635 16.4489 -2.96508 -11.6527 -0.476507 0.0618683 -1.02714 1.18898
1589 1 10.5735 17.2419 13.8454 -1.97203 8.51899 2.94626 2.33461 0.923947 1.01862
1590 1 6.47441 23.6305 19.8977 6.62405 -6.78872 -3.46122 -3.76052 2.38615 2.14389
1591 1 1.67577 23.7805 22.4543 2.63199 0.834847 -1.18589 -0.938429 2.7045 -0.750422
1592 1 5.63058 14.905 35.4194 -2.03465 0.982421 -2.12988 -1.14888 -0.64529 0.588053
1593 2 8.55272 17.8438 18.2417 -1.09484 -10.5352 -0.911104 0.232343 1.25916 -4.9494
1594 1 9.86302 15.3932 25.8935 -0.338914 0.570374 2.88467 -0.598402 -0.8155 0.0837429
1595 3 3.29185 19.2704 32.2977 -0.199697 -4.61413 7.60956 -2.04253 -1.64691 2.93813
1596 2 6.45809 22.2838 15.555 1.2776 -1.64749 -8.39763 1.78796 0.184714 -0.719558
1597 1 2.0007 29.5321 21.4094 2.6553 -1.74372 2.17986 1.24774 -1.55619 0.121627
1598 1 4.80586 30.6664 22.248 -1.55367 -5.83177 -5.6853 0.343161 -1.96369 0.321704
1599 1 2.28614 25.2059 24.6937 -2.98904 -3.84376 2.46364 1.26744 2.62529 0.559303
1600 3 2.48724 25.4022 20.8327 -5.7427 -1.63815 6.85609 -1.17891 -3.19922 0.3555
1601 3 5.22749 24.8029 20.6704 -2.38224 -0.422887 9.77682 -2.81172 0.20045 -3.40261
1602 1 3.69178 19.0622 40.9278 -1.26376 -4.06465 2.54491 2.73347 -1.24296 4.09178
1603 1 5.15824 26.4233 18.2241 3.81645 1.38628 1.69043 3.97982 0.552466 -2.21118
1604 3 4.92538 25.7263 16.4095 -17.3615 -21.9831 6.71874 -1.35384 3.11372 2.22573
1605 1 3.34961 27.7641 23.0569 3.88783 1.34571 11.7311 2.44328 -3.66186 7.57318
1606 1 0.284452 27.5714 26.6226 -0.907957 -1.55334 0.0391503 0.0712751 2.72621 -0.225208
1607 3 1.64781 27.2253 28.399 -8.69748 -2.53278 0.553622 -2.00368 -1.52248 -1.02546
1608 2 10.869 27.1713 17.3046 1.1165 -6.17129 -7.76912 -4.50951 1.1257 -5.38317
1609 1 2.95786 29.1794 18.4332 -0.813246 5.4997 -0.666892 -2.07405 -1.96406 -0.885779
1610 3 6.56265 27.8428 18.0603 0.586423 -6.95757 17.0573 -0.68293 1.87537 1.25582
1611 1 2.44135 29.1014 28.8472 -12.9603 -2.0752 -2.25331 -2.73174 1.90502 1.22125
1612 3 1.79358 29.0117 26.9392 -0.00324914 2.66112 6.1959 -2.29121 -0.0519057 0.598989
1613 1 1.43972 27.464 34.7988 2.86407 -0.928765 -1.02312 1.35618 0.713784 0.986185
1614 2 3.19811 31.2794 30.0627 -0.878447 -2.16974 -0.275598 -1.03932 0.928448 -0.71796
1615 1 3.38083 27.3404 26.6221 4.4361 18.2026 -7.71264 0.0425719 6.09365 1.28172
1616 3 2.31629 29.1674 33.6559 1.55553 -1.82596 -1.71426 0.601069 0.770855 -0.864035
1617 3 4.53873 30.2748 18.3045 -3.58864 3.69552 0.373858 -2.01117 0.649723 -0.48618
1618 1 18.136 0.726343 25.6501 -0.360925 -0.175244 0.17815 -1.13383 2.08138 -0.235485
1619 3 1.63151 31.1895 24.9277 -0.00666053 1.60763 -1.22755 -1.48097 1.49055 0.578407
1620 1 1.07066 30.3898 34.7348 0.926746 -1.01415 0.63826 -0.404603 -0.947192 -0.936098
1621 1 2.66632 31.0771 32.5101 -1.03632 -0.171082 -2.12483 -0.627219 0.660911 -0.0952948
1622 3 1.51496 32.1269 33.6332 0.0524951 -1.24797 1.91252 -0.272146 0.587348 0.0689678
1623 2 2.2263 31.9271 21.2001 -1.99791 0.130467 -2.72443 0.726209 -0.775847 -0.677852
1624 3 21.9127 1.15856 17.6176 -1.96891 3.27168 -9.82706 2.93844 -4.84693 -0.442496
1625 1 21.6438 2.74474 23.9661 -0.149083 2.30881 -1.41862 0.36125 0.0711586 -0.175171
1626 1 19.679 3.14969 25.6932 0.396306 -1.21454 -0.691925 -0.320596 0.552192 0.118864
1627 3 22.7355 1.90192 25.3085 -0.987214 0.126283 0.116848 0.326358 -0.549758 -0.0406464
1628 1 20.3966 0.747422 35.4351 1.62183 0.616137 0.277046 0.000527398 0.0667223 -0.0597689
1629 3 20.9433 2.31536 34.1982 -0.0491613 0.197373 0.396336 -0.591031 0.222653 1.13905
1630 3 21.9634 3.81296 18.8718 1.72177 0.865618 -0.255812 0.485034 -0.421878 0.646695
1631 1 19.8722 5.08232 23.8408 0.470477 -1.15985 0.755783 0.0659265 -0.470655 0.190347
1632 3 21.5433 4.4099 25.107 -0.0705537 0.480199 -0.0747758 -0.10515 0.0787059 -0.109872
1633 1 19.7036 3.50598 35.1194 -1.4363 -0.288249 0.36485 0.356198 -0.58383 0.028905
1634 2 21.5424 5.07392 30.8702 -0.247178 0.264117 0.23131 -0.0195991 0.0284669 0.105584
1635 1 21.5474 4.41738 33.4042 0.39955 -0.827581 1.17131 -0.0870479 -0.359484 0.820047
1636 3 19.3442 4.71049 33.6734 -1.71532 -0.439701 0.0515457 -0.151018 -0.0764842 0.0310344
1637 2 18.5524 5.93369 21.8045 0.0987007 -0.385399 -0.295297 -0.464208 -0.78918 -0.108312
1638 1 18.8823 7.02183 19.3491 0.0942512 -1.09368 -2.8997 -0.717448 0.690136 0.0533516
1639 3 19.4723 5.1726 18.5887 -4.29433 -0.636432 0.374538 1.16812 0.732792 -0.419527
1640 1 18.5323 7.59237 23.9505 -0.110952 0.279492 0.145778 -0.0491896 0.121237 0.063378
1641 1 18.2335 5.98036 34.7038 -0.141861 0.165392 -0.0406204 -0.0171467 0.0295382 0.355714
1642 2 20.971 7.27093 29.7737 -1.04796 -0.375338 -0.660447 0.068139 -0.180333 0.105232
1643 1 20.1932 6.36335 32.5703 -0.305831 0.358271 -0.0106191 -0.457679 0.160238 0.0841822
1644 2 18.6764 8.60383 21.5845 -0.659338 0.192419 0.565551 0.076429 -0.313527 -0.0966549
1645 1 16.648 9.9564 23.1326 0.363742 0.809829 -0.46833 0.0417776 -0.0504747 0.13407
1646 1 15.5428 11.2774 25.791 -0.654338 0.302634 0.231464 0.0791979 -0.103589 -0.0900061
1647 3 16.5867 10.129 26.8375 0.0397697 -1.20543 -0.919612 0.059903 -0.0663197 -0.0250827
1648 1 16.8259 8.04178 35.0314 0.465177 0.677966 1.13981 -0.0129775 0.179664 -0.0243433
1649 2 18.4498 11.2343 30.5589 1.23674 -0.312432 0.352871 -0.577619 -0.335135 -0.552794
1650 3 16.7464 9.78814 33.961 -1.52549 -1.64848 -1.03428 0.443431 0.797397 0.241604
1651 2 15.2411 11.0514 21.314 -0.00646143 -0.471417 0.113297 0.245572 0.148873 0.116347
1652 1 15.9891 12.8437 23.054 -0.815588 0.464831 0.134851 -0.270817 0.349594 0.328728
1653 1 16.9235 11.3444 28.4187 0.00804372 -0.734557 -0.529648 -0.308134 -1.3845 0.631902
1654 3 15.3637 12.3127 27.5411 -0.459964 -1.20303 0.704943 -0.258402 0.18046 -0.125296
1655 3 17.1941 11.7732 24.5025 -0.117712 -0.205367 -0.511013 0.0127112 0.0373029 0.0224659
1656 1 15.2804 10.5492 35.1789 -0.0692986 -0.168349 -0.240177 -1.00421 -0.158189 0.750481
1657 2 16.7033 13.1637 30.5182 0.462846 3.36724 0.898775 0.340608 -0.236234 0.169506
1658 1 17.0286 11.2865 32.607 1.05782 1.56394 -1.10305 0.308513 0.874933 -0.78582
1659 3 15.7872 12.2433 34.009 -0.58581 -1.0975 0.763384 0.277625 1.57027 0.668491
1660 1 14.2588 14.4528 19.8557 0.766156 2.43054 -0.271008 0.63845 0.280799 0.656863
1661 3 15.7018 13.6408 18.6617 -7.19474 -4.54506 -2.34398 0.169141 -0.678226 0.563575
1662 1 16.3556 13.8328 28.0704 -1.03043 -1.49536 0.0157613 -0.381372 -0.639863 0.459615
1663 1 13.0579 14.6502 26.3607 -3.71982 -1.22333 -1.19854 -0.318586 1.56275 -0.0187191
1664 3 14.3409 14.4338 28.0307 -0.607641 3.15071 0.327812 1.39148 -1.34947 0.895774
1665 1 14.5002 13.3671 35.1709 -1.13984 0.346615 0.577017 2.32805 -0.785046 -0.444848
1666 2 16.8743 16.2902 31.1506 -0.0417543 1.05571 -0.113342 0.346062 0.84947 0.420966
1667 1 16.3622 14.0638 32.92 0.143833 -2.02202 -0.138574 -0.372666 -1.28901 -0.823643
1668 3 14.6901 15.0734 33.8917 3.30694 1.24941 0.75106 -0.65887 0.585983 0.0283453
1669 2 12.2632 14.741 21.8483 -1.6062 -3.45948 -1.29704 -0.73411 1.40064 0.26986
1670 1 13.07 16.8416 20.5709 -2.82177 -0.0452793 2.46573 -1.41037 -0.292991 -0.107465
1671 3 14.4123 16.2605 19.0173 -1.00038 0.838974 -4.41307 0.119783 -0.160421 0.705993
1672 1 8.30811 31.0334 26.1487 -1.7868 -10.8344 -3.92814 9.86328 -6.37502 -0.0267707
1673 1 14.8892 15.9519 29.3642 -1.97985 -1.4139 -0.57802 0.362556 -1.35415 -1.57428
1674 3 14.6055 15.4702 24.9518 -5.8949 -0.784687 -1.59366 1.0721 1.04005 -0.596603
1675 1 13.2417 15.8547 35.6896 2.4521 0.14946 3.9181 0.3775 0.484943 0.0416152
1676 2 6.65929 16.8506 24.0962 -2.59455 0.46022 -3.16629 -1.04699 0.632451 -4.75293
1677 1 14.8207 17.0037 32.6999 2.0251 -2.68045 -2.31409 0.149552 -2.75503 -2.94371
1678 3 11.0479 15.0522 30.6217 1.70619 1.7306 2.05543 1.96077 0.460848 0.0569679
1679 1 9.54515 21.8242 15.4664 2.72767 -6.72686 0.004759 1.98248 1.79936 2.17857
1680 2 10.557 18.2638 19.6514 10.9296 -11.7136 12.6997 -5.371 -1.98093 3.19597
1681 3 8.54491 18.8132 19.9828 5.01678 -6.53703 12.2166 5.11076 -4.72377 5.47834
1682 2 10.322 19.3257 15.6032 13.9975 12.158 0.888549 1.96779 1.68427 -0.766616
1683 1 9.00724 19.2992 13.5237 5.96445 2.7571 -0.370678 0.55513 -0.678585 -1.06686
1684 3 7.2203 19.2161 15.263 18.0795 6.69702 -0.617166 0.466542 3.8567 6.00244
1685 1 6.07241 27.6548 21.4958 9.75552 7.31209 2.4339 -3.19713 0.687806 0.871035
1686 1 12.0679 25.8467 15.3763 8.75331 0.167163 -1.08653 1.77677 -2.69991 0.98553
1687 1 15.2394 19.2798 24.2251 15.9645 -3.48365 8.89268 -2.09671 3.29507 -3.36971
1688 3 7.98485 28.222 22.8777 6.72013 -10.0391 26.5732 6.53118 -6.0236 -2.51164
1689 1 14.1756 20.3832 15.9833 6.40126 0.693671 7.98332 -1.45108 -0.820173 -3.88359
1690 2 29.7019 0.427305 26.5058 -1.73767 -0.688514 5.15771 -0.470403 -2.84498 1.25989
1691 2 3.56101 23.572 20.5012 -11.0941 9.69595 -11.6646 1.20741 5.11055 0.203586
1692 1 6.38471 24.7652 15.6369 1.35135 -0.308901 -6.20537 1.80359 0.596952 -1.25103
1693 1 5.62506 24.8735 22.3906 -8.843 -4.31871 8.88004 5.28757 4.91621 0.193651
1694 3 3.9218 28.762 21.6101 -3.55412 11.067 11.6406 3.3375 -1.16796 -0.33467
1695 3 9.15739 27.3033 22.2626 -3.98892 33.8908 22.0371 -5.71544 4.61117 -0.0673674
1696 2 14.0795 25.1993 26.0336 -8.11266 4.27449 19.2269 -1.05128 2.62225 5.21667
1697 1 6.30144 29.7969 18.4181 0.154598 1.73075 13.1959 2.63152 -0.752852 4.36102
1698 1 7.28895 32.2412 28.7455 2.60362 4.24096 -2.21117 -1.41689 1.82135 2.67393
1699 1 2.73656 30.0261 25.7053 -4.31993 1.82857 4.67044 7.23012 -3.03403 -2.88666
1700 3 11.909 29.1898 20.5937 -13.0009 4.53737 -6.24054 -2.35398 1.74868 1.71266
1701 2 22.729 0.543565 31.5187 -0.178381 0.925314 -0.910782 0.582538 -0.650504 0.314597
1702 2 25.5628 0.396721 18.7073 0.281028 0.186817 -2.35722 0.319609 0.3499 1.84446
1703 1 4.07388 32.1174 19.0204 0.87021 0.855083 1.33083 0.242501 0.380349 0.972129
1704 3 6.83142 31.2884 17.17 7.73284 -0.953805 -5.07687 -0.482772 -0.803683 1.16426
1705 1 2.67894 32.1019 23.5601 -2.85573 1.15999 -0.180734 -0.630669 0.541348 -0.525458
1706 1 4.74935 31.3975 28.1223 -0.146255 -1.93166 -1.94991 -0.643481 -0.490626 0.805482
1707 1 20.9971 0.538248 26.1284 -0.794919 2.83691 -0.672119 0.271398 0.843723 0.461388
1708 3 4.1365 31.316 26.4244 11.6594 -1.35095 0.075141 -2.84699 3.47843 0.47938
1709 3 3.88283 28.7646 24.9503 -6.86688 24.1664 -2.14218 -3.5163 -3.70784 1.03591
1710 1 3.99459 31.2782 35.5782 3.72635 -0.546285 1.14224 0.954513 -0.689886 1.56709
1711 2 23.0738 0.471502 21.3446 0.0111573 -1.02916 -1.36843 -0.00968657 0.668807 -0.699301
1712 1 24.7713 2.41305 23.8379 0.788168 -1.44108 -0.200516 0.0313135 1.56775 0.153826
1713 1 22.8242 3.46733 26.366 1.55315 1.16273 -0.616502 0.634452 -0.353366 -0.265104
1714 3 25.7767 0.915771 24.6309 -1.79608 0.282257 2.09237 -0.962936 0.364331 0.475461
1715 1 24.9429 1.24763 35.8341 -1.65912 -4.88754 -1.33561 -0.228266 0.182393 0.946921
1716 2 27.0962 3.13303 30.6895 1.91914 0.146875 -0.292994 -1.65999 1.10612 -1.0089
1717 1 26.9866 1.57234 32.517 -2.53218 0.911721 -2.12612 -0.364462 0.686799 0.244028
1718 3 25.1178 2.02418 33.9267 -0.636742 0.283772 -0.594127 0.209164 0.177503 -0.105995
1719 2 23.0777 2.72016 21.924 0.923443 -1.62709 -1.68766 -0.535481 -0.103883 0.472062
1720 1 23.4047 4.45845 20.1933 -0.659988 -1.46306 2.53411 -0.274514 0.0470073 -0.607822
1721 3 24.5859 3.46636 19.0325 -1.33443 -0.606902 1.99747 -0.313046 0.514618 0.574953
1722 1 23.2809 4.99974 23.4995 -1.47289 -3.20327 2.18308 -0.0333628 -0.12872 1.03064
1723 3 24.6425 4.20217 24.8353 -0.758792 1.60684 -2.63375 -0.102518 -0.34513 0.063838
1724 1 22.9943 2.54698 34.6075 -0.576695 0.0421308 0.354879 -0.425748 -0.46342 0.022701
1725 2 25.2416 4.98826 30.4372 -0.420427 1.24212 -1.01999 0.88737 -0.129651 0.0953281
1726 1 25.4394 3.89369 32.824 0.0845748 -0.172041 1.95344 -0.972389 -0.0938859 0.964347
1727 3 23.7013 4.45299 33.7621 1.19499 0.733562 -0.0679386 -0.0579183 0.457323 0.0847796
1728 2 21.2659 4.5088 21.9237 -0.666694 0.0242837 -0.455905 0.060911 -0.221225 -0.648442
1729 3 23.297 6.17344 19.2587 -1.17459 2.80163 -1.28069 -0.674538 -0.559561 -0.0617752
1730 1 23.3537 6.03033 29.2989 -0.636918 0.634197 0.624877 0.292095 -0.269442 -0.261217
1731 3 23.1288 6.30705 25.2168 -0.122021 -0.178104 -0.198469 0.735379 0.120743 -0.0140968
1732 2 22.9717 8.3402 30.6762 0.244822 -0.447353 0.476393 0.18322 0.116733 0.0502158
1733 1 23.4667 6.35662 32.3056 -0.254755 0.151096 -0.32796 0.21187 0.0291509 0.306481
1734 1 19.971 9.92414 19.8785 -0.57906 -1.29264 1.71941 -0.227585 -0.280541 -0.2828
1735 1 21.7553 9.57552 28.8878 0.218305 0.283383 -1.06578 -0.306159 -0.213866 -0.0611245
1736 1 18.4616 10.4585 25.7614 -0.412277 0.0876013 0.361927 0.240362 0.152068 -0.028495
1737 2 21.4472 11.094 30.8384 -1.08608 0.155262 0.169462 0.222872 -0.163415 0.0105036
1738 2 17.7783 11.0527 20.8138 -0.513806 -0.104901 -1.45642 0.320073 -0.0370568 0.326727
1739 1 18.7106 13.2183 19.9551 -0.604031 0.235465 1.60561 -0.643165 0.748842 -0.514053
1740 3 20.2736 11.5959 18.7773 -0.982458 1.65808 0.4858 0.741742 -0.486539 0.23507
1741 1 18.7853 12.0428 23.0242 0.599757 -0.788997 -1.10366 0.165187 -0.155994 0.241753
1742 1 20.0082 11.359 28.7184 -0.718807 -0.669174 0.42439 0.256429 0.161701 -0.0893081
1743 3 18.7505 11.4397 27.368 -0.460671 -0.269657 1.28197 -0.268648 -0.118355 0.185315
1744 3 19.9967 11.8343 25.0895 -1.82234 -2.78369 1.33991 -0.329447 0.410518 -0.252093
1745 1 15.9537 15.4353 26.3487 1.07866 1.72835 1.26932 -1.24259 1.31623 -0.0412838
1746 1 17.2496 12.8817 35.4239 1.82751 0.175285 1.35028 0.675923 1.35539 0.244968
1747 3 17.6075 14.5804 34.4335 -0.91436 1.95251 -0.709253 0.239238 -0.112804 -0.156506
1748 2 17.2796 14.9831 22.0342 -0.0107615 -0.82721 -0.112903 0.694497 0.198123 -0.462248
1749 1 15.9731 17.218 20.3334 2.08282 -1.6837 0.252276 1.4477 -1.06854 -1.05583
1750 1 15.9112 16.7206 23.4204 -1.19847 1.31489 -0.622895 -1.06362 0.495877 -1.6309
1751 1 17.8027 16.85 28.7591 -1.83056 1.93191 1.60535 1.0666 -0.290542 0.666648
1752 1 13.5959 17.0095 25.143 -6.6034 2.50863 1.39802 -1.5175 5.83814 5.51528
1753 3 16.2751 16.9319 27.5659 -0.289397 -6.20596 5.45108 -0.262347 -1.68631 0.26469
1754 1 16.1391 15.5481 35.3361 1.37093 -0.330653 0.335544 0.911519 0.116569 2.14709
1755 2 18.8503 18.5859 32.4078 -0.332917 0.401778 0.711568 -2.24179 -0.450695 -1.48285
1756 2 15.5899 20.4752 21.82 17.1733 -5.87722 11.6757 -3.00382 2.72821 4.10423
1757 1 15.419 20.2083 18.9651 1.62246 2.9666 -9.70585 -0.716149 -3.60923 1.18831
1758 3 17.957 17.0634 19.6565 0.685927 -0.166938 1.11902 0.0947478 0.0961902 -0.470285
1759 1 16.8324 19.8888 29.7667 1.97785 -0.60706 -4.09228 1.87907 1.83801 7.33647
1760 3 10.3587 18.507 17.576 7.7034 0.00607934 7.25667 2.34923 1.60049 -0.147979
1761 3 18.3566 22.724 23.682 8.75994 1.07396 3.71424 -2.34035 2.43452 0.874018
1762 2 12.1051 23.0382 14.8331 -8.59573 9.91706 7.11273 -2.07252 -3.08786 -2.50822
1763 1 11.5131 23.7582 12.5917 6.3061 -6.04392 -6.75853 1.98658 0.805391 4.27106
1764 3 14.5005 19.2944 17.571 -0.104091 2.50023 -5.47032 2.76609 -0.143155 1.79045
1765 1 18.1044 26.812 25.7977 -4.60252 -7.80203 8.17785 -3.61139 -10.8387 -1.72757
1766 1 14.7221 28.1099 18.3767 -12.5628 3.74213 0.480156 -0.928586 0.51673 2.30008
1767 3 12.6935 21.6754 13.4653 -15.1904 -5.50084 -4.82591 1.80998 -2.39927 -2.01622
1768 2 10.6716 21.3703 13.1941 3.74121 7.24139 -4.11884 1.55388 2.78038 0.967017
1769 1 11.1854 28.658 13.3462 -0.0123341 -0.0339231 -2.32196 -0.271045 -0.635264 -0.992459
1770 3 13.6456 20.3475 13.9436 -7.554 8.84259 -1.77769 -2.08516 1.54631 -1.53372
1771 1 8.49467 27.2869 18.35 7.74606 4.17461 0.0310003 2.61878 2.71303 -0.203374
1772 1 16.3989 23.6404 31.4509 -14.8948 0.467186 -9.3581 4.3642 -10.5211 -4.22483
1773 3 9.1356 19.904 27.5112 -42.9468 -39.3827 -11.0384 -12.272 -3.27458 6.90617
1774 3 17.8893 26.5708 21.347 14.9989 -23.0101 -2.99933 10.3971 19.3529 5.34276
1775 1 12.9077 20.1895 25.8602 -5.9717 -29.0055 0.22982 -2.42525 -2.27257 6.17011
1776 2 33.5832 0.325374 29.9592 2.29635 2.28606 -1.77405 0.705875 -3.18649 2.27518
1777 1 18.3517 20.7276 26.9041 -2.95834 0.0302236 1.32392 -0.371983 1.92061 -1.93173
1778 3 31.5506 0.192282 30.3157 8.60209 3.48483 -2.292 0.861747 0.791974 0.274794
1779 2 9.17113 25.8462 16.0051 9.31561 12.8062 4.64182 3.17452 -2.96447 2.70583
1780 1 6.03878 27.5405 15.7043 -7.30962 8.92215 -4.92921 1.08384 -0.239768 1.29032
1781 3 9.13205 27.8125 16.3751 -7.75425 0.236325 -21.0493 1.75604 -1.66665 0.930965
1782 1 27.8323 1.27071 23.1251 0.905105 -2.15744 -0.288195 -0.335869 -0.633201 -0.278961
1783 2 30.5403 1.99247 30.3975 -3.12425 -1.80228 -2.00747 0.463992 -0.170961 -1.36741
1784 1 32.1385 1.14684 32.2749 0.571951 -0.0797126 1.98241 -0.00136657 -0.000677111 0.208106
1785 2 27.4769 1.26758 20.6926 -0.0205808 1.63581 -1.64982 0.934143 -2.91354 -0.209155
1786 1 12.3161 19.6126 18.9411 0.906686 4.6672 1.06696 4.26974 1.7494 -2.66116
1787 1 11.983 23.6487 22.9427 -19.8017 9.62914 -7.89172 -9.38513 2.51518 7.16349
1788 1 23.9447 0.443794 25.6273 -1.18832 0.293217 -1.88584 0.0234347 2.11343 -1.70216
1789 3 24.7505 1.1069 27.61 4.15686 -6.29322 -4.19776 -0.023012 -0.471077 -0.591897
1790 2 27.8551 0.883708 30.1683 2.66493 3.32674 0.469927 2.04092 0.29517 -0.403292
1791 1 6.82042 27.4511 24.1484 -16.9191 2.6369 -10.6006 -0.612072 -1.7 2.53654
1792 3 30.104 1.53582 18.2882 -0.293263 -4.37039 0.862837 -0.5228 -1.345 0.114344
1793 1 28.7147 2.36919 28.5186 0.625361 -1.38288 1.94905 -0.67058 -1.89742 0.0589343
1794 3 27.4952 2.96953 27.1265 -0.215645 -1.44372 -1.84351 0.419887 -0.279633 -0.907879
1795 1 28.9007 0.671707 35.1582 -2.85862 -2.50349 2.36062 -1.45927 1.11539 1.10556
1796 2 29.357 4.23929 30.1026 0.693147 -5.64601 2.06642 0.766377 -0.543698 -0.326157
1797 3 28.4877 2.49748 33.9076 1.47097 5.71905 -2.71164 -0.023676 -1.24126 0.44399
1798 1 26.4088 4.85901 23.8454 -0.393446 1.73463 0.0192518 -0.630399 0.323306 -0.776498
1799 1 26.8386 4.3319 28.4779 0.245057 -1.64396 -0.421536 0.535009 -0.0513923 0.844839
1800 1 24.7225 5.64233 26.2705 -0.688998 0.0216161 -1.12198 0.421572 0.237829 0.0841269
1801 3 28.2303 4.1353 24.8952 0.611791 -1.4106 -0.568248 -0.700866 -0.558897 -0.398166
1802 1 27.0947 3.08566 35.1315 0.56799 0.166081 -0.748607 -0.444089 0.87076 -0.051767
1803 1 28.163 4.56933 32.5309 0.570289 -0.195147 1.28946 0.476135 -1.09782 -0.479094
1804 3 26.767 4.90178 34.109 1.31694 -0.874528 -1.70281 -0.311836 -0.303602 0.704912
1805 2 25.3842 6.12003 21.6896 0.861101 0.387921 1.67293 -0.68532 0.413285 0.205234
1806 3 27.1152 6.22035 18.1063 -0.519697 1.50178 2.40752 0.219901 1.0993 -0.911791
1807 1 23.3606 8.14962 26.2077 -0.717886 -1.34211 0.92178 0.312239 0.416472 -0.23842
1808 3 24.6558 7.27522 27.4945 -0.202299 -0.46128 -0.0362932 -0.0295458 0.158262 -0.126035
1809 3 26.5782 6.3299 25.2674 0.143818 0.474162 0.28115 0.0250545 -0.0668239 -0.168881
1810 1 24.9896 5.72423 34.9161 -0.600769 -0.862365 1.26318 0.107057 0.150417 -0.0867441
1811 1 26.3438 6.35568 32.4949 1.3064 1.09568 1.11318 0.628757 0.0974887 0.262907
1812 3 24.8847 7.38416 33.5759 2.77938 -2.67274 -4.8445 -1.14874 0.44321 1.00021
1813 1 24.7966 8.83262 28.9836 0.510181 -0.0943439 -0.77145 0.20832 0.0145365 -1.03603
1814 1 21.8591 10.9865 26.0205 -0.725837 0.905933 -0.627422 0.440354 -0.209779 0.309768
1815 3 23.3676 9.90942 27.4796 -0.198298 -0.0206356 0.335201 -0.10589 0.127303 -0.449223
1816 3 24.785 8.7861 25.0067 -0.118894 0.119055 -0.247221 -0.379047 0.00612352 0.0166224
1817 1 23.5912 8.24197 35.0541 0.45047 -1.34775 1.00708 -0.329624 0.097633 -0.0920591
1818 2 24.0489 10.7209 30.5736 -0.756356 -1.11241 0.493039 0.330717 0.0128532 0.167114
1819 1 24.7106 9.20126 32.42 0.164353 -0.171179 -0.0392347 0.44785 -0.17431 0.168094
1820 3 23.6015 10.0305 34.066 -0.0456577 -1.68142 0.255322 -0.200373 0.0165864 -0.0632213
1821 2 20.7976 10.8937 21.973 -0.00213443 -0.929125 0.0901979 0.0766118 0.0214426 -0.208251
1822 1 21.8905 12.4955 20.1602 -0.106071 0.286535 1.35518 0.15272 0.128929 0.228263
1823 1 21.4177 12.9055 23.778 -0.980832 0.0998095 -0.487116 0.34167 0.0945753 0.540773
1824 1 22.9875 11.7596 28.6347 -0.438623 0.269498 0.618247 0.225022 -0.111236 0.233695
1825 1 19.6859 13.2398 26.5146 0.657424 -0.486553 0.875413 0.522192 -0.13324 0.0583861
1826 3 21.4865 12.4582 27.3573 -3.01367 -0.971475 -1.10056 -0.261283 0.16287 0.279161
1827 3 23.2098 12.011 24.8793 -1.77564 -11.0963 1.27398 0.103664 0.0925886 0.0751384
1828 2 23.2417 13.2681 30.8594 -0.626644 -0.172991 0.177463 0.0972816 0.0418109 0.0384748
1829 1 23.1187 11.7336 32.8054 -0.00460793 -0.183708 0.270376 0.125969 0.178001 0.194629
1830 2 20.2947 13.7074 21.7563 0.420896 1.2172 -0.226105 -0.523755 0.452585 -0.468249
1831 3 22.58 14.0352 18.4953 3.34719 -0.74695 0.254453 1.35027 0.659163 -0.495759
1832 1 19.8182 15.6745 23.1815 -1.40313 -1.55255 0.0797272 -0.376171 -0.386318 0.607758
1833 3 21.1459 14.5245 25.0534 1.44105 -1.92018 0.942725 0.058331 -0.20255 -0.703194
1834 1 20.6302 12.987 34.6387 -0.341614 -0.764788 0.748945 0.139583 0.134604 -0.180913
1835 3 20.8306 14.8692 33.8492 -0.926303 1.63086 -0.179177 -0.176841 0.0592387 0.213551
1836 1 19.4722 16.7275 30.9363 -1.47215 3.33787 -0.085643 -0.100861 -0.586502 0.161822
1837 1 17.8527 17.6231 26.2086 -0.853001 5.1025 1.27957 -0.616026 1.28941 -1.28784
1838 3 19.4617 17.183 27.2264 0.949023 0.285384 0.645781 -0.0353989 -0.152315 0.11441
1839 3 20.204 17.4304 24.1822 -0.241604 -0.500777 0.857054 -0.201854 -0.0326637 0.104668
1840 1 19.3735 15.3947 35.12 0.257771 1.70589 -0.258412 -0.139506 -0.0657547 -0.0197017
1841 2 21.3588 18.6366 31.5028 1.22065 -0.675778 -2.19701 0.164957 0.106978 -0.495757
1842 1 20.7667 16.9722 33.2469 -0.791447 1.77541 -2.12388 0.385348 -0.143025 0.632736
1843 2 17.9998 17.4542 21.6093 1.12118 -0.96224 0.0794143 0.000147183 1.02235 -0.639191
1844 1 18.796 18.8447 19.4872 -2.80434 -0.379273 1.24326 2.07311 -0.70544 -0.271942
1845 1 18.125 20.7777 24.0833 -3.95749 2.72341 -1.02802 -0.229574 0.182097 -3.97168
1846 1 19.8825 18.7569 28.5155 2.4374 0.699207 -1.95427 -0.513091 -1.10902 1.07035
1847 1 19.2073 22.99 21.9258 -1.13091 -2.11283 1.51923 5.79139 3.21841 1.4877
1848 3 17.6443 18.9619 28.0639 -1.61186 -2.78955 0.923771 -1.42357 0.13626 -1.72517
1849 3 18.7224 19.4054 25.4597 -0.473754 -2.02506 -1.79038 0.275697 -0.713721 -0.374402
1850 2 19.4639 20.6829 30.9796 0.745284 -1.91307 -4.14158 -2.59955 -1.48308 -0.769795
1851 2 19.1722 20.0327 21.6999 -1.04091 1.09558 -0.137835 2.94575 -1.05282 -0.929655
1852 1 17.1969 24.8045 20.1542 12.953 -7.61644 -3.13895 -0.982506 -0.0958729 0.628164
1853 3 17.4639 20.0983 18.5754 0.0179208 -4.42619 -0.81018 1.18032 0.50662 0.108429
1854 1 19.166 23.2623 25.2469 1.26254 -0.0882031 -8.67784 -0.657457 1.46757 2.5167
1855 1 16.4283 22.2324 23.7278 7.63549 17.0058 -6.98361 -1.46618 4.65177 -0.860179
1856 3 11.0371 25.1902 24.2647 -1.6516 6.68441 -6.65924 5.33984 6.49763 -8.36959
1857 3 16.8738 28.3958 18.4346 -0.116402 8.83912 -6.69185 1.41847 -3.94639 -0.506725
1858 1 18.3321 22.8028 29.0523 -0.343913 -1.34027 2.56881 0.8873 -1.1655 0.787735
1859 3 17.9839 23.1225 20.5789 -2.25776 -9.947 -3.00863 -2.33751 1.8574 -5.26542
1860 1 18.2565 22.2309 32.3289 -0.908743 -4.97648 -8.3087 1.96761 0.524917 4.11717
1861 1 12.4474 23.8297 25.3504 9.53977 -10.3839 5.20187 3.19035 -4.46524 -0.200465
1862 3 32.011 0.00696549 24.0602 -0.91202 -7.90085 -2.96127 -3.90612 -3.64997 2.46378
1863 2 16.1791 29.8149 17.2153 -10.9587 2.74762 3.91483 12.1304 -6.0991 -3.85234
1864 1 11.1655 31.5597 14.7768 7.6937 2.85725 -6.84521 -1.25567 0.450581 -0.414349
1865 1 12.0472 28.7346 15.9547 -16.8165 1.35185 1.17591 -0.245029 -2.24259 4.14119
1866 3 16.2542 30.9074 25.9142 -2.11521 1.87517 -1.07016 0.0407177 0.958702 2.51348
1867 1 6.97841 21.5995 17.6861 1.18624 6.08303 7.17119 0.251979 -2.39721 1.36894
1868 1 11.2992 17.0923 23.1872 1.97318 -8.21984 -0.0405777 -2.36927 -0.300111 -2.53666
1869 3 15.8692 27.3803 22.1967 17.5036 -13.8333 12.4677 -1.50748 8.35268 13.2516
1870 2 13.7948 29.8522 20.5937 8.46958 13.1489 15.5213 0.161508 2.42474 -0.500725
1871 1 14.3872 23.9813 13.5806 -0.227092 3.74482 1.77436 2.94852 -3.95194 -0.112242
1872 3 14.726 30.2556 18.6533 1.2222 -3.13363 7.21266 -1.97507 -1.08202 2.53262
1873 1 11.2446 31.4606 21.566 -13.7336 -14.183 -4.25484 -0.302193 -5.60588 3.73466
1874 1 13.338 32.1483 28.1656 -4.10122 1.08822 -1.01212 2.70226 -4.55262 -0.996259
1875 1 26.56 1.41308 26.3969 -4.2132 -1.32027 -0.178518 -0.551876 -1.72402 -0.392331
1876 3 29.5594 1.29988 24.6815 -2.77646 1.84303 5.08695 -1.64025 3.87505 0.889708
1877 3 13.269 31.9064 20.9812 -3.1482 -0.370306 -2.37209 0.906368 2.78251 -1.95402
1878 1 13.0609 31.9767 35.0545 -1.33494 -0.330979 1.18594 1.13075 1.39191 0.402391
1879 2 32.7776 1.49552 21.418 0.260536 0.353182 2.70107 -2.52853 -0.512805 -0.17975
1880 1 31.3191 2.20239 19.605 -0.329363 -4.29547 1.99651 1.47356 2.76254 -0.225085
1881 3 32.9044 1.45569 18.3055 -0.723282 0.783768 1.16084 -0.501855 0.0324873 -0.423521
1882 3 31.2306 1.5836 27.1275 1.14976 0.781429 -11.5966 1.3823 1.37971 -0.317608
1883 2 32.6016 3.16645 30.9055 -1.05062 1.00508 -0.484043 -1.31033 -0.0107128 -1.80164
1884 2 29.5023 2.93415 21.6414 1.05661 -0.574822 -0.0918681 0.644004 0.360615 0.180134
1885 1 30.3902 5.16462 21.0179 -2.1706 -0.0407089 1.14503 0.980584 -0.0948791 -0.803669
1886 3 31.1332 4.09908 18.9153 -6.70248 1.19014 0.243709 0.488464 0.252142 1.09615
1887 1 28.9108 4.9923 23.2556 0.905016 -0.433341 -0.469697 -0.683028 0.522881 -0.209614
1888 1 30.9995 3.67307 27.61 1.27147 -0.937381 -1.40976 -0.734454 0.0817814 0.341847
1889 1 28.2878 5.68651 26.1437 0.0218109 0.28519 -0.019469 -0.00124305 -0.169021 0.0774584
1890 3 30.0793 4.59055 25.8915 -0.082963 -1.62602 0.101482 0.85056 0.37649 0.299617
1891 2 27.9046 5.73216 21.1541 -0.960672 -0.373247 -0.661656 0.615562 -0.106843 0.722057
1892 1 28.9507 7.18029 19.0982 0.230911 0.617344 0.133382 -0.187369 0.460583 0.10147
1893 1 27.7679 7.35477 23.611 0.277636 -1.38787 -0.21464 -0.0589768 -0.0742554 0.00341747
1894 1 29.7417 6.25595 28.8101 -0.173704 0.669255 0.070098 -0.147077 0.00414108 0.33623
1895 1 26.3721 8.06743 26.15 0.156843 -0.164563 -0.0853829 0.487647 0.0240359 -0.254399
1896 3 28.2031 7.32223 27.3607 -2.38758 -0.0841866 1.62833 0.123414 0.383278 0.307769
1897 3 29.4253 6.47453 24.9398 0.680918 -0.234475 1.27407 0.0781272 0.00258967 0.0182892
1898 3 27.9177 8.91851 18.5228 1.10709 -3.39196 -2.62824 1.76555 -0.793105 0.109568
1899 1 24.8373 10.7513 26.0837 0.666621 1.08969 0.743752 -0.0944875 -0.493584 -0.135436
1900 3 28.1286 8.67152 24.9535 0.403103 0.55483 -0.936531 0.0939318 -0.114639 -0.135249
1901 1 26.1854 8.21894 35.0278 0.321277 0.420988 -0.203145 -0.135621 0.0231951 0.0231362
1902 3 26.2645 11.9736 18.2431 -0.541507 1.04473 1.58797 -0.699069 -0.607356 0.44636
1903 1 24.7551 12.7929 23.6431 0.8551 -0.721268 0.349434 0.0912633 -0.163298 0.0325659
1904 1 23.0448 13.5516 26.1137 0.232652 -0.760312 -0.177428 -0.231621 0.354844 -0.285912
1905 3 26.1693 11.5893 24.609 0.691885 1.46491 -0.278321 -0.0954979 -0.408499 0.0523359
1906 2 26.8057 14.5976 31.0101 -1.9136 -3.01224 0.611375 0.109661 0.19967 0.0166321
1907 2 23.2277 13.973 21.6335 -0.477323 1.11057 -0.367655 0.127431 0.201548 0.211855
1908 1 23.5742 15.5192 19.6784 -0.771913 -1.43987 -1.39295 0.656537 0.336992 0.617864
1909 1 23.0919 15.4003 23.6829 0.723745 0.234369 1.18224 -0.0999844 0.305878 0.46688
1910 3 24.6574 14.532 24.778 -3.684 0.69187 0.676279 -0.245468 0.0591468 0.0906016
1911 2 24.3609 15.5803 30.7876 -0.872238 -0.459625 -0.133862 0.00561839 0.0804811 0.0818236
1912 1 24.6366 14.296 32.984 0.127631 1.15871 0.275337 0.0473144 -0.241767 -0.057074
1913 3 23.5818 15.6327 33.9812 -0.426466 0.189123 -0.0260325 0.074186 0.0340106 0.0381767
1914 2 21.8286 16.3049 21.6587 0.380025 -0.702426 -0.047135 0.328718 -0.854408 0.05625
1915 1 21.9146 18.4081 20.233 -2.02468 1.05187 -2.74492 -1.97466 -0.744953 -0.28235
1916 3 23.0485 17.4944 18.9481 -0.336182 -1.67904 -1.48704 0.573838 1.10267 -0.482498
1917 1 21.8607 18.2861 23.3402 -0.751634 0.673181 1.79469 0.0232262 0.12506 0.881567
1918 1 20.555 18.9401 25.8348 -2.48325 1.34547 -1.02568 0.403365 -1.25104 1.01982
1919 1 22.1389 15.5748 35.2114 -0.34768 -0.991306 -1.09696 -0.0994277 0.418929 0.356371
1920 2 24.047 18.6787 30.4018 0.446919 -0.549887 0.167784 -0.309601 0.108038 -0.0668741
1921 1 23.3774 17.1529 32.4662 0.0485891 0.961383 -0.632448 -0.473769 0.253037 -0.25495
1922 1 21.2288 21.1813 19.9134 -0.711278 -3.28549 0.516132 -0.0715533 -1.37541 -0.718905
1923 3 21.8015 19.7659 18.4484 -1.42262 -6.98602 -1.31547 0.18674 -0.183876 -0.193361
1924 1 22.6972 19.9136 28.2554 0.506876 -0.192155 0.512775 -0.136545 -0.176809 -0.281444
1925 3 20.5209 20.5161 27.4606 -0.292496 1.03781 -0.523993 -0.106283 -0.270569 0.311448
1926 3 21.5408 20.4474 24.3178 -0.741968 -0.73651 0.908204 -0.331364 -0.0983819 0.377586
1927 2 22.9501 21.3582 30.7943 -1.75527 -0.485651 -0.705036 0.187284 0.0923772 0.0950363
1928 1 19.7059 23.3942 19.7683 4.44417 1.58617 3.73338 0.294385 0.56848 0.641996
1929 3 20.1459 22.1726 18.2434 2.97142 -3.75706 3.69458 -0.504901 -0.325649 1.40678
1930 1 20.9975 21.9041 29.2573 -1.42367 0.654555 0.121224 -0.849247 0.469386 0.0953801
1931 2 21.8782 24.1524 30.5022 -0.17247 1.06066 0.254164 -0.469176 -0.0391977 0.108852
1932 1 21.1502 22.3583 32.5137 0.26935 0.852653 1.5018 -0.465152 -0.42097 0.398473
1933 3 19.5843 23.0948 33.5212 0.490033 2.73146 1.38448 -0.0674762 -2.19107 0.222007
1934 3 18.7669 25.1444 18.6264 -0.944965 3.09543 -4.9702 -2.84652 1.81658 1.34528
1935 1 20.0962 24.794 28.7134 0.469302 2.48344 0.0625594 -1.37604 -4.02167 1.62075
1936 1 12.0671 22.2754 17.0583 6.20338 -3.45508 -14.6133 2.73602 -4.81938 0.119502
1937 3 19.3923 26.6062 28.0353 -1.34472 4.00807 -0.146485 1.18492 -2.2478 -2.02515
1938 1 18.5196 24.3381 34.8954 -0.406352 -6.51993 -4.98284 -5.62067 -1.21061 -4.37319
1939 2 21.2982 27.264 31.2801 0.979421 -5.07954 -6.43574 -1.65856 -0.278446 0.673252
1940 1 19.7845 25.0479 31.8428 -4.27032 -1.05376 1.66544 0.891279 -0.44648 1.17462
1941 3 18.9777 26.311 33.2679 -5.16719 -2.21463 -6.74065 5.59002 3.61986 4.41937
1942 1 16.8445 30.21 24.2941 -5.12642 3.7116 -2.56114 1.9177 2.99637 -3.44754
1943 1 19.3197 28.6838 29.3097 -2.63384 -2.96826 0.686248 -1.33963 0.282776 0.0302966
1944 1 34.057 0.433465 25.491 -0.381415 -4.36819 4.87787 -1.66555 -1.22156 3.10339
1945 3 17.469 29.3517 28.6457 -0.821117 3.67419 -2.71572 2.12588 -0.69534 3.25484
1946 3 18.0879 28.837 25.3029 4.28046 -1.2512 -4.83672 -0.0973428 1.07655 -1.76903
1947 1 7.02972 21.2397 23.3852 -11.8254 -11.8051 1.12941 5.04151 -0.8639 -3.46155
1948 1 18.8926 28.3795 32.1077 2.60248 3.3366 3.73461 -0.286979 -0.221301 2.96237
1949 3 14.4863 31.4963 31.5454 -0.480127 1.89351 -3.9304 0.81239 0.2227 -2.61552
1950 2 16.4997 29.8388 19.7647 -4.18495 -4.4538 -0.710628 -2.7393 -0.482915 -0.939532
1951 1 14.8643 32.1106 19.7104 -4.42984 2.25552 4.78587 0.264507 -0.596759 0.489675
1952 1 14.9893 31.6408 22.4088 -0.362648 2.52031 -1.91037 -0.365674 0.853487 -0.468232
1953 1 31.4019 1.8215 24.9265 2.30648 1.56446 1.63349 -0.752871 0.741224 0.978398
1954 3 16.2794 32.2625 23.8059 0.563386 0.823844 0.252084 -0.5435 0.209447 -0.307185
1955 1 15.7925 30.3058 29.8073 -3.70835 -5.35574 6.07649 0.551796 1.83245 2.40958
1956 1 16.3857 31.7998 32.0057 -1.64872 -4.12572 1.08463 0.303438 -1.15169 1.07199
1957 1 34.7576 1.82271 19.2435 -1.6807 -1.14631 0.365771 1.4697 -0.0158771 -1.27873
1958 3 35.5919 1.09571 17.5427 -9.40578 2.70592 1.63138 -2.24449 2.99308 -1.56441
1959 1 34.8177 0.886095 35.2043 -2.05676 -2.25955 0.296379 0.351004 0.747849 1.58356
1960 2 -1.22989 3.25674 30.992 1.06395 1.06727 -0.451875 0.85487 0.137494 -0.347292
1961 1 36.1906 1.72539 33.156 1.53883 4.17637 -0.808661 0.392091 -1.09803 0.019134
1962 3 33.9356 1.97293 33.5818 -3.59662 -1.06809 -1.54285 0.0451317 1.45345 -2.0601
1963 2 32.0055 3.70785 22.7224 0.21626 -1.03592 0.79538 0.300513 0.585799 -1.72366
1964 1 33.2588 4.24804 20.2115 0.858735 0.0961963 -0.704151 -0.489583 -0.282442 -0.981355
1965 3 34.6608 3.65236 18.3755 -4.86942 4.92178 2.11086 -0.384112 -2.93871 0.216133
1966 1 34.0369 3.63625 28.9561 0.169638 -0.167599 0.467496 -0.049123 -0.335161 0.0832203
1967 1 31.4056 6.03506 25.9888 1.1782 -0.302309 0.836181 -0.168976 0.296322 -0.468277
1968 3 32.7246 4.63113 27.4225 -0.0278863 -0.859663 -0.957023 0.0525885 -0.109253 -0.208155
1969 1 32.8737 3.01393 34.872 0.480491 0.748508 1.75593 0.278382 0.561686 -0.0332009
1970 2 33.8151 5.51449 30.5608 0.0719777 0.257175 0.448192 0.0615567 0.58036 0.121043
1971 1 34.2058 3.78598 32.5581 1.04235 0.209683 1.77402 0.218327 0.489389 0.155116
1972 3 32.8521 4.72181 33.8438 1.93808 -1.29549 -1.04563 0.166196 -0.0755137 0.00803323
1973 1 32.8044 6.44842 28.388 0.380138 1.35161 -0.780122 0.194671 0.279859 -0.0227631
1974 1 29.5547 8.27299 26.2122 0.0784838 -0.379793 -0.100214 -0.0235464 -0.081978 -0.0251842
1975 3 30.8812 7.23233 27.5225 -1.09033 -0.344712 0.131971 0.616327 0.491524 0.0239013
1976 1 31.1994 5.44687 34.9258 0.186298 -0.114658 -0.355613 -0.100973 -0.258944 -0.283841
1977 2 31.4536 7.35191 30.6472 2.4674 0.180207 -0.416054 -0.274607 0.0282251 -0.00325531
1978 1 32.6419 6.2643 32.6163 -0.693967 1.8967 0.400739 0.105227 0.702951 0.222649
1979 3 31.3765 7.27925 33.8384 0.697525 -0.000312254 -0.0954838 0.00989001 0.327098 0.0864629
1980 2 29.6577 8.02954 21.5905 -4.066 -0.255001 0.372552 -0.122647 -0.142358 0.090153
1981 1 29.0195 10.1751 20.2044 0.437768 -0.33116 0.468296 -0.1528 -0.468055 0.14782
1982 1 28.996 10.1798 23.5896 0.50077 -0.154665 -0.0372497 0.260946 -0.164532 0.413897
1983 1 31.432 9.14955 28.6367 0.296577 -0.174796 0.597091 -0.0453742 -0.139411 -0.14085
1984 3 29.8963 9.85483 27.4626 0.385595 -0.437387 0.0437731 0.0635258 -0.0524999 0.0134942
1985 3 30.4636 9.8861 24.9742 -1.07805 0.44871 -0.0654853 0.0402931 0.0369753 0.0422539
1986 1 29.8685 8.05211 34.8819 -2.5295 -1.52205 -1.65143 0.0713319 0.108939 0.138898
1987 2 30.9421 10.2288 31.0196 5.63643 1.51582 -0.505968 -0.406864 -0.144708 0.0550653
1988 1 31.9269 9.16342 32.99 -0.153482 0.666975 -1.08031 0.129392 -0.0293695 0.0726239
1989 3 30.0597 10.0622 34.1576 -0.0436356 -0.375621 0.0259943 -0.00869587 -0.0529781 0.0129116
1990 1 27.714 12.8215 19.5922 0.329911 0.516826 -0.382982 -0.110752 0.564979 0.0455695
1991 3 29.4733 11.6907 18.5879 0.506019 0.122647 -1.11179 -0.723793 0.819767 -0.644779
1992 1 -6.80803 12.1135 29.5588 0.368819 -0.361025 -0.0105398 -0.0145442 -0.00338793 0.116141
1993 1 28.1279 10.836 35.2291 -0.160101 -0.219284 -0.0117578 -0.425706 0.0922187 0.1244
1994 2 -7.52817 14.1477 31.0382 -0.430363 -0.797456 0.0861338 0.0694916 0.0454897 -0.00948016
1995 1 30.0025 11.8086 32.8776 0.218528 0.0016388 1.35834 -0.10345 -0.0923927 -0.222721
1996 3 28.2956 12.4588 33.8245 -0.0162749 -0.399251 -0.111231 -0.0719154 0.213943 -0.00131359
1997 2 25.9041 13.4869 21.2416 0.470423 0.136471 0.28497 -0.300803 -0.117859 -0.189038
1998 1 26.627 15.6139 19.9878 0.0825808 0.0705248 0.722387 -0.0405744 -0.0445907 -0.213082
1999 1 26.2579 14.974 23.1824 0.223922 1.01837 -1.15525 0.0716848 -0.1824 0.0426114
2000 2 -8.80335 16.7589 31.5332 -0.475969 -2.09896 -0.170298 0.0765685 0.321947 -0.062174
2001 1 28.2304 14.6389 33.0765 0.0913839 0.278606 -0.158409 -0.0336437 -0.048981 -0.0283513
2002 3 26.1576 15.2433 34.0711 0.677764 1.05178 1.99281 -0.0229411 -0.0595385 -0.205116
2003 2 24.8702 16.3967 21.7169 -0.542887 -0.43173 -0.535096 0.0791386 0.0185321 0.234333
2004 1 25.0784 18.1859 19.6776 1.94062 0.903188 -0.822744 0.756556 -0.340526 0.47188
2005 1 24.9744 17.9229 23.8597 0.640923 0.0610523 -0.271728 -0.026235 0.161237 -0.0664635
2006 1 24.8154 16.4762 35.191 -0.0982425 -0.27861 0.00104734 -0.109894 0.0250908 0.0954252
2007 2 -10.5782 18.8642 31.0819 -0.813753 -0.527786 0.375555 -0.0579227 0.0808623 -0.178276
2008 1 26.1121 16.6877 32.3661 -0.183712 -1.07808 -1.28686 0.407973 0.23452 0.314582
2009 3 24.78 17.7634 33.7378 -0.112773 -0.795578 0.827903 -0.164233 -0.00792723 -0.0733598
2010 2 23.7865 18.9843 21.8251 -0.602106 -0.339214 -0.351029 -0.287523 -0.22532 -0.155098
2011 3 25.2261 19.8975 18.4728 1.18605 -2.66501 0.41694 -0.38267 0.206778 1.10033
2012 1 23.4044 20.9233 23.5269 -0.661342 -1.09848 -1.17597 -0.275112 -0.362035 -0.530531
2013 1 25.1131 20.79 29.4602 -0.358435 -0.0202291 0.115224 -0.177741 0.145956 0.10652
2014 1 21.8596 21.7505 26.2865 -1.15576 0.088921 -0.560257 -0.00758066 1.52302 -0.590891
2015 3 23.5895 21.6125 27.6662 0.456476 -0.348594 -0.0231799 0.174019 -0.0467511 -0.183707
2016 2 -11.7237 20.8858 31.9747 -1.75178 -0.803915 -0.632008 0.218622 0.314507 0.0209607
2017 1 25.8517 19.3468 33.8224 -2.45463 0.457936 1.79401 -0.308423 -0.161315 -0.160012
2018 3 23.7665 20.1296 34.7309 0.908554 -2.78818 -2.07393 0.308262 0.0979098 -0.200203
2019 3 23.2758 21.9965 19.0267 -1.02073 -1.57466 4.10172 0.511741 1.05248 1.3291
2020 1 -13.1566 23.2122 28.9051 -0.405896 0.338451 1.01031 0.0721846 -0.0456662 0.395614
2021 1 21.1419 24.1312 26.1483 2.48883 -0.583424 0.369046 -0.799235 -2.22866 -1.02642
2022 3 23.8222 22.0603 25.1342 0.5554 -0.37788 -0.13624 -0.0785352 0.0366422 -0.0331619
2023 1 23.5448 21.6477 33.2957 0.42517 -0.124063 -0.100348 0.101963 0.451935 0.383392
2024 3 21.8258 23.3021 34.1952 1.30967 -0.355878 0.228319 -0.184728 0.0912021 0.177279
2025 2 21.8567 22.6777 21.8005 -1.54229 0.223826 -1.33878 0.594158 0.0212992 0.082419
2026 1 21.587 24.9848 20.7012 0.642217 0.0492946 -1.07288 -0.384101 -0.37046 -0.408696
2027 3 22.4077 25.2435 18.5491 -1.77542 -1.06096 4.82114 -0.0809035 -0.212199 -0.675064
2028 1 20.6488 26.3173 23.711 1.1211 0.454911 0.340113 -3.74189 -3.63603 3.90557
2029 1 20.8013 27.5618 27.0498 1.48381 -0.240589 0.373068 0.297124 -0.0900109 -2.08034
2030 3 21.6176 25.4301 27.4036 -0.4028 -1.47174 0.780604 -0.293745 -0.853513 0.209479
2031 3 22.0028 24.8747 24.6441 -0.537249 0.320106 0.676983 0.0664959 0.0217512 0.157398
2032 1 22.096 25.4766 32.8188 0.143462 -0.519997 -1.53599 0.600374 0.213861 0.406671
2033 2 19.8371 27.5114 21.5165 13.0464 3.78062 6.4362 -5.38735 -4.23669 -1.9079
2034 1 19.106 29.98 20.9867 2.73412 1.48861 -1.18684 -3.28004 -3.27732 1.3531
2035 1 19.3984 29.3761 23.7308 -0.584134 -3.72043 -2.12312 -1.06398 -0.0491612 -2.65903
2036 1 18.1804 30.3234 26.7524 -3.57578 2.65293 2.01399 -0.196655 0.599715 -2.71705
2037 3 20.1152 29.6456 27.7274 -3.45684 2.1785 0.314257 0.54659 -0.664077 0.520141
2038 3 20.0462 27.6374 25.056 0.828299 0.5169 -1.14267 -1.77272 0.802175 -0.076256
2039 2 -17.0533 30.2828 30.8671 -0.471731 -1.46024 0.0267139 0.0275371 0.0128641 -0.0607409
2040 3 19.3263 29.9259 33.8795 -0.817111 -1.24652 -3.35485 -0.675551 0.235849 -0.341526
2041 2 17.5398 28.5642 22.0945 -4.79836 -7.01192 -10.3178 -5.4491 -0.688385 0.714938
2042 3 19.5296 30.5521 18.9977 0.423627 3.52983 -1.74796 1.01517 -0.267541 -0.402055
2043 1 36.6745 0.314195 23.2366 1.34374 1.98975 -0.016467 0.24206 -0.874919 0.88715
2044 3 18.9784 31.0673 24.6798 -0.313739 1.5434 -0.658786 -0.0836361 -0.90827 1.14972
2045 1 17.8416 30.4748 35.2198 0.346337 -0.759186 -2.3294 2.44129 3.59975 -0.333401
2046 2 -0.311423 0.573363 30.8151 -2.02148 -0.758429 0.40071 1.10721 -0.272319 -0.0600952
2047 1 -18.1905 31.5898 32.9198 1.42131 -3.90058 -0.773847 0.0357623 1.85749 -2.49795
2048 3 17.0076 31.8953 33.857 1.90307 5.85902 0.628078 -1.0459 -0.0896455 0.0260885
2049 2 1.12605 0.898563 38.8057 0.522367 0.548291 -0.393621 0.0806243 -0.0824397 0.661932
2050 1 0.515774 2.04744 36.4732 -0.193928 -0.139695 0.767165 0.149744 -0.50768 -0.34326
2051 1 0.126833 2.49732 40.7964 0.633002 0.566459 0.328562 -0.271162 -0.769225 0.174907
2052 1 35.3481 3.17387 43.1989 0.321058 1.54067 1.13109 -0.770992 0.453864 -0.525577
2053 1 -0.925796 4.46125 36.3396 0.0726025 -0.350431 0.153361 -0.5662 0.590459 0.452876
2054 1 0.153725 3.4191 46.226 -1.34602 -1.08145 -0.679531 -0.0946636 -0.237246 -0.0771832
2055 1 -2.85924 5.70673 42.8665 4.20121 -2.66823 -0.442022 1.26611 -0.419388 -0.169228
2056 3 -1.24689 4.66565 44.5153 0.920565 4.73412 1.58482 -0.204634 0.387624 -0.235653
2057 1 -2.85067 6.74809 37.4653 -0.677675 -0.066269 -0.758904 -0.168149 -0.262636 -0.180766
2058 3 -1.64544 6.32803 36.0751 -0.752089 -1.80522 -0.561787 -0.251983 -0.122893 -0.542882
2059 1 -0.578217 6.19667 45.8951 0.254058 -3.82385 -3.61921 -0.379921 0.145548 0.249473
2060 2 -1.89032 8.21247 46.4128 0.167748 1.36188 0.277512 -0.000467292 -0.844914 -0.11211
2061 3 -2.94771 8.77627 35.978 -0.51396 -0.31765 -0.0268935 -0.506418 -0.399494 -0.332901
2062 1 30.8688 10.7146 43.0008 0.584386 -0.286325 0.0106142 0.0681665 0.0434377 -0.0318762
2063 3 -2.93441 8.06231 43.0795 -0.118904 -0.238395 -0.164525 0.042297 -0.247687 0.0219087
2064 1 -3.80335 8.98619 47.6484 -0.0953471 -0.631168 0.818078 0.0376586 0.260349 0.482997
2065 3 -4.52835 11.9567 35.667 -0.0874621 -0.00651459 0.0489093 -0.0179206 -0.0185747 -0.00907685
2066 1 29.3918 13.125 42.6578 -0.221329 -0.340633 -0.0897092 0.262741 0.0270268 0.0835105
2067 3 -6.48904 12.5211 43.7992 -0.293633 -0.640657 1.24575 -0.305198 -0.0712755 0.107677
2068 3 -4.75542 11.0162 41.8752 -0.245787 -0.918537 0.806455 0.0103013 -0.00227433 -0.239782
2069 2 -3.70333 12.4696 46.6342 -0.592597 0.290545 0.499337 0.110866 0.0679052 0.0911954
2070 1 -5.20958 12.3506 48.4656 -0.79306 -0.341601 0.423119 0.161671 -0.261553 0.187744
2071 2 -6.78042 13.3162 39.1864 0.798262 2.56132 0.0207934 -0.103666 -0.0774198 0.139937
2072 1 -7.56481 15.0221 37.5118 -0.49672 -0.455199 0.471826 0.00217901 -0.152423 0.0941973
2073 3 -6.35367 14.7208 35.4181 -0.144827 -0.288377 -0.115502 -0.0313377 -0.00921514 0.11205
2074 1 -7.25503 15.3895 40.9674 -0.584751 -0.191318 1.06091 -0.0836123 -0.207293 0.0705695
2075 1 -9.04703 16.0441 43.8682 -1.0477 -0.507215 1.6566 0.141963 0.221096 0.0721787
2076 3 -6.0276 14.272 42.6419 -1.47897 -0.460038 1.21196 -0.803524 -0.621852 -0.431458
2077 2 28.0319 15.4797 39.2823 -0.379886 1.08389 0.186001 0.0249628 -0.0235492 0.203571
2078 1 -9.34268 17.6168 37.5694 0.445089 0.588341 0.226204 -0.266451 0.0874759 0.275102
2079 1 -9.1927 17.5154 41.046 1.76486 0.489805 -0.159588 -0.0156824 0.284306 -0.260199
2080 1 -7.49978 17.3773 45.0465 -0.342207 0.91378 -0.0650042 0.154956 -0.265099 0.479639
2081 1 26.4003 18.4974 42.9913 0.293722 -0.525089 -0.470341 -0.12782 0.0974136 0.106962
2082 3 -9.41453 18.0249 44.3651 -2.20935 -0.294745 -2.70641 0.320716 -0.0427957 -0.40713
2083 2 -8.40774 18.3475 47.3286 -6.80576 4.81393 -14.5164 -0.843583 0.606682 -1.83007
2084 2 -10.6945 18.5449 39.4078 -0.318538 -0.14574 0.0867332 -0.195336 0.0205729 0.0486041
2085 1 -11.1465 20.4177 37.7665 -0.176289 -0.399572 0.0429109 0.0971516 0.694421 0.532117
2086 1 -10.861 20.5372 41.0036 -0.989084 1.68724 1.81925 0.163422 -0.806644 -0.449062
2087 1 -9.38704 20.0515 45.3071 -0.744455 -0.438554 -3.36304 0.39474 0.295579 1.27027
2088 1 -11.95 21.5999 43.604 0.00393436 -0.326682 -0.0778081 0.0899218 0.0342165 0.209169
2089 3 -11.0778 19.9582 44.2633 -0.332711 -0.532991 1.318 0.0815444 0.0565338 0.238657
2090 3 -9.24362 19.2737 42.1937 -0.117342 0.0458151 0.0476979 0.126493 -0.203681 -0.231459
2091 2 -9.48666 22.6466 46.5906 0.0457634 -1.11264 0.486249 0.0458797 -0.0162535 0.107658
2092 1 -8.60855 20.8181 47.9798 -0.635114 -0.0229486 0.394101 -0.28753 -0.12681 -0.0247869
2093 2 24.3194 21.5645 39.1677 0.721228 0.506486 -0.15255 -0.181857 -0.650696 0.243417
2094 1 -12.5454 23.128 37.3545 1.24028 0.421864 -2.61746 0.80389 0.845129 -0.672932
2095 3 -10.8399 22.244 36.4986 1.51913 0.790041 0.895795 0.139736 -0.0288568 0.244682
2096 1 -12.0324 23.1542 40.904 -1.73711 0.709609 -0.738438 -0.126489 0.203364 0.210094
2097 1 -13.4672 23.8861 43.1523 2.07176 -1.9671 0.577067 -0.456936 0.118667 0.533575
2098 3 -11.7007 23.3148 44.395 -0.193041 -0.158787 0.782196 0.0267236 0.0719743 0.201819
2099 3 -10.8949 22.225 42.1465 -3.17554 -1.78172 -3.8985 0.452641 0.29249 0.364897
2100 2 -13.6966 24.0979 39.505 0.39588 -0.573121 1.68627 0.297782 -0.170506 0.897042
2101 3 -12.4471 25.0217 36.3071 -0.471517 -0.926712 -1.97576 -0.202717 0.318647 -0.12794
2102 1 -13.8083 25.8748 41.2064 -1.13812 -0.671191 -0.928212 -2.01178 -1.2327 -0.334971
2103 3 -12.0446 25.0524 42.3116 -0.291989 0.133156 -0.509007 -0.218972 -0.0745964 0.305931
2104 1 -11.6565 24.892 48.7892 0.0786314 -0.17719 0.693545 -0.184284 0.110427 0.178561
2105 2 -14.1772 26.6489 38.8787 -1.01746 -1.01644 4.97588 0.27857 1.59059 1.88239
2106 1 -14.7193 28.7682 37.6527 2.25011 1.34003 -1.67124 1.13436 -0.585329 -0.0622249
2107 1 -15.3561 28.0693 40.8249 1.16444 0.433139 1.59104 -0.870809 -0.317716 -0.661912
2108 1 -12.8972 27.2718 48.4992 -0.000323658 -0.284415 0.609167 -0.424478 -0.382324 0.0717814
2109 2 -16.005 30.049 39.4016 3.43287 0.392667 -0.651644 -0.154916 -0.202611 0.140974
2110 1 -16.5706 31.4321 37.1025 1.74562 0.467026 -0.245279 -0.656727 1.28351 -0.0487699
2111 1 -16.5803 32.0037 41.0713 0.581082 0.791715 0.813243 0.52797 1.78397 0.19762
2112 1 0.335327 0.685283 43.0382 -0.448805 -0.134826 -0.295987 0.413033 -0.512127 -0.0344061
2113 2 -15.7603 31.9133 46.679 -0.448948 0.0134339 -0.100154 0.29051 -0.167673 0.178183
2114 1 -14.2008 30.2524 48.576 -0.648487 -0.392026 -0.106787 -0.316105 -0.167066 -0.464595
2115 2 3.67914 0.109335 39.0918 3.2974 3.54147 1.47856 -0.14201 -0.506972 -0.086227
2116 1 3.21152 1.94334 37.4964 0.243234 -0.700199 -0.0798192 -0.632091 0.372724 0.814002
2117 1 3.00844 2.25454 40.4532 -0.137385 -0.511846 0.0870859 -0.26796 -0.875235 -0.084256
2118 1 4.31757 1.58281 46.1501 0.355283 0.336483 -0.269459 0.103609 0.0384965 0.126148
2119 2 4.97634 3.18958 47.9899 -0.398191 -1.73618 0.839431 -0.0349605 0.50938 0.00676293
2120 1 3.58778 1.09968 48.5988 0.440347 0.0301805 0.178394 0.0771192 0.0481675 -0.0367164
2121 2 1.4788 3.40147 38.573 1.69512 0.212818 0.60825 -0.501641 -0.0173158 -0.0388158
2122 1 1.3416 5.50601 37.2866 1.35487 -1.56973 0.271733 0.217123 -0.0226591 -0.0892224
2123 1 1.31446 4.93501 40.4876 -0.779897 -0.341903 -1.20057 -0.0348637 0.366241 0.0967375
2124 1 3.29907 4.06827 46.2984 0.958634 0.16362 1.07126 0.411573 0.451292 -1.01052
2125 1 0.3015 4.88723 43.3742 1.28874 -1.92707 -1.64288 0.833065 -0.255666 0.394397
2126 3 1.66306 4.0471 44.8301 0.431805 -0.326166 0.98625 -0.0330593 -0.0310291 0.230295
2127 2 3.49634 6.37705 47.3088 0.106465 0.140804 0.146317 -0.661683 0.266371 -0.176902
2128 1 4.77614 5.56922 49.2168 -0.59386 0.161863 0.447998 -0.465033 -0.227839 0.26502
2129 2 -0.698691 5.71342 39.0711 -5.60385 -2.06196 2.53739 -0.635327 -0.182149 0.509901
2130 1 -0.37706 7.54644 37.409 -0.595151 -0.0442 1.79234 -0.392803 -0.220777 0.0775276
2131 1 -0.164506 7.92684 40.1899 0.683075 0.0204427 0.389634 -0.297504 0.356754 -0.441989
2132 1 2.04342 6.12727 45.221 -0.994104 -0.276852 -0.407667 -0.505646 0.36518 0.0951869
2133 1 -1.07177 7.44485 43.1525 0.121814 -0.176582 -0.200627 0.0291181 0.0783485 0.0866005
2134 3 0.453065 6.82099 44.1838 0.173437 -0.0278935 0.0843941 -0.0291153 -0.0758106 0.0537737
2135 3 2.6211 5.84497 41.8783 -0.354435 0.284083 -0.388703 -0.0160465 -0.198249 -0.240924
2136 2 1.31918 7.75379 47.1049 -0.0359661 -0.449536 -0.424961 0.254186 -0.235702 -0.295489
2137 1 1.58355 6.27754 48.9479 -0.0901957 -0.101606 -0.697816 0.0837013 0.0372891 0.0751922
2138 2 -2.50853 8.41165 39.2969 -0.534346 0.797815 0.00684635 -0.245951 -0.0510485 0.102047
2139 1 -1.86079 9.77796 37.185 0.0318635 0.0653219 0.239963 0.166016 -0.03246 0.192889
2140 3 -0.0626575 8.74217 35.9084 -0.278474 -1.71241 1.585 -0.256194 0.191963 -0.79461
2141 1 -2.10508 9.81129 41.7429 -1.61538 -5.6016 -6.81405 -0.133894 -0.495815 -0.586763
2142 1 0.249701 8.75486 45.3387 0.33812 0.14054 0.204052 0.0814175 -0.163879 0.00171527
2143 3 -0.216128 8.95672 42.1836 -3.2036 4.20762 10.8472 0.78461 -0.913296 -1.60572
2144 1 -0.493572 9.20845 48.0437 -0.820283 -1.6454 -1.40935 0.540504 -0.229019 0.443379
2145 3 -1.6799 11.4427 36.024 -0.242452 0.160527 1.52053 0.112855 -0.0685734 0.037258
2146 1 -4.56138 12.578 43.1305 0.882201 -0.481153 0.674337 0.100185 0.0175654 0.104868
2147 3 -1.95509 11.1244 43.1436 1.16839 2.41253 -0.627947 -0.272267 0.0266871 0.440881
2148 2 -1.12556 12.5174 47.0183 0.108459 0.0330649 -0.327895 0.00403536 0.11327 0.142879
2149 1 -2.51273 11.3682 48.5951 0.195374 0.360268 -0.0933895 0.0993908 0.0592116 0.0634229
2150 2 -4.5337 12.6507 38.7778 -0.205604 -3.03337 0.818434 -0.00373632 0.0148453 -0.0325655
2151 1 -4.83713 14.8215 37.0031 0.712859 0.336428 -0.0619779 -0.00334425 -0.0277122 -0.192293
2152 3 -3.27434 14.4404 35.7359 0.887279 -1.1136 -0.255414 -0.178681 -0.160858 0.121083
2153 1 -4.86909 14.2423 40.6824 -0.439888 0.213865 -0.274204 -0.490505 -0.206458 0.0829942
2154 3 -3.56601 14.1316 42.2856 -1.7952 1.17173 0.919824 0.691214 -0.842749 -0.96727
2155 1 -2.69672 14.0495 48.3742 0.037795 0.140633 0.760953 0.0806952 0.0792277 -0.143852
2156 2 -5.71162 16.199 39.1027 0.0978449 0.319357 0.535705 -0.058472 -0.0451282 -0.00937875
2157 1 -6.38241 17.7702 37.298 0.208803 -0.0419096 0.900777 0.284887 0.145087 -0.181839
2158 3 -4.84982 16.7047 35.9718 0.264195 -0.291163 0.77529 -0.241565 0.0600698 -0.106347
2159 2 -7.7486 18.7124 39.261 0.360776 0.126988 -0.0246947 0.00357533 0.031874 0.0863282
2160 1 -7.82736 20.449 37.1863 0.0275699 0.222677 -0.39319 -0.114869 0.0950578 0.148866
2161 1 -8.05281 20.6765 41.3947 1.34533 0.677229 -0.910776 0.472362 0.445352 -0.439196
2162 1 -6.60152 19.4116 45.9116 -0.69064 0.639002 0.176153 -0.187255 -0.141267 0.131968
2163 2 -6.20275 21.3928 47.9153 0.0611345 -0.0172578 -0.33776 -0.2036 0.0520715 0.151377
2164 1 -6.37677 18.9764 48.592 0.91831 0.329209 0.809493 0.164603 0.0694053 0.242722
2165 2 -9.20068 20.9846 39.1432 -0.0475962 -0.108312 0.330938 0.0754322 0.0861021 0.0770544
2166 1 -9.28717 23.2231 37.3064 0.477442 -0.3583 0.710738 0.0688709 -0.197577 0.252333
2167 3 -7.51898 22.4248 36.4476 -1.06977 -2.52512 2.16398 0.163368 0.0256661 -0.298198
2168 1 -10.2201 24.0086 42.5949 -1.94924 -0.0910086 0.218207 -0.0748483 0.261619 -0.115751
2169 1 -7.53618 23.4312 47.8705 -0.978222 -0.690596 0.0188288 0.0142593 0.0223878 0.210889
2170 3 -9.10507 24.6727 35.7076 0.310885 0.309952 -0.189056 0.0744156 0.0956043 0.0287504
2171 1 -9.45508 25.3771 46.4785 0.287009 -0.081896 0.0412065 0.110269 0.464426 0.0239162
2172 1 -12.0662 26.6198 43.6892 0.10328 -0.106267 0.184979 -0.163153 0.37433 0.0578886
2173 3 -11.11 26.3305 45.4896 0.560301 -0.829041 -0.229714 0.0190062 -0.162188 -0.0462631
2174 2 -9.56727 28.9992 47.7455 -0.0974059 -0.326879 0.166186 -0.0730175 -0.0627488 -0.148017
2175 1 -8.70134 26.5217 48.5976 0.233588 0.535325 0.333724 -0.154677 -0.0601347 0.0693303
2176 1 -12.2152 29.1802 37.2461 0.0049982 0.546591 -0.853276 -0.392544 -0.47539 0.177219
2177 3 -11.2685 27.8113 35.9217 0.368191 0.651884 4.51781 -0.0383867 -0.0122566 -0.730773
2178 1 -13.1962 28.5819 42.1972 0.663054 0.789894 -0.571774 0.300834 0.00679657 0.243477
2179 1 -10.9825 28.2005 45.9357 1.79601 -1.31435 0.259741 -0.133841 -0.359125 -0.0637092
2180 3 -11.0139 27.9187 42.7078 1.48295 -1.46897 -1.31868 -0.0777995 0.313864 0.358266
2181 1 -10.6583 27.947 49.5457 -0.346619 -0.299363 0.284308 -0.0908633 -0.107625 0.122197
2182 2 -12.9342 28.4945 39.6818 -2.73255 -1.29529 1.66154 -1.13851 -1.97464 -0.511108
2183 1 -13.2953 31.7947 37.1829 -0.314072 0.0836091 1.23715 -0.0197601 0.0221747 0.180044
2184 3 -12.5399 30.5299 35.7446 -0.105103 -0.167826 0.7249 -0.0878334 0.0325842 -0.0550493
2185 1 -13.4531 30.7924 40.2985 2.43711 -0.69826 -1.87165 0.145421 0.644881 -0.268158
2186 1 -12.2051 30.4383 45.9737 -0.144076 -1.13408 -0.375126 0.184224 -0.207659 -0.082018
2187 3 -12.6086 30.5798 42.3542 -0.311562 0.00997944 -0.292031 0.0152205 -0.05053 0.100152
2188 2 -13.0335 32.2505 47.5903 -0.0242783 -0.145215 -0.186349 0.25182 -0.280264 0.00984226
2189 2 6.75981 0.149742 39.0514 0.925186 0.189094 -0.143605 -0.083884 -0.103711 0.172608
2190 1 6.34379 2.07222 37.2275 0.246143 -0.697336 0.459345 -0.101954 0.337974 0.213731
2191 1 6.13139 1.88849 40.7233 -0.230776 -0.915176 1.28935 0.185733 0.431542 -0.412672
2192 1 7.06889 0.960022 45.7162 0.103254 -0.840795 -0.438336 -0.0816429 -0.266161 -0.043218
2193 3 5.66672 1.8765 44.5305 0.268889 0.330355 -0.0495563 0.029051 0.00511946 0.14346
2194 3 7.16031 0.874805 42.3153 -0.129364 0.031428 -0.292673 -0.00319306 0.0144251 0.0156523
2195 2 7.89061 2.31198 47.5712 0.173272 -0.449569 -0.316325 -0.0854846 -0.0944651 -0.160805
2196 2 4.91414 3.3456 38.9299 -2.47085 -2.66116 1.09806 0.121 0.0131114 -0.335443
2197 1 4.3618 4.71442 36.7974 0.195811 0.265685 0.224984 0.359243 -0.425488 0.303231
2198 3 5.70363 3.59598 35.8381 -0.823445 -0.48178 0.359202 0.275129 -0.010476 0.0576697
2199 1 4.28404 4.72372 40.919 -0.0104972 -0.232175 -0.083951 -0.259549 -0.686508 0.394757
2200 1 6.27257 3.67451 45.7795 0.0739993 -0.176001 0.263533 -0.063759 0.0565795 0.180574
2201 1 3.08553 4.49772 43.3467 -0.598156 0.901414 0.335375 0.240598 -0.110445 0.235769
2202 3 4.69128 4.16359 44.5625 -0.327627 -0.571503 0.0565598 0.0528738 -0.158557 0.209916
2203 2 6.12164 6.35174 47.3625 0.557495 1.06513 2.01617 0.602482 0.165159 -1.83279
2204 1 7.18328 4.43757 48.4831 0.232254 -0.879328 0.000459721 -0.0932063 -0.61374 0.0797043
2205 2 3.41899 5.76661 38.7846 -0.29367 0.609278 0.187889 -0.173723 -0.187062 0.344303
2206 3 5.05748 6.3449 36.0875 -0.350776 -2.07764 -1.27781 0.0593541 0.21598 0.652024
2207 1 2.5061 7.27932 40.4812 -1.01194 1.03373 3.25014 -0.510528 0.609637 1.18423
2208 1 4.85833 6.02938 45.1526 -1.18074 0.122442 -0.212372 0.397981 0.375422 0.201671
2209 1 1.685 7.8472 42.9365 -0.926388 0.319009 0.545532 0.349578 0.22394 0.328849
2210 3 3.31814 6.40238 43.8335 -0.113416 0.13551 -0.319836 -0.223338 0.231883 -0.0546533
2211 2 1.88792 7.77517 38.2109 6.59608 1.0098 -4.86994 0.542895 -0.131724 0.142406
2212 1 1.17437 10.0692 40.9982 0.0809327 -0.183328 0.192855 -0.0102922 -0.12756 0.0846478
2213 1 0.0521749 10.6134 43.333 -1.09679 -1.30111 -0.811183 -0.124176 0.298358 0.230826
2214 3 1.48144 9.80969 44.3682 -1.58965 0.085938 -0.391964 0.18375 -0.419334 0.317893
2215 3 3.01585 8.84161 41.7713 0.20664 -0.196959 0.703678 -0.0953689 0.0334367 0.0943754
2216 1 3.29314 8.82375 47.852 -0.745158 0.4793 -0.356116 -0.0778726 0.141034 0.0382353
2217 3 1.81607 11.4199 36.4873 0.299884 -0.536901 0.254517 -0.370823 -0.784522 0.128471
2218 1 -1.84804 13.1196 42.7607 -0.293664 -0.268314 -0.551637 -0.0922624 0.231277 0.150668
2219 3 -0.432317 12.4034 43.9604 -0.313857 2.33327 0.836187 -0.332548 -1.0578 -0.474234
2220 3 1.49332 11.6656 42.3523 1.76465 -0.211994 -0.0346898 0.170067 -0.173091 0.152878
2221 1 1.28767 11.3797 47.3728 -0.11121 0.947448 0.340997 -0.152745 0.225319 0.106654
2222 1 -1.66928 14.98 37.598 1.10682 -0.248979 -1.05604 0.383097 -0.0388875 -0.309749
2223 3 0.0581098 14.6158 36.3129 -0.282192 0.770865 1.03868 -0.00415348 -0.0330444 0.0732699
2224 1 -2.29803 14.8575 40.7402 0.696602 0.463384 -0.961241 0.134091 0.613128 -0.535811
2225 1 -0.462007 13.9447 45.1545 -0.98972 0.0425111 -0.509888 0.462773 0.31109 0.16354
2226 1 -3.69934 15.9724 43.0612 -0.362572 1.12143 1.67231 0.607132 0.0047226 -0.442104
2227 3 -2.23639 14.6691 44.1348 0.384862 -0.74688 0.513717 -0.0971893 0.0206553 0.328535
2228 3 -0.827586 14.0726 41.5088 0.310766 0.0799988 -0.658432 0.0811551 -0.0173689 0.160935
2229 2 -0.630243 15.2787 47.2811 0.629142 0.083686 0.474387 0.078003 0.0928365 0.0244603
2230 1 0.0810355 13.523 48.8325 -0.778371 -0.25658 -0.349031 0.268885 -0.0488176 0.0824866
2231 1 -3.70585 17.3418 37.7714 -1.07483 0.257631 0.157036 -0.187724 -0.138315 0.108211
2232 3 -2.04163 16.8932 36.9144 0.0330006 -0.85883 -0.712836 0.0452052 -0.0766497 -0.164489
2233 1 -1.98198 16.3822 45.4123 0.782289 -0.14295 -0.32149 -0.295988 0.00775683 -0.176022
2234 3 -3.21268 17.4428 44.3608 -0.314577 -0.330976 -0.574427 -0.32273 -0.450873 -0.0746456
2235 3 -2.09459 16.7757 41.7566 -0.715654 0.0186363 0.13125 -0.669419 -0.671241 -0.0104461
2236 2 -2.47295 19.543 47.3206 2.56302 0.727905 1.08116 0.180265 0.0395816 0.252529
2237 1 -4.88533 20.4118 37.7103 0.413859 -0.367229 -0.510143 0.119844 0.550997 -0.590742
2238 3 -3.55414 19.1238 36.6221 -0.615603 0.0449265 0.582796 0.0320461 0.16555 0.206997
2239 1 -3.5924 19.2792 45.1034 2.34101 -1.26049 0.0348801 -0.594146 -0.0753364 0.0837489
2240 1 -6.83234 21.2923 43.6195 1.58995 0.0678189 0.103459 -0.0400278 0.252114 0.533283
2241 3 -5.3751 19.9809 44.0877 0.708853 0.118057 -0.376431 -0.0781848 0.107981 0.114589
2242 2 -3.73084 21.8602 47.7541 -0.259536 0.492538 0.541299 0.168551 0.29639 -0.313903
2243 2 -6.47828 21.0046 39.4997 0.549346 0.396829 0.0749918 -0.129352 0.128749 -0.162502
2244 1 -6.04746 23.3535 37.6107 -1.00214 -0.105267 -1.67318 -0.222547 -0.241389 -0.191424
2245 3 -4.52014 22.2808 36.6594 1.40267 -0.730421 -0.625772 0.336407 -0.0729765 -0.0320534
2246 1 -5.91304 22.9513 40.964 1.73193 1.13707 1.6345 0.271743 0.0152463 -0.0191951
2247 1 -5.28457 21.5167 45.5812 2.3121 -1.86321 -0.543567 -0.023608 0.242159 0.317601
2248 3 -5.03037 22.5771 42.66 0.592514 -0.959906 -0.65604 -0.411618 -0.0271184 -0.564315
2249 1 -4.7437 23.8176 48.7245 0.879849 0.265047 1.58104 0.104116 0.483544 1.14699
2250 1 -7.92773 25.7158 36.954 1.81712 0.782321 0.227534 0.31959 0.182745 0.064499
2251 3 -6.46523 24.7824 35.9541 0.458744 -0.135415 -0.463573 0.0853679 0.0227387 -0.0215888
2252 1 -9.50956 26.8972 43.9947 0.446699 -0.489446 -0.0450723 0.0674936 -0.101873 -0.0167902
2253 3 -7.92285 26.0783 45.2147 -0.415133 0.231025 -0.0961769 -0.334283 -0.183684 -0.0113414
2254 3 -6.01564 24.5277 42.6028 -0.0987034 -0.109672 -0.0076418 -0.0615137 -0.0275301 -0.143689
2255 2 -5.60352 28.3689 47.5632 1.2391 3.23269 -1.55074 -0.0957278 0.079792 0.0893117
2256 1 -6.54064 25.549 46.704 0.193276 0.354391 -1.04455 0.00347016 0.0131959 0.243167
2257 3 -7.64953 27.5081 35.8269 0.392712 0.487057 0.262069 0.0246094 0.0804351 0.00855527
2258 1 -7.66289 27.8971 46.0104 0.148622 1.71712 0.165367 -0.0452553 -0.0865101 0.00714524
2259 1 -10.8189 29.8573 43.4011 0.123222 0.141161 0.0331245 0.203304 -0.159449 0.020552
2260 3 -9.40895 28.7821 44.5754 -0.376318 0.755314 -0.137456 -0.578922 -0.349737 0.48578
2261 3 -7.78404 27.3144 42.8208 -1.44353 1.43233 -0.00730622 0.207992 0.0152664 -0.091404
2262 2 -7.09742 30.2595 46.1989 -0.11619 0.442698 -0.205106 0.183028 -0.0191673 0.108088
2263 1 -7.49423 29.0807 48.9074 0.0190317 -0.279493 0.760693 -0.014248 -0.00421796 0.177452
2264 1 -10.9316 31.6157 41.2234 -0.180208 0.297293 0.338237 0.30098 -0.111011 0.517767
2265 1 -9.48762 30.51 45.777 0.250729 0.363999 0.441354 -0.0338075 -0.160068 0.207535
2266 1 5.77477 0.0873999 43.3232 -0.246952 -0.42642 0.274441 0.0672808 -0.0513037 -0.0906491
2267 3 -11.1723 31.51 44.6846 0.162701 0.596689 0.0605296 0.000239785 -0.283878 -0.094221
2268 3 -9.36374 30.7591 42.6515 0.309651 -2.70769 0.325826 0.0192103 0.126258 0.286863
2269 1 7.28724 2.60202 43.2623 -0.161475 0.139999 -0.638157 -0.00933269 0.0452041 -0.113018
2270 3 8.69927 2.05692 44.5045 -10.1022 0.375853 -1.78651 -1.07226 -0.0465669 -0.193942
2271 3 10.7971 0.788573 42.8602 -0.37591 0.172605 0.0618995 0.130339 0.0990244 0.137568
2272 2 7.66874 3.17816 39.1981 -1.2544 -0.0429964 -0.430878 0.141331 -0.0612493 0.15068
2273 1 7.05541 4.71214 37.2273 0.271258 0.822483 -0.108418 0.374998 -0.355765 0.121962
2274 1 7.51498 4.79296 41.2285 0.129267 -0.00110662 0.0995139 -0.269103 0.271589 -0.137068
2275 1 9.04017 3.76873 45.7699 -0.573498 -0.610596 -1.27537 -0.146171 -0.234692 -0.599672
2276 3 8.86563 3.78576 42.309 0.0271622 -0.0473519 0.414692 0.0721039 0.017354 0.173288
2277 2 9.24651 5.34253 47.7078 -0.946412 -0.329758 -0.0805143 0.399591 -0.222444 -0.145256
2278 1 10.2646 2.98337 47.997 0.406229 0.835066 -0.126539 0.0942381 0.150831 0.0899842
2279 3 7.77939 5.83092 35.5629 -0.313598 -0.410207 -0.341153 0.0371252 0.218614 0.0862596
2280 1 7.85039 6.13315 45.6816 0.507823 0.23104 -0.232634 -0.312847 0.1891 0.367271
2281 1 4.46043 7.90433 43.2142 0.428138 -0.885391 0.652723 0.609925 -0.083987 0.1947
2282 3 5.90927 8.50921 35.7943 -0.156196 1.0845 0.656804 0.212376 0.350018 -0.0689668
2283 1 4.85534 9.49115 41.1505 0.181172 -0.142942 0.608981 0.0790943 -0.152769 -0.3833
2284 1 6.32849 8.77127 44.7695 -0.196268 0.0582774 -0.0744015 0.650332 -0.208231 0.610965
2285 1 2.96407 10.255 43.1483 0.374935 -0.124512 0.130594 -0.111783 -0.088413 0.08422
2286 3 4.47073 9.55726 44.561 0.784122 -0.182709 -0.622359 0.0638882 -0.0192716 0.0378248
2287 3 6.2091 8.68799 42.6559 -0.077287 0.372881 0.580762 0.0945103 0.21137 0.164843
2288 3 5.1672 11.9082 35.2868 0.334481 0.656063 0.146394 0.0373945 0.20677 -0.121798
2289 1 4.99514 10.7143 46.1992 0.968581 0.0270809 -0.798398 -0.248337 0.521073 0.422657
2290 3 4.62552 11.2152 42.3139 -0.0129649 -0.119152 0.570274 0.059669 -0.0420128 0.0250322
2291 2 5.03484 13.3171 48.1468 1.67255 0.356387 -0.140518 0.421544 -1.8579 -0.00472081
2292 1 4.09234 11.087 48.5514 -0.10434 -0.19179 0.353452 0.114797 -0.0914815 -0.169125
2293 1 1.29114 14.0292 37.8752 -1.81859 -0.961326 0.433629 -0.199559 -0.0666853 0.0687683
2294 3 2.50531 13.451 36.6067 1.13396 0.743648 -1.88879 -0.390016 0.518883 -0.393716
2295 1 -0.87188 15.6798 43.0823 -0.447783 0.499613 -0.610551 0.186499 -0.0498192 -0.561828
2296 1 2.67546 13.5924 48.4871 1.38291 -1.1306 -0.814223 0.0459883 0.273881 0.446959
2297 2 0.640341 15.9894 39.1354 3.23252 -2.49552 2.81996 -0.081203 -0.188869 -0.0724124
2298 1 -0.133623 17.0311 41.0838 -0.386847 0.0506886 0.717247 1.32762 0.334137 0.00939153
2299 1 1.18207 16.7767 46.4195 -0.545591 -0.0125484 -0.214947 -0.155971 0.820222 0.825846
2300 1 -1.73369 18.3231 43.202 0.238649 0.497484 -0.673866 0.0470288 0.0303303 -0.281448
2301 3 -0.427984 17.4049 44.7243 -0.586442 -0.894452 1.43962 0.424662 0.237376 -0.17168
2302 3 1.06458 15.7968 42.4183 1.43439 -2.33186 1.62971 -1.37855 0.409131 -0.0441397
2303 1 -0.789225 19.3771 45.5186 0.144082 1.25364 0.466868 -0.744577 0.456303 -0.29611
2304 1 -3.63454 21.1091 42.8829 0.126652 0.213659 0.333888 -0.0158915 -0.053281 0.0544927
2305 3 -2.14472 20.2208 44.0634 0.340268 -0.118194 0.614956 -0.194412 0.24517 0.406224
2306 3 0.0540484 18.563 42.3947 1.12704 1.90754 0.946359 0.151638 -0.854272 -0.999157
2307 2 -0.766021 21.4922 47.3764 -1.9749 -1.51271 2.1844 -0.285176 0.0884402 0.00946351
2308 2 -3.9719 21.0726 40.0673 0.499918 -0.947948 0.627282 -0.338344 0.0823133 -0.0951522
2309 1 -3.00983 22.6104 38.1646 0.460985 1.28436 -0.198871 -0.302983 -0.0218 0.266
2310 3 -2.54685 23.0421 36.1082 -1.59711 0.51924 1.06122 -0.196179 -0.00216989 0.163981
2311 1 -3.13005 23.244 41.204 -0.156203 -0.177929 -1.55768 0.486628 -0.666398 0.330231
2312 1 -2.5416 21.7628 45.6878 0.97593 -1.68208 2.73469 -0.332771 0.288604 -1.69736
2313 1 -4.29276 24.1556 43.724 0.211669 0.431194 0.113711 -0.127699 -0.204059 -0.211132
2314 3 -4.08618 22.3567 44.5782 0.489961 0.359437 -0.218581 0.580779 -0.0681126 0.478448
2315 3 -1.6113 22.1079 41.9801 1.89356 -0.0306887 0.199486 0.274022 0.294072 -0.105829
2316 2 -0.777597 23.7305 45.71 -0.714616 1.20905 0.4068 -0.0478925 -0.356044 0.32074
2317 1 -2.07002 23.6824 47.8296 0.392941 -0.08021 0.90894 -0.0660041 0.137522 0.437422
2318 1 -4.71183 25.5543 41.3817 0.705693 -0.766783 0.28358 -0.0391397 0.558595 0.135376
2319 1 -6.26159 26.2771 43.8443 0.228614 0.0590159 -0.44107 -0.0797571 0.196244 -0.0404877
2320 3 -5.23589 25.009 45.2705 -1.71952 2.34816 3.40127 0.205814 0.0265739 -0.0462888
2321 3 -2.83723 24.7217 42.5252 -0.833459 -1.82253 2.74234 -0.330876 -0.118156 -0.22165
2322 1 -6.06407 28.6073 36.8695 -0.00867433 3.34684 0.121277 0.0515417 0.157184 0.0808362
2323 3 -4.90675 27.5537 35.5638 0.237674 0.212971 -0.237633 0.0177071 0.00196679 -0.00295146
2324 1 -6.73918 28.4109 41.2584 -0.623121 1.23899 -0.95388 -0.358547 0.274043 -0.718186
2325 1 -7.54867 29.3533 43.7085 -0.0247922 -0.0439006 -0.548585 0.0836202 0.115412 -0.150137
2326 3 -5.79397 28.1747 44.2942 0.0329903 -0.241366 0.165765 0.0161974 0.121556 0.126179
2327 3 -5.31122 27.4023 42.3472 0.149434 0.184228 -0.244808 0.0118176 0.0254199 -0.0304135
2328 2 -4.00487 29.9579 46.3005 4.55364 2.51185 -1.08516 0.143731 0.0411006 0.0685944
2329 3 -6.12508 30.5836 35.7404 0.394125 0.922194 1.15439 0.0905492 -0.0845498 -0.101671
2330 1 8.84941 0.25616 43.5051 -0.0954157 0.113667 -0.283902 0.0974844 0.0768545 0.324979
2331 3 -7.11749 30.5743 41.9742 -0.00998343 0.0192507 -0.0762173 0.0391287 -0.0271142 0.0467538
2332 1 -5.59842 31.1309 47.8477 -0.930968 -0.463527 -0.308349 -0.0438701 -0.119612 0.138566
2333 2 12.9061 0.416139 39.026 -5.24042 -4.27853 -0.0593846 -0.0506164 0.035424 0.00883679
2334 1 12.9939 2.27653 37.1793 0.0613663 0.552615 -0.334025 -0.302695 0.110539 -0.180205
2335 3 14.0666 0.91213 36.0211 0.253269 0.438295 -1.17703 -0.376284 0.353654 0.0202562
2336 1 14.0063 1.27536 44.4914 0.666945 2.40772 -0.818868 -0.0800183 -0.398956 0.362851
2337 1 10.2945 2.61012 43.5127 0.333213 -0.380396 -0.481341 0.24025 -0.00209487 -0.219245
2338 3 11.8147 0.98595 44.7435 0.0322503 1.19426 -0.328842 0.182537 0.0481757 -0.0346232
2339 2 15.2871 2.69633 46.9423 0.127662 0.526159 0.85354 0.00485286 -0.0387028 0.20703
2340 1 13.9282 1.45551 48.5505 -0.362271 0.00125122 1.5493 0.101013 -0.099091 0.106747
2341 2 10.8521 2.75735 38.7807 -5.4536 -4.998 -3.7531 0.227505 0.139992 0.343924
2342 1 11.2259 4.3977 36.7323 0.236884 0.809778 -0.0258743 -0.0372554 0.0781879 0.307112
2343 3 12.8564 4.23384 35.7721 -0.164493 -0.113358 0.21577 -0.132591 0.0200349 0.101131
2344 1 10.7738 4.24042 41.0349 -0.0507538 0.35516 0.494438 0.0383844 0.338957 -0.237648
2345 1 12.6125 3.10115 45.8211 0.561388 1.00565 -0.594737 -0.101825 -0.0225966 0.0934667
2346 3 11.1801 3.96548 44.6477 0.827066 0.037358 0.174304 0.0339452 0.0702752 0.141643
2347 2 13.036 5.79436 46.4615 6.53226 6.988 -6.94051 0.880893 1.15399 -0.971482
2348 2 9.28275 5.18628 39.2198 -1.91074 0.453946 1.06525 0.274787 -0.0584134 -0.279792
2349 1 8.95389 6.65765 37.2467 0.482143 1.27596 -1.12438 -0.134995 0.0659103 0.389755
2350 3 10.2423 5.94479 36.1173 -0.839825 0.992307 0.162318 0.0498272 0.390385 0.128516
2351 1 10.6158 6.08613 45.2069 -0.610349 0.384006 -0.103586 -0.291566 -0.017185 0.425797
2352 3 8.88597 6.73346 44.1389 0.119237 -0.368538 -0.0371368 -0.052635 0.0452995 0.160747
2353 2 10.8713 7.49309 47.2939 -0.260108 -0.723976 0.276136 -0.130977 0.0154167 0.21646
2354 1 11.7104 5.49953 48.5196 -0.24947 0.279587 2.49823 -0.192103 0.055055 0.435484
2355 1 6.94711 9.16743 37.315 0.837361 0.566713 1.54125 -0.115123 0.22938 0.39728
2356 3 8.8482 8.38268 36.1756 0.994275 0.214013 -0.497734 0.0709081 0.176694 0.0807916
2357 1 8.98108 8.67969 45.5903 -1.44341 1.48833 1.29209 0.252339 0.0253877 0.0713907
2358 1 6.11204 10.8604 43.4508 0.930674 -1.16902 -1.75541 -0.370928 0.13946 0.575411
2359 3 7.63021 10.1876 44.6165 0.0751962 -0.125781 -0.141807 0.0218797 0.0536506 0.091905
2360 2 9.16831 10.7231 47.3672 0.0279939 0.363375 -0.414446 0.181837 -0.300869 -0.0793433
2361 2 4.79531 10.5042 38.8312 0.0811853 0.178036 0.274367 -0.0281785 -0.103776 0.0552209
2362 1 6.05126 12.1249 37.1807 2.14639 1.45275 1.29211 0.174507 0.182415 0.718353
2363 3 7.55974 10.7996 36.4625 -3.05221 -0.415252 1.25241 -0.500627 -0.0899626 -0.0484834
2364 1 5.74304 11.9238 40.6396 0.0849095 -0.317304 -0.297115 0.103749 0.0468941 -0.231919
2365 1 7.50038 11.5987 45.9053 0.0575441 -0.0346172 -0.226781 -0.589923 -0.219954 0.167508
2366 3 5.73344 12.2352 45.1302 0.566212 -0.00988416 -0.162842 0.0283846 -0.159657 -0.345256
2367 3 7.55905 12.3026 42.393 -0.350183 1.8023 -1.74206 0.123333 0.244598 0.286831
2368 2 7.64365 13.5782 47.6704 -0.965495 -0.38532 -0.2842 -0.158186 0.373499 0.0815796
2369 2 3.3997 12.8995 39.597 1.09975 -0.33557 -1.60979 0.00459944 -0.533712 -0.0311746
2370 1 4.01583 14.4234 37.0985 2.06429 -0.0145833 -1.39894 -0.853768 0.0841298 0.772664
2371 1 5.89983 14.0715 46.054 1.79226 -1.57751 -1.54166 0.477487 -0.416178 -0.411788
2372 2 5.62831 16.4144 47.1957 -2.84314 0.713413 0.231198 -0.0490039 0.614742 -0.777633
2373 1 6.12945 15.1515 49.222 -2.20648 -1.90739 -1.2298 -1.07054 -1.16771 0.866274
2374 2 3.07418 15.3699 39.1012 -1.39583 0.321857 -4.05079 -0.630926 -1.86811 -1.83268
2375 1 2.1114 17.154 37.4679 -0.187231 2.92399 0.645189 -0.0493858 0.635033 0.211495
2376 1 2.49778 16.43 41.1039 -2.16273 -2.78915 0.158613 -1.91168 -0.860261 -1.66632
2377 1 4.17668 16.2421 45.1684 1.90014 -1.70595 3.4064 2.6709 -1.01381 -1.4697
2378 1 1.20845 17.7409 43.5692 -1.16798 0.488526 1.54026 1.2034 0.518727 -0.956642
2379 3 2.56252 17.3989 44.8607 -0.10942 -1.46041 -0.036236 -0.804652 -0.0837634 0.128925
2380 1 3.62877 16.2514 48.5783 -2.65166 -1.68955 1.10979 -0.749298 -0.456655 0.104681
2381 2 0.159269 18.4286 38.8792 -1.34798 2.62784 -1.90325 -0.0309723 -0.0954629 -0.141338
2382 1 -0.128987 19.9588 36.9827 -0.953535 -0.386843 1.61339 1.11856 -0.365507 0.672365
2383 1 2.7327 19.2798 45.3343 -1.9776 1.34114 2.33418 0.494462 1.86606 -0.772167
2384 3 0.879297 19.8505 44.5581 0.596844 -4.87827 -1.28266 0.0474646 0.436515 -1.08731
2385 3 2.44724 18.0968 41.949 -0.160576 4.46631 -2.46569 -2.07328 -2.43505 -0.125774
2386 1 -1.16844 24.2913 37.1154 1.24485 0.875713 3.07183 -0.341554 0.542529 0.791272
2387 3 0.554978 23.1643 36.07 -1.21653 1.56688 0.782298 1.70377 -0.460057 -1.60939
2388 1 1.22484 21.3003 46.1408 1.70776 -1.3316 1.75231 -0.504922 -0.130693 -1.21901
2389 2 1.11337 25.6044 46.1123 -1.25159 -0.0358692 1.2678 -0.236249 0.364273 -1.22475
2390 1 0.810346 23.4439 47.5857 -2.08567 -1.42851 -1.77321 -0.00754342 0.280207 0.55779
2391 2 -2.41344 24.9407 39.1277 -0.445752 0.546435 0.439261 -0.136615 -0.156017 0.27812
2392 1 -2.29519 26.4368 41.6293 1.47794 -0.138165 -0.870321 -0.210702 -0.612104 0.285591
2393 1 -0.407735 25.7615 47.9322 -0.299297 -0.836877 2.11208 -0.339351 0.263319 -0.581649
2394 2 -3.7913 27.0157 39.4808 -1.20154 0.0929949 -0.892817 0.0998358 -0.0500683 0.0873477
2395 1 -3.895 28.5054 41.4396 0.993865 -0.0510445 -0.595919 -0.290107 0.200771 0.406888
2396 3 -2.36289 28.1423 42.9585 3.55548 -1.77268 5.14712 -0.649875 0.140191 -0.653621
2397 2 -4.78517 29.6981 39.1555 0.562417 0.4539 -1.23079 -0.343108 -0.116714 0.227792
2398 1 -4.52659 31.4114 37.0664 -0.148525 -0.603359 -0.0191819 -0.137067 0.0535967 0.0407763
2399 3 -3.33179 30.6827 35.6372 -0.0404997 0.225377 0.450735 0.0505592 0.010198 0.138074
2400 1 -4.94283 31.2759 41.1274 -0.515868 -0.854957 -0.284615 -0.178918 -0.360429 -0.019283
2401 2 14.9276 0.187495 46.6949 -0.219966 1.07478 0.0785108 0.0844232 -0.0379582 0.271488
2402 1 -2.86827 30.7897 48.3302 0.028238 -0.717286 0.520838 0.00380307 -0.11249 0.0916573
2403 2 15.5149 0.0532928 39.0861 -3.78628 -2.33197 3.21116 -0.00426492 0.301973 -0.111012
2404 1 16.1375 1.44054 36.7094 0.0515437 0.86475 0.454088 -0.459983 -0.125209 0.0530767
2405 1 16.9264 1.08098 45.398 0.442085 -0.214234 -0.34539 0.0257729 -0.0859618 0.159438
2406 3 15.8616 1.68747 43.6698 -0.159758 -0.225858 -0.296189 -0.0354372 -0.142812 0.124111
2407 2 17.7812 2.9975 46.502 0.405351 0.357151 -0.0203912 -0.162761 -0.164861 0.117691
2408 1 16.9558 1.39741 48.3283 2.76258 -0.432119 -0.637399 -0.938961 -0.281854 0.330611
2409 2 15.0238 2.92379 38.5014 0.999676 0.514701 -0.611597 -0.0951326 0.957339 -0.633052
2410 1 14.2157 5.10324 36.7874 0.572842 -0.387747 0.0103445 0.112391 -0.337828 -0.309691
2411 1 14.032 4.27214 40.5891 0.272728 0.460193 -0.338848 0.145101 0.372356 0.00803217
2412 1 15.7095 3.45522 44.5666 0.855092 1.51445 -1.38559 -0.153044 -0.148865 0.271355
2413 1 12.6864 4.75018 43.2127 -1.51384 1.14626 -0.163149 0.291392 0.00860315 0.475865
2414 3 13.7844 3.4682 44.3828 0.670364 -1.33154 0.429373 -0.0720055 0.523251 -0.145046
2415 2 12.4054 5.3254 38.8164 -0.960936 -1.80186 0.367082 0.175284 0.457789 -0.035548
2416 1 13.1676 6.7264 40.9025 0.261698 -0.275639 0.371922 -0.0827717 0.100561 0.23779
2417 3 12.526 6.42983 44.6467 -0.308494 1.61209 -2.5045 -0.169378 0.087443 0.00543247
2418 3 14.5805 5.72311 42.3675 0.338873 0.552489 -0.701652 -0.11846 0.0832178 0.215922
2419 1 12.2777 8.34165 45.411 1.17269 0.371752 0.0218872 0.077838 0.251965 -0.0153649
2420 3 12.7027 8.50175 42.0175 -1.02569 -1.25694 -3.96659 -0.187536 -0.0144014 0.0575729
2421 2 12.1113 9.84598 47.4625 0.987219 -1.10765 -0.128605 0.0658561 0.266108 0.211805
2422 1 13.6411 7.88235 47.5684 0.185655 -1.76735 -0.559287 0.157944 -0.103278 0.0916684
2423 2 10.4562 10.3299 39.6235 3.8944 3.00792 -0.0895067 0.166974 -0.0108706 0.0182994
2424 1 9.62351 11.8726 37.5336 -1.83927 -0.541602 -0.192249 1.37393 0.961322 -0.309553
2425 3 11.3631 10.2445 36.5928 0.110914 -0.191261 -0.51754 -0.0904251 0.499965 0.229089
2426 1 9.50878 12.0235 41.2105 0.189095 -1.14514 -0.0634516 -0.0142564 0.0284493 -0.337995
2427 1 10.7122 10.59 45.4201 -0.841667 -0.818678 0.325457 0.258278 -0.426237 -0.530934
2428 2 11.3272 12.2402 47.0547 -1.8047 -0.113431 -0.434393 0.213752 -0.34191 0.207121
2429 2 7.9095 12.3872 39.2256 -0.569756 2.52265 -0.077901 -0.662015 -0.264025 -0.0657914
2430 1 7.84711 13.9063 37.0574 1.57659 0.663649 2.2742 3.31541 2.00336 -0.587392
2431 1 7.17137 14.1075 41.303 -0.332661 -0.588155 0.395773 -0.027348 0.195901 0.393711
2432 1 9.42789 13.3554 45.9524 1.52966 -1.53337 1.61803 0.396112 0.0466784 0.475108
2433 2 8.95056 15.2903 44.4669 0.222359 -0.122798 2.14721 0.909068 0.620716 2.26549
2434 2 5.66591 14.0253 39.2452 -3.03559 1.59486 -4.39544 -0.52616 0.273182 -0.785119
2435 1 16.8409 26.3563 23.0748 12.6143 -12.4033 10.9904 4.6011 -6.38117 -2.65185
2436 1 4.55766 14.806 41.3611 0.441693 -1.62773 0.917555 1.11384 0.285536 -0.0192984
2437 1 8.40463 15.8893 46.9821 0.102278 -0.940818 -0.462521 0.0619696 0.0848052 -1.19317
2438 1 3.98312 18.0797 43.3306 -3.47557 0.177396 0.975693 0.289631 1.51642 -3.84607
2439 3 3.93042 30.4744 37.3922 -3.68893 -3.92305 -2.93156 -1.9421 1.95639 2.40763
2440 2 13.0838 25.7483 23.8028 3.24927 18.2197 -10.0187 -2.72737 -2.31564 -0.332542
2441 2 8.26242 21.3009 28.5438 -18.4588 -10.8767 -10.4962 1.5969 12.2632 -8.25095
2442 1 11.4215 16.2895 32.1713 -4.21521 -1.76379 3.759 3.26267 1.8166 -2.31777
2443 3 11.0679 15.4321 35.5005 7.27304 2.87151 -5.91404 -3.18761 -4.74876 -6.02112
2444 1 0.997578 19.4464 41.0468 0.328495 -1.23305 1.52791 -0.886103 1.02544 0.404548
2445 1 3.63619 18.7946 48.5704 1.68449 1.65156 -2.32391 1.08677 0.792554 -1.26207
2446 3 10.4541 15.5343 43.1869 1.29779 6.45853 -5.33217 -0.719973 -0.953237 -0.191238
2447 3 4.4208 17.1101 41.4138 -9.42466 15.6092 -4.80575 1.07584 0.0815587 1.28743
2448 2 16.6475 24.5455 26.0752 11.3085 12.0875 -3.81591 -2.54706 1.0501 -1.47911
2449 1 9.46548 22.2407 21.1538 6.19425 13.1566 -21.2606 -2.463 -1.23671 3.02962
2450 1 2.14835 19.8213 38.0743 0.00217135 1.71841 3.41904 -0.0528233 -3.29195 -4.0937
2451 3 3.01665 17.1395 35.448 -3.97126 3.00133 -3.85576 0.618862 -0.39006 -1.03999
2452 1 1.33561 21.7235 43.5664 0.348448 -0.716039 3.08332 0.0408913 0.272002 0.929008
2453 2 7.39659 19.0015 28.2408 7.21352 -14.5153 11.7499 -3.6786 11.6418 -3.90342
2454 2 0.46084 24.8053 39.3248 -0.981994 0.156714 1.71053 -0.310286 0.993879 0.918207
2455 1 0.385975 27.1371 37.5069 -2.77136 -0.194946 1.64811 -1.02613 0.0825904 0.490663
2456 3 4.60115 30.8579 40.711 7.88241 -2.506 -9.09052 -2.55144 -1.1965 -0.689298
2457 1 0.0429361 25.7768 42.1332 -0.956732 1.94972 -2.00218 -0.031491 0.464466 -0.635454
2458 1 -0.827418 27.6778 44.2084 -0.55217 0.766343 -0.791312 0.284376 0.0460088 -0.05656
2459 2 16.1669 21.3743 32.7149 15.9388 12.0226 -6.62464 0.440292 -1.62503 4.22651
2460 1 16.7078 21.986 19.8091 0.213962 8.70022 -4.99061 2.23578 -2.86292 -1.3861
2461 2 -0.679002 27.1533 39.8804 2.87412 -0.41664 15.6519 2.1511 -0.163599 -0.0905617
2462 3 0.309471 29.0671 36.2749 4.92699 -0.151215 -1.18614 0.0185172 -0.165389 -0.889098
2463 1 -0.988025 28.9332 41.7917 -0.136935 0.362326 -1.32175 -0.232448 -0.0955129 -0.331
2464 1 1.55908 28.2962 46.3613 0.0243044 -0.626414 -0.292856 0.492636 -0.0616698 0.522836
2465 3 0.24941 29.1041 45.2388 -0.885972 -2.70674 -1.89146 -0.489726 0.717841 -0.388097
2466 3 0.455487 27.8821 42.7229 1.88169 0.505965 3.46924 0.018179 0.165199 0.0311768
2467 2 1.9139 30.3433 47.8169 -0.217862 -1.1288 1.22934 0.16713 0.512663 -0.933538
2468 1 0.19013 28.1258 48.748 -0.58918 0.0154459 -0.186928 -0.00483022 0.522882 -0.835074
2469 2 -2.15824 29.5138 39.7131 -0.592783 0.448291 -0.299955 -0.00798112 -0.0882657 0.161251
2470 1 -1.61756 31.7245 40.9147 0.325159 -0.989575 1.3567 0.132194 -0.0573253 0.0662313
2471 1 0.488261 31.1723 45.9328 1.08398 -0.528944 0.79639 0.278021 0.386363 0.275866
2472 3 -0.111843 30.8529 42.1709 2.25268 0.434782 0.790983 0.026046 -0.023438 0.0333388
2473 2 19.1589 0.9337 47.4399 0.6903 0.0336497 -0.252597 -0.16542 0.0605096 0.139621
2474 1 -0.0441708 31.2772 48.8756 -0.26466 0.277336 0.335101 -0.111741 -0.0912839 0.0962648
2475 2 -0.302474 31.6137 38.7926 -0.321938 -0.829091 0.295867 0.158294 0.0202281 0.110231
2476 1 19.8112 1.27861 39.802 -0.565016 0.335413 0.169528 0.0906153 0.133638 0.443807
2477 3 19.7733 1.46204 43.2561 0.013458 -0.214304 -0.396787 -0.372607 0.175835 -0.528026
2478 2 18.0059 2.06962 38.4042 -2.3087 -4.4965 -0.975621 -0.538666 0.448202 -0.137301
2479 1 17.22 4.47288 37.3549 -0.459118 -0.342266 -0.0659743 -0.113417 0.528476 0.361669
2480 3 18.9298 4.85009 36.3135 -0.166887 -0.107965 0.11676 -0.290062 -0.248938 -0.16485
2481 1 18.2904 4.76383 44.6701 -0.712827 -0.473329 -0.535711 0.0851408 -0.129 0.04093
2482 2 18.3957 5.47089 47.2551 0.157425 0.0404621 -0.534676 -0.0104771 -0.194662 0.22524
2483 1 19.5159 3.45524 48.4049 -2.40734 0.22249 2.43379 1.11653 -0.111629 -0.70426
2484 2 15.3006 5.70126 38.928 -1.36229 0.552882 0.532912 0.0783654 0.125609 -0.0336988
2485 1 16.3291 7.57661 37.7559 0.736966 -1.15153 -0.296712 -0.0329639 -0.79347 -0.742167
2486 3 17.6644 6.59754 36.5442 0.0802398 1.47278 -0.0749462 -0.115815 0.364225 0.257573
2487 1 15.8464 6.99088 41.0368 -0.174153 1.34555 -0.054986 -0.443773 -0.162192 0.775486
2488 1 13.9479 7.62991 43.4038 0.346094 -0.415777 0.335435 -0.163713 -0.083072 0.189843
2489 2 14.6996 8.58605 39.4586 -0.0771907 -0.388102 -0.0533932 -0.200171 0.179727 0.117069
2490 3 15.6031 8.82448 36.3072 1.55269 -0.319384 -0.997499 -0.0496234 -0.24372 0.348022
2491 1 14.125 9.82368 41.569 0.0564007 -0.965432 -0.183243 -0.402471 0.0296901 0.124291
2492 3 15.0992 9.47368 43.3728 -0.230718 -0.12316 -0.510406 -0.0899514 0.0149581 0.0391932
2493 2 15.674 11.1635 45.9992 -2.98394 -3.17918 1.47128 0.349106 0.319229 -0.0669092
2494 1 16.6377 9.0374 46.694 -0.78659 0.562824 -0.0693569 -0.0645878 0.339541 0.143378
2495 2 13.1286 10.5912 39.261 1.9534 -0.13698 -1.83521 0.309647 -0.720784 -0.899286
2496 1 12.8016 12.1481 37.5022 -0.644143 1.77977 -2.36544 0.196071 1.39184 -2.65158
2497 3 13.5182 11.6416 35.5941 1.95234 1.54684 1.86059 0.643923 -0.452517 0.767582
2498 1 12.648 12.4202 40.7193 3.16215 0.750629 2.87535 0.109034 0.396682 0.835162
2499 3 13.4438 11.6942 42.491 0.911505 1.03895 0.895886 -0.0162477 0.126234 0.086883
2500 2 13.8223 12.5604 48.0489 0.729408 1.29606 0.700501 -0.0551825 -0.0704082 -0.0690222
2501 1 14.565 10.2422 47.8959 0.808942 0.315124 -0.104629 0.203615 -0.060482 0.0727994
2502 2 10.8839 13.0005 39.2478 0.713827 1.31036 -1.29433 0.395136 0.116974 -0.134707
2503 1 11.3079 14.1384 37.0056 -0.604037 0.889739 1.60313 -1.55056 -1.04265 2.13623
2504 3 12.5198 13.7383 35.4804 -5.10145 0.305848 3.65008 -0.43467 -0.879341 0.210395
2505 1 10.0723 14.7286 40.9096 -0.853373 1.362 -1.23316 0.251989 0.541666 0.183856
2506 1 12.727 13.8792 46.1308 0.937 -0.0761176 2.08257 0.509315 -0.205116 0.134932
2507 2 12.8308 15.5658 48.1337 0.317089 4.30281 -2.54531 0.492844 -2.75776 -1.68951
2508 1 11.7988 13.4946 49.1784 -0.197832 2.03453 -0.0471177 1.63628 -0.975021 0.616633
2509 2 8.17119 15.1959 39.245 1.09925 0.0945519 -0.726957 2.65977 -0.59265 -0.378257
2510 1 2.6637 22.8466 29.7272 -9.09402 10.1581 -2.45218 -2.3538 0.681582 1.71922
2511 2 11.5429 16.3916 37.0658 7.0167 4.68153 5.3035 3.6683 5.29386 5.41319
2512 1 10.6795 15.7138 49.2966 -1.4564 -0.753871 1.23703 -0.830744 -0.634464 -1.55542
2513 1 4.81315 16.9816 39.1875 1.21768 -0.346336 -0.536899 -0.0647036 1.505 0.543908
2514 1 17.1723 25.648 42.5376 7.16932 -5.60411 -4.44407 4.0843 0.891101 -0.574424
2515 3 10.1704 15.7414 45.9055 -8.32951 1.16073 0.712421 -4.77527 -3.06036 -0.499015
2516 1 1.86599 21.2654 35.6698 -0.277403 -0.571757 2.62528 -0.599546 2.0269 -0.626384
2517 3 17.2563 20.4533 38.8963 -5.37284 -4.56361 3.73174 7.7122 3.74058 -1.35155
2518 1 0.0757053 22.5603 40.8802 -3.2467 -0.839629 -2.77368 0.767091 0.42668 0.120254
2519 1 6.29677 20.7121 20.6211 9.25228 -6.28966 8.2399 -0.834391 2.15196 -3.24272
2520 3 1.31564 21.3871 41.6915 -0.301979 -3.86418 0.461296 0.610805 -1.13499 0.5527
2521 3 8.60299 24.4272 24.9962 -1.44182 0.595633 -4.4379 4.23488 -1.04754 -2.06734
2522 2 12.5416 25.0005 17.9336 7.65026 5.87215 6.57699 0.065253 2.16654 1.22336
2523 1 15.4014 17.6049 41.5112 -1.74577 -0.252214 2.259 -0.760825 0.539601 0.118438
2524 1 7.18251 15.3868 27.7994 -0.061034 -0.640918 -3.29406 1.24715 -2.9216 -0.341473
2525 1 13.9164 27.2294 31.5143 6.77318 -6.08789 11.6056 0.608304 -0.0847128 -0.930251
2526 3 8.41676 15.6707 41.1242 -1.83923 -2.8927 1.218 0.213308 0.816459 0.162995
2527 2 1.77791 28.053 39.3585 -2.87152 4.4636 -5.82217 -3.76691 3.00936 1.4412
2528 1 1.66595 30.2216 37.7231 0.667251 -3.91603 -1.20547 0.406855 -0.919142 0.509115
2529 3 4.45377 30.8741 31.5916 2.93117 2.21873 3.1405 1.18029 0.682839 -0.302678
2530 1 2.4551 27.8119 42.1374 -0.0696108 0.471814 0.666597 0.2261 -1.08826 0.464505
2531 1 1.13003 29.7564 43.4587 -1.24143 -0.237185 -0.970899 -0.632424 -0.0612484 -0.0745707
2532 2 8.59854 23.8714 26.9343 -12.0433 26.4923 14.5006 2.93027 -2.86236 -0.265959
2533 1 4.45859 31.7228 47.7874 0.0207704 -0.547721 -0.949296 0.0701018 -0.536555 -0.107527
2534 3 2.31193 31.4683 36.3385 -3.28806 2.08436 -2.06243 1.02296 1.17475 -0.306922
2535 1 1.19995 31.2567 40.6941 -0.380377 0.056472 -0.520167 0.880582 -0.10819 -0.569593
2536 1 3.311 30.3359 45.7417 -1.76209 -0.507531 0.0273962 -0.220362 -0.321737 0.512397
2537 1 -0.097566 32.2393 43.6364 -0.865254 0.440533 -0.32948 -0.0498881 0.13371 -0.246927
2538 3 1.78524 31.2476 44.6129 0.453667 -0.0505286 0.218491 0.0902156 -0.10815 -0.0147747
2539 3 2.69021 29.9707 42.1592 3.99069 -2.1233 -1.2893 1.98253 0.586631 1.9721
2540 3 22.6492 0.889573 35.9419 4.22676 -2.64312 4.0138 -0.0663573 -0.0816061 0.313468
2541 1 21.0076 1.75769 41.9373 0.296524 0.204989 0.250062 -0.086221 -0.188062 0.160992
2542 1 23.0566 1.64606 46.3834 0.0760819 0.0488701 -0.32349 0.225066 0.206313 0.138354
2543 1 20.117 3.10748 44.0815 -0.707066 0.331493 -0.290011 -0.114997 -0.29072 0.0569243
2544 3 21.4443 2.29279 45.3082 -0.0272602 0.761661 0.651235 0.0573526 -0.0428239 0.178808
2545 3 22.7378 1.03861 42.8398 -0.0566043 0.328614 0.271 -0.0254211 -0.00438602 0.0352474
2546 2 21.2151 2.75622 38.6013 0.661114 1.1604 -1.10202 0.376229 0.36487 -0.266241
2547 1 20.7048 4.86042 37.3779 -0.692364 -1.26206 -3.43946 0.109802 -0.0715809 0.358105
2548 3 22.0729 4.32692 35.5125 1.01493 -0.484574 -0.214681 -0.0804183 -0.122582 0.134044
2549 1 20.6195 4.4989 40.3898 -1.26122 -2.56251 2.91472 -0.339132 -0.898515 0.894359
2550 1 21.9907 4.02145 46.0351 0.0846389 -0.470413 -0.171696 0.104354 -0.495548 -0.0713022
2551 3 20.7309 4.80523 44.5707 0.662139 0.985663 -0.910071 0.16342 0.625167 -0.397746
2552 3 21.4973 3.79407 42.4907 -0.0294219 0.157809 -0.464284 0.221804 -0.0651795 -0.148097
2553 2 21.2684 5.5756 47.6705 0.127915 -0.22328 0.310767 0.0791007 -0.281553 0.081191
2554 2 18.6092 5.58912 39.4197 -0.283989 -0.643568 0.373577 -0.429441 -0.374403 0.0475672
2555 1 19.0185 7.39896 37.8522 0.874723 -1.07389 2.43606 -0.3073 0.427042 -0.770939
2556 1 18.8929 7.19965 41.3473 -0.0657986 0.263779 0.394481 -0.103221 0.0274148 0.0951305
2557 1 20.0928 6.32067 45.6118 -0.0810648 -0.72247 -0.0419651 -0.193492 -0.147777 0.377312
2558 2 20.3053 8.1278 47.1454 -0.084277 -0.532425 0.365252 -0.0434654 0.0788524 -0.0658944
2559 1 19.6177 6.71437 49.0293 0.0320344 -0.213384 -0.0841366 -0.0913536 -0.0927763 0.264572
2560 2 17.3976 8.52474 39.8433 0.0838659 0.00107823 0.0913144 0.216114 -0.107461 -0.16838
2561 1 17.9438 9.78829 36.6182 -0.0194511 0.431442 0.766843 0.163014 0.404416 -0.0334051
2562 1 16.7077 9.41917 42.2639 0.120671 1.03022 1.01259 0.0582602 -0.304221 -0.382345
2563 1 19.0588 9.29686 45.4703 1.1429 -0.104674 0.566961 -0.156401 0.134617 -0.0639877
2564 2 18.1069 11.0409 46.8575 0.321671 0.00288013 0.978111 0.0266075 0.196712 -0.0313369
2565 1 19.2442 9.75374 48.6046 -0.0422446 0.176729 0.536403 0.12084 -0.00719931 0.204461
2566 3 16.7717 11.2577 36.39 -0.648449 0.415403 -0.0540912 0.536094 -0.239237 0.587941
2567 1 15.3115 12.2419 41.6093 0.384944 -0.676458 0.0599255 -0.0224725 -0.344512 -0.115231
2568 1 13.628 13.3296 43.783 3.63676 -0.779146 -0.0690812 0.482352 -0.406929 -0.284489
2569 3 17.0932 11.3942 42.5021 0.0270341 -1.07802 0.0785344 -0.272558 -1.11409 -0.355447
2570 3 15.9604 13.9108 36.636 -1.48198 1.03796 -0.678419 -1.24639 -1.25926 0.577306
2571 1 15.3131 14.625 40.6654 0.377965 -0.308929 -0.337924 0.486266 -0.0842185 0.283017
2572 1 15.6473 13.5739 45.2629 0.274776 1.76853 -0.302297 -0.915729 0.600308 0.804196
2573 1 12.6914 15.594 43.6387 -0.634509 -1.50034 1.37352 -0.252191 -1.59842 -0.486588
2574 3 14.2048 15.0387 44.9592 2.85976 -1.31086 2.2433 0.86216 0.156959 1.30086
2575 3 15.4174 13.8904 42.9546 5.53257 -0.0193366 -2.96107 1.06271 -0.61748 -0.379779
2576 2 13.2659 14.2971 39.256 0.85519 0.535004 0.246806 -1.31876 1.32973 -1.81525
2577 1 9.94664 16.8022 34.9679 17.8381 14.1783 -0.272289 0.616767 -0.788294 3.29906
2578 3 15.2449 16.2656 36.8869 -2.38324 1.08193 -0.590794 -0.43534 -0.353327 0.096279
2579 1 6.72967 30.6045 38.7326 8.76567 -1.41103 6.96678 -1.92342 -5.52103 -12.0596
2580 1 14.4824 16.5361 46.3458 1.32038 4.02771 -1.71556 -4.40497 3.716 -3.46022
2581 3 15.8713 17.5299 45.2616 0.995409 4.27811 5.18358 1.98809 -0.489386 0.815636
2582 3 14.3369 16.0268 42.2162 1.59453 0.611126 -0.142913 -0.460638 -0.378782 -0.730189
2583 2 16.8937 17.4264 46.9643 -2.94714 10.1493 0.38009 0.262974 5.70116 5.58355
2584 1 15.4044 16.0583 48.686 -5.98493 -12.7087 -3.25615 -1.45526 4.37331 -1.1214
2585 3 5.188 15.6397 24.8084 2.6791 2.22156 2.70875 2.25943 3.51546 3.23101
2586 1 17.3859 18.8993 44.9967 -0.953512 -0.587825 5.59355 1.5751 0.960484 0.886501
2587 1 12.4858 17.8538 47.4333 14.4127 0.602309 5.88846 8.16549 1.97063 1.63079
2588 3 16.7634 28.5376 34.6051 25.4113 2.99302 6.48131 4.72694 -1.28323 5.08321
2589 3 7.74351 16.0397 30.013 -0.416345 2.01014 -5.41895 2.23214 -0.293948 -0.695096
2590 1 8.34676 31.1842 20.8926 -0.958392 0.781817 8.669 -2.34797 0.827962 -0.479279
2591 3 5.41433 26.6036 23.1311 -17.8611 -22.1838 8.08875 2.02039 3.19185 -4.81472
2592 1 1.68079 19.4558 80.5668 -5.20628 -0.237618 9.70951 0.445037 0.0203118 -0.829977
2593 1 4.27458 17.3375 50.8309 -0.560475 -0.454695 1.14902 0.719797 0.00690643 -0.0602015
2594 3 1.8856 25.3568 33.9746 -0.0937807 -3.90195 1.89208 1.40299 -1.59393 0.279854
2595 3 6.43568 16.9085 26.0736 -3.10907 -14.6966 11.9993 -1.23107 0.871833 6.52314
2596 2 13.9017 27.8487 26.0264 -3.1897 -18.4047 16.8134 2.82492 -5.82973 3.00889
2597 1 4.29589 25.3906 26.6938 8.15159 22.4606 -16.4859 1.76692 -1.87601 -0.890323
2598 2 5.3129 21.5934 24.833 40.2563 -8.3423 14.5396 -2.94547 -3.0974 1.72336
2599 1 0.70521 22.4927 37.9931 -1.99558 -0.0740726 -5.24774 2.07657 -0.265618 5.01443
2600 3 13.734 20.011 22.3314 -9.40554 -24.8081 -16.402 1.63038 2.00557 0.722538
2601 1 3.96487 18.736 35.8404 -1.63849 -0.879399 -4.84346 0.363078 -0.587824 -0.787918
2602 3 3.63422 18.4418 37.8346 -6.01466 4.67949 7.34904 -4.08513 0.184693 0.809391
2603 3 16.6115 27.8646 38.3097 8.19085 -2.5879 4.63376 7.91318 -4.08174 -2.85178
2604 2 9.26426 22.3296 17.9855 1.07899 1.9737 -3.27956 3.14822 0.133131 0.0577624
2605 1 3.97857 21.5877 26.7694 4.18812 -8.13697 12.383 -3.61067 -2.16006 -4.92594
2606 3 2.00401 26.1008 38.633 -1.86607 -1.19714 1.13445 -2.78558 1.99664 1.57579
2607 1 22.3517 0.605328 37.9664 1.09603 -2.55953 -1.02962 -1.13921 -1.09577 1.2602
2608 3 4.76867 30.5375 38.5945 -1.78153 3.35516 1.23076 2.90591 -1.06213 -1.99095
2609 1 10.0924 21.7864 26.9336 -0.865242 4.86832 27.9654 6.1606 1.69802 2.13779
2610 1 21.4098 0.615054 44.4043 0.117688 -0.188944 0.322296 0.0533259 -0.255539 -0.0557076
2611 3 4.42191 32.1018 45.5894 -1.729 2.07182 -1.12029 0.354755 -0.319363 -0.305645
2612 2 25.1903 0.556176 49.0197 0.974497 0.420179 -0.161035 0.635636 0.27269 -1.73583
2613 1 7.18598 31.4813 24.0446 8.25111 -10.2454 11.1824 -1.23829 -0.0558648 -2.92989
2614 2 5.50913 32.2164 39.5659 -1.81155 -3.92727 -3.35581 1.26373 -2.30327 -0.864167
2615 3 27.3407 1.46918 36.3928 0.370364 0.53813 -1.81088 -0.0291147 -0.0533533 -0.32426
2616 1 24.2281 1.9946 41.5365 3.1584 0.109134 -2.00902 -1.56188 -0.312992 -0.0191637
2617 1 25.9898 2.25492 46.8263 1.8946 0.724491 -0.446736 -0.215003 -0.0184422 -0.100439
2618 1 22.7766 2.72584 43.8442 0.416661 -0.58763 -0.506095 0.139678 0.0971517 -0.641285
2619 3 24.4229 2.21854 45.1838 0.200511 0.502018 -0.252145 -0.346409 -0.215958 -0.0680881
2620 3 26.2526 1.80865 42.5882 -0.815624 -0.465814 3.2942 -0.179085 0.285723 0.215954
2621 2 27.8725 3.54081 47.7456 0.505638 0.310467 -0.115626 -0.369384 -0.176916 -0.0957235
2622 1 27.1152 1.8553 49.7714 1.44136 -0.17925 0.445141 0.0392178 0.0701191 -0.284291
2623 1 23.6339 4.55406 41.678 0.405912 -0.355677 -0.476088 -0.03992 0.152959 -0.278394
2624 1 21.0968 5.88139 42.92 -1.25384 0.513406 0.3483 -0.105903 -0.0165064 0.180088
2625 1 25.037 3.16662 48.8161 -1.38929 -0.785653 0.529358 0.117429 -0.0511508 -0.326905
2626 2 22.7613 5.14615 39.2664 -0.452575 0.589851 0.172282 -0.591835 0.103369 0.313349
2627 1 22.0812 7.09649 40.78 -0.230663 0.534547 -0.335298 -0.155964 -0.0167852 -0.0536158
2628 1 23.3796 6.10383 45.6291 -0.378463 0.215285 0.185722 -0.0321589 -0.0865563 0.668884
2629 3 21.7682 6.68359 44.7031 0.559638 0.602319 -0.518174 -0.709128 0.640746 -0.375881
2630 3 23.3753 6.40374 42.3539 -0.49062 -0.658009 0.476877 -0.104831 -0.358839 0.153892
2631 2 23.0292 7.81878 47.3756 0.0790012 0.101491 -0.0149663 0.0215454 0.0850147 0.116347
2632 1 23.7531 5.56414 48.2341 -0.0874989 0.0999115 -0.0212004 -0.00106319 -0.0635664 -0.0793638
2633 2 20.2024 8.55643 39.7645 0.113925 0.494172 0.158621 0.3173 0.467604 0.0515479
2634 1 22.0382 9.09825 45.5435 -0.060419 -0.354457 0.839558 -0.184373 -0.0346239 -0.236922
2635 1 18.8697 10.9324 43.4544 -1.34867 0.907454 1.08016 0.180701 -0.256702 -0.128163
2636 3 20.5691 10.2854 44.4673 0.146623 -0.273346 -0.31129 -0.0654166 -0.134205 0.0432688
2637 2 18.5642 10.4919 38.9189 -0.605289 -0.171249 0.603311 0.0459086 0.0520201 0.18826
2638 1 18.5097 11.9739 40.9235 0.389814 0.333268 1.84803 -0.00801302 0.131937 0.432225
2639 1 20.2439 12.0166 45.4995 -0.894023 -1.62556 -1.95739 0.20495 -0.00184066 -0.0584022
2640 1 17.3575 13.2454 43.0446 -1.07327 0.360369 -0.116395 -0.0323665 0.269029 0.34246
2641 3 19.1173 12.8403 44.082 1.12808 -0.701287 2.07592 -0.138347 -0.0494017 -0.0819577
2642 3 20.1521 11.4278 41.9715 2.86345 -1.02832 6.8276 -0.601714 0.338787 -1.39423
2643 2 21.0488 13.4073 47.5489 2.25151 -0.564503 0.951093 -0.0513398 -0.170923 -0.0847311
2644 3 19.1911 13.3098 35.7492 0.477314 0.313663 0.202859 0.311654 0.287995 0.38933
2645 1 18.8251 14.3942 45.5636 -1.20221 -0.226018 0.431183 0.123704 -0.159378 0.0775342
2646 1 15.869 15.963 43.7234 3.10308 0.948003 0.211631 -0.565172 -0.389828 -0.134845
2647 3 17.3249 14.6999 44.3057 0.891506 -0.143977 -0.705746 0.765257 -0.604763 -0.964664
2648 3 18.7129 13.9852 41.7916 -0.235907 -0.562598 -1.05432 -0.166133 0.644723 -0.11987
2649 1 17.3252 16.5063 37.5764 -3.02293 -3.76814 1.25149 1.12736 1.80665 -0.0694339
2650 3 17.9058 16.5688 35.7504 1.36281 0.305158 2.15394 0.148268 -0.187539 0.207817
2651 1 17.3987 16.4335 40.1761 -0.208731 -4.56637 0.648838 0.530154 -1.71868 0.895132
2652 1 5.55258 17.4258 30.1525 -8.17986 -12.2705 10.0108 2.23524 -0.447998 2.03212
2653 3 17.3542 17.1038 42.3601 1.93466 -4.25053 0.708581 0.461552 0.287852 -0.423865
2654 2 17.3473 26.4368 32.2012 -15.4145 1.7354 7.55084 6.21587 -1.15544 -5.03922
2655 1 17.6411 19.6124 34.2958 1.77819 -1.45385 -3.66211 -0.900687 -2.36076 -1.12614
2656 3 16.431 17.8801 34.487 4.86691 -7.57527 -0.914173 -0.735842 0.383899 -1.73422
2657 1 9.89395 19.4108 29.2272 2.71449 -19.7861 20.8719 -3.9615 6.69072 3.21519
2658 1 9.29755 20.1669 19.0579 -4.91968 3.18158 6.63447 1.14956 4.02248 1.81093
2659 3 16.2962 19.3565 46.8989 8.72368 2.91947 -26.7184 3.76342 2.4577 0.711118
2660 3 17.0894 20.5757 43.2838 1.3505 -12.9612 12.3773 -9.37439 -6.27113 -0.307312
2661 2 20.2539 20.8101 47.2512 -1.3612 -0.494743 0.397387 -0.679665 0.0306964 -0.698652
2662 1 17.875 21.3439 48.0325 -1.27785 6.24935 7.82936 1.87638 -1.26548 -0.83475
2663 1 1.44998 25.0181 43.8185 -1.03233 1.13806 0.44777 2.45058 -1.08129 0.926155
2664 3 17.6383 20.1912 31.8317 5.56161 -3.55852 -1.14699 2.84396 0.42419 0.395214
2665 1 18.2598 24.8316 47.9554 -0.154036 1.8928 0.133564 -0.683557 -0.519407 -0.511696
2666 1 15.1191 25.4736 17.0714 -1.30647 -8.18485 2.29744 -4.07948 1.9645 0.541626
2667 3 16.7357 27.6287 35.8779 -2.90645 -4.69687 -4.28731 0.561184 -0.214144 -6.38911
2668 3 15.3845 16.5854 39.9424 -4.62932 -1.74709 -0.661086 -0.373839 -0.334785 -0.163612
2669 2 4.84915 20.9615 22.4 6.35842 -13.6442 7.81425 5.86279 -2.25805 16.2285
2670 1 15.4595 18.6562 27.5274 -2.30216 5.28164 -5.08179 3.8443 -0.905359 4.9845
2671 1 17.6052 26.7971 28.6753 3.36996 -2.43421 -6.22589 -0.935791 3.27903 5.39758
2672 3 18.3198 24.2212 41.1635 1.03133 -4.52667 1.55456 -2.11999 2.43078 -0.179558
2673 1 8.76238 25.9957 20.5371 -7.08256 11.1859 11.0243 5.06262 -1.86559 -2.08283
2674 1 17.1054 30.3682 39.045 5.91971 2.24745 -7.78849 6.53853 16.3423 0.672998
2675 2 14.8751 19.1971 34.1171 -6.50665 -14.004 13.9038 3.86112 -3.5056 -1.27033
2676 1 5.35172 29.3174 25.7113 8.66594 -10.0484 -4.20703 7.70622 1.53766 -6.01283
2677 2 11.4371 31.7875 24.3518 -2.12104 11.0393 8.30447 2.42019 -7.31454 -2.92531
2678 3 16.5563 28.6522 39.3573 -62.4427 56.6067 -35.3557 -9.43967 -2.72356 -0.627347
2679 1 14.236 28.5622 23.8391 -21.0322 10.0766 14.0229 5.38069 -4.65076 -6.43283
2680 1 13.3825 16.4707 40.4092 0.57512 -3.54491 1.02209 -0.838347 0.713377 1.31814
2681 3 8.00558 20.0168 29.8378 -12.2557 3.92405 -6.02739 0.429244 -9.68517 9.48595
2682 2 30.65 1.23318 47.8057 -0.211341 0.0730392 0.0655584 0.289962 -0.254343 0.0545957
2683 1 15.6291 21.026 35.4692 2.8415 -19.8991 4.59651 3.89061 2.23574 -0.792355
2684 1 25.9739 0.713837 37.9447 -0.494193 -3.37694 3.2002 2.79244 -1.56535 -3.13171
2685 1 26.2632 0.464496 41.0996 0.0557831 4.66616 -1.44902 1.62523 3.31303 1.67317
2686 1 11.0136 26.711 22.1741 -1.57385 -17.3331 -7.60209 2.68255 -3.29767 4.04937
2687 1 24.5759 0.617218 44.0809 -0.254743 1.90954 -1.23453 -0.348217 1.45006 -0.188225
2688 3 3.4406 31.0222 41.5894 2.61599 -1.51305 -1.40704 -2.25405 -0.780878 1.67782
2689 3 2.12885 28.2253 37.4811 -1.86858 0.452771 3.01368 -1.37675 -0.228061 0.116246
2690 2 28.1139 1.03528 47.6827 -0.17337 0.0182147 -0.409819 0.329035 -0.156225 0.569459
2691 1 1.57207 3.01074 55.6323 -4.8838 -4.45486 -1.80918 0.414374 0.383508 0.153521
2692 2 26.8718 2.17193 39.4796 -1.10923 -0.422014 0.496776 -1.16844 -1.88608 -0.846289
2693 1 28.6529 2.43047 37.9799 -1.45571 -2.19567 -0.868431 1.13206 1.23389 1.32122
2694 3 30.1902 0.884947 36.6401 2.67766 -0.375162 1.99485 -0.399599 0.67142 0.524961
2695 1 28.136 2.9098 41.2378 0.539438 1.21706 0.585718 0.752974 -0.0317411 0.618673
2696 3 28.464 2.35531 44.8317 -1.42279 0.0970227 -0.554451 -0.859384 0.361683 0.178149
2697 3 29.6708 1.8838 42.0486 0.741271 0.71512 -0.769394 0.154384 0.345357 0.49266
2698 1 27.9421 4.3381 49.9954 -0.00659387 -0.122376 0.321886 0.106416 -0.0419215 -0.0326176
2699 2 25.1297 4.53492 39.0878 0.0765109 -1.93027 0.564149 0.109906 -0.00644866 0.0245375
2700 1 24.9575 7.31109 37.5074 0.0376631 -0.726811 -1.04495 0.164837 -0.383669 -0.132012
2701 3 26.3098 6.68206 36.1225 -0.34602 -0.86691 -0.163454 0.0915455 -0.0399083 0.115791
2702 1 24.9242 6.78247 40.4308 -0.298448 -0.532247 0.546755 0.00581921 -0.190977 0.725006
2703 3 24.6703 6.65871 44.0492 0.0723039 0.162609 -0.0660074 -0.153206 0.177427 0.0633998
2704 2 23.3104 8.39512 39.0295 1.31411 0.532167 1.28735 -0.192051 -0.159591 -0.153863
2705 1 24.1581 10.5939 37.4575 0.100917 -0.160993 -0.170476 -0.155288 -0.164034 -0.0581783
2706 3 24.9611 9.08835 36.3446 -0.851366 0.562835 1.11859 -0.11063 -0.0377365 0.000846466
2707 1 24.924 8.12506 45.3543 0.296845 0.494253 -0.0647125 0.0944025 1.04601 0.12694
2708 2 24.5469 10.3451 46.1897 0.123175 0.141527 0.262674 0.227706 -0.0434359 0.376129
2709 1 24.8774 8.75112 48.4103 -0.0301687 0.128115 0.0653738 0.116762 0.105253 0.0648506
2710 2 21.8169 10.7232 38.4597 0.435574 0.302484 0.0869379 -0.0773827 -0.107296 0.059396
2711 1 22.7533 12.8003 37.2374 0.38955 0.139997 0.536112 -0.357316 0.0207506 0.203654
2712 3 23.2571 11.7197 35.7417 1.61516 0.03214 -0.198881 -0.384702 0.1935 0.0115295
2713 1 21.969 12.4012 40.5096 0.757232 0.00714282 1.11636 -0.0368722 -0.0414583 0.12966
2714 1 22.9653 12.1873 46.3841 -1.83063 1.1408 -1.38772 -0.554072 0.288941 0.309887
2715 1 20.4832 13.3009 42.866 0.32348 -0.948546 0.738586 0.154972 0.0919583 -0.135085
2716 3 21.9571 12.8237 44.5729 1.85309 0.996478 0.346055 -0.406096 -0.00210863 -0.0197859
2717 2 23.7215 14.6396 46.9921 -0.557684 -0.136109 -0.208902 -0.0131948 -0.0760288 0.0666173
2718 2 20.0109 12.5711 38.9833 -0.288993 -0.0728731 -0.674726 0.178934 0.0410253 0.381958
2719 1 19.9188 14.3024 37.3746 0.681014 -0.236295 -0.00692209 -0.218045 0.13742 -0.366895
2720 3 21.6787 14.0845 36.3325 -0.597964 -0.188875 -0.182299 -0.145894 -0.00502134 -0.00473851
2721 1 19.86 14.6526 40.3609 -1.67582 -1.76948 3.00769 0.676337 0.801325 -0.25859
2722 1 21.885 14.7077 45.4525 0.0924338 -0.177182 -1.0063 -0.0443529 0.0267682 0.286562
2723 1 18.7715 15.6959 42.943 -1.1701 -1.00868 -0.424693 -0.0125188 -0.736894 -0.0395935
2724 3 20.2563 14.9215 44.0516 0.900173 0.543656 1.70216 -0.300488 0.0667159 -0.114237
2725 3 21.9557 14.1348 41.7208 -0.201099 -1.73261 -0.649882 -0.130268 -0.0712972 0.200525
2726 2 22.516 17.1327 46.8715 -0.355618 -0.0271536 0.600839 0.0547692 -0.339256 -0.376514
2727 1 19.5827 17.6776 36.6232 2.80117 2.18482 1.95921 0.729645 -1.62981 0.967736
2728 3 20.8315 17.0438 35.2033 0.105677 0.751048 -0.385836 -0.209887 0.172319 0.115591
2729 2 19.5761 17.9935 48.0479 0.0860895 0.142286 0.418649 0.0418342 0.0285099 -0.305882
2730 1 20.6625 15.8616 47.7597 -0.448302 -1.49771 0.156366 -0.389616 0.21228 0.421756
2731 2 18.4473 18.8219 38.7823 0.0397278 1.45656 -0.0961083 0.800414 -0.128179 0.0748328
2732 1 18.0104 20.6346 36.7987 -1.79926 -1.60277 3.04183 2.17565 -3.43187 -0.424769
2733 3 19.4777 19.616 35.4325 -6.08901 0.489678 1.95292 2.50157 0.0431345 -0.755859
2734 1 17.9106 20.8806 41.0565 -4.26807 -0.70851 -2.23778 -1.60618 -0.296871 -0.0638661
2735 1 13.6676 22.0743 22.8923 -4.67516 2.97956 -4.53159 0.701206 -3.57308 -7.00789
2736 1 19.3197 20.0194 49.4781 0.883037 2.67392 1.6505 1.37668 1.50365 0.413787
2737 1 15.4478 18.1634 36.4923 2.02422 -0.238068 -1.731 0.289353 0.579382 -1.64112
2738 3 18.2871 23.5902 38.6067 1.91904 -9.1442 -14.3727 -0.154427 1.81398 -2.09907
2739 1 18.3378 21.3719 45.328 1.91298 2.08924 -2.17755 -1.02242 -0.57712 0.0356658
2740 1 7.88876 24.5195 18.2442 7.59097 -8.47638 -1.02339 2.88017 3.68249 -3.33699
2741 3 17.5343 27.4649 41.5173 -23.9017 5.15969 -33.5623 6.71398 -0.0673338 -2.58529
2742 3 18.1465 22.8925 41.7005 12.0425 -1.24237 -7.23784 2.01767 -0.786677 0.207142
2743 1 5.12681 23.7442 24.2078 -8.76007 8.43065 1.17913 0.643648 0.924128 -3.19382
2744 3 4.71157 16.5608 31.9606 14.4512 -4.99427 1.71992 -1.13419 0.782568 1.06557
2745 3 18.2942 24.5436 39.7719 -9.88204 -9.63159 4.71561 -1.99741 -1.70043 2.08113
2746 2 12.8174 18.3761 27.4515 -5.21073 11.7728 9.97237 3.44367 -1.94474 -2.62849
2747 1 24.3996 0.0371025 33.0645 -0.495049 -0.739966 0.00177153 0.207717 -1.68378 -0.0522203
2748 3 9.4362 25.7118 27.5036 -11.0716 18.5777 11.0082 -6.17011 -7.33979 -4.43304
2749 1 18.7335 26.783 36.4421 12.5752 -2.73307 2.83521 -8.89717 7.05649 1.88831
2750 3 17.1753 28.0563 33.2443 -13.7264 2.55938 7.70251 2.93171 -1.18877 -3.86483
2751 1 32.2302 0.72493 45.3731 -0.186264 -1.79294 1.69031 -0.249429 -0.750851 -0.499409
2752 2 14.9845 18.6279 48.2086 -6.59446 5.19554 -7.65636 0.477463 -4.02907 3.40436
2753 1 6.47455 21.6102 27.0042 -8.17042 -14.2706 7.70819 2.56354 -0.089593 -1.84656
2754 3 16.0226 30.84 37.4718 2.00892 2.65438 4.70491 3.9434 -2.00841 -2.48974
2755 1 12.0294 32.1116 38.1634 2.94181 -2.61496 2.64181 2.11892 1.38925 2.22025
2756 1 28.2102 1.02478 43.3335 0.336276 -1.56831 0.20338 0.323328 -0.0831401 -0.0531627
2757 2 32.8127 1.02387 38.9541 0.347593 0.544873 -1.97068 0.722589 -0.248544 0.0189869
2758 1 31.6939 1.88648 36.8578 -2.47215 1.41306 -1.02616 1.05958 0.506627 0.491439
2759 3 32.8803 1.15636 35.4187 0.425276 1.23882 -0.421365 -0.373712 -0.595846 0.743385
2760 1 31.493 2.56965 41.0457 0.496958 -0.162543 0.436591 0.237586 -0.111879 -0.244747
2761 1 29.9418 2.75042 43.7711 0.36924 -0.285112 -1.56538 0.994739 -0.172073 0.275141
2762 3 31.3402 2.39413 44.9416 0.767683 -0.709242 0.11838 0.199358 -0.0984399 0.376888
2763 3 33.1676 1.61523 42.0943 2.43251 0.320212 -1.46253 1.03711 -0.017603 -0.252677
2764 3 31.1941 3.56038 35.8303 -2.66628 -1.82173 -4.92547 0.684789 -0.381727 -0.412333
2765 1 31.4874 4.26906 45.4749 -0.577192 1.993 -0.897419 -0.546675 -0.840921 0.205077
2766 1 28.4109 5.40865 43.3816 0.104598 0.356241 0.607311 0.18011 -0.452158 -0.166636
2767 3 29.8572 4.46248 44.3085 -1.16696 -1.34294 1.74002 -0.111561 -0.274913 0.334828
2768 3 31.4245 3.36116 42.7039 -0.836479 -0.587086 -0.165002 0.0636874 -0.329353 0.00848862
2769 2 31.0901 5.89285 47.0844 -0.017652 -0.101335 0.418628 -0.121974 -0.209532 0.0243804
2770 1 30.7788 3.74154 48.3341 0.879535 -0.731801 0.0864694 0.26552 0.0385633 0.139873
2771 1 28.0042 7.56394 36.8235 0.14089 -0.485522 -0.983621 -0.0349326 -0.329017 0.466897
2772 3 29.4285 6.26083 35.8692 -1.5653 0.225792 0.323493 0.000652116 0.000562816 0.057237
2773 1 28.1264 7.06154 41.004 0.0501852 -0.0514707 0.0970093 -0.01254 -0.0426725 -0.0210271
2774 1 26.6839 7.25186 43.5519 -0.202878 1.39342 0.309426 -0.290436 0.133745 0.159426
2775 3 28.3615 6.88898 44.7096 0.18501 -1.50385 0.219616 0.0113824 0.200721 0.00916192
2776 3 29.7018 6.26526 42.3815 -0.951697 0.908966 0.0238321 0.239908 0.0452869 0.0130619
2777 2 26.5803 8.42983 39.2193 0.699793 -0.123491 -0.0664493 -0.213837 0.0945227 0.0925348
2778 1 26.7002 9.99403 37.2989 -0.260585 0.429096 -0.161856 0.0176137 0.18989 -0.224926
2779 3 28.0417 8.8718 34.6471 -0.160024 0.0879735 -0.548559 -0.131037 -0.131677 0.0895934
2780 1 26.3485 9.65252 41.3628 0.779436 0.861211 0.868847 0.219734 0.301991 0.215278
2781 1 27.9473 8.82295 45.3599 -0.283968 0.584064 -0.0108205 -0.0880311 0.291505 0.0812501
2782 3 27.8323 8.64683 42.4528 0.254546 -0.0260913 0.55717 0.21309 -0.0157014 -0.02754
2783 2 27.5845 11.4092 46.9324 -0.413128 0.0502298 0.633701 0.236511 0.0810939 0.113611
2784 1 23.2325 13.6582 43.2878 -0.21447 1.83541 -0.16562 0.00799839 -0.144046 0.10009
2785 2 25.5036 12.9809 46.6366 -0.0500439 -0.215153 0.420549 -0.02077 -0.255308 0.14708
2786 1 25.3651 11.3272 48.3562 -0.407711 -1.02093 1.12664 -0.0979543 0.256129 0.246389
2787 2 24.3241 13.4275 39.0798 0.141108 -1.38494 -0.259748 0.067389 -0.0707452 0.0385344
2788 1 23.0349 15.3707 37.9879 0.308136 0.935575 -0.640494 -0.213441 0.0392838 0.174579
2789 1 23.895 15.0293 41.175 1.82797 2.20166 -0.0323798 -0.221008 0.0867548 0.215284
2790 1 21.5438 15.9234 42.6796 -0.319518 -1.49521 0.434359 0.509534 0.444325 0.0679516
2791 3 23.1131 15.6703 44.0507 0.160384 -1.25405 -0.747158 -0.175595 -0.19479 0.05726
2792 3 25.1178 14.1206 42.6617 -0.680264 1.11864 1.76811 0.269558 -0.193181 -0.443824
2793 1 25.1645 14.3668 48.9118 0.280085 -0.143313 1.10404 -0.132155 -0.190635 0.0376219
2794 3 23.2201 16.8845 36.5177 5.0498 0.596216 -3.79775 -0.690499 -0.0129903 0.475374
2795 1 22.8589 17.8029 44.52 1.16931 0.715198 0.677629 -0.296623 -0.264162 -0.177713
2796 2 20.7281 18.0378 38.9301 -1.96248 -0.879243 1.34781 -0.912075 0.94543 0.109379
2797 1 20.4374 20.3454 37.2212 -1.91668 -1.99208 -1.96186 0.564415 -0.996107 0.844923
2798 1 20.3629 20.3751 40.7117 0.491378 3.53311 4.08921 -2.11654 -0.53857 -0.916426
2799 1 22.4901 20.1869 46.0436 -0.131234 -0.170057 0.895586 0.215037 0.0966712 0.535988
2800 1 19.5551 21.9731 42.9697 6.98793 2.23466 -1.17151 7.53318 4.25292 -1.16833
2801 2 22.4102 21.6504 48.1212 -1.06285 -0.409127 0.317166 0.692496 0.435724 0.0434916
2802 1 21.8644 18.9942 48.3371 0.276779 0.168988 -0.486934 -0.169198 -0.0226429 0.122978
2803 2 18.9272 21.604 38.8325 2.65042 5.37969 -6.8223 3.01293 1.30916 -2.45583
2804 1 19.6136 23.3456 37.145 0.934121 0.167642 2.3462 -1.09849 2.91948 -1.17673
2805 1 21.3156 22.8811 46.0611 0.472847 2.16671 2.3308 0.662145 1.09 1.05059
2806 1 5.67888 19.1194 23.7551 -16.6223 9.1963 -17.9333 1.83907 -1.17179 2.77061
2807 3 19.6502 22.8298 44.7838 3.36639 -4.65463 4.18422 -1.63887 -0.497664 -1.55406
2808 3 21.1894 22.233 42.2711 7.84939 -1.50606 -12.0134 3.39159 -0.749833 -5.08756
2809 2 20.5639 25.0838 47.413 1.53155 -0.091631 -2.45334 0.523182 0.0520102 0.121888
2810 1 20.2012 22.7558 48.9502 -0.706917 -2.02581 -0.0652605 0.378425 -1.17122 0.767432
2811 3 19.7462 25.2415 36.1274 -5.68105 -0.543043 3.50602 -0.454013 0.770062 0.474263
2812 1 19.4003 24.6794 45.1341 -3.51857 1.57619 -0.284713 0.901959 0.870231 0.671826
2813 1 19.1177 26.6772 39.6703 -11.968 9.61527 4.04527 -3.56055 1.39759 0.155929
2814 3 16.9458 28.0082 40.4789 -15.67 20.5604 11.6095 -10.7696 -7.85057 7.23507
2815 3 18.0329 27.3504 38.0542 -6.26217 -12.0282 8.50722 -10.4372 9.77316 14.7293
2816 1 15.367 28.819 36.977 10.8048 -15.1678 -11.4429 -6.43611 1.95796 0.567709
2817 1 17.3387 28.412 45.7358 0.136219 -0.951398 0.784534 -0.492307 0.524339 1.03612
2818 1 2.22267 21.4861 32.7986 3.37749 -1.98723 -1.3386 0.0926001 0.70403 0.927844
2819 3 16.0435 29.6117 44.5971 -14.9201 18.543 -4.55371 3.38302 2.21176 -2.14613
2820 3 18.5813 28.2861 41.946 7.15569 10.7777 -7.29855 1.35902 6.23761 13.0152
2821 2 17.7131 30.5987 47.6538 1.19047 3.95383 1.0313 -0.81425 -1.3164 -1.1014
2822 3 16.6224 31.6558 36.49 8.34421 0.82042 -7.04319 1.43873 -1.12822 -2.81931
2823 1 14.1134 32.0913 42.1691 -1.83872 2.52921 -1.81825 -4.24152 2.25276 2.53158
2824 1 16.3696 31.07 45.7259 -0.101276 1.44543 1.53282 -0.71771 -0.0940194 0.39482
2825 3 16.017 31.2424 42.332 -3.53092 1.78403 -3.79147 -1.47733 0.373436 -0.914872
2826 1 17.1462 30.3695 49.9048 -0.0249081 -0.0257191 -0.680847 -0.012276 -0.00315807 0.635517
2827 3 35.9893 1.38641 36.7735 -2.6634 -0.413793 -1.5752 -0.849442 -0.150665 -0.624633
2828 1 36.0851 1.46612 45.5742 -0.565176 -1.41848 -0.68088 0.399628 -0.092156 0.524861
2829 1 32.8392 2.77311 43.7737 0.32534 0.410713 -0.463735 -0.511272 -2.482 -1.52544
2830 3 34.274 1.96368 44.7847 -1.59242 -0.218591 -1.74118 -0.720534 0.504693 -0.119171
2831 3 36.1634 1.5696 42.1362 1.81536 -10.6762 -1.80403 -0.0882204 0.0318464 0.38457
2832 2 35.1919 2.49099 47.7879 -0.048179 -0.37823 -0.662129 -0.245096 -0.431399 -0.51405
2833 1 32.5553 4.43921 37.3286 0.757443 -0.443908 -0.0934321 0.438683 -0.109126 0.141878
2834 3 34.1359 3.99473 36.1515 3.11459 0.100017 -0.295862 0.183597 -0.12374 0.0964637
2835 1 34.4625 4.14616 45.5502 -0.0114924 -0.467661 -0.775915 -1.03961 -0.842164 -0.137732
2836 1 31.4275 5.28489 42.9096 0.492723 -0.556972 -1.30173 0.335629 -1.11922 -0.0308925
2837 3 33.0091 4.86463 44.1893 -0.836084 -2.03666 -5.15108 -0.0965523 -0.0393022 -0.0645936
2838 2 -3.47119 6.32866 46.9139 -0.907809 -1.92577 -3.40124 0.335269 0.822553 0.745983
2839 1 33.3459 4.23179 48.0214 0.55392 3.408 -0.714552 -0.0398362 0.159334 -0.0396665
2840 1 30.8163 7.00871 37.3674 -1.43201 -0.807858 0.875491 -0.357248 -0.0384351 0.0906069
2841 3 32.6384 6.17879 36.3534 0.458252 0.341558 1.15197 0.187319 0.182497 0.409942
2842 1 29.664 7.98989 43.4493 -0.878785 0.166969 -0.307449 0.311382 -0.275098 0.407315
2843 3 32.8489 6.25977 41.5118 -1.20611 -0.957217 0.230649 0.288849 -0.285306 0.534874
2844 1 32.2212 6.67407 49.0028 -0.276694 -0.515744 -0.492973 0.131239 0.0588929 0.259589
2845 2 29.3478 8.54597 38.9253 -0.514131 1.14816 -0.570049 -0.208018 0.213199 -0.00111965
2846 3 31.2093 8.82636 36.3538 0.0658304 -0.383879 0.0544346 -0.15323 -0.0474843 0.051155
2847 1 29.3232 9.33703 41.2102 -0.103259 0.167308 -0.112095 -0.0396921 -0.233665 0.370579
2848 1 28.08 10.6365 43.1599 -0.265537 0.191823 0.637638 0.18718 -0.00769226 0.23702
2849 3 29.3948 9.89881 44.3001 -0.114719 1.03628 -2.54866 0.0301895 -0.189458 0.543313
2850 3 31.2469 8.89575 42.4613 -2.60056 -0.858232 -0.107952 0.356759 0.244894 -0.196823
2851 2 -5.69846 10.3879 46.9583 0.151768 -1.10023 -0.0382205 -0.0687803 0.543719 0.137141
2852 1 31.4643 9.54492 49.2726 0.196878 0.292661 0.108953 -0.0443181 -0.0464136 0.219728
2853 3 29.4249 11.5672 36.6378 -0.779482 -0.0892422 0.0742223 -0.0822125 -0.0380207 -0.00259741
2854 1 29.6332 11.7061 45.2873 0.272085 0.199566 -0.612159 0.0299039 0.168552 -0.119555
2855 3 28.1236 12.5438 44.0217 -0.023971 0.156926 0.355049 0.0394782 0.0681578 -0.161303
2856 3 29.3223 11.3397 41.6413 -0.085772 0.462524 0.459996 -0.0106956 0.154407 0.0907874
2857 2 -7.04956 13.402 46.8947 1.78628 -0.0943602 -0.998508 -1.20818 0.184603 0.697254
2858 1 29.6529 11.383 48.2844 1.19591 0.33619 1.16432 0.211487 0.0723236 0.135589
2859 2 26.7228 12.8644 39.5034 0.218603 -0.024673 -0.0656667 0.0959953 -0.0185963 0.073085
2860 1 26.2424 14.7794 37.597 -1.9684 0.548177 0.838288 0.0924173 0.0390454 0.0523282
2861 3 27.9035 14.4664 36.2697 0.738783 1.02431 -0.114796 -0.182112 -0.218852 0.0159855
2862 1 26.7993 14.6872 41.2973 -0.240527 -0.108158 -0.279523 -0.298258 0.0101821 0.00552949
2863 1 27.7109 13.9063 45.6039 0.403396 1.17577 0.498858 0.115196 -0.1481 0.18165
2864 1 25.2221 15.9017 43.5476 0.422726 -0.208275 0.341309 -0.134322 0.10755 0.0847021
2865 3 26.5185 15.5565 45.0273 -1.54519 1.89648 -0.714862 0.334139 0.485691 -0.186618
2866 3 -8.57602 14.8727 42.3496 0.102616 0.295822 0.241366 -0.248012 0.455997 0.0600102
2867 1 27.672 13.7167 48.0895 0.237049 0.897657 -0.0335866 0.216433 -0.132669 0.0558546
2868 2 25.0367 16.0705 39.3774 0.00846598 0.0435113 0.176517 -0.171924 0.0628634 0.15425
2869 1 24.8626 17.7011 37.6569 -2.09189 1.14409 -0.799525 0.390557 -0.00714945 0.122741
2870 3 26.218 17.088 36.4907 3.73869 -1.13328 -2.07827 0.143479 0.0263342 -0.0519456
2871 1 26.5791 17.3993 45.7415 0.158392 0.22717 0.755475 -0.199428 -0.418211 0.687717
2872 3 24.9485 17.8284 44.1358 0.534722 0.667853 -0.00248647 -0.254533 0.0731177 0.22719
2873 3 26.9647 16.4512 42.5975 1.1464 0.832153 0.268085 0.100344 0.0264624 -0.166954
2874 2 -10.744 19.653 47.4207 5.03103 0.524497 6.79286 0.232239 -0.0929725 0.508263
2875 1 26.9917 16.9877 48.2853 -0.457484 -0.621373 -0.269121 -0.0644401 0.117302 -0.0597352
2876 1 23.3603 20.0804 36.9533 1.25494 1.01926 -1.30208 0.557574 0.0506251 -1.5302
2877 1 24.9463 19.3524 45.5714 -0.150809 -0.108574 -1.03212 -0.440701 -0.162187 0.100928
2878 1 22.5293 21.5888 43.7706 -0.808364 0.104769 0.472545 0.0879951 -0.174366 -0.075762
2879 3 24.0328 21.1537 45.1121 1.62513 -0.196369 0.829741 -0.587758 -0.0854131 -0.0170605
2880 2 22.1703 20.0237 39.0899 -1.22304 -0.909138 0.532529 -0.50774 0.124646 0.0223351
2881 1 22.3833 22.3348 37.5884 0.251065 -0.949247 -0.202773 -0.214144 -0.413632 -0.41731
2882 1 22.3378 22.1644 40.5574 0.946641 1.11582 0.0495044 0.674912 0.194928 0.376631
2883 1 -13.0476 22.8162 46.232 -2.88242 2.69349 -0.0996948 0.710434 -0.427283 0.18675
2884 3 22.9662 23.3139 44.9139 0.394402 1.21657 -3.57986 -0.407489 -0.869893 -1.16948
2885 3 23.8083 22.0988 42.2883 0.146242 -0.55925 -1.07442 -0.431711 -0.135413 -0.0624826
2886 2 -13.5291 25.2395 47.3018 -0.342326 -0.0237668 0.47367 0.14682 0.303065 0.53643
2887 1 22.361 24.0011 48.8596 -0.869821 0.0157984 0.345388 -0.086075 0.50148 0.567146
2888 2 21.1893 23.7816 38.8944 0.78415 0.592228 -0.8939 -0.0862025 -0.991501 -0.392109
2889 1 21.3705 26.0877 37.2167 2.34995 -0.530273 -0.563637 -0.945982 -0.144768 1.04651
2890 1 19.0881 27.0826 43.9107 2.32361 0.0387132 1.17241 0.413048 1.30103 -0.807236
2891 2 -14.951 27.6 47.2497 0.564007 1.1923 0.297863 -0.102355 -0.125817 -0.0886659
2892 1 21.887 26.4092 49.291 -0.36172 -0.0628043 0.121011 -0.401923 -0.457168 0.39881
2893 2 21.1693 25.7664 40.2321 -7.67306 3.93981 -4.8514 3.92697 1.22274 0.478937
2894 1 19.3477 29.292 37.9721 -1.57434 0.618537 2.03044 -3.0848 -0.0311142 -0.641347
2895 1 19.6807 29.6902 41.2409 -0.649617 -0.517601 3.39197 -2.587 -4.99997 3.94535
2896 1 20.6574 27.8642 45.5777 -0.421023 -2.44119 -0.666111 0.539185 -0.800372 -0.428446
2897 1 17.6844 30.2071 43.3822 -0.66243 -0.365762 -1.55871 -1.54451 -0.744047 -1.1863
2898 3 19.1023 29.0714 44.5746 2.26742 -2.03881 4.34291 -0.276797 -0.0164232 0.837585
2899 2 -16.3101 29.5889 47.6029 0.648296 -0.248248 -1.6919 0.0750144 0.014763 0.208795
2900 1 19.6676 27.3807 48.1366 0.433572 -0.509614 0.232433 0.133741 0.379922 0.468595
2901 3 19.4709 29.8455 36.1934 -1.69423 0.404819 4.44065 1.0654 1.45216 -4.38391
2902 1 17.2089 32.1352 40.9417 -0.970324 0.869521 4.65079 1.39461 0.467133 -0.476242
2903 1 19.2776 31.0429 45.79 -0.0295844 -0.992313 -0.215499 -0.100057 -0.464158 -0.399725
2904 1 34.862 0.659761 43.3338 -0.274265 0.489359 0.731411 -0.773769 -1.54221 -0.704002
2905 3 17.8357 32.0686 44.5274 -2.0022 4.71543 2.5915 0.330536 -0.856624 -0.76078
2906 3 18.7114 31.382 41.7931 4.4713 -0.0951182 -1.52339 -0.52913 -1.3455 0.72318
2907 2 0.311804 0.986831 47.3136 0.415528 -0.0760719 -0.220297 -0.0369501 0.241175 0.0524167
2908 1 -17.4367 31.4691 48.6461 -0.880921 0.160935 -0.133667 -0.109929 0.565252 0.0496133
2909 4 3.64282 3.094 2.18196 0 0 0 0 0 0
2910 4 1.74018 5.04005 2.3127 0 0 0 0 0 0
2911 4 -4.29901 17.3011 2.34779 0 0 0 0 0 0
2912 4 -8.04026 22.5941 2.46133 0 0 0 0 0 0
2913 4 -9.38221 24.9649 2.4081 0 0 0 0 0 0
2914 4 6.29471 2.49211 2.35346 0 0 0 0 0 0
2915 4 4.92399 5.4973 2.26592 0 0 0 0 0 0
2916 4 2.94256 10.6357 2.7064 0 0 0 0 0 0
2917 4 0.529642 12.4517 2.45853 0 0 0 0 0 0
2918 4 -3.65828 19.9655 2.27585 0 0 0 0 0 0
2919 4 -9.71335 30.3927 2.6464 0 0 0 0 0 0
2920 4 -3.40048 24.9598 2.15546 0 0 0 0 0 0
2921 4 10.8215 0.0620446 2.13113 0 0 0 0 0 0
2922 4 -0.686096 24.9467 2.39251 0 0 0 0 0 0
2923 4 -1.74637 27.3008 1.52153 0 0 0 0 0 0
2924 4 13.55 1.02051 2.83841 0 0 0 0 0 0
2925 4 11.2486 7.95313 2.58037 0 0 0 0 0 0
2926 4 10.3042 10.4548 2.05685 0 0 0 0 0 0
2927 4 8.98622 12.7999 2.4901 0 0 0 0 0 0
2928 4 7.59524 15.1428 2.47179 0 0 0 0 0 0
2929 4 6.1871 17.4736 2.3801 0 0 0 0 0 0
2930 4 4.82806 19.9263 2.48908 0 0 0 0 0 0
2931 4 3.43051 22.5266 2.27659 0 0 0 0 0 0
2932 4 2.06437 24.937 2.37391 0 0 0 0 0 0
2933 4 16.2043 0.693966 2.3167 0 0 0 0 0 0
2934 4 17.8184 2.83865 2.7847 0 0 0 0 0 0
2935 4 13.5228 9.91095 2.35561 0 0 0 0 0 0
2936 4 11.9399 12.6219 2.28557 0 0 0 0 0 0
2937 4 10.5665 15.0189 2.43537 0 0 0 0 0 0
2938 4 9.14774 17.5598 2.28778 0 0 0 0 0 0
2939 4 18.8906 0.340223 2.60433 0 0 0 0 0 0
2940 4 6.4314 27.5316 2.01572 0 0 0 0 0 0
2941 4 20.7018 7.53347 2.24048 0 0 0 0 0 0
2942 4 19.247 9.99535 2.49893 0 0 0 0 0 0
2943 4 17.6578 12.3985 2.53443 0 0 0 0 0 0
2944 4 13.1524 19.6502 2.64646 0 0 0 0 0 0
2945 4 10.6346 24.983 2.50376 0 0 0 0 0 0
2946 4 9.1897 27.6045 1.43198 0 0 0 0 0 0
2947 4 7.67147 29.9537 1.87393 0 0 0 0 0 0
2948 4 26.555 2.70214 2.63569 0 0 0 0 0 0
2949 4 23.4189 7.67881 2.09677 0 0 0 0 0 0
2950 4 20.3792 12.5323 2.52863 0 0 0 0 0 0
2951 4 15.8499 19.8989 2.35304 0 0 0 0 0 0
2952 4 14.25 22.09 2.10085 0 0 0 0 0 0
2953 4 27.5948 0.143749 1.88993 0 0 0 0 0 0
2954 4 29.276 2.62458 2.51531 0 0 0 0 0 0
2955 4 27.795 4.98489 1.81356 0 0 0 0 0 0
2956 4 23.0459 12.1562 2.11453 0 0 0 0 0 0
2957 4 18.5705 19.7695 2.42957 0 0 0 0 0 0
2958 4 30.6211 5.03079 2.54004 0 0 0 0 0 0
2959 4 23.7693 17.5345 2.62327 0 0 0 0 0 0
2960 4 18.9878 25.108 2.6386 0 0 0 0 0 0
2961 4 17.8709 28.2806 1.73097 0 0 0 0 0 0
2962 4 15.9717 30.137 2.34018 0 0 0 0 0 0
2963 4 33.5257 4.99748 2.52058 0 0 0 0 0 0
2964 4 30.9353 9.96641 3.20245 0 0 0 0 0 0
2965 4 29.2073 12.2559 2.23272 0 0 0 0 0 0
2966 4 24.9456 19.9869 2.46148 0 0 0 0 0 0
2967 4 21.966 25.3594 2.29715 0 0 0 0 0 0
2968 4 20.361 27.5454 2.56153 0 0 0 0 0 0
2969 4 -1.06262 4.71874 2.25786 0 0 0 0 0 0
2970 4 -5.3049 12.4465 2.30204 0 0 0 0 0 0
2971 4 -6.89287 14.7065 2.11966 0 0 0 0 0 0
2972 4 -9.60745 19.8654 2.8465 0 0 0 0 0 0
2973 4 -10.7492 22.3244 2.57496 0 0 0 0 0 0
2974 4 -13.6739 27.5236 2.12233 0 0 0 0 0 0
2975 4 3.37284 4.00662 4.73509 0 0 0 0 0 0
2976 4 -1.10228 11.6965 4.62401 0 0 0 0 0 0
2977 4 -3.664 16.7724 4.94423 0 0 0 0 0 0
2978 4 -4.92437 19.8056 4.68328 0 0 0 0 0 0
2979 4 -7.74459 24.2355 4.61601 0 0 0 0 0 0
2980 4 -9.13169 26.8225 4.38563 0 0 0 0 0 0
2981 4 -11.0281 28.7353 4.79696 0 0 0 0 0 0
2982 4 -12.168 31.6589 4.35641 0 0 0 0 0 0
2983 4 3.41734 9.0434 4.8659 0 0 0 0 0 0
2984 4 2.09092 12.1429 4.8105 0 0 0 0 0 0
2985 4 0.196998 14.0914 4.60909 0 0 0 0 0 0
2986 4 -1.0247 16.5098 4.32023 0 0 0 0 0 0
2987 4 -2.28973 19.1236 4.81679 0 0 0 0 0 0
2988 4 -9.71871 31.0516 5.38413 0 0 0 0 0 0
2989 4 6.13563 8.85625 4.87347 0 0 0 0 0 0
2990 4 -2.11282 24.0549 4.55157 0 0 0 0 0 0
2991 4 -4.45422 26.4812 4.15526 0 0 0 0 0 0
2992 4 12.0282 4.16084 4.71571 0 0 0 0 0 0
2993 4 10.3133 6.84191 4.88572 0 0 0 0 0 0
2994 4 8.8338 9.11445 5.15181 0 0 0 0 0 0
2995 4 0.693678 23.7764 4.45059 0 0 0 0 0 0
2996 4 -1.19748 26.4508 5.47158 0 0 0 0 0 0
2997 4 -3.57235 31.4231 4.37362 0 0 0 0 0 0
2998 4 14.8547 4.08702 4.85861 0 0 0 0 0 0
2999 4 13.5669 6.47961 4.65555 0 0 0 0 0 0
3000 4 12.1972 8.80523 5.02927 0 0 0 0 0 0
3001 4 1.82759 26.2113 4.9085 0 0 0 0 0 0
3002 4 -0.886061 31.5204 4.8193 0 0 0 0 0 0
3003 4 16.2511 1.74748 4.82909 0 0 0 0 0 0
3004 4 16.2676 6.43225 5.01331 0 0 0 0 0 0
3005 4 1.98208 31.6236 4.88928 0 0 0 0 0 0
3006 4 19.1779 1.75411 4.91663 0 0 0 0 0 0
3007 4 15.4733 14.1817 4.52781 0 0 0 0 0 0
3008 4 10.3956 21.6673 4.11048 0 0 0 0 0 0
3009 4 9.3775 24.109 4.85666 0 0 0 0 0 0
3010 4 22.037 1.71113 4.85045 0 0 0 0 0 0
3011 4 19.1958 11.515 4.76393 0 0 0 0 0 0
3012 4 18.1924 14.0452 4.63848 0 0 0 0 0 0
3013 4 16.3225 16.7697 4.45735 0 0 0 0 0 0
3014 4 14.8094 19.0591 4.72713 0 0 0 0 0 0
3015 4 13.0888 21.626 4.5217 0 0 0 0 0 0
3016 4 12.1477 24.1648 4.82733 0 0 0 0 0 0
3017 4 10.7672 26.489 5.16851 0 0 0 0 0 0
3018 4 24.761 1.97516 4.91998 0 0 0 0 0 0
3019 4 26.4131 4.14144 4.96627 0 0 0 0 0 0
3020 4 20.9063 14.0777 4.87873 0 0 0 0 0 0
3021 4 17.8346 19.1573 4.98515 0 0 0 0 0 0
3022 4 29.3876 3.975 4.93623 0 0 0 0 0 0
3023 4 14.656 29.0685 4.79935 0 0 0 0 0 0
3024 4 32.1025 4.17173 4.81555 0 0 0 0 0 0
3025 4 27.7693 11.3905 4.70386 0 0 0 0 0 0
3026 4 25.005 16.3431 4.73937 0 0 0 0 0 0
3027 4 23.5012 19.1627 4.89116 0 0 0 0 0 0
3028 4 20.4196 23.8013 4.55346 0 0 0 0 0 0
3029 4 19.7422 26.3571 5.21187 0 0 0 0 0 0
3030 4 17.3711 28.888 4.40705 0 0 0 0 0 0
3031 4 16.5584 31.4785 4.63813 0 0 0 0 0 0
3032 4 -2.21691 4.40833 4.96347 0 0 0 0 0 0
3033 4 -3.56019 6.77252 4.78901 0 0 0 0 0 0
3034 4 -6.6088 11.8713 5.1335 0 0 0 0 0 0
3035 4 28.9297 13.8408 4.43224 0 0 0 0 0 0
3036 4 -15.0153 27.0158 4.43901 0 0 0 0 0 0
3037 4 -13.6636 29.3793 4.54448 0 0 0 0 0 0
3038 4 1.98845 8.56781 7.52062 0 0 0 0 0 0
3039 4 0.565178 10.6622 6.51453 0 0 0 0 0 0
3040 4 -2.28413 15.9507 7.14536 0 0 0 0 0 0
3041 4 -3.72051 18.2971 7.20172 0 0 0 0 0 0
3042 4 -8.19475 25.864 6.75788 0 0 0 0 0 0
3043 4 -9.43324 28.3288 7.04256 0 0 0 0 0 0
3044 4 8.30496 3.05674 7.38644 0 0 0 0 0 0
3045 4 6.55715 5.80986 7.33182 0 0 0 0 0 0
3046 4 4.70106 8.62994 7.27135 0 0 0 0 0 0
3047 4 3.77837 11.1278 6.69364 0 0 0 0 0 0
3048 4 -0.550297 17.9722 6.56975 0 0 0 0 0 0
3049 4 11.0034 3.28264 7.08344 0 0 0 0 0 0
3050 4 9.27868 5.86342 7.21086 0 0 0 0 0 0
3051 4 7.41418 8.39611 7.3638 0 0 0 0 0 0
3052 4 12.0001 5.90448 6.80931 0 0 0 0 0 0
3053 4 7.54782 13.3997 7.31045 0 0 0 0 0 0
3054 4 6.15448 15.7409 7.26981 0 0 0 0 0 0
3055 4 4.7571 18.0749 7.11504 0 0 0 0 0 0
3056 4 1.19038 25.7211 7.51195 0 0 0 0 0 0
3057 4 -2.42309 30.7263 7.04691 0 0 0 0 0 0
3058 4 7.48138 18.1235 7.12859 0 0 0 0 0 0
3059 4 5.94653 20.5257 7.05833 0 0 0 0 0 0
3060 4 3.72131 26.6794 7.19525 0 0 0 0 0 0
3061 4 1.58547 28.3406 6.87418 0 0 0 0 0 0
3062 4 0.469461 30.8325 7.0806 0 0 0 0 0 0
3063 4 17.6501 1.05933 7.06368 0 0 0 0 0 0
3064 4 13.6346 13.3205 7.37585 0 0 0 0 0 0
3065 4 12.3772 15.7206 7.66369 0 0 0 0 0 0
3066 4 9.08433 21.5123 6.49395 0 0 0 0 0 0
3067 4 4.98123 28.9946 7.88562 0 0 0 0 0 0
3068 4 20.4262 6.11184 6.94877 0 0 0 0 0 0
3069 4 19.1251 8.49048 7.21969 0 0 0 0 0 0
3070 4 16.4303 13.4705 7.53891 0 0 0 0 0 0
3071 4 14.9524 15.629 6.77684 0 0 0 0 0 0
3072 4 11.7421 20.9996 6.80607 0 0 0 0 0 0
3073 4 10.7987 23.5384 7.11031 0 0 0 0 0 0
3074 4 23.4909 0.889121 7.12929 0 0 0 0 0 0
3075 4 24.6618 3.7197 7.01067 0 0 0 0 0 0
3076 4 22.0398 8.33906 7.2119 0 0 0 0 0 0
3077 4 17.9292 15.9889 6.52976 0 0 0 0 0 0
3078 4 16.1856 18.0574 6.85474 0 0 0 0 0 0
3079 4 12.3373 25.7742 7.35743 0 0 0 0 0 0
3080 4 10.8781 28.0752 7.38119 0 0 0 0 0 0
3081 4 9.16031 30.6364 7.15835 0 0 0 0 0 0
3082 4 26.3526 0.924789 7.2144 0 0 0 0 0 0
3083 4 24.7724 8.83708 7.12943 0 0 0 0 0 0
3084 4 14.5883 25.905 5.82761 0 0 0 0 0 0
3085 4 13.7267 28.111 7.175 0 0 0 0 0 0
3086 4 12.2414 30.4245 7.16705 0 0 0 0 0 0
3087 4 27.5544 8.67373 7.35299 0 0 0 0 0 0
3088 4 26.4047 11.125 7.04724 0 0 0 0 0 0
3089 4 23.6 15.4978 7.72614 0 0 0 0 0 0
3090 4 22.4888 17.973 7.47599 0 0 0 0 0 0
3091 4 18.7307 23.6211 7.99497 0 0 0 0 0 0
3092 4 17.7837 26.0039 7.07297 0 0 0 0 0 0
3093 4 32.4184 5.80369 6.97451 0 0 0 0 0 0
3094 4 29.1186 10.9041 7.14832 0 0 0 0 0 0
3095 4 26.3062 15.8127 7.76583 0 0 0 0 0 0
3096 4 25.1332 18.0867 6.82927 0 0 0 0 0 0
3097 4 20.9753 25.1188 7.61652 0 0 0 0 0 0
3098 4 17.3299 31.0533 7.22541 0 0 0 0 0 0
3099 4 35.0157 1.19856 6.46756 0 0 0 0 0 0
3100 4 -2.15205 5.92708 7.22476 0 0 0 0 0 0
3101 4 -3.78476 8.30049 7.10794 0 0 0 0 0 0
3102 4 -8.26184 15.7079 7.9277 0 0 0 0 0 0
3103 4 -9.65914 19.1157 7.21295 0 0 0 0 0 0
3104 4 -16.2027 30.7107 7.6676 0 0 0 0 0 0
3105 4 0.56493 0.722377 7.46403 0 0 0 0 0 0
3106 4 -1.02532 8.39311 7.49565 0 0 0 0 0 0
3107 4 -6.32882 17.5911 7.55171 0 0 0 0 0 0
3108 4 -10.6713 26.0501 7.87864 0 0 0 0 0 0
3109 4 -13.8061 31.2722 6.49921 0 0 0 0 0 0
3110 4 3.27278 1.01982 7.40651 0 0 0 0 0 0
3111 4 3.23713 3.03735 9.79554 0.541908 0.323348 0.347214 -29.3893 12.2825 -20.3585
3112 4 0.835323 7.26577 9.16221 0.155966 -0.982907 -1.4884 14.0476 11.1955 8.67945
3113 4 -1.72028 11.2907 9.67871 -0.302281 -1.97032 -2.01193 -14.4652 2.36293 17.4135
3114 4 -3.3556 14.6582 9.34765 -0.5785 -1.97176 0.179501 23.8507 -18.2117 3.53957
3115 4 -5.53204 18.8945 9.48701 1.64803 -2.96132 -0.33229 -26.5494 -12.9666 -6.2554
3116 4 -11.6461 23.7388 8.70878 2.87548 0.959001 -1.64637 -15.7528 -16.9294 7.03286
3117 4 -13.5188 32.0034 9.67444 2.08986 -3.21228 -0.173357 22.4459 -17.3094 -11.7346
3118 4 -2.12017 17.1009 9.49244 -1.70863 -2.17126 3.17464 -1.96506 12.7941 17.9768
3119 4 -6.94389 23.6049 8.74536 -0.91798 2.01547 0.120103 -3.31648 20.8582 6.75968
3120 4 -8.2295 27.4041 9.18328 -0.356775 2.68435 1.19354 -27.0666 11.5693 -19.7433
3121 4 10.7168 1.65775 9.27232 0.233312 -0.968153 -0.16694 4.91564 22.9142 14.1102
3122 4 6.67066 4.14594 9.15209 0.89266 3.64998 1.03769 7.5364 -10.8125 -4.7486
3123 4 10.9586 5.02902 9.15234 0.445115 -1.31179 0.35771 22.9617 10.8589 -7.18958
3124 4 -5.02563 29.3174 8.7336 0.279802 -0.258873 1.69261 -24.406 7.69375 4.59489
3125 4 8.07348 15.4626 10.3493 -0.642115 0.954642 -0.144081 13.101 -9.4218 -7.99412
3126 4 6.21348 17.219 9.57923 -1.57957 -0.447769 1.06685 27.5757 -0.109845 9.78275
3127 4 3.54168 19.4184 9.19758 3.02731 0.84664 1.89622 -9.28019 13.7808 18.6686
3128 4 3.73788 22.7784 9.64494 2.48936 -0.780617 2.68304 14.0094 7.20057 22.5954
3129 4 1.37928 23.3652 8.72477 -0.914044 4.03093 -1.0191 -17.4742 13.0019 -8.66483
3130 4 -0.834374 29.4568 8.86481 -0.571969 0.0387408 1.50984 7.05112 -13.2834 3.44672
3131 4 11.1725 13.0006 8.83749 1.29634 -0.157037 0.0356331 25.4311 -19.8129 4.22598
3132 4 10.4567 15.5004 8.94473 -1.21916 -2.30479 -0.884029 9.46113 9.78625 27.5604
3133 4 8.61643 18.9143 9.45934 -1.9369 1.16525 1.56608 5.62599 14.8737 -4.93457
3134 4 6.13443 22.7269 9.08425 1.08443 0.157682 1.80946 25.0716 17.1896 -21.1868
3135 4 5.05368 25.0445 8.95997 0.598884 0.624707 -0.568798 14.3328 20.0684 -13.9534
3136 4 3.29083 28.8832 9.71691 1.60213 -0.464287 1.41266 4.92001 20.4632 -1.26439
3137 4 19.7746 4.40177 9.06775 0.395919 -0.16808 -3.25125 16.331 7.55226 -5.9962
3138 4 14.4665 15.297 11.3698 -1.34661 -2.23505 0.70251 9.37334 1.33841 11.5107
3139 4 10.8993 20.3675 9.12741 0.190849 -1.11171 -1.38162 3.74551 8.96888 -0.418812
3140 4 8.96588 22.4388 8.87496 -1.98783 -0.636721 -1.83629 16.9637 -1.51233 -12.8854
3141 4 21.1401 7.26341 9.52573 -0.559571 0.529134 -0.902555 -14.373 -24.8725 -22.9666
3142 4 18.1131 14.3359 9.11658 0.463281 1.44607 1.65015 5.83773 20.1931 -2.43938
3143 4 13.7945 17.4957 8.7016 2.20071 0.250589 -1.32459 -23.2479 -5.8239 9.48283
3144 4 7.13543 29.2345 8.80172 -0.246063 -0.0681648 -3.31184 -14.8145 -23.4394 -22.3694
3145 4 5.70704 32.0927 9.12205 -1.70047 -0.56733 -2.28307 -20.5937 -11.1608 -2.45757
3146 4 26.1627 2.20262 10.5273 0.180126 -0.205294 0.886528 2.56695 5.0509 -27.0064
3147 4 20.9325 11.9077 9.29985 0.513807 -2.01794 0.998455 -10.5048 -13.3406 -9.31565
3148 4 11.2021 26.841 9.56954 0.108893 2.55468 -0.749197 19.5202 23.0056 -20.1986
3149 4 9.32987 28.6185 9.60548 -0.276254 1.78687 -0.556205 9.03576 -7.20238 -14.1777
3150 4 28.1928 1.38391 8.90655 0.567133 -0.473225 -0.444306 -21.6107 -12.1423 10.6932
3151 4 26.2295 6.96617 9.25239 -0.0631308 1.89554 -2.19488 -8.86797 -13.7508 -2.23731
3152 4 22.3235 15.3595 10.0773 -1.86577 -0.632205 0.177475 9.32276 -0.110048 -22.9493
3153 4 16.8053 25.2378 9.15471 1.55766 -0.56475 -1.61961 22.347 5.85115 25.4972
3154 4 13.2246 30.0309 10.2983 0.354253 1.22232 -0.850348 25.9281 -13.3785 -21.2471
3155 4 11.8567 32.1677 10.0961 0.386301 1.4614 2.37167 16.3218 -4.27298 -14.271
3156 4 30.1011 7.79845 8.8522 0.955237 0.145698 0.104421 10.4346 0.782632 -21.7885
3157 4 29.6065 10.1241 9.79145 0.993712 2.14983 0.111917 10.1898 -1.10843 26.5593
3158 4 24.3452 17.2186 9.89625 -0.83454 -1.72194 -2.04679 4.704 12.0624 -4.66236
3159 4 21.2375 18.9674 10.5664 1.1675 -0.821853 0.255189 7.02472 5.99017 11.9436
3160 4 21.4481 23.3076 9.39474 -1.08456 -1.19898 -0.753418 5.82158 7.30615 1.11416
3161 4 20.3028 26.3084 9.63161 -1.39474 0.0238483 1.05274 28.9261 -19.0984 5.02243
3162 4 34.6255 3.90892 9.40502 0.265815 -0.770359 -0.891267 16.2405 -20.3264 -16.7822
3163 4 -10.1601 19.1098 9.64 -0.45239 -0.491455 1.93021 -14.9944 -24.6173 23.1973
3164 4 22.9033 20.0891 9.17922 1.89545 0.410302 -0.379091 16.2726 23.0248 -5.60826
3165 4 17.1525 31.5039 9.69947 -0.163639 1.07585 -0.778812 3.51816 18.3471 17.5612
3166 4 0.0926387 3.09085 9.31791 1.36619 1.28455 3.78622 -3.83227 -9.8145 18.6024
3167 4 -3.5784 6.47874 9.2072 -0.800296 2.12668 -0.396094 24.0466 -26.3354 -25.5094
3168 4 -8.11064 18.4366 10.8856 1.79556 0.783509 -0.0613237 -9.41264 -11.8597 12.7133
3169 4 -13.2732 29.615 8.61643 3.88799 -0.613791 0.0348398 -24.1393 3.28497 9.26919
3170 4 2.05724 0.691886 9.739 -0.544481 0.166375 -0.96292 19.0681 9.46793 3.76446
3171 4 3.56248 5.34695 10.5848 2.69803 -0.981255 0.0853224 14.355 24.9402 3.92149
3172 4 -0.049249 12.1289 11.9097 2.349 -0.285816 -1.83644 8.47099 -26.3361 1.5416
3173 4 -1.77573 13.4861 10.9455 0.431558 1.39545 1.24896 -0.742017 7.87307 10.5868
3174 4 -3.28878 17.8707 13.8186 -2.38396 -1.87497 -1.01766 21.9175 2.20473 -22.2969
3175 4 -6.69171 21.8466 10.7815 -0.506853 -1.61735 0.175963 -18.1061 13.5161 11.8187
3176 4 -7.91925 25.07 13.7821 -0.560926 -0.933306 -0.835604 -6.8802 12.4163 -0.100452
3177 4 5.65385 6.82262 11.3926 0.0995305 0.516999 -0.430057 -21.4973 -2.00708 -4.0424
3178 4 -3.28607 21.1356 11.3602 1.23891 -0.0365037 0.70286 11.2473 13.3588 16.4915
3179 4 -4.61956 23.27 10.2173 -1.12457 0.303935 0.155798 -11.298 3.94248 18.677
3180 4 5.22913 9.35831 12.6336 1.55648 0.776039 3.8646 17.362 -5.83632 -18.006
3181 4 3.58164 12.2991 12.2962 3.86786 1.82861 -2.35756 -16.7421 13.3152 -17.6761
3182 4 1.29475 16.6922 9.87175 0.697575 -1.98706 0.803244 27.2811 -13.6357 -13.1961
3183 4 -2.06216 23.2456 10.6275 0.744204 -2.15163 -2.38508 13.7438 25.5263 -1.25629
3184 4 -6.04517 28.8443 12.1282 -0.259952 -0.106991 0.339573 5.49421 1.45133 -8.52317
3185 4 -7.3412 30.721 11.3761 1.59568 -1.00722 -0.918214 25.2977 1.96817 28.0144
3186 4 11.2273 3.00444 12.7634 2.60378 -0.0206738 -1.00757 12.4216 -2.55085 -13.4642
3187 4 7.94111 9.97012 11.3667 0.338995 1.51253 2.14259 -14.0351 -7.81244 -22.9007
3188 4 5.05193 13.4873 10.6821 0.542392 0.264781 -3.266 22.3188 12.3925 9.24284
3189 4 4.76409 16.0499 11.4378 -0.0517084 0.717406 0.486065 -17.5374 19.5475 -10.1661
3190 4 1.46611 18.795 10.9478 -2.87655 -0.645565 0.562343 -12.2677 -16.5437 -0.131413
3191 4 -4.83218 27.3408 10.3932 2.5525 3.47792 0.00596531 17.435 15.1233 -9.31296
3192 4 -2.61223 31.9516 10.7488 -2.84082 -1.67485 1.04761 -24.3233 7.33815 -3.38065
3193 4 13.3469 6.07624 10.8934 -0.23148 2.6763 1.10484 20.9983 0.140652 -4.78777
3194 4 10.6895 9.63604 11.8253 0.932509 0.417732 -0.501578 25.0895 18.2437 -21.4998
3195 4 9.64311 13.6518 10.9034 -2.2184 0.665238 -2.1199 -14.6312 -0.173548 0.953718
3196 4 2.96446 20.9357 11.2555 -0.382504 1.9316 1.25711 18.0267 -26.5016 -19.9156
3197 4 2.35358 24.7937 10.4782 0.550339 0.542359 1.59501 -20.1084 12.5364 21.1871
3198 4 2.01066 26.5872 14.1333 2.68939 -0.73668 2.89858 -19.6083 -3.49853 -13.9863
3199 4 17.4684 3.4875 10.4215 -0.568817 0.585344 -1.21424 -2.59153 22.8178 -20.9456
3200 4 15.8024 5.63948 10.929 -0.611638 -0.714715 -0.50747 12.8846 3.17947 -12.4722
3201 4 14.0346 9.34318 12.169 1.95038 -1.76396 3.67324 13.253 -7.35484 24.2957
3202 4 12.7474 10.8179 10.5789 1.01641 1.74329 5.08569 20.6271 2.0268 11.9076
3203 4 11.9138 14.4776 11.9603 -0.00254971 -0.993789 3.70867 -7.11816 19.2922 17.9869
3204 4 7.32168 19.656 11.8578 -1.61139 0.385657 3.43182 5.95458 14.1496 10.6316
3205 4 5.69497 23.8713 11.6182 1.50386 1.94946 -0.729988 19.0949 -11.8653 19.7941
3206 4 5.8884 26.4252 10.898 -2.29518 2.23687 -1.51105 -3.55733 23.2035 -26.6254
3207 4 4.68279 29.1932 11.9062 0.367403 -2.70645 1.23219 -0.949635 1.81868 -22.9871
3208 4 19.5108 2.56476 11.5329 -0.459005 -2.82 1.4059 -24.1431 -3.07628 -22.8376
3209 4 22.0996 5.40521 13.352 -0.777361 0.803128 -3.07075 -25.5623 17.2596 7.45861
3210 4 17.6537 7.46513 10.5616 -1.97332 -0.565228 -0.746877 -27.3349 -1.17244 -11.4647
3211 4 9.27178 24.0582 11.9624 -0.180671 0.139014 -2.88708 25.8739 -25.2548 -13.6071
3212 4 27.0165 3.99332 11.9733 -1.09122 -2.3304 1.31698 -23.1361 -11.6414 -22.9466
3213 4 20.7166 10.6883 11.3521 -2.29837 1.86494 -0.741202 -3.44552 -4.60353 -16.3463
3214 4 19.899 13.6275 10.816 0.239914 -0.219466 3.82159 23.2268 -25.2689 -3.23937
3215 4 18.7773 17.5626 11.9993 1.57423 -0.523043 -1.45264 4.84768 -23.7161 -15.4267
3216 4 13.6482 27.4821 10.6755 2.88072 0.697001 0.0239801 17.306 9.70099 -6.41421
3217 4 11.5172 30.6855 12.4179 -5.0799 -3.9417 8.0733 -2.27829 0.016097 -0.368377
3218 4 9.38371 32.1226 13.3799 4.58781 3.43613 -5.45308 0.610065 -4.66501 1.99436
3219 4 29.2255 2.60293 10.7161 -1.16858 -0.888555 1.78292 -6.40058 -24.0224 6.12139
3220 4 27.9783 5.7873 10.6197 0.456874 -0.347882 0.768033 24.4258 -2.3625 -14.4066
3221 4 26.4228 9.79197 13.2373 1.80784 -2.07613 -1.70862 5.0068 3.25157 -21.1405
3222 4 18.9575 21.8981 10.4996 -0.20786 2.72972 -1.15344 2.44233 -5.40924 -11.0584
3223 4 16.1655 22.0823 10.7566 4.52024 1.42359 -2.32439 7.69928 -12.5173 -22.1387
3224 4 29.1742 10.2127 12.9903 -0.520185 0.635337 0.0891962 -27.4884 -0.129637 -0.344958
3225 4 22.5534 21.4148 13.6359 1.64026 -0.282903 -1.34897 5.03572 -6.54286 -12.5281
3226 4 20.6518 24.4654 13.7999 0.130344 1.31297 -0.807276 6.34345 -3.79072 -20.3624
3227 4 34.388 0.285378 11.5415 0.803231 0.570543 3.03081 -20.875 4.61914 7.84881
3228 4 24.688 21.1495 11.9252 -0.321483 -1.76974 2.43956 -11.4585 5.07658 20.3398
3229 4 20.2159 28.9012 9.25978 2.81104 1.76634 -0.105768 -16.1013 18.8496 26.4734
3230 4 35.7442 2.48868 11.4413 -0.0966124 -2.61575 0.221053 18.2203 23.3541 -22.2979
3231 4 1.32818 3.96202 11.662 -0.656215 -1.79095 0.255254 -9.88108 4.38385 27.1442
3232 4 -3.89109 8.68106 10.7196 -0.408498 1.85701 -0.171299 -1.47648 -7.61035 -14.0554
3233 4 -3.37326 11.476 11.8872 2.00705 0.597851 1.1865 22.9119 -2.45212 15.1215
3234 4 -5.31995 13.0362 10.9238 3.78114 0.182796 -1.06243 -18.4944 15.6561 0.712595
3235 4 -5.84783 18.1109 13.6817 -0.750219 0.305769 -1.12706 -22.7445 25.7694 24.0374
3236 4 -10.7501 25.3119 11.9421 1.95973 -0.188503 -0.559596 -12.8514 -21.5778 -0.662221
3237 4 -12.9114 28.7427 12.4815 -0.366274 -0.399421 0.0131661 -17.9429 -5.83908 -19.9217
3238 4 -14.5448 31.1572 12.0987 -1.75289 -1.24795 -0.443005 -22.4831 -2.00965 -1.88601
3239 4 1.83661 1.32049 12.3962 -0.313902 2.18398 0.0588718 0.627055 12.185 -13.673
3240 4 4.17471 2.49 15.2283 0.70666 0.482938 -0.449953 -18.4822 11.3336 16.4537
3241 4 3.06911 4.66644 14.3152 -0.605438 -0.415575 0.643617 -15.5383 22.7903 -21.8167
3242 4 -4.39612 21.6531 15.008 -2.45586 -0.468062 -0.410119 20.4202 26.6589 5.96404
3243 4 -6.98187 22.5281 15.3852 -0.920337 0.649261 -0.485759 -26.0044 19.9974 -17.2803
3244 4 9.92469 4.69605 15.0274 -0.568638 0.969003 0.0771142 -5.44097 8.70742 12.3731
3245 4 4.87358 6.69899 15.1104 1.61643 0.213866 0.929939 -6.72913 -17.5702 2.47058
3246 4 0.782041 16.0653 15.4087 2.40451 -2.46472 -1.99765 10.0623 -14.4069 -23.9088
3247 4 -2.40832 20.9349 13.6895 -2.11152 -0.834054 2.27856 -18.8935 -5.29768 -6.82811
3248 4 -3.97586 24.2428 14.4156 -1.90895 1.47354 0.249297 -0.992088 -20.6427 24.1207
3249 4 -7.30659 30.1941 15.5644 -2.1057 -0.47264 -0.0112912 -22.4986 -4.85793 -2.06893
3250 4 10.3775 0.627055 15.6962 -1.02052 0.294066 0.596627 -24.1907 -28.0543 5.21626
3251 4 6.78136 10.5971 14.4875 0.41441 0.0518621 1.17775 -18.6238 -5.48725 -5.42589
3252 4 4.25071 13.1788 14.8207 2.64944 0.367 1.62414 23.0157 0.647181 17.1663
3253 4 2.51635 15.5864 12.8052 -0.187594 -0.408887 -0.396929 -17.2345 -23.6064 -23.0224
3254 4 0.493432 18.3504 14.1958 -0.597311 -0.954633 1.64101 -12.4759 14.8913 2.19128
3255 4 -4.51688 31.8548 16.0387 1.01088 -0.0105542 2.02734 10.8384 -24.6968 26.3512
3256 4 12.4677 0.82418 13.0723 -0.525011 0.311714 0.996434 11.3513 -14.4027 -4.91977
3257 4 8.8839 11.327 15.8312 0.763468 -1.6998 -0.0375732 -21.8892 24.2943 4.13263
3258 4 8.25896 14.0193 13.9683 1.44955 -3.65118 1.56134 19.1119 -22.5596 -6.33547
3259 4 -2.34788 31.6908 13.3574 -0.529892 1.91151 -1.74481 23.3875 -24.6579 -24.7092
3260 4 15.7239 1.85405 12.8645 -0.602883 -2.06761 -1.8683 -1.64434 -25.1167 -6.8008
3261 4 13.8009 5.73068 15.2383 2.27566 1.23907 3.43065 -9.4225 4.70437 -16.8503
3262 4 11.8593 8.40613 15.326 -0.830926 0.744415 0.379523 23.5113 -8.26938 23.2683
3263 4 11.9916 10.7315 14.7248 0.85655 0.962774 0.589864 3.54214 15.9578 -13.9425
3264 4 11.0399 13.0197 14.3973 -2.56868 0.969111 0.0185608 -24.2029 7.67488 19.4331
3265 4 20.0304 3.79452 14.01 0.797751 1.82713 0.294169 -6.56477 14.4257 13.9151
3266 4 18.0555 5.49807 14.7375 -2.47339 -0.427242 0.766075 -20.4461 -8.4805 -18.5512
3267 4 16.4215 7.73906 13.0469 -3.46684 1.387 3.81963 4.36878 -24.4813 -14.7156
3268 4 10.1251 15.334 14.9788 -2.28945 -1.67951 0.143557 27.1898 -14.1927 -10.5586
3269 4 4.59459 23.4169 15.4705 7.9155 1.62022 -7.32608 1.29248 2.37243 1.76589
3270 4 3.32562 29.0548 14.3825 3.07217 -2.45233 -1.50661 -5.36485 15.9945 3.83321
3271 4 21.4894 1.16211 15.4157 -1.59837 0.876926 -0.930877 -8.83643 -19.6742 14.9104
3272 4 11.3255 24.8846 10.8394 -0.603261 -0.0619244 -1.65998 2.75804 14.2477 -13.8115
3273 4 12.6982 29.983 14.4598 -2.04026 1.12779 4.74047 2.79836 1.80994 -4.24926
3274 4 20.1868 8.57705 15.1098 1.87651 0.822275 -1.72828 -4.01217 -30.0529 -0.720573
3275 4 19.0051 12.812 14.7412 0.0196536 2.99219 -0.557263 3.27967 26.1948 -25.844
3276 4 16.6519 15.2735 15.6053 1.57748 0.811148 0.406671 8.77685 13.7992 5.17294
3277 4 8.76741 17.7024 15.8416 -0.25058 8.77576 -1.6058 -0.088359 -0.0124318 -0.721888
3278 4 16.8765 17.8401 14.6005 0.299677 -0.0857868 -2.32578 -2.87856 -18.2923 23.2215
3279 4 27.122 3.19207 14.5702 -0.692072 -1.07822 2.36045 25.4372 -20.0821 23.7803
3280 4 25.9848 5.76784 15.8655 0.712832 2.3048 -2.00191 20.6007 27.2099 -13.6396
3281 4 22.7108 10.0503 12.8799 -1.61376 0.018354 2.47472 5.76233 15.3886 -23.9094
3282 4 21.2922 12.129 14.0133 1.26521 -1.51395 -0.322263 -14.148 -13.7422 -5.32537
3283 4 21.1299 15.8821 12.4827 -0.274143 -1.09714 -0.727109 2.46459 11.2949 24.373
3284 4 19.6942 18.5478 14.8689 0.738018 1.20577 1.4851 6.52479 -1.96322 -15.745
3285 4 18.1617 20.9663 15.1128 -0.163382 0.600741 0.0332591 -5.43253 -14.6066 -14.3573
3286 4 16.5925 23.0534 15.2736 -0.25722 -4.75198 2.22119 0.824909 1.0299 3.72045
3287 4 29.1491 3.91743 15.4692 -0.809108 -0.817083 -2.47099 -18.8727 3.61563 22.4441
3288 4 25.8564 7.83191 14.6786 0.692123 -2.00465 -0.299664 19.4928 2.65533 -14.3659
3289 4 20.0698 20.7065 13.1656 0.239866 -0.47225 -2.06952 -4.64718 15.6205 -11.5881
3290 4 18.4224 23.3576 13.8586 1.78188 -3.82237 0.636257 0.549369 17.006 -11.8324
3291 4 16.3538 32.0063 14.1051 0.264008 -0.447043 -2.03715 13.6272 4.32283 25.2076
3292 4 31.4306 1.23619 14.6851 -2.22153 -1.18632 -0.379125 4.84671 11.6716 0.312358
3293 4 33.4751 3.62241 13.7034 -0.430676 0.197509 0.916752 19.3943 -14.4207 -16.6978
3294 4 -10.1216 17.571 13.8291 -3.25251 -2.42395 -1.24881 16.7734 -26.2238 21.52
3295 4 36.7714 0.618866 15.8197 -1.10393 -0.602109 -1.25885 15.1465 -13.5569 0.677741
3296 4 0.323014 3.8507 15.6533 0.758537 -1.97118 1.40371 19.8239 -16.5101 -3.54899
3297 4 -7.69999 14.2422 15.2938 0.283508 0.511225 -1.11793 -5.90831 -22.2847 -6.36682
3298 4 -10.8739 21.3423 13.9178 0.542326 1.49033 0.129636 -9.44237 -25.1824 -4.02175
3299 4 -12.2888 23.4877 12.783 0.380714 3.27266 -1.89574 -25.3525 -8.73896 11.4389
3300 4 -15.2061 29.2452 14.0713 -0.0745801 2.46494 -1.21024 -14.5214 7.47578 -20.9555
3301 4 2.46006 3.80345 16.8812 3.29636 -1.71073 -0.875462 -12.0205 -21.7137 25.0079
3302 4 -1.88926 12.6407 15.4461 0.0352397 1.46699 0.664779 26.0901 16.2116 6.18697
3303 4 -5.40876 12.2317 14.3834 -1.15856 2.77638 1.46246 4.57788 -2.57751 5.27322
3304 4 -5.33664 14.5187 15.2914 -0.342978 -0.470346 -0.775155 20.4759 8.69418 12.9012
3305 4 -9.97702 23.6291 14.2897 -0.235406 -0.85969 -3.05833 0.925815 6.04883 -4.11742
3306 4 -0.061287 10.0739 16.5537 -2.01136 -1.14812 -0.648031 4.46372 12.3624 20.4481
3307 4 -3.15056 12.2364 17.534 0.31066 0.620395 1.256 -18.9341 -9.12182 5.86435
3308 4 -8.95823 24.1768 17.4213 -2.61322 -0.890574 -1.73671 -5.78023 -8.45406 -17.1145
3309 4 -10.7697 26.8578 16.5124 1.3169 -0.519001 2.21418 -7.19607 -14.3746 -9.56579
3310 4 -11.6264 29.5691 16.1153 -0.900748 1.14651 -1.2259 14.6523 -11.2931 -2.82637
3311 4 3.18768 6.13351 16.9985 -1.22045 -1.98237 -0.987422 -3.92644 -21.6822 -9.65526
3312 4 -8.73242 31.1519 17.4731 -0.336132 0.797008 -0.00483857 13.9725 2.85844 11.6335
3313 4 -11.6201 31.8345 14.8417 -1.75728 2.57641 -1.45144 19.1482 18.9923 6.78701
3314 4 7.21992 1.69486 18.5071 -0.0622854 -0.0211905 0.214744 -0.220987 0.362734 -0.457652
3315 4 8.07992 5.45523 16.747 0.77369 -0.150747 1.40392 -16.0566 -26.693 -17.7544
3316 4 -0.999615 15.4438 18.447 -0.300582 -0.146951 -0.191085 -0.0276595 1.26317 0.148589
3317 4 -1.3658 18.7926 16.2322 0.223137 1.37517 0.00349213 -22.8047 10.7606 24.5037
3318 4 -2.00577 22.7335 17.3238 0.0621736 1.28882 -0.816918 -20.4155 -8.98648 -17.3118
3319 4 -4.74407 24.7361 17.5737 -0.0172556 -0.197796 -2.52292 -21.3793 19.4437 28.9267
3320 4 12.072 2.12433 16.8938 -1.62057 2.55478 -0.102868 -22.2439 4.77213 -1.72579
3321 4 11.7861 4.92575 16.7599 -0.0355432 -1.26858 0.444543 -22.0332 10.7527 -15.0756
3322 4 3.49302 16.7351 15.517 -3.75097 1.62731 -2.42846 -25.9845 26.3718 12.994
3323 4 2.09639 17.8712 17.2096 1.22294 0.368677 0.348205 -14.2232 -18.7629 -1.08924
3324 4 -0.493922 24.9086 17.0142 -0.364777 -2.02808 1.039 -0.13239 -12.7977 19.4387
3325 4 -4.2395 27.8815 16.1627 -2.22112 -0.917059 -0.578976 -2.93463 -25.3726 13.4965
3326 4 -5.38362 29.9296 17.461 -3.09067 0.399424 -1.84572 -1.7908 -26.3493 3.94758
3327 4 12.805 9.06083 17.9773 0.227639 -1.52725 -1.39741 -25.48 -11.3417 -0.0736516
3328 4 9.04072 9.79033 17.5503 0.0194128 2.90976 -0.762286 -17.8868 4.86043 10.7974
3329 4 6.94826 13.2789 17.108 -0.73352 0.724307 1.28893 21.5935 2.70997 15.1939
3330 4 1.46608 27.7485 17.4241 0.737341 0.0338562 1.00038 -15.9347 22.5102 -5.86568
3331 4 -1.86241 30.3185 17.1861 1.12013 0.234231 1.88064 25.8988 -5.3338 2.0075
3332 4 17.6262 3.18066 15.378 -1.67783 2.11865 1.35351 -5.32191 -11.3843 -20.7944
3333 4 14.5977 7.69041 16.8021 1.46712 1.61169 -0.374564 12.2346 1.87311 -21.5457
3334 4 11.4795 13.3043 17.1207 -1.14727 0.368162 -2.15171 24.3506 -3.35729 -2.81714
3335 4 8.03959 15.6475 17.7429 -1.1637 -0.236189 -0.302284 -16.9026 19.1531 -17.1246
3336 4 6.12695 16.4284 15.1579 0.971361 -0.0850911 -2.69602 -12.1895 4.37642 23.3224
3337 4 0.754869 30.0709 16.7544 -0.683599 -0.939223 -1.05825 -5.49417 -18.6225 -3.58067
3338 4 17.8342 0.244228 16.7262 0.357623 0.946837 1.924 -3.2755 -5.45591 17.5724
3339 4 21.225 3.19505 17.0212 -2.06954 0.01366 2.39193 -4.5408 -15.3206 14.0879
3340 4 17.3405 8.0121 17.255 0.231909 1.55971 0.524347 16.5469 22.3319 7.99646
3341 4 16.3559 9.31983 15.2704 0.45487 1.09012 -1.15877 1.2031 17.7133 -20.6193
3342 4 12.978 16.4764 15.6307 -2.62791 2.07723 0.377988 7.83479 -15.9354 9.81343
3343 4 3.21706 21.9701 13.8496 1.80735 2.61449 -1.18445 -0.685012 -1.08309 -0.0896646
3344 4 5.68184 20.7377 13.9115 -3.86622 -4.65108 -0.903364 1.19411 -1.58145 0.0348632
3345 4 4.55074 26.2962 14.4338 9.81287 -0.732361 0.215735 -0.65251 0.799688 5.02964
3346 4 4.72347 28.373 17.2951 -0.643403 2.1337 9.2652 0.210144 2.40058 -4.12005
3347 4 3.02851 31.292 17.2143 0.101994 1.88062 0.542569 21.0747 -13.2568 -6.34911
3348 4 19.9078 6.91335 17.181 1.20107 -1.18046 -4.69002 -20.1215 21.3259 26.6024
3349 4 16.4366 18.1365 18.357 -3.14166 -0.0361791 3.62572 -2.59266 1.4236 0.46991
3350 4 14.6832 18.3273 15.5181 3.31126 1.97485 2.81133 -2.71303 9.07642 -1.03765
3351 4 7.84862 26.1391 14.2569 1.8489 3.34377 0.683141 -2.02697 -0.497417 -0.442262
3352 4 26.9048 0.350892 16.7088 0.589452 1.71607 0.580488 -15.2566 -13.7772 -25.2929
3353 4 23.8315 0.328485 17.1668 -0.83727 -1.02431 1.48588 8.66654 12.5581 21.3298
3354 4 25.7025 2.71671 17.4715 0.938696 -2.27583 -0.327852 -6.08924 -13.8359 -16.862
3355 4 23.2526 6.53719 17.2825 -0.68586 -1.60285 -1.23383 24.2675 -21.4953 -19.0425
3356 4 22.222 9.8469 15.5498 0.338066 -1.80224 -2.45451 19.7266 2.0481 19.0441
3357 4 19.1048 14.352 16.6228 -0.207788 -0.0609707 -0.666957 26.9646 -1.94174 -15.8415
3358 4 17.8791 16.429 17.5601 0.0573289 -1.22326 3.24226 1.59441 -13.9653 -12.1333
3359 4 29.4629 0.715338 16.4723 -0.32134 -1.07197 -0.0806946 -15.4895 -16.1933 8.98931
3360 4 20.2166 16.6289 16.4583 0.877611 -0.0964303 -0.564292 2.52273 -15.5515 -11.8369
3361 4 18.5849 19.0665 17.1713 0.995509 -1.22441 -0.14019 -16.0521 -8.75804 18.4785
3362 4 15.997 27.5695 16.6226 -1.81508 4.97666 2.31359 -3.16597 0.245077 1.28126
3363 4 14.6455 31.8903 17.2033 2.0357 -1.93226 -0.380009 5.73628 -13.1527 -8.63619
3364 4 31.0087 4.82934 16.8757 0.014623 1.06144 -0.59315 -27.4371 -8.47961 -6.69405
3365 4 28.8505 7.98806 16.8158 -0.37951 0.883302 -2.34324 -7.1215 -4.42684 22.3355
3366 4 24.4585 15.1845 15.2647 1.95074 -0.00659114 -1.49155 -2.72247 13.4405 -20.4055
3367 4 18.4045 26.5524 16.7662 -3.16784 -0.815829 1.86425 2.40666 22.724 -22.5108
3368 4 16.3317 29.5392 15.0645 -0.629208 -1.05855 1.1454 10.3353 16.441 19.62
3369 4 33.9473 1.91077 16.5102 1.05008 0.967577 0.800426 17.5984 6.19049 23.7004
3370 4 33.9122 4.65601 15.9514 0.713679 3.06634 -0.814368 20.9262 18.3408 0.674043
3371 4 32.0132 7.20933 16.4725 -0.978021 0.642687 2.8183 18.8392 23.7219 20.3594
3372 4 28.0952 14.7568 18.3453 -0.146286 -0.320737 -0.167437 0.239758 -0.307643 -0.272607
3373 4 25.6176 18.5255 15.6386 -2.70073 0.275088 -1.31561 -16.2255 9.02169 11.4345
3374 4 19.9686 28.5233 17.0166 0.929685 0.45648 -1.21585 -2.64346 22.7565 -8.3885
3375 4 -7.94543 18.3221 15.2865 -0.728694 1.29438 0.107497 3.48789 -4.38728 8.63541
3376 4 -11.7207 23.0612 16.2905 -1.0866 0.726765 0.368361 -18.4905 3.93534 -14.0341
3377 4 -12.6936 25.9507 18.1292 -0.5505 0.284604 -0.319574 0.661369 0.205155 0.354094
3378 4 -13.7378 27.5815 16.3029 0.527998 -0.646039 -1.31179 -12.8089 24.9639 -11.5628
3379 4 -15.5181 31.5948 15.4101 0.577331 -1.32963 1.11711 19.1529 21.4882 25.9153
3380 4 -0.840059 11.5436 18.5394 1.30407 -0.340582 0.408027 -0.641165 0.667909 -0.621832
3381 4 -3.09937 16.3796 19.7367 -0.394063 -0.1783 0.0978318 0.419825 0.065973 -0.407702
3382 4 -8.2181 26.9991 17.2586 2.5005 0.41035 -0.761369 -4.60574 -0.479187 -11.0017
3383 4 -9.71676 28.6351 18.6977 0.456492 -2.18334 0.188727 0.56881 0.374151 -0.093704
3384 4 -12.1224 31.7734 17.487 0.778649 0.76375 -0.236997 -7.22667 14.1857 -20.5883
3385 4 4.39926 8.91977 18.6881 0.144341 0.0370573 -0.01894 -0.129732 0.0350551 0.376558
3386 4 1.08771 7.98862 17.4202 -1.28007 0.186968 -1.41966 12.1194 7.97322 25.139
3387 4 3.37528 12.1624 18.5827 1.15488 -0.581157 0.383002 -0.0896971 -0.57911 -0.73801
3388 4 -3.00448 20.0024 17.5666 -1.70453 -3.04271 1.4303 -4.67149 -10.9725 -23.1052
3389 4 -2.81227 21.8896 19.7114 0.0650877 -0.210603 -0.0170454 -0.262381 -0.255295 0.372626
3390 4 -4.36543 24.0615 20.0948 0.643529 -1.31203 0.0127759 -0.208651 0.646322 -1.1661
3391 4 8.91124 4.5743 19.4436 -0.799031 -0.927093 -0.131661 0.0467099 -0.185667 0.284111
3392 4 -0.0836676 18.4144 18.4975 0.842362 -1.2782 -0.17165 1.05431 -0.302693 -0.58951
3393 4 -1.76733 24.7064 19.5001 0.13429 0.171221 0.34113 0.0529951 -0.46784 0.230251
3394 4 -4.96617 26.7655 19.5034 0.0599843 -0.826641 -0.543988 0.0208504 0.344173 -0.35865
3395 4 13.4157 3.86114 18.5174 -0.0671253 0.161179 -0.468838 0.207392 -0.580896 -0.355832
3396 4 9.92353 6.444 18.0424 0.0777629 1.6875 -1.09025 -0.590053 2.65728 0.393619
3397 4 3.36158 18.989 19.1056 1.89474 4.19466 4.25965 2.28023 -2.88233 -7.44107
3398 4 -0.0775749 20.6044 19.4921 -0.206963 1.62002 0.814776 -0.0910319 0.32526 0.0253236
3399 4 -0.326612 26.8739 19.3905 -0.161724 -0.30431 -0.724774 -0.60426 0.401411 0.855685
3400 4 -3.72001 29.7042 19.7726 -0.0871585 -0.137684 0.142573 0.316454 -0.337265 -0.163852
3401 4 14.6802 6.06811 19.5662 0.113192 0.284474 0.368702 -0.0620554 0.190388 0.174359
3402 4 9.14986 11.3228 20.1081 -0.294844 0.727523 -0.549515 -0.0697277 0.274705 0.2602
3403 4 9.09146 13.4682 18.9132 0.0919998 0.157596 -0.935325 -0.609413 0.00692636 -0.097266
3404 4 4.77872 18.8739 15.2667 10.0111 -3.60155 1.51675 0.751443 1.43829 -3.55513
3405 4 1.27203 21.1603 15.9574 -2.60985 2.24013 1.25939 26.0028 -26.5499 -8.97158
3406 4 16.7765 7.23184 20.8072 -0.0124124 -0.143249 0.356009 0.0075026 -0.00771577 -0.0198625
3407 4 15.2398 8.96022 19.2682 -0.137618 0.675068 0.897683 -0.308661 0.141847 -0.490649
3408 4 11.983 14.9561 19.6329 -2.2206 -0.728231 0.15201 -0.410019 0.210135 -1.65256
3409 4 10.0913 18.2852 11.7751 -1.42949 0.836147 -1.75188 21.55 9.54014 20.1832
3410 4 6.02022 23.6374 17.8009 -2.13263 1.96398 -2.56634 -1.53162 6.59926 -2.34045
3411 4 2.90728 25.1149 16.8 3.37891 -5.94864 -1.45678 2.6173 0.357901 1.79354
3412 4 1.63764 30.8721 19.2174 0.27224 0.216648 -0.531401 0.0830675 0.0791996 -0.19797
3413 4 17.8676 3.27348 19.3701 4.10034 3.30403 -1.80787 -1.32303 -1.07335 0.33838
3414 4 17.8588 9.16964 19.3904 0.384159 -0.370824 -0.0175671 0.527869 0.518872 1.66471
3415 4 16.1013 11.5701 18.3889 -0.562627 0.109726 -0.139301 0.779221 -0.120431 -0.505022
3416 4 14.1507 18.3953 19.5091 10.6164 -2.23977 -1.97251 3.00749 0.0594648 -1.49695
3417 4 7.52258 29.1946 16.557 0.863885 3.81349 2.04027 -0.490986 0.693481 0.145054
3418 4 21.2178 5.66557 19.7811 -0.172057 -0.0224068 0.209862 0.0716901 0.106549 -0.426958
3419 4 20.0622 9.63806 17.5749 0.40245 1.32422 1.25005 -2.90013 11.7393 16.8991
3420 4 16.7349 15.2416 19.6354 0.146604 -0.684894 -0.782907 -1.85818 -0.0568807 0.025733
3421 4 16.0261 24.2623 11.898 0.465857 3.03801 -0.785469 -19.746 22.8646 -15.8213
3422 4 6.01704 29.3211 14.4656 -2.12437 0.118647 -1.77375 0.461798 -0.637497 -0.399591
3423 4 22.8248 2.0554 19.5331 -1.32603 0.865449 -0.707494 1.53126 -0.211838 0.64978
3424 4 26.1852 4.81831 19.6538 0.245803 -0.484374 0.224351 -0.221119 0.15543 0.0270191
3425 4 25.3411 7.25116 18.7807 0.459102 0.335215 0.73597 0.153512 -0.241498 -0.419397
3426 4 23.8364 9.1359 17.2264 -1.41306 2.17767 -1.39093 -17.1016 -5.0095 3.92485
3427 4 20.3712 17.2927 19.0548 0.950528 -1.02666 0.130399 -0.302458 0.836421 0.101361
3428 4 9.52962 27.9128 11.9515 2.12996 -3.48668 -0.772049 -13.7667 -20.8011 -22.136
3429 4 12.7653 32.2511 18.9322 -0.0609435 0.383448 -4.63538 0.449844 -1.11668 -2.89073
3430 4 27.9117 2.15115 18.5423 -0.578952 -0.81575 -0.639694 0.227818 0.125704 0.466697
3431 4 28.8964 4.86163 18.9406 -0.0147831 0.133556 0.0974661 0.0796459 -0.396352 -0.129837
3432 4 26.1124 9.76808 18.2096 -0.0313715 0.194181 0.251479 -1.0901 0.542975 -0.802473
3433 4 23.6343 12.1638 18.5026 -0.907726 -0.869339 -0.173188 -0.907829 -0.0648976 0.232268
3434 4 18.5255 28.1604 19.6912 1.89042 1.19808 0.199299 -2.99918 -1.19829 1.92699
3435 4 6.21707 31.8648 15.1091 0.0490528 1.99604 -1.40427 22.0842 -26.7503 -19.2629
3436 4 31.3568 6.20078 19.129 -0.286187 0.0416963 -0.050939 -0.285689 -0.12398 -0.232578
3437 4 25.2549 13.942 18.916 0.0811374 -0.0953958 0.171059 0.0883834 0.250009 0.0904079
3438 4 23.892 16.7082 17.1917 -1.45167 -1.81746 2.13965 -12.944 -12.554 -8.28151
3439 4 20.575 26.2662 18.7104 0.407048 -0.517801 -0.492071 0.943386 0.765368 -0.1603
3440 4 18.293 30.4687 17.2826 0.59952 -1.36521 3.7847 3.41501 11.8893 -10.7637
3441 4 -2.51043 7.69074 18.7504 3.28517 0.503302 2.81025 -0.60149 0.194203 1.45469
3442 4 29.9127 9.65281 18.1868 0.202726 0.110345 0.446542 -0.400849 -2.29045 -2.14165
3443 4 -9.59786 17.4092 18.3388 -3.18847 0.612668 1.25662 -0.312488 -0.536508 -0.219974
3444 4 24.2148 21.275 17.2811 1.39786 1.86818 -0.773701 -1.14756 -3.52745 17.7971
3445 4 -13.5587 24.0124 19.8503 0.588497 -0.0368472 0.294119 -0.354379 -0.0380273 0.288178
3446 4 -9.76612 21.329 17.9357 0.954034 -1.17726 1.15526 -0.766131 15.5317 21.8076
3447 4 -10.4993 24.861 19.5155 -1.18348 0.496266 -0.413139 0.106005 -0.151428 0.184321
3448 4 -13.9333 30.1304 18.336 -1.00244 -0.0253911 0.336678 -0.0618208 -0.26903 -0.303117
3449 4 4.91605 4.6813 19.0298 -0.108992 -0.15073 -0.649609 -0.0698444 -0.167533 0.446636
3450 4 3.36634 6.62301 19.7911 0.65909 -0.897499 -0.371739 -0.148746 -0.017022 0.0350267
3451 4 -0.867554 13.6366 20.7814 -0.651679 1.02627 -0.627632 -0.0562752 0.0683795 -0.0736603
3452 4 -2.0368 15.8485 22.1586 -0.161897 -0.157278 0.692328 -0.0704848 0.0941463 -0.0946372
3453 4 -4.17485 18.766 19.5582 0.365791 0.0989121 0.365183 0.183962 -0.382362 0.782812
3454 4 -11.4077 31.2483 20.2909 0.0209571 0.16918 0.00872813 0.016105 -0.011951 0.0712356
3455 4 6.20752 8.85483 20.6859 0.0622025 -0.299657 0.222106 -0.0119717 0.0490922 -0.166921
3456 4 5.25282 11.0096 19.9326 0.0371798 -0.133141 -0.494632 0.226131 -0.055953 0.230465
3457 4 1.69213 13.7301 21.638 0.093077 0.0811051 0.720696 -0.404819 -0.233992 -0.0261356
3458 4 -6.7745 26.248 20.885 -0.318647 0.752555 -0.660173 0.104102 0.038694 0.218201
3459 4 9.95896 3.39247 22.5157 0.139773 -0.176844 -0.0381593 0.00451388 0.097615 0.0420694
3460 4 5.91562 13.6235 20.9178 -0.293577 0.157109 -0.982824 0.0998408 0.0499149 0.126203
3461 4 -1.71511 27.2724 22.5763 -0.488236 0.0233882 -0.0211868 0.193573 0.0248433 0.0321869
3462 4 14.6608 3.75099 20.7683 0.14306 0.110686 0.211691 -0.271225 0.107664 -0.0845736
3463 4 11.1641 6.05252 20.3991 0.138903 0.154439 -0.120097 0.00439724 -0.0819331 0.0792175
3464 4 2.23706 19.5431 22.4992 0.310668 -1.99665 1.83448 1.19837 -0.55804 1.89045
3465 4 0.0484364 22.8908 21.3875 -1.1353 -0.115936 -0.155079 0.315421 0.693233 0.532112
3466 4 12.0023 10.3549 21.8402 -0.0852222 -0.241961 -0.0380296 0.034225 0.0603253 -0.169905
3467 4 10.6077 12.9208 22.1007 -0.0927606 -0.190456 -1.06544 0.191899 -0.0707988 0.518128
3468 4 2.92379 21.6583 17.2738 -0.981381 7.43796 0.0851244 1.90292 1.93937 2.36416
3469 4 1.45974 23.7841 19.175 -0.80754 -1.49145 0.316218 0.850827 -1.54588 -0.539796
3470 4 2.21543 27.6799 20.0525 -0.279562 0.492438 -3.4614 2.42202 -0.312746 3.99073
3471 4 -0.233112 30.3451 20.868 -0.477757 -0.538717 0.0147914 0.484068 0.114767 -0.953126
3472 4 17.3877 0.969742 20.6554 0.495294 0.877443 -0.480313 -0.153108 -0.190864 0.282841
3473 4 18.8564 3.53132 22.6294 0.35894 -0.452056 1.0356 0.10801 -0.173159 -0.166631
3474 4 14.0922 12.2809 19.6486 -0.566411 -1.03105 -0.00134748 -0.414765 0.457315 0.0807563
3475 4 5.69373 16.3908 19.3659 0.0337846 0.0152799 -1.039 0.986794 -1.1865 0.167456
3476 4 3.66954 30.3346 20.3281 -1.39301 -2.62161 0.83722 5.9651 -1.55191 -1.97023
3477 4 20.7892 1.69523 22.2721 0.974943 -0.229999 -0.0501581 -0.211997 -0.258154 0.12347
3478 4 16.4204 13.0533 20.729 -0.537456 0.141439 -0.412741 0.266054 -0.0838591 0.22579
3479 4 14.9675 15.5852 21.5823 -0.0212318 0.349892 0.566953 -0.26443 0.746608 0.0279526
3480 4 24.8694 4.03338 22.2885 1.34268 0.939157 0.414743 0.294509 0.571776 -0.35498
3481 4 23.0107 6.24302 21.5447 0.18442 -0.0425318 -0.0132149 0.141372 0.0888209 -0.190048
3482 4 21.4835 8.49456 20.8435 4.63064 1.40667 -4.73404 -0.68182 -0.70373 -0.0151599
3483 4 19.1721 15.5919 20.7919 0.12007 -0.351812 0.0737315 0.020028 0.0661364 0.553836
3484 4 25.1011 2.04917 20.5119 3.30863 -4.26232 4.68962 -1.19883 0.643535 -1.73851
3485 4 27.3433 3.53223 22.1602 -0.379635 -0.067667 1.58938 0.277642 -0.216319 -0.301675
3486 4 25.4546 8.4805 21.9272 -0.00270026 2.77387 -15.7751 0.775222 -0.356627 1.41149
3487 4 22.908 11.8785 22.4663 -0.190604 0.0227937 0.633491 0.23459 -0.0402908 -0.233235
3488 4 21.3256 14.8069 19.8742 0.666923 -0.788692 0.0451512 -0.027921 0.153048 -0.354902
3489 4 20.2121 17.87 21.7707 -0.292994 0.665999 0.041372 -0.0929382 0.784743 -0.0275947
3490 4 16.4236 21.4824 17.5871 -7.07918 2.09558 0.659914 -0.300474 0.243476 -5.22451
3491 4 29.7984 0.89432 20.4865 -1.93953 -3.76668 1.50108 -1.78282 3.71294 -3.26013
3492 4 26.1484 11.3011 20.2768 1.01039 -0.733733 0.529317 0.305232 -0.109841 0.126884
3493 4 21.7646 20.1575 21.9269 -0.674695 0.271733 -0.010531 -0.189567 0.0104292 -0.0652201
3494 4 19.4141 25.3097 20.7854 -0.730159 -2.30791 -0.497384 0.249127 -1.27193 -0.0138851
3495 4 32.5873 5.95201 21.5887 1.08868 -1.35984 0.552056 -0.394481 0.391442 0.391305
3496 4 23.4727 19.9289 19.6303 0.441586 0.0721012 -0.295924 -0.00823812 0.111053 -0.0811807
3497 4 21.7039 23.2945 18.8158 0.624858 -0.406273 0.751127 0.744581 -0.653504 0.924113
3498 4 18.5763 32.087 20.2169 -0.784536 -0.0783823 0.185011 -0.0127767 0.300927 -0.572461
3499 4 35.0337 0.92817 21.4651 0.387027 0.46266 0.674498 0.65588 0.947864 -0.968521
3500 4 -1.99745 5.87263 20.3024 -0.856427 -0.758436 0.338188 -0.119746 0.0900418 -0.0306478
3501 4 -3.63973 8.61853 20.8599 -0.148715 0.113925 -0.294695 0.297135 -0.246846 -0.0890578
3502 4 -10.5616 19.9138 19.9602 0.218033 0.394384 -0.207519 -0.51229 -0.440446 1.01087
3503 4 -12.7181 22.3103 21.66 6.11245 2.4032 -1.26235 -1.85883 -0.774545 0.387847
3504 4 -14.8201 32.1081 21.7856 -0.0894805 0.289834 0.00366857 -0.0452472 0.00228513 -0.10035
3505 4 -0.335664 2.07605 18.7994 -0.486622 -0.571495 -1.67589 0.639648 0.438908 0.0678515
3506 4 1.57275 2.66562 20.3164 -4.33966 1.48302 -1.19037 1.28897 -0.452433 0.416365
3507 4 -4.95934 14.8635 19.1234 0.474426 -0.0796182 0.0740065 0.0591109 -0.601951 -0.409031
3508 4 -8.66827 22.9562 19.8515 -0.0882466 1.1494 -1.34236 -0.494389 -0.170688 0.127545
3509 4 3.57701 1.35682 19.2963 -1.16121 0.499398 1.86314 0.609003 0.0591497 -0.280626
3510 4 4.5428 2.28531 23.4028 1.58422 0.352828 -1.23381 0.334989 0.053635 -0.489487
3511 4 1.01874 4.77806 24.8739 0.104776 0.329107 0.00365737 0.0513418 0.18348 0.00593587
3512 4 -4.80336 15.7128 24.8494 0.000580435 0.0526182 -0.101202 0.0834278 -0.154578 0.0048541
3513 4 -6.89664 18.0455 24.465 -0.1719 0.0269301 0.00617518 0.0629595 -0.111808 0.0209319
3514 4 -8.60556 21.7571 24.1492 0.0937323 0.227573 1.53629 0.181935 0.026609 -0.0612746
3515 4 -9.94766 24.1566 24.3116 -0.0551303 -0.0443744 0.0450232 -0.00770709 0.0935891 -0.0270621
3516 4 5.97149 3.88831 24.8138 0.940139 -0.513606 1.27241 -0.126842 0.0175036 -0.0643828
3517 4 -0.827586 15.2108 24.5726 0.0941352 -0.438856 0.0167422 -0.0371569 -0.121517 0.0940207
3518 4 -2.99402 17.4392 24.0922 -0.0504802 0.728677 0.379438 -0.0163847 0.0166364 -0.0316375
3519 4 -4.77681 19.2297 23.483 -0.449274 -0.38195 -0.453514 0.096357 0.0550813 0.0411524
3520 4 -6.04737 26.0815 24.3715 0.0452348 -0.113704 0.313763 -0.196079 -0.0643235 -0.0243621
3521 4 -8.3872 26.9767 24.7629 0.412039 0.288752 0.43478 -0.19926 -0.108459 -0.27029
3522 4 7.72544 7.31737 24.3333 0.638683 -1.06323 0.627217 -0.153376 0.172825 0.0173041
3523 4 2.79129 11.5757 23.8722 -0.364176 -0.846305 -0.33678 0.0558633 0.226251 0.066559
3524 4 3.00189 13.4536 25.4597 0.135834 -0.025639 -0.33902 -0.123697 0.546639 0.349589
3525 4 -5.0521 29.1248 23.5829 0.348977 1.16219 0.0518982 -0.0675011 -0.420009 0.0556915
3526 4 -7.98445 29.1528 26.3502 -0.227345 -0.20076 0.0556946 0.238658 0.173854 -0.0621824
3527 4 -8.79499 31.7757 23.4983 0.0500558 -0.250443 -0.108679 -0.0460884 0.0877391 0.0122782
3528 4 11.5145 2.52731 24.2991 0.0260419 -0.0382999 -0.113381 -0.0511888 0.10134 0.0661545
3529 4 5.40941 14.4444 23.2187 2.12555 1.0754 -0.308192 -0.389972 -0.590114 -0.180696
3530 4 -2.93597 29.9709 22.2455 0.565474 -0.0284483 -0.05788 -0.220338 0.0176614 -0.137062
3531 4 14.5064 0.148837 23.7638 -0.17357 0.0268876 0.0569376 0.237525 -0.0968129 -0.0403992
3532 4 0.125509 24.8361 23.7024 0.298981 -0.507923 -0.604878 2.32174 2.43134 -2.58447
3533 4 17.6879 2.74249 24.7333 -0.218873 -0.555348 0.241244 0.172175 -0.00251389 0.405168
3534 4 11.7743 11.7682 24.0687 0.941491 0.415362 0.851405 0.208731 0.227734 -0.26058
3535 4 1.69405 26.425 22.611 4.6575 -1.0346 1.85741 2.40187 1.13956 -3.84386
3536 4 23.209 0.947636 23.5483 0.210272 -1.24464 -0.624063 -0.776497 3.58373 -0.81945
3537 4 0.845934 30.9865 22.9423 -2.93089 0.99816 0.498524 0.976912 1.51731 -0.010324
3538 4 18.1509 0.859363 23.2809 0.599462 -0.883811 0.0481332 -0.413188 0.911156 0.0702314
3539 4 13.9402 13.7409 23.5904 0.0426698 -1.22406 -0.496749 -0.137523 -0.641941 0.962338
3540 4 12.0674 17.1793 18.5332 4.47367 -13.4302 1.1681 3.28032 0.397538 -3.02262
3541 4 2.86547 29.7715 23.4472 0.702637 -2.34254 1.22556 -0.572098 -1.64991 -1.88594
3542 4 21.5864 6.41222 23.8227 0.147969 0.161835 0.0325644 -0.191077 -0.0643489 0.0596502
3543 4 16.5595 14.72 24.2729 0.790703 -1.13577 1.3907 -0.595422 1.47108 0.632247
3544 4 16.9395 19.3622 20.5176 -2.80235 -2.26495 1.31671 8.29628 -3.23005 0.216797
3545 4 15.5237 17.9582 12.4334 1.51802 -0.496911 -1.74979 5.51012 -15.1013 -7.72162
3546 4 12.6494 26.8359 13.4409 2.37018 -1.06819 2.92495 1.13422 0.571073 0.222326
3547 4 24.8992 6.6954 24.1344 0.262629 0.55582 -0.631582 -0.128904 0.00143896 0.0420541
3548 4 18.9987 13.7034 24.4323 5.67781 1.0229 -2.54192 -0.592908 0.0738466 0.367647
3549 4 19.0522 21.1334 19.6488 0.392607 0.96061 -3.02052 -2.18143 0.0403971 2.95818
3550 4 16.6694 31.6995 18.5502 1.48497 2.14235 -1.75968 -0.476568 -0.113808 2.93637
3551 4 17.1879 30.871 22.0957 0.909344 0.899279 -0.00543267 0.984787 -0.759601 -0.684731
3552 4 10.1658 29.6723 15.3315 7.17476 0.689187 5.07727 -3.23045 -0.895072 -2.18534
3553 4 26.9192 2.65042 24.5719 0.405674 2.25383 -0.431376 -0.067503 0.291912 -2.13871
3554 4 24.303 10.5159 23.901 0.36369 0.133927 -0.143238 0.00650532 0.00435184 0.00395709
3555 4 19.8361 19.3032 23.739 1.25902 -1.84007 -1.02473 -1.98397 1.37491 -0.543233
3556 4 20.1746 21.6337 23.1826 0.884318 -0.472206 0.217798 0.684351 0.51299 -0.161406
3557 4 18.6798 27.3246 23.5328 -2.29349 -1.89159 -0.42465 -0.0960662 5.35713 1.76736
3558 4 30.7575 1.13994 22.7249 2.51377 1.08055 5.13225 3.41133 2.63928 3.88442
3559 4 29.9412 3.23136 23.9736 -0.272874 -0.678644 -1.3378 -1.00234 3.00471 -1.55633
3560 4 30.9706 5.65101 23.7662 -0.222477 -0.172725 -0.299571 0.195982 -0.154895 0.366685
3561 4 26.5565 9.4985 24.0791 -0.697096 -3.22066 -5.06395 0.119568 0.40541 0.69087
3562 4 27.2633 12.7049 23.0407 0.0670805 -0.636775 -0.280595 -0.0161945 0.0553177 0.0296389
3563 4 22.1332 22.7604 24.3053 0.932941 -0.828245 0.285417 -0.216582 -0.715021 0.369875
3564 4 33.2724 1.56149 23.6425 -3.32411 -1.14341 -2.55028 0.604429 1.53123 0.388727
3565 4 34.1827 4.52519 23.7233 -0.578513 -1.36897 0.276948 -0.0211567 -0.409193 0.0801299
3566 4 30.0123 8.13885 23.9577 -0.402024 0.235208 -0.0786917 0.164073 -0.0140067 0.0137146
3567 4 29.7584 12.4639 24.3595 -0.0559136 0.109839 0.0311738 0.0348789 -0.0663342 -0.0122115
3568 4 -17.4554 31.4042 22.65 0.3135 1.10505 0.114416 0.0698426 -0.292044 -0.0511955
3569 4 35.5581 2.11376 24.3238 1.6872 1.98447 1.15663 -0.915643 -0.563111 -0.605352
3570 4 0.822978 2.46822 23.8213 -2.08818 -0.578333 -0.0644965 -0.122071 0.432945 -0.104112
3571 4 -2.0826 6.92294 23.5926 0.681632 -3.68202 -3.38745 0.155501 -0.719315 -0.704059
3572 4 -7.13205 15.901 23.1706 0.0164382 0.138488 0.0404868 -0.00163082 -0.0546327 -0.000276267
3573 4 -15.6513 30.764 24.6276 -2.22974 1.64623 -0.464846 -0.994938 0.656739 -0.640491
3574 4 2.78913 0.941707 24.308 1.6736 4.73328 3.41824 0.340949 0.510013 0.834488
3575 4 0.701906 10.4808 26.2041 -0.548341 0.0447436 0.620725 -0.00222804 -0.00664686 0.0112412
3576 4 -0.936314 12.1119 25.2053 0.0638716 -0.0792595 0.102387 -0.00580448 0.0255552 -0.0611475
3577 4 -6.78514 20.723 25.9214 0.0964466 -0.167921 -0.00865493 0.0226046 -0.0207852 0.0319418
3578 4 -8.64528 24.7155 26.7132 -0.0904888 0.310171 -0.312006 0.0225621 -0.0957244 0.0178672
3579 4 8.00754 2.57713 25.5056 0.526321 -0.378035 0.185748 -0.0838587 0.0506795 0.0677655
3580 4 4.87902 6.34096 26.104 0.503186 -0.0817763 3.25864 -0.103257 0.0591578 -0.340876
3581 4 -3.47674 18.7616 26.3052 -1.33286 0.166199 1.11316 0.16887 -0.0593488 -0.138367
3582 4 -4.51523 22.5401 26.0212 -0.48285 -0.416312 0.0729864 0.23369 0.0397359 -0.058611
3583 4 -6.87327 23.5912 24.8238 0.639245 0.103517 -0.809475 0.254856 -0.275388 -0.00518611
3584 4 -10.2591 31.7576 27.0189 0.0188486 8.32218e-05 0.0147354 0.032013 -0.0219981 0.0284879
3585 4 9.04026 1.88977 27.5595 0.335172 -0.261212 0.323628 -0.0316815 0.0318747 0.0289487
3586 4 8.63043 7.97056 26.6033 -0.0874822 -0.0863088 0.0239102 0.0462027 0.0548855 -0.0119485
3587 4 1.35475 12.7693 27.2347 0.176534 0.148501 -0.208476 -0.177474 -0.171187 0.192745
3588 4 -0.101081 18.4725 25.1917 -0.326094 0.53648 0.122589 0.814539 1.02754 -0.853866
3589 4 -1.98217 23.5037 25.1374 -0.405093 -0.245455 0.0353841 0.0220029 0.017303 0.240909
3590 4 -3.26008 24.8581 26.9927 0.106991 -0.114423 0.0933188 0.0590173 -0.141957 -0.0656973
3591 4 -6.04547 31.8191 26.1666 0.00952528 0.0303258 -0.00614692 0.0492715 0.00374509 0.0869007
3592 4 10.2491 0.621611 25.7091 0.0210504 -0.101553 -0.0935002 0.0165165 0.0383579 0.0156143
3593 4 5.81912 13.1901 26.0781 -0.369066 -0.187509 3.44818 0.484806 0.679199 -0.818021
3594 4 3.26945 15.906 24.4637 0.877375 0.477799 0.472355 0.129328 -0.38293 0.273642
3595 4 2.13571 17.8096 26.0782 -0.956706 0.304841 -0.962186 4.62003 2.84179 3.57536
3596 4 -0.162942 21.2245 25.0321 0.509032 -1.57603 1.10527 1.07571 1.68956 -1.35669
3597 4 -1.39824 26.1041 25.4019 0.185871 -0.254921 0.12388 0.0533778 -1.00825 -0.0808144
3598 4 13.9321 2.32681 25.2191 0.0932315 -0.00720742 0.0842282 -0.0451389 -0.0177256 -0.0124111
3599 4 14.2709 4.38511 26.7222 -0.0361518 0.113897 -0.0445708 -0.0137881 -0.0196206 0.00886048
3600 4 11.1345 8.35488 25.701 0.213483 -0.137921 -0.192961 -0.020698 0.0121182 -0.0259702
3601 4 7.286 15.086 25.4647 -0.62434 -1.646 -0.0566144 0.490238 -1.19032 0.203193
3602 4 3.0747 21.8961 22.2544 -8.51883 -3.65997 4.01333 -9.05025 5.79424 0.572191
3603 4 0.413446 29.3311 24.9899 -3.30346 3.78321 -1.23572 0.51312 -2.23177 -1.64041
3604 4 16.1535 1.69272 26.4052 0.144275 -0.156748 -0.052024 0.14799 -0.0287734 0.121472
3605 4 14.8782 8.23754 26.2638 0.0436402 0.0677998 0.0511349 -0.0367549 -0.0502232 0.0242999
3606 4 13.3226 10.8058 25.6963 -0.71779 -0.0122623 -1.02295 0.0260554 -0.329829 -0.316091
3607 4 8.48114 20.1644 16.7355 2.13058 -1.75567 5.76662 0.61474 0.383332 -0.0328551
3608 4 17.8131 5.73579 26.8119 0.00143456 0.083594 -0.0470917 -0.0263831 0.0404723 0.0297218
3609 4 16.9651 8.8131 25.2246 0.0616806 0.0500906 -0.0285766 -0.01634 0.0187372 0.0512403
3610 4 14.964 13.5082 25.8931 -1.27128 1.85716 -1.4365 1.16854 0.505919 0.213988
3611 4 11.622 16.1217 26.9035 2.11449 1.27937 0.543362 0.131298 -2.29485 -0.279472
3612 4 7.23441 26.3156 16.9885 -1.44551 6.46536 3.69046 -2.15014 -3.48181 -2.06387
3613 4 5.87538 31.298 20.144 1.90449 0.55247 -1.23754 -2.46464 0.888503 2.41391
3614 4 20.1251 5.59604 26.0264 0.0338307 -0.458504 0.199427 -0.0711793 0.0136121 0.019768
3615 4 20.2942 9.9444 27.0781 0.250359 -0.36144 0.0523423 -0.0520822 0.182322 0.00269159
3616 4 17.3178 12.5211 26.4376 0.15929 0.332968 -1.13607 -0.728272 0.095599 -0.470785
3617 4 20.5673 24.2161 23.1523 3.7305 -0.385065 -0.88702 0.306683 1.5581 -2.07827
3618 4 10.9868 23.8822 16.7251 -4.73031 2.11226 5.00736 -7.6607 6.25014 -3.20279
3619 4 27.8799 0.263119 25.0274 -1.22125 1.75746 -0.250375 -10.5563 -14.3867 10.3687
3620 4 24.7335 2.4946 26.0479 1.48258 1.21557 -0.32849 -0.122378 -0.362937 0.562559
3621 4 26.4691 4.38668 26.0965 -0.35489 -0.631749 1.09106 0.445773 -0.793485 -0.335112
3622 4 19.6455 15.9306 25.5696 2.32359 -1.08068 2.51616 0.644879 -0.242208 0.635891
3623 4 18.6202 28.24 27.2248 -0.207698 2.57558 1.60166 1.28366 1.93501 3.78503
3624 4 21.9277 16.7283 25.1395 -0.192135 0.0680367 0.0532618 -0.069415 -0.147285 -0.0520331
3625 4 19.9259 21.136 25.4974 -3.31489 -2.44381 0.727869 -1.67054 4.49532 -0.746178
3626 4 20.077 25.8502 25.9788 -0.912087 -0.767647 2.62303 -2.4291 -0.39028 -3.68892
3627 4 29.3914 2.62734 26.2819 -0.230972 -0.740923 -0.735836 0.328394 2.2767 1.01752
3628 4 32.0432 3.89578 25.4897 -0.264847 -0.673629 0.0233136 0.519757 0.786775 0.455851
3629 4 28.5645 10.4404 25.9107 -0.208111 0.245224 -0.318578 0.0810398 -0.131622 0.00586642
3630 4 26.5559 13.68 25.1436 0.0368654 -0.226676 -0.423656 0.0991455 0.0570128 0.100917
3631 4 27.0054 16.4081 24.6991 -0.0360678 0.405462 -0.486267 -0.0189743 -0.121771 0.12585
3632 4 23.1476 20.0887 25.7865 -0.0116979 -0.143555 0.0306979 -0.000814445 -0.0110887 0.0248873
3633 4 36.3173 0.120875 25.5091 -1.42556 -0.89743 1.35339 -0.92062 -0.648304 0.332609
3634 4 33.5455 2.43096 26.861 -0.838454 -0.474859 0.253464 0.33895 0.409624 0.208609
3635 4 31.6345 8.8352 26.3395 -0.115315 0.428064 0.117196 0.113932 -0.253034 0.0994461
3636 4 -7.01818 14.1601 26.6497 0.065269 0.0613129 -0.00977812 -0.0258051 -0.0297016 -0.0331344
3637 4 -8.7714 16.7024 26.8488 -0.17378 -0.115074 -0.00683429 -0.0221525 0.00573531 0.00310789
3638 4 -9.92777 19.6896 26.3309 -0.0640529 0.180385 -0.129356 0.0929145 -0.0171937 0.085242
3639 4 -14.8168 26.5266 25.8056 -1.04609 1.47516 -0.640298 0.0880368 0.362567 1.64939
3640 4 20.1091 29.4854 25.764 -0.101955 1.26038 0.165556 0.489169 -1.08566 -0.402701
3641 4 -17.502 31.7349 26.6324 -1.01233 0.200702 0.199069 -0.278932 -0.047598 -0.524848
3642 4 0.685633 1.93558 27.4615 0.0211268 0.281042 0.0882151 0.185244 0.190504 -0.177954
3643 4 -0.718603 7.36941 26.0957 0.0374757 -0.194026 0.113995 -0.0237271 0.0261358 0.0328743
3644 4 -4.39384 11.6405 26.0393 -0.00819899 0.0732827 0.154877 0.0857378 -0.0654714 0.0440158
3645 4 -11.6685 26.5394 25.5966 -0.0303671 -0.0245194 0.168335 -0.00261822 0.0404962 -0.121876
3646 4 -12.3313 30.6697 25.4647 0.305771 0.145605 -0.256743 -0.018014 0.0131645 0.0058186
3647 4 0.177232 9.33478 28.4734 3.53153 -2.68162 2.91975 0.550105 -0.183664 0.419146
3648 4 3.73303 5.78125 28.2683 -0.584792 -0.242031 0.912748 0.0622238 0.176643 -0.0917994
3649 4 -1.36561 17.5878 27.4468 -0.335387 -0.158629 0.0707791 -0.103856 0.158126 0.0271263
3650 4 -2.48474 21.354 28.6512 -3.77857 3.05204 -0.448249 0.00529925 -0.459773 -0.304743
3651 4 8.9414 6.11606 28.5218 0.137685 -0.249873 -0.0815696 -0.0583509 0.106053 0.0797863
3652 4 3.78921 11.7298 28.3812 7.51077 4.08778 -5.23044 -1.65712 -0.876143 1.02706
3653 4 2.58264 15.5494 26.7735 -0.500803 -2.00001 0.0310184 0.767704 0.341927 0.191557
3654 4 1.36584 18.1058 29.379 -0.844001 0.295191 -0.271097 2.44014 0.870855 0.957867
3655 4 -0.234102 20.1063 29.8502 -4.28742 -1.72693 0.884829 2.00965 -1.85719 -1.70613
3656 4 -1.44708 23.7192 28.3686 -0.917305 -0.0221725 1.18536 0.0258109 -0.183544 -0.342655
3657 4 12.0178 3.36441 27.831 0.045073 -0.0575681 -0.130057 -0.0112344 0.0515815 0.0657493
3658 4 7.2907 13.9412 29.4894 0.635054 1.68345 2.32112 0.251043 -0.839709 -0.931371
3659 4 14.4857 23.0235 26.5243 -15.3949 4.35035 4.65297 -0.288002 1.64187 0.284529
3660 4 -0.21626 26.1016 28.3333 3.0135 -2.24155 -0.884216 0.514164 -0.778649 -0.523962
3661 4 -1.68584 28.3327 27.2509 -0.71958 -0.0252175 0.811635 0.294994 0.412378 0.871056
3662 4 16.4905 2.89132 28.5939 0.334113 -0.117929 0.0981054 -0.133999 0.042043 -0.0298112
3663 4 15.1038 6.53525 28.3843 -0.0248101 0.123195 -0.0481246 0.142898 -0.0878919 -0.0341871
3664 4 12.5864 7.45486 27.9303 0.0999429 -0.198424 -0.510731 0.0178357 -0.0312202 0.146293
3665 4 10.2307 9.66103 27.7194 0.176743 0.647071 0.263077 -0.181837 -0.0209779 -0.0522115
3666 4 10.9807 11.8522 28.418 -0.420674 -0.182772 0.0137226 0.121425 -0.00321638 0.250296
3667 4 1.75171 20.3734 26.4054 8.05184 1.68164 0.718416 -3.39753 -1.45337 1.71765
3668 4 0.314644 28.9956 28.5049 -0.61049 -0.26144 -0.33563 -1.83649 -0.333948 0.0431246
3669 4 0.132216 31.0774 26.5693 -0.74062 -0.594743 -1.4314 -1.56259 1.60163 1.02612
3670 4 14.6978 10.4437 27.9493 0.375506 -0.93753 0.275936 0.00495853 -0.0423909 0.0133697
3671 4 13.2034 12.6935 27.422 0.805948 1.53239 -1.77626 -0.397637 -0.00281463 0.880139
3672 4 12.5971 15.3458 28.9717 0.336506 -1.27938 0.568707 -1.08647 -2.11899 1.66993
3673 4 4.1306 26.4357 21.5317 7.00581 7.04066 -7.60607 3.08271 6.29125 -4.88166
3674 4 2.40989 31.1029 27.6793 -0.701256 -0.375025 0.544102 0.474719 2.4662 1.93898
3675 4 19.3287 0.941541 27.8913 -0.255077 -0.862111 -0.744571 -0.773653 0.627767 -0.35737
3676 4 20.8518 3.07051 27.49 -0.0290827 -0.984666 -0.108479 0.0413813 0.0303844 0.0779675
3677 4 20.3061 5.32345 28.6902 -0.119425 0.218769 -0.321819 0.184625 -0.256769 0.14869
3678 4 18.0695 9.40203 28.1122 -0.139858 -0.398451 -0.72765 0.0496488 0.317731 0.278726
3679 4 22.6906 1.17262 27.3226 -1.75524 -0.608735 0.647785 0.545271 0.439744 0.707356
3680 4 24.5572 4.30082 28.1137 0.475097 -0.629315 -0.0230219 -0.213851 -0.214905 -0.126102
3681 4 22.5744 5.67507 27.0772 0.151155 0.0503428 0.0807142 -0.0736667 0.0266037 0.0939773
3682 4 22.8389 7.87418 28.3036 0.095184 -0.170736 -0.267407 0.0620335 0.0436125 0.0999642
3683 4 18.4638 13.0361 28.7472 0.294083 0.267141 -0.206711 -0.00271319 0.0597228 0.249729
3684 4 17.9716 15.2608 27.2137 0.441349 0.190989 -0.668936 -0.765437 -0.266825 -0.0156819
3685 4 26.2826 2.16025 28.661 2.26525 4.55314 1.35358 -4.99337 0.961479 1.71648
3686 4 26.4686 6.32777 27.6354 -0.223446 -0.808227 0.855409 -0.112401 0.431523 -0.00331842
3687 4 21.31 14.6404 27.1943 -0.747525 0.277953 -0.719944 -0.25108 0.16336 -0.102466
3688 4 14.5669 21.4761 24.5697 -11.0306 -11.8625 2.33265 4.76009 -7.33131 3.7869
3689 4 28.9384 4.50651 27.7938 -0.441956 1.4369 -1.00938 0.337631 0.565484 -0.367907
3690 4 26.983 9.05828 27.9739 0.349247 0.820652 -0.673602 -0.0607822 -0.117339 0.152396
3691 4 25.0746 10.9733 28.3598 -0.10341 0.0341732 -0.106451 0.0567187 -0.0483913 0.0563296
3692 4 23.4957 13.8974 28.4303 -0.0462723 0.195321 0.169415 -0.0810119 -0.0736035 0.0752478
3693 4 17.4553 24.0884 22.3159 2.37772 -5.83008 -8.14321 -2.65603 4.4865 1.06804
3694 4 16.6329 31.7004 27.9097 2.1673 0.269067 1.34898 2.13386 -0.852898 -1.16867
3695 4 32.3283 2.03191 28.9326 -0.326307 0.176284 -1.72293 0.276486 0.671673 0.624791
3696 4 28.7845 10.8379 28.9192 -0.423462 1.06562 -1.18709 -0.0228271 0.00735037 -0.100374
3697 4 29.0187 13.6887 28.799 0.0268385 0.0590906 -0.0408826 -0.0372494 0.0501815 0.0574185
3698 4 27.6923 16.4308 29.3275 -0.390337 0.948382 0.269524 0.0392765 -0.220919 -0.0677129
3699 4 26.0709 18.4943 28.8866 -0.0465884 0.11039 0.202867 0.0165619 0.0188101 -0.151522
3700 4 22.2535 23.3798 27.8821 2.0961 0.125365 0.984524 -0.325745 -0.376049 -0.128351
3701 4 21.3772 26.5699 29.0656 0.710031 -0.358188 -0.010787 -1.0183 -1.21273 0.798361
3702 4 19.1381 31.0304 28.8862 0.0637816 -0.390014 0.349749 -0.138625 0.208605 -0.571151
3703 4 35.5495 1.90727 28.998 -0.241434 0.495958 0.318495 0.331474 -0.0924196 -0.2702
3704 4 -12.9391 25.2036 27.3959 -0.512829 0.285515 0.0291136 0.133145 0.0862764 -0.0929437
3705 4 -15.7878 29.014 29.2187 0.403264 1.29415 -0.109503 0.0422096 0.15883 0.276634
3706 4 2.66691 0.460533 28.5865 0.215188 0.418926 0.254617 -0.166973 0.0887814 -0.188298
3707 4 1.92989 2.74067 29.7751 0.00385685 0.0712122 0.359248 0.0317485 -0.0129879 -0.164739
3708 4 -1.93104 6.8679 29.2808 -2.53268 -2.3708 -4.93969 0.487507 -1.0553 -0.279763
3709 4 -2.41002 10.9184 27.2051 -0.0328509 0.320258 -0.0430866 -0.0128303 -0.0472414 0.0155005
3710 4 -10.2309 22.0746 27.4 -0.0670075 0.0735463 0.219689 -0.0180751 0.0846711 -0.0377586
3711 4 -10.982 24.1473 28.7083 -0.340311 0.232602 0.0323107 -0.0680859 0.0183004 -0.00486026
3712 4 -11.6654 28.3634 27.0573 -0.24818 0.176608 0.0188317 0.165545 -0.111792 0.0722664
3713 4 0.229204 6.67904 30.6346 -2.57891 -1.82923 -2.69056 0.231211 0.740583 0.316405
3714 4 0.726908 9.00076 31.427 2.9569 -7.6362 7.61923 0.505057 0.899141 0.709721
3715 4 -2.10089 12.7194 28.8232 -0.0925383 0.12778 0.0934921 0.0337788 -0.0804513 -0.0206622
3716 4 -4.47707 15.4339 30.0252 0.0994552 -0.380994 -0.118734 0.0425925 -0.0520778 -0.054133
3717 4 -5.90816 18.751 29.6997 -0.100716 0.245978 -0.193597 -0.0306602 0.0270125 0.0840441
3718 4 -7.28601 22.9143 29.402 -2.69566 2.35948 4.77 0.73306 -0.674615 -1.32082
3719 4 -9.10295 25.0308 31.1636 -6.01275 -1.22049 -0.506094 0.577365 0.549084 0.210545
3720 4 -3.79612 17.717 30.6004 0.328441 0.324373 -0.257356 -0.132414 -0.0982573 -0.0598969
3721 4 -9.01761 27.6493 30.3615 -0.328311 -1.41993 0.0718905 0.34246 0.655639 0.0097148
3722 4 7.27174 7.51632 30.2463 0.020337 -0.144839 -0.991978 -0.099927 0.0592948 0.342796
3723 4 4.70488 8.89191 30.7726 0.219433 -0.104158 0.265917 -0.21701 -0.129265 -0.092947
3724 4 -6.11878 26.8115 28.8895 0.0443199 0.00905535 0.00215261 0.154703 -0.0642954 -0.0459568
3725 4 -6.29162 29.1932 29.8001 -0.278349 0.101729 0.0651469 -0.364881 -0.0590569 0.085524
3726 4 9.66248 7.30763 31.3919 -0.16201 0.0126599 0.0520619 0.0406636 -0.0391189 0.0504212
3727 4 7.85359 9.97194 30.6829 0.13007 -0.0411045 -0.140449 -0.232026 -0.0341052 0.055642
3728 4 -2.85782 27.1698 29.6994 -4.5441 0.527199 8.01438 0.559576 0.0978431 -0.504904
3729 4 -3.83483 29.9598 29.9718 -0.500282 0.29217 -0.288233 -0.958643 0.719227 -0.523343
3730 4 15.8603 2.15296 30.9988 0.00751349 -0.16879 -0.372587 0.0549541 0.00249527 0.118099
3731 4 15.1771 5.79663 31.3123 -0.11649 -1.81525 1.92839 -0.083868 0.00365735 -0.15425
3732 4 -0.680586 26.3992 31.1834 -0.104547 -0.931796 -0.638942 -0.403767 0.190937 -0.340053
3733 4 17.0139 4.49685 30.3778 -0.0496181 0.145638 -0.0385227 -0.0399987 -0.0660641 -0.038202
3734 4 13.615 9.44084 31.6068 0.119447 -0.332803 -0.0588442 0.187952 -0.168578 -0.0125774
3735 4 12.195 11.6086 31.6495 -2.17728 -2.5232 2.67142 -0.464184 -0.2464 -0.638325
3736 4 10.4244 13.0949 30.3535 0.643153 -0.485991 -0.065816 0.196258 -0.702963 0.372738
3737 4 2.27796 27.207 32.7733 4.24914 1.29079 2.81429 1.17064 -0.141213 2.09803
3738 4 1.03768 30.268 30.7433 0.479168 -0.572219 0.245382 0.701134 0.22708 0.396274
3739 4 19.8164 3.76699 31.9141 -0.382117 0.234125 0.0010941 0.0263719 -0.0676043 0.0681191
3740 4 6.70765 25.2882 24.3446 -1.42376 4.15117 -2.96866 -1.72476 0.221807 -0.662439
3741 4 20.3028 0.429636 31.3602 0.523931 -0.905632 0.192865 0.423275 -0.83543 0.576402
3742 4 23.4738 4.25965 31.7066 0.90609 -0.817144 0.232993 0.26517 0.224386 0.0510656
3743 4 19.766 9.35713 29.9633 -0.405612 0.000652021 -0.65781 0.0844152 -0.00197567 0.126293
3744 4 18.4484 13.003 33.4383 2.97499 1.28448 3.88204 -1.20807 0.739943 -2.35475
3745 4 6.47014 18.0546 20.6326 2.50749 -6.5316 -0.977072 1.14287 3.86463 -2.3719
3746 4 14.6634 25.7694 14.8671 -2.12537 -1.10211 -3.37706 0.794408 2.79651 -0.505117
3747 4 23.874 0.753257 29.555 0.94403 -1.97299 0.573676 -0.246476 0.790496 -2.02038
3748 4 21.2588 13.0678 29.4311 -0.140574 0.0568266 0.0439453 0.172209 -0.00610606 -0.0123271
3749 4 19.0546 15.431 32.8625 -2.53031 -0.365913 0.26936 -0.401944 0.825386 0.0911645
3750 4 18.428 18.5194 30.2034 2.16568 2.25676 -0.527218 -3.38171 1.0821 -1.00429
3751 4 15.7396 17.4645 25.4771 0.465567 2.80912 -0.582058 -2.82094 -7.46378 4.02116
3752 4 27.506 5.62 30.411 -0.0417524 0.325181 -0.675302 -0.238229 -0.0196322 0.0421419
3753 4 25.0182 7.31573 30.8994 0.056348 0.310617 -0.248664 -0.0308671 -0.113031 0.0642067
3754 4 22.3554 15.1012 32.3901 -0.121162 -0.0593425 -0.0254295 0.0255202 -0.0125245 -0.0636179
3755 4 19.8908 22.6812 27.4414 -0.472075 0.0171336 0.42016 -0.227178 0.74353 -2.16166
3756 4 17.4402 30.0276 33.1577 -0.0807893 6.2173 -2.8252 -0.726968 -4.36804 3.65489
3757 4 29.2167 2.83906 31.9295 5.94771 2.12742 6.06202 -1.90996 -5.34295 -0.191536
3758 4 31.6363 4.82952 29.4551 0.264247 -0.363543 -0.0338292 -0.362938 -0.0584199 -0.0333545
3759 4 29.3847 8.3613 28.7804 -0.124601 -0.12057 0.125673 -0.0397708 -0.0460145 0.0141385
3760 4 26.1698 9.74264 30.6493 -0.0645666 0.745376 -0.189997 0.126542 -0.265325 0.135356
3761 4 25.2792 12.218 32.0379 -0.707061 -1.64659 1.32739 0.365978 0.027255 0.327808
3762 4 17.9005 30.5094 30.8617 1.18392 6.56455 2.07449 -0.985799 -4.07009 -2.83579
3763 4 34.3977 1.68256 31.5736 -0.312062 -0.961362 -0.962638 0.0476441 -0.422412 -0.0563957
3764 4 23.1894 23.6837 32.6996 0.284301 -0.713868 -0.227678 -0.0215631 0.282647 0.019337
3765 4 -16.4308 28.7911 32.9099 1.88903 1.22751 1.20644 -2.75624 -1.533 -0.196115
3766 4 0.767538 2.28851 31.9889 -0.250065 0.111873 0.839774 0.108316 0.195316 -0.213524
3767 4 -3.17987 7.62968 31.6487 0.0307772 -0.317312 -0.317832 0.123887 -0.010206 -0.115565
3768 4 -12.51 22.8728 31.0921 0.0916104 -0.0285832 -0.120035 -0.0220214 0.109476 -0.0281022
3769 4 -12.8897 26.7053 32.2486 0.406832 -0.202207 0.649897 0.0483207 0.0886432 -0.101369
3770 4 3.15274 3.33754 32.5511 -0.155164 0.181989 -0.142916 0.176177 0.0988312 0.0577887
3771 4 0.175561 9.15459 33.8168 -0.844663 0.386524 1.85133 -0.0327687 0.0150397 0.270162
3772 4 -1.24667 11.037 33.8904 -0.163236 0.668287 -0.259058 0.0904915 0.151881 0.0541813
3773 4 -2.98395 12.8467 34.088 0.0139495 0.00903036 -0.0188022 0.0136106 0.105098 0.103606
3774 4 -4.51875 15.5986 34.0773 -5.13209 2.14974 5.40634 1.23118 -0.617001 -1.42535
3775 4 -5.04473 18.2383 32.9976 0.0619656 0.596851 -0.283775 -0.0831319 -0.118373 -0.00889461
3776 4 -7.24631 23.4838 32.4356 -0.402453 0.164622 -0.42875 -0.0282611 0.0901486 0.0671828
3777 4 4.02815 5.95196 32.5034 -0.40548 0.143391 -0.258514 0.100934 -0.0641388 0.127
3778 4 -1.82387 16.9103 32.7223 -2.30261 -1.2626 -1.00721 0.435457 0.403237 0.328421
3779 4 -7.24494 27.1001 32.4659 -2.74757 0.639681 1.64037 -0.314708 0.203287 0.196788
3780 4 -8.24985 29.3844 32.3213 -0.328204 0.595932 -0.345324 -0.0912073 0.292742 0.238954
3781 4 -10.7321 29.8479 32.7288 -0.0290865 -0.398045 -0.0507859 -0.0786282 0.407284 0.122213
3782 4 5.96508 2.77169 33.7908 -0.0879607 -0.0507428 -0.342998 0.136527 0.0411145 0.108502
3783 4 7.60329 6.26321 33.221 0.196075 -0.0300324 -0.0835729 -0.0676534 0.122514 0.0223008
3784 4 6.6912 9.12747 32.8172 0.243004 0.114647 -0.13542 0.0275797 -0.00920132 0.0433609
3785 4 4.31892 10.9917 33.3273 0.245538 -0.0463521 -0.24113 0.087014 0.0694323 -0.0541552
3786 4 1.39539 16.0136 32.2066 2.94827 -2.77472 -6.51674 0.0470193 0.671454 0.669803
3787 4 -0.574672 18.8561 33.7083 -2.60679 -1.39145 -1.61398 0.600369 -0.192926 0.761334
3788 4 -3.86114 24.0764 32.5112 -0.170804 -0.24988 -0.316566 -0.0316699 -0.0290835 0.0340566
3789 4 -4.5144 27.4525 33.5188 -0.425669 0.0166344 -0.1171 0.0301826 -0.00179526 0.0295828
3790 4 -4.83342 29.464 32.2419 -0.0446286 0.0324395 -0.0656509 0.109569 -0.0696736 -0.0619664
3791 4 11.9985 1.82726 32.8597 0.210472 -0.125265 -0.177278 -0.0670123 0.103494 -0.0164854
3792 4 3.55396 17.3932 33.4814 3.10885 -0.184854 -1.64043 0.209873 -2.59225 3.16453
3793 4 -1.54585 28.046 33.1023 -0.3005 0.121851 -2.17559 -0.0366918 0.0183535 0.196698
3794 4 -1.46545 30.1316 31.4701 -0.247425 0.874266 -0.522764 0.0487289 -0.153175 -0.217421
3795 4 14.0519 5.52203 34.2857 0.0151867 -0.0124917 -0.0669049 -0.0165301 0.00953965 -0.0442369
3796 4 10.1164 11.15 33.4594 -0.895075 0.276654 1.18951 0.275945 1.16015 -0.682956
3797 4 7.92031 13.3307 32.7165 -3.25334 0.590509 -0.51484 0.130621 0.221654 0.0314558
3798 4 5.1068 15.1081 29.0722 -0.758456 -1.04488 5.54435 -0.237929 -2.93792 -0.557821
3799 4 17.1175 28.4434 48.3567 -0.529101 1.73286 -1.50848 2.69532 -1.57143 -0.423814
3800 4 15.8127 2.6402 33.5805 -0.156049 0.734291 -0.500875 0.0100204 -0.0693321 0.0681686
3801 4 13.0975 12.7807 33.657 2.92122 -4.52587 2.16784 -0.522162 2.43441 2.8386
3802 4 10.1277 15.0814 23.225 2.57404 -3.54568 -1.37546 0.0286397 -1.52343 -1.61573
3803 4 0.726508 22.763 33.9669 0.855751 -0.204358 0.611114 -0.293057 1.14855 0.493768
3804 4 4.37836 20.8391 31.6525 7.53957 -8.02384 6.64235 -0.989165 2.17 -0.386135
3805 4 17.191 22.9332 43.6718 9.98022 -5.53035 0.911673 4.33567 0.165472 1.10961
3806 4 10.4395 19.4806 26.4382 14.5583 -2.75129 -0.833225 9.88897 -2.75804 -10.6434
3807 4 14.3915 22.1974 14.805 -1.16865 -2.11435 -1.10726 -3.50068 -2.12262 -4.12613
3808 4 22.1444 0.474462 33.9214 0.198468 -0.220046 -0.629622 -0.0985631 0.130641 -0.518473
3809 4 21.9021 2.47305 32.4169 1.06703 -1.26781 0.125546 -0.186774 -0.147106 0.122919
3810 4 22.6893 8.3819 33.0067 0.105521 0.17889 -0.171785 -0.120709 -0.162216 0.0534063
3811 4 18.2416 11.0392 34.8071 -1.11765 -1.66415 0.891528 0.379863 1.31409 -0.785297
3812 4 16.8336 16.1738 33.4328 0.967494 1.57456 -2.18379 -0.190784 3.04385 0.05592
3813 4 9.75475 15.5523 28.9933 -0.477229 1.03134 0.0448402 -1.3164 1.63193 0.492886
3814 4 17.6142 18.4847 36.3364 0.0732936 3.08516 2.7096 -2.56835 2.67539 -1.18937
3815 4 14.7577 30.8415 24.5065 -1.32752 -0.762464 -3.90587 4.25691 -10.7693 -2.49404
3816 4 2.29141 27.0232 51.1179 -3.75947 2.39628 -4.79705 -0.525641 -1.38106 -0.55548
3817 4 26.7455 0.837445 34.5303 -0.196059 4.72712 -4.90393 -4.96329 1.46221 -1.65198
3818 4 24.5747 2.06493 31.9257 1.97993 1.28881 -0.32598 -0.0957155 0.136115 0.997266
3819 4 21.6792 10.9893 34.3669 0.324133 -0.204194 1.15922 -0.11949 0.117419 -0.442362
3820 4 22.7856 13.5507 34.3946 0.113393 -0.194474 -0.00189368 -0.0105034 -0.0491605 0.0476473
3821 4 18.9556 17.6756 34.4169 0.329646 -0.378984 -0.878529 -0.459274 0.203196 1.10082
3822 4 20.2115 22.0787 35.3598 5.49798 -1.29021 1.15299 -1.37868 0.192067 -0.696497
3823 4 19.7883 23.0089 30.8816 -0.445707 0.016422 -0.680835 -0.137204 -0.163229 0.145552
3824 4 29.2033 4.51284 34.4641 0.139086 -0.0798561 -0.10242 -0.125574 -0.0883124 0.327234
3825 4 27.8289 6.74903 34.4716 0.0683925 -0.072878 -0.217378 -0.0110267 -0.0754131 0.138974
3826 4 26.7471 8.47209 32.9308 -0.183061 0.104456 -0.100524 -0.0674683 -0.128345 0.0314731
3827 4 23.7388 19.4251 32.695 0.65044 0.0473103 0.0081795 -0.195873 -0.0267648 0.034574
3828 4 19.6069 20.5811 33.2415 1.31585 -1.22033 -1.51678 -2.41999 1.77875 1.76936
3829 4 14.8745 32.2686 33.6187 -2.0723 1.48105 -2.9421 1.50945 -4.74929 3.26495
3830 4 30.969 1.72572 34.6286 1.12966 0.646221 -0.128331 -0.175624 0.199697 0.587557
3831 4 31.6204 3.40095 32.9661 2.80647 -1.49555 0.129579 -0.460325 -0.216607 -0.169616
3832 4 30.4144 5.80478 32.5516 0.105519 -0.452886 -0.0480481 0.27955 -0.312993 -0.034719
3833 4 29.832 8.44495 32.6915 -0.0901722 -0.07855 0.154233 0.0486961 -0.10772 -0.0194289
3834 4 28.2356 10.4369 33.07 0.191288 0.17303 -0.0726791 -0.049206 -0.0815495 0.0531436
3835 4 0.128091 4.88414 33.389 -0.255491 0.10684 0.159238 0.114085 -0.0606933 -0.0112634
3836 4 -3.20452 8.94069 33.7588 -0.0102961 -0.0560859 -0.254105 0.000769132 0.0537748 -0.00936678
3837 4 -5.13015 11.3122 33.6417 0.0110632 0.18033 -0.128644 -0.00380866 0.00341535 0.0350461
3838 4 -6.10324 13.6589 32.8765 -3.11461 1.95262 2.47868 -0.27498 0.0489935 0.141281
3839 4 -6.9032 15.9916 32.7085 1.03744 2.79535 -2.64962 -0.278541 0.0514708 0.469432
3840 4 -9.18642 19.0057 32.9872 0.919688 -0.634479 -0.101425 -0.181529 0.0940839 -0.0786603
3841 4 -10.4624 21.7651 34.0193 -1.89728 7.3435 -0.377683 -0.156654 -0.351641 -0.320353
3842 4 -9.60466 24.4064 33.6283 -0.0131013 0.489955 0.345442 -0.0295608 0.128385 0.0793752
3843 4 2.3462 0.766285 33.4613 0.0940184 0.692205 -0.0137527 0.0824423 -0.308693 0.112155
3844 4 2.95205 6.46851 36.0667 0.0074589 0.154778 0.0464695 -0.0566847 -0.149064 -0.0716864
3845 4 2.25815 9.32732 36.3769 0.248113 -0.163196 -0.0481816 -0.142676 -0.0779076 0.203024
3846 4 -10.8455 30.9686 36.8208 0.196683 -0.127696 -0.297394 -0.142477 0.250405 0.0504865
3847 4 5.87208 0.14174 34.8298 0.797381 -0.86455 -1.05619 -0.449918 0.0576655 0.0681235
3848 4 7.71634 3.67032 35.3269 -0.203399 -0.238168 -0.0634585 0.186718 0.114745 -0.151637
3849 4 5.24825 7.3572 34.2273 0.0880483 -0.0277604 -0.12218 0.0260274 0.0129944 0.0979116
3850 4 -0.651225 15.8077 34.7913 0.475441 -0.0397401 -1.63253 -0.309916 -0.0107396 0.498331
3851 4 -3.89615 22.5827 34.5254 -0.12328 0.0193409 -0.00935897 0.0214822 -0.0782292 -0.0395012
3852 4 -4.78977 25.2763 34.8105 0.0684678 -0.0728076 0.0688862 -0.0720653 0.0339696 0.0379999
3853 4 11.784 2.38679 35.3108 0.539629 -0.207948 -0.13459 -0.110352 -0.0417016 0.0512361
3854 4 2.01482 15.3814 36.0576 0.525837 0.749162 -0.287381 -0.181109 -0.365943 -0.224367
3855 4 1.54095 18.7406 35.9418 0.682943 0.720673 -1.45621 1.01015 0.69395 0.408749
3856 4 -2.18143 24.9822 35.2108 0.148876 0.22392 -0.386943 -0.188526 -0.230646 -0.10482
3857 4 -3.19946 28.5953 35.8764 -0.578512 0.55959 0.807738 0.0375318 -0.0232856 0.0691868
3858 4 14.616 3.02401 35.7874 0.280374 0.0138564 -0.0311114 -0.196476 0.0221864 0.0271109
3859 4 11.4131 5.30692 34.514 0.101188 0.0124412 0.0280866 -0.0540602 0.126758 0.101663
3860 4 7.40778 12.0575 34.8818 0.565884 -0.827778 -0.828949 0.229552 0.176985 0.00459737
3861 4 3.79753 13.5349 34.8929 1.00307 0.664521 0.166898 0.234978 0.1102 0.0545466
3862 4 29.0032 2.1673 56.909 5.06987 10.7565 -0.123017 -0.127751 -0.600219 -0.813175
3863 4 -0.633194 27.211 35.4311 -0.630844 1.04801 -0.842851 0.988568 -0.113432 0.279617
3864 4 -1.40581 30.0391 35.0047 -0.0783643 -0.413486 -0.392016 -0.014838 0.0266293 0.140715
3865 4 17.433 3.9881 35.1018 -0.309166 0.0304628 -0.592391 -0.0661508 -0.0587903 0.0548777
3866 4 15.9255 6.11994 35.6709 -0.0591902 -0.0451057 0.0280899 0.0207045 -0.0316332 0.0404338
3867 4 12.3948 8.93289 35.256 0.0682153 -0.325105 -0.0489132 0.24845 -0.61851 0.463272
3868 4 11.2322 12.1541 35.9193 0.0211103 -0.0190425 -0.39146 -0.447582 0.774605 1.00324
3869 4 9.55942 13.7216 35.3435 -1.00102 -0.754356 1.548 2.15001 1.38155 -1.45928
3870 4 4.20902 16.6158 37.0636 -0.252678 0.811085 1.6034 -0.557331 -0.193247 -0.176596
3871 4 18.3239 0.282941 34.3606 0.0997375 0.451252 -0.0896658 0.209106 -0.176741 -0.031048
3872 4 15.1686 0.116628 34.3617 0.228609 0.257346 -0.207917 -0.102105 -0.0705182 0.107201
3873 4 17.6769 21.6394 21.9845 2.97217 0.80485 10.2975 1.38688 -9.70028 -7.50988
3874 4 8.01363 20.3937 21.5747 2.9669 -1.74795 -3.15398 5.08513 -1.03066 1.42847
3875 4 20.4633 5.69115 35.1565 -0.0232599 0.16206 0.0565014 0.016954 -0.0921014 0.0299379
3876 4 19.0141 7.94159 35.5998 -0.184626 0.217345 -0.123305 0.0963829 -0.177055 0.0814811
3877 4 5.47381 31.9593 37.2439 7.5584 -8.04366 4.78298 2.88613 -6.25093 -3.91951
3878 4 24.9345 3.59455 35.2313 0.695344 -1.79267 -0.899158 -0.12688 -0.454624 0.32459
3879 4 22.808 6.18126 34.458 -0.102767 0.414061 -0.31707 0.0159177 -0.131502 0.0484853
3880 4 22.5411 9.73229 36.3102 0.459724 -0.754172 0.876716 -0.234364 0.224134 -0.389579
3881 4 20.7075 12.0795 36.7101 -0.0826697 0.209644 0.171177 -0.114463 -0.0306207 -0.0986812
3882 4 18.1029 16.967 23.975 -3.67045 0.525082 -3.04551 -1.36817 2.03024 0.404728
3883 4 4.58893 31.002 24.5355 0.00232233 2.1098 -3.92103 -11.3141 7.63244 -4.87167
3884 4 29.2082 2.68467 35.9785 -0.244468 0.166412 0.822901 0.305178 0.517056 0.447306
3885 4 25.6346 10.3359 34.686 -0.151035 0.628243 1.26641 -0.0481117 -0.0833557 -0.093867
3886 4 24.0366 14.6372 36.1743 0.384293 -0.14816 -0.201143 -0.0801929 0.0473324 0.182893
3887 4 22.7883 17.6279 34.5318 0.524935 -0.506565 -0.386784 -0.0542063 -0.0324672 0.127899
3888 4 21.6743 20.1031 34.6455 0.89539 -1.8492 -2.42808 -1.18619 -0.54276 -0.0176309
3889 4 24.7929 18.6758 35.7375 0.105919 -0.161107 0.0814408 -0.0423802 0.240036 -0.00728065
3890 4 23.1852 22.1326 35.495 -0.232179 0.116244 0.207096 0.0169302 -0.244766 -0.173337
3891 4 21.4095 24.0352 36.1466 0.977479 0.896987 -2.88593 0.0195794 0.675336 0.138353
3892 4 20.4338 24.9456 34.0805 6.77562 -2.18823 4.13206 1.27161 -0.282208 -0.793517
3893 4 20.6938 28.16 36.3515 0.555995 0.293521 0.351925 -1.46822 -0.505442 -0.209978
3894 4 35.2623 3.20652 34.6399 0.171964 -0.459091 0.133982 0.0871476 0.0585466 -0.166263
3895 4 26.809 17.2731 34.4502 0.198497 -0.106769 0.0915884 -0.088432 0.0927925 0.0136449
3896 4 -10.0945 19.455 36.0332 -0.195484 1.25386 -1.34667 0.0972963 0.26754 0.0562955
3897 4 -14.8958 26.5383 35.0653 -0.661706 -1.1019 -0.19346 0.385855 -0.0024393 -0.131974
3898 4 -13.3484 28.6663 35.2472 -0.0414282 0.242015 -0.0855079 -0.172284 0.412394 0.0604878
3899 4 -16.57 30.979 34.8484 -2.10797 -1.23277 -0.626087 -0.384374 -0.780411 -0.488472
3900 4 -0.186088 0.415096 35.039 0.775283 1.08214 0.626963 0.350147 -0.303228 1.03792
3901 4 2.40369 3.73307 36.2224 -0.619975 -0.106518 -0.470434 0.286207 0.139822 0.197331
3902 4 0.267253 6.36674 35.4172 0.0886951 0.106582 -0.119676 -0.0345315 -0.0342453 0.0443578
3903 4 -6.78915 18.1351 35.002 0.186952 -0.39641 -0.89528 0.0910339 -0.00789825 0.191882
3904 4 -7.94957 20.9016 34.8194 -2.12107 5.20535 -1.8878 -0.0161613 0.269256 -0.119106
3905 4 3.63415 0.474992 35.8818 1.19951 0.707721 0.683959 -0.144885 -0.52777 -0.47841
3906 4 0.333472 9.92939 37.694 0.327598 -0.477932 -0.00540862 -0.115253 0.186341 0.02744
3907 4 -3.04342 12.8108 36.9204 0.0378795 0.0440444 -0.0339288 -0.0128387 0.0253399 -0.0139832
3908 4 -10.5676 25.9526 36.3557 0.270123 0.20548 0.0875791 -0.0452028 0.103197 -0.08493
3909 4 4.46968 7.79423 37.6983 0.784363 1.48767 -1.5924 -0.283825 -0.589835 0.566904
3910 4 3.77945 12.0945 37.3188 0.200647 -0.268646 0.0909437 -0.0800129 -0.0294713 0.23972
3911 4 0.0679003 12.5291 36.6819 0.125868 -0.0934222 -0.0482509 0.0650963 0.173702 0.0447652
3912 4 -1.6732 16.6715 39.2991 -0.202388 -0.0486264 -0.0680809 0.0681478 0.119647 -0.014294
3913 4 -9.38521 28.6256 35.975 -0.0370853 -0.106995 -0.0578552 0.00821301 0.0782268 0.0599958
3914 4 8.51185 1.34662 37.9745 0.684613 1.43258 -0.388133 -0.251438 0.0190135 -0.308299
3915 4 9.1533 3.85743 37.3065 -0.0762539 3.48333 -1.04823 0.0889857 -0.132358 -0.166277
3916 4 6.83869 7.02164 36.8783 0.160731 -0.267731 0.265759 -0.0417743 0.148375 0.0796895
3917 4 5.05356 10.1883 36.5722 0.28971 -0.215542 -0.492581 -0.0380597 -0.151344 0.136006
3918 4 -0.0279266 16.7557 37.0543 0.62452 -0.264455 -0.0796363 0.103392 0.432653 -0.0146301
3919 4 -1.93409 18.856 37.8795 -0.0931915 0.187259 0.444999 0.369744 -0.061716 -0.0629182
3920 4 -4.00931 24.3353 37.0554 0.350263 0.0460797 0.0316318 -0.00670362 0.022658 -0.0942779
3921 4 -5.75356 26.3774 37.0779 -0.0901976 -0.354078 0.0138282 -0.00541089 0.00369275 -0.0222892
3922 4 12.1285 0.204754 36.7652 0.194591 0.0125497 0.081527 -0.104745 -0.0536721 0.0252635
3923 4 -1.94447 27.2345 37.941 -0.0328372 -0.596391 -0.905747 0.156004 -0.598787 0.0960632
3924 4 12.3681 6.38039 36.3067 -0.229703 0.0634408 0.104338 0.0605329 0.0911736 -0.0387992
3925 4 10.7506 8.19411 37.1987 -0.197602 0.127249 -0.161204 0.212906 -0.0382059 -0.0276725
3926 4 -0.12158 29.1573 38.5215 -0.423311 0.70649 -1.33928 1.17544 -0.50882 0.299024
3927 4 -2.34788 30.6414 37.5972 0.271065 0.530152 -0.223978 -0.0675864 0.0374813 0.0910469
3928 4 14.1767 7.37916 37.5312 -0.103109 0.0258367 0.0172889 0.0707356 -0.0603594 0.0155594
3929 4 13.7494 9.95168 36.9494 -0.241389 0.144633 -0.302672 0.354743 0.415783 0.106682
3930 4 10.1078 29.3044 24.7949 -8.02949 14.3391 2.22147 -1.88211 0.823 0.814799
3931 4 0.124716 31.2865 36.5083 0.379307 0.163679 0.203823 -0.311847 -0.516039 -0.299103
3932 4 18.4885 1.98305 36.1539 0.0557235 0.363833 -0.259766 -0.137356 0.0378342 -0.0768504
3933 4 16.2426 9.87696 38.0567 -0.432759 0.169851 -0.0268837 0.180821 0.307502 -0.175119
3934 4 15.0539 12.0813 36.9484 -0.259271 0.0786676 -0.135231 0.210471 -0.265797 -0.0694475
3935 4 13.8056 14.2409 37.0353 0.0845285 -0.27819 -0.483161 0.463347 -0.205749 1.9832
3936 4 1.44144 23.1689 24.6464 -2.74077 0.505471 0.458385 1.71927 2.30185 2.30864
3937 4 21.2675 2.56372 36.3 -0.498721 -0.319301 -0.0488005 -0.329539 -0.529324 0.0894347
3938 4 23.5049 2.50625 37.0638 -0.603718 1.74676 -0.0564517 0.355155 -0.383249 -0.345823
3939 4 21.1078 6.73553 38.631 -0.0684718 -0.0232818 0.136636 0.0766632 -0.0873298 0.147767
3940 4 20.1018 9.39264 37.5043 -0.0324953 0.283896 -0.0863362 0.0113147 -0.183563 0.0240274
3941 4 18.1909 12.3605 37.469 -0.236804 -0.344366 0.308451 0.136704 0.178469 -0.345306
3942 4 17.8557 14.6772 36.6067 -2.08806 -0.0819733 -2.09409 0.797254 0.272276 -1.18743
3943 4 30.7137 2.13579 38.8242 0.532164 1.64176 -0.134833 -0.231935 -1.20334 0.226563
3944 4 6.93695 29.7632 22.1044 2.36347 3.11156 -2.74079 0.397307 3.05207 -0.0770156
3945 4 26.3086 2.99793 37.3765 -1.36117 0.46216 -1.11089 0.0892535 1.57626 0.439141
3946 4 23.5791 5.32612 36.878 -1.02724 1.03519 -0.32491 0.207374 -0.0899553 0.0685718
3947 4 27.5593 5.0487 36.3201 -0.368484 -0.411597 -0.374781 0.111073 0.0222823 0.0589765
3948 4 21.1493 16.0935 37.0711 0.144613 0.718708 0.110337 -0.385991 0.19475 0.00202387
3949 4 19.5768 25.2805 38.2428 -1.44392 1.18836 -0.889123 2.29198 0.67616 0.105905
3950 4 17.352 29.1966 36.8252 -5.49934 -4.68021 2.47708 12.4583 0.981052 7.38557
3951 4 14.3956 32.0648 36.9525 0.930633 -0.970473 1.11745 -0.037183 -0.102831 1.74837
3952 4 29.1892 9.41069 36.4823 0.17584 0.330994 0.231032 0.0627231 -0.0416092 0.0508999
3953 4 25.8671 12.3402 37.2311 -2.62571 0.0417618 0.238535 -0.0105541 0.39183 -0.0306223
3954 4 22.9533 17.4835 38.7321 0.0710544 -0.55193 0.0753954 -0.0212752 0.0603105 0.108461
3955 4 21.6981 18.5194 36.6891 0.0553055 -0.505372 -0.0933232 -0.201944 0.1098 0.387413
3956 4 18.4992 31.5084 37.2875 1.30103 -0.346635 -0.68548 -0.484342 -0.54755 -0.235466
3957 4 33.9639 2.14734 36.9613 0.235393 0.54792 -0.0949156 0.389765 0.00216764 -0.0400128
3958 4 -4.49437 8.10062 37.5021 0.181607 0.172397 -0.218366 0.0953 -0.0302885 0.00692621
3959 4 30.798 10.5553 37.9543 -0.0151133 0.482322 -0.018598 -0.00331995 -0.108962 0.00787323
3960 4 28.4661 13.0996 37.8217 -0.367144 0.051888 -0.20071 0.0460222 -0.103803 0.107338
3961 4 -14.1513 24.7222 37.4588 -1.87272 1.18719 -1.58525 -1.48122 -0.518438 -0.999078
3962 4 20.8601 27.7243 38.8317 -1.06382 0.0786866 -0.0376094 -0.246099 -0.173994 0.401173
3963 4 -4.15392 10.326 36.8159 0.109977 0.113213 0.0160157 0.00427673 -0.0128483 0.0119603
3964 4 -6.11432 12.9397 36.7215 0.0232826 0.0616732 -0.0711048 -0.0290825 -0.00807875 0.0445391
3965 4 -11.8018 25.0278 38.4758 0.861586 0.0747135 0.340023 0.0271491 -0.201443 0.0260671
3966 4 -12.9739 27.0246 37.0178 0.0747082 0.406141 -0.481998 0.261172 0.125646 0.250244
3967 4 -0.543236 11.7617 41.5789 -0.362541 -0.335859 -0.254364 0.144216 0.074415 0.156404
3968 4 -3.60861 15.0388 38.8212 -0.12892 -0.247951 -0.0622512 -0.0215578 0.0533913 0.17503
3969 4 -5.31852 18.788 39.266 0.433727 -1.35139 -1.91291 -0.12093 0.270069 0.582789
3970 4 -7.74759 22.8288 38.9105 -0.0270592 -0.584777 -0.616348 -0.127009 0.102778 0.00526988
3971 4 -9.77155 26.2464 41.9168 -4.48628 -2.79563 2.4518 0.688881 1.05197 -0.980621
3972 4 -11.3091 29.4263 41.1834 0.128117 0.233309 0.151326 -0.0658777 -0.207541 -0.0149846
3973 4 4.55159 7.17596 41.1124 -0.0762148 0.425184 0.673562 0.367218 -0.523468 -0.803706
3974 4 2.98326 9.2578 39.6283 0.325362 -0.301399 -0.110488 -0.0775958 0.0744865 -0.02939
3975 4 3.12238 11.1466 41.0377 -0.0351541 -0.0336492 -0.14166 0.0427314 0.00579393 0.115403
3976 4 0.574373 13.8108 40.0119 0.884065 0.272217 0.0817256 -0.390922 0.102018 -0.215723
3977 4 -1.47563 18.8468 40.9222 0.134017 0.069309 0.00606216 0.051384 0.161606 -0.0834606
3978 4 -6.81758 26.1303 41.4162 -0.186386 -0.188924 -0.0757577 0.165146 0.127253 0.0161398
3979 4 -9.11139 28.7653 42.3006 -0.512972 -0.543647 0.117067 0.150143 0.3726 -0.228363
3980 4 -8.60491 31.9517 41.2099 0.257835 -0.185556 -0.144771 0.0169783 -0.00683962 0.0890587
3981 4 6.9233 5.76237 39.1759 -3.1416 -2.51605 0.758988 -0.243499 -0.176465 0.0480155
3982 4 6.29633 8.75763 39.4986 0.399063 0.49861 0.469113 -0.161528 -0.16895 -0.333573
3983 4 2.48526 14.1056 41.474 1.27559 -0.0338443 1.12693 0.0504319 0.477773 0.125244
3984 4 -4.53151 23.8966 39.4968 0.0229471 -0.38876 -0.0926535 -0.00350922 -0.0723871 0.0816534
3985 4 8.98317 1.77792 41.844 0.0339805 0.0160634 -0.43816 0.0646754 0.0178022 0.182572
3986 4 10.9263 6.458 40.4016 0.186197 -0.489766 0.136461 -0.120849 0.0863384 -0.0160914
3987 4 9.03318 9.80174 37.7394 -0.582814 0.130018 0.386033 0.0981745 -0.259069 -0.12685
3988 4 -0.109864 20.7294 39.4956 3.68648 0.0745892 1.22038 -1.55816 0.55778 -2.66795
3989 4 12.3193 8.54768 39.8659 -0.0545142 -0.312391 -0.364769 -0.0579636 0.111605 0.0890759
3990 4 5.31761 15.0381 33.2896 2.19478 0.425734 0.224195 3.86401 5.6934 -4.07988
3991 4 17.4219 22.8501 36.7555 -4.01445 3.89458 1.25415 0.446407 0.526967 0.991593
3992 4 16.1086 17.8418 29.6098 -6.2618 3.83546 -5.04905 -1.35811 0.133785 0.655368
3993 4 16.5728 18.4524 32.2992 5.63748 2.07468 1.46501 3.95863 -1.11409 3.37954
3994 4 18.0221 23.1018 49.4465 0.0581005 -0.146652 0.0485904 -0.126763 0.0141802 -0.327381
3995 4 1.00659 29.1931 41.1753 1.0951 -1.30205 -0.0758373 -0.596758 -1.27382 -1.21209
3996 4 20.1418 0.610959 37.7213 -0.519556 0.741107 -0.23557 1.66767 0.140972 0.663994
3997 4 16.5617 10.7301 40.4621 -0.211421 -0.110009 0.104355 -0.0113012 0.0776161 -0.0189602
3998 4 14.6368 12.4674 39.473 -0.162547 -0.00917262 -0.306888 0.225644 -0.24828 0.169775
3999 4 7.71786 15.6583 35.4887 -2.68642 -0.961881 -1.13503 -8.22428 -3.69133 -0.0282013
4000 4 3.72004 19.6923 24.1978 7.21738 -4.25637 -1.49806 4.59604 -2.80812 2.93758
4001 4 27.1562 0.349961 52.6384 -6.37412 30.6522 -10.7391 2.40725 -2.98681 -0.542287
4002 4 22.2664 0.622372 40.6316 2.37134 0.334583 1.2024 -0.418212 0.128624 -0.882635
4003 4 22.3584 3.07783 40.6652 -0.10754 0.447666 0.00495494 -0.232054 0.405544 0.12165
4004 4 17.466 13.7769 40.0937 -0.640685 -0.971617 0.11383 0.108006 0.393232 -0.516568
4005 4 16.8593 15.1506 42.0302 -1.10085 -0.174843 1.13412 -0.133102 -0.607861 0.20072
4006 4 16.2019 17.992 38.7042 -0.487341 1.1382 0.779735 -0.57678 -1.40666 1.85536
4007 4 9.94 29.212 17.8394 -3.79549 -2.45911 -4.34794 0.362852 -2.27168 -1.66781
4008 4 30.1112 0.70735 50.6055 -3.61282 -0.426791 0.708656 -0.589933 -0.859934 -0.00946225
4009 4 24.5167 2.1336 39.2978 -0.379521 -0.21803 -0.021366 0.0350625 0.678748 0.420645
4010 4 25.9062 3.4485 41.1105 -0.483471 -0.247193 -0.921588 0.098058 0.0171785 0.186362
4011 4 19.2076 16.2216 38.6679 0.560028 -0.381862 -0.196456 -0.271526 0.274602 -0.244892
4012 4 15.8629 15.0452 38.5 0.979465 -0.124257 0.947081 -1.89442 0.679674 0.00685927
4013 4 15.3642 29.4642 22.1679 3.57238 4.5012 2.35147 -0.00534441 -1.89351 -0.361834
4014 4 1.53915 20.4968 49.672 -5.01183 6.71191 -5.304 -0.189774 0.502281 1.29259
4015 4 29.6842 4.14765 42.0882 -0.789909 2.09135 -0.221898 -0.362494 1.05974 0.354332
4016 4 25.5114 10.6968 39.3108 0.248804 -0.429542 0.0166907 -0.148994 0.211625 -0.0224027
4017 4 21.95 15.502 40.085 0.366907 -2.97444 -2.31586 0.0761705 0.227098 0.317508
4018 4 19.8834 22.8409 40.5694 2.97811 0.494519 -2.18809 1.57317 -0.819216 -1.47608
4019 4 19.1425 31.1566 39.6866 1.29425 -0.221555 -0.414202 -2.34186 -0.745347 -0.661277
4020 4 5.73964 17.2177 27.9699 -6.18055 -1.61304 -3.14313 6.63227 14.8524 3.8853
4021 4 31.4355 4.8985 40.6464 0.359887 -0.644189 -0.471091 0.128841 0.229714 0.265248
4022 4 30.6688 7.47266 41.0345 0.635202 -0.515768 0.111048 -0.21463 0.0811212 0.132236
4023 4 28.0646 10.6707 39.8741 0.259224 0.45085 0.420525 -0.225499 -0.320305 -0.234034
4024 4 28.7255 13.558 40.5964 -0.0238739 -0.0158594 -0.117715 0.0664347 0.0315378 0.136035
4025 4 24.475 19.3585 39.0883 0.149664 -0.189781 0.925999 -0.123038 0.207064 -0.0229447
4026 4 35.3248 0.404048 38.5288 1.40208 1.2702 -1.35071 -1.63674 -2.01314 1.86862
4027 4 33.958 2.47915 40.3558 -1.00579 0.735326 -0.699589 0.796402 -0.906029 0.504568
4028 4 -2.4693 4.55847 37.9975 -0.291507 1.24227 -0.159682 0.179237 -0.262975 0.277765
4029 4 33.4988 6.23009 39.4495 -2.58979 1.39119 -1.07783 0.106588 -0.117441 0.0980225
4030 4 31.103 10.2958 40.5725 0.195164 -0.296773 0.0198473 0.00844198 0.0636255 0.0485432
4031 4 -6.14173 12.5616 41.4773 -0.0768174 -0.0534713 -0.232944 -0.00106327 0.115452 0.123051
4032 4 -4.16001 8.68971 41.3358 0.167281 -0.523916 0.0678761 0.0847794 0.194697 0.0273203
4033 4 -3.19074 12.2811 41.2392 -0.811804 1.34705 -0.983174 0.0861836 -0.0498646 0.194944
4034 4 -10.9268 22.5254 38.761 -0.0133495 -0.309711 -0.322612 -0.0354 0.0679932 -0.0328155
4035 4 -11.9766 26.9143 41.162 -1.26935 0.369506 -0.796158 0.954883 0.197857 0.500203
4036 4 5.07635 2.84222 42.6608 0.0479565 0.19979 -0.1745 0.0392815 -0.205824 0.102525
4037 4 -3.83515 18.8767 42.8304 -0.128683 -0.470818 -0.405655 -0.00723354 0.204366 0.181639
4038 4 -5.65079 20.6985 41.8067 -0.108339 0.104128 -0.0413756 0.0574621 -0.0240443 0.0352119
4039 4 -7.611 22.8797 42.3194 -0.533823 -0.0213818 -0.430776 -0.00824882 0.01156 0.130438
4040 4 -8.03622 25.1422 43.3366 -0.00946336 0.252618 -0.0360582 0.00994268 0.0736308 0.065707
4041 4 4.98802 5.4837 42.8929 -0.043088 -0.0180424 0.0015992 -0.0701526 -0.0617354 -0.0253821
4042 4 0.565453 13.8042 42.9927 0.103352 0.295983 0.24416 -0.0778327 0.308717 0.384566
4043 4 10.1726 5.04778 43.2524 0.426598 0.0888752 -0.47835 -0.0686908 -0.0249823 0.259223
4044 4 7.24541 7.12007 41.5307 0.594695 -0.2819 -0.358836 -0.538225 0.122197 0.0287507
4045 4 5.60499 13.0554 42.6338 0.369017 -0.118728 -1.05099 -0.70771 0.357064 0.70632
4046 4 2.94699 16.1903 43.1869 2.05505 -0.0806253 -1.089 -0.344051 -1.77672 -1.31025
4047 4 -0.428507 20.4918 42.6939 -0.486113 -0.0794779 0.463866 -0.530422 -0.202923 -0.833037
4048 4 -1.2549 24.382 41.0598 0.264866 0.110193 -0.0320045 0.0583197 0.193087 0.112902
4049 4 -5.46716 29.527 42.7139 0.0246242 0.386234 0.0745335 0.0986301 0.0579072 0.117617
4050 4 12.1464 1.14542 41.1245 -4.2094 6.36592 -2.30879 -0.401703 0.536348 -0.0641619
4051 4 12.3867 2.45303 43.3572 -0.0556121 0.294021 0.124821 0.0188602 0.0170474 0.2658
4052 4 11.6762 6.93841 42.8898 1.61686 -1.27231 -0.863381 0.0429062 -0.108548 0.105776
4053 4 5.41935 16.1516 43.046 -3.01798 3.04817 1.09904 -0.689908 -2.29345 -0.422157
4054 4 2.1534 19.7208 42.9986 -0.101123 0.560449 -0.398177 2.82567 1.67712 0.279327
4055 4 -0.144126 23.3536 43.1313 0.0710571 0.75372 -0.929999 -0.262984 -0.596627 -1.06039
4056 4 -2.81109 30.2818 42.0942 2.41021 0.522593 2.18257 0.634437 0.119527 0.616496
4057 4 15.1904 0.618512 41.9225 0.0281909 0.896847 -1.23822 0.20187 -0.123079 0.136434
4058 4 14.702 3.32777 42.536 -0.00151047 0.188753 -0.038235 -0.00844961 -0.109457 0.217443
4059 4 11.8713 10.5019 41.519 0.0572223 -0.109757 -0.224669 -0.212812 0.387645 -0.0295763
4060 4 11.2898 13.2192 42.2281 0.477883 3.31373 0.178332 -0.520019 -0.616134 0.683827
4061 4 8.93713 13.9608 42.5963 -1.33448 -0.0894139 2.09723 -0.00114091 0.0583616 -0.407769
4062 4 1.0564 19.0316 46.5882 -1.88361 -1.00974 0.949307 -0.610949 -0.694961 0.0200131
4063 4 13.6402 14.0628 41.7848 1.14963 2.37563 0.0551466 1.19542 -2.37329 0.777113
4064 4 15.7305 27.2964 20.4336 -6.31101 2.1442 -3.79112 3.12349 5.22889 -13.7101
4065 4 18.6182 0.825612 41.5968 -0.0163035 0.372738 0.391386 0.254458 -0.158325 0.261157
4066 4 19.423 3.36151 41.9927 0.217261 0.556435 -0.198939 -0.0311952 -0.169011 0.119811
4067 4 16.3552 4.75539 40.7297 0.765719 -1.01768 -1.48951 -0.0929439 0.207278 0.26839
4068 4 16.1203 7.52365 43.2918 0.188879 -0.134328 0.126331 -0.128317 0.0631785 -0.062911
4069 4 17.4177 18.6801 40.9259 -0.92807 0.156852 -0.210077 -0.219834 -1.0779 -0.652131
4070 4 2.32769 17.9353 39.5747 0.60862 0.443137 1.49677 0.520751 0.265511 -0.460956
4071 4 12.3029 18.6569 32.7123 7.83545 4.15337 -5.14118 2.14884 -1.6986 -1.16632
4072 4 1.87036 31.8785 42.6471 -0.410045 0.384817 0.109416 -0.064226 -0.230659 -0.460488
4073 4 18.7999 9.77506 41.415 0.0759549 -0.269631 0.143233 -0.0442085 0.111501 -0.0607993
4074 4 5.62213 32.1553 41.948 -3.56434 0.815063 0.149977 -0.367802 1.15546 0.986167
4075 4 24.8212 3.22217 43.378 -0.928808 -0.11329 1.07476 0.546114 -0.168721 0.0866375
4076 4 23.0171 7.97139 43.816 0.447536 -0.0211643 0.413051 -0.30753 -0.0446933 0.0282951
4077 4 7.54594 18.3386 22.752 1.54237 2.33581 -4.71005 -3.38217 2.6627 -1.76217
4078 4 27.6382 3.33717 43.2785 0.372393 0.247739 1.2044 -0.00512209 0.0185923 0.201372
4079 4 25.5408 5.61713 42.4291 0.38783 0.490417 -0.28524 -0.228386 -0.492378 -0.201512
4080 4 24.9601 8.06645 42.3161 0.228748 -0.240102 -0.452179 -0.169792 0.25754 0.262073
4081 4 21.9812 11.6469 42.8779 -0.225802 -0.277486 0.0957877 0.24496 0.209204 0.0614131
4082 4 19.4784 16.8374 41.1953 -0.458772 0.202653 -0.646936 0.159109 -0.0521865 0.245499
4083 4 18.4642 28.6327 39.7924 20.8105 1.10629 0.0691824 8.94234 2.85235 -5.53944
4084 4 31.366 1.20547 43.1751 1.15642 -0.499992 -1.22506 0.099914 0.689385 0.840203
4085 4 27.1497 12.2862 41.9718 -0.230556 0.249503 0.01157 0.145809 -0.154754 0.0280711
4086 4 24.0692 12.7614 41.3894 -0.0507865 -0.145705 -0.174041 0.00936951 0.0569642 0.116878
4087 4 23.6152 17.0131 42.4987 0.210852 -0.039462 -0.250101 -0.0710309 -0.0216441 0.228097
4088 4 22.355 20.3858 41.8693 1.43635 -0.0703861 -0.564564 -0.216514 0.0915567 0.352602
4089 4 19.4332 26.2796 41.7167 2.85305 1.84121 0.998698 -7.77681 3.89903 3.38773
4090 4 33.3053 4.03624 42.1213 -0.40631 -0.262986 0.483781 -0.12494 -0.381232 0.141531
4091 4 25.688 17.2436 41.2457 0.235907 -0.22646 -0.200026 -0.0567121 0.150858 0.165059
4092 4 22.1699 24.0647 41.5378 1.59112 1.22403 -0.0690279 -0.304785 1.48503 -0.0595462
4093 4 -1.02689 4.48539 41.5855 0.230555 0.230674 -0.495188 -0.194561 -0.168353 0.312957
4094 4 -2.08113 7.14455 41.2448 -0.073917 -0.251771 -0.230686 -0.131694 -0.252292 0.158045
4095 4 -14.2944 26.662 43.2461 0.247137 -1.6944 0.277728 -0.109872 0.262465 -0.00097784
4096 4 -17.546 30.8858 43.4554 0.906683 -1.03844 0.943077 0.0881624 0.322956 -0.237179
4097 4 1.66224 3.43208 42.1436 -0.705011 -0.339544 0.58359 0.346263 0.161946 0.0179317
4098 4 0.491563 6.51873 41.8196 -0.125586 -0.0984578 -0.396032 -0.0266837 -0.148828 0.152611
4099 4 -6.50451 16.2595 42.98 8.65366 1.27054 -2.36477 -1.69633 -0.214877 0.531893
4100 4 -7.19027 18.5066 41.5386 0.342738 0.107411 -0.629755 -0.154943 -0.0676456 0.186222
4101 4 -7.77195 19.292 43.8587 -0.03341 -0.406404 -0.198586 -0.0730589 0.0152993 0.133681
4102 4 -9.49789 22.588 40.7657 -0.132241 0.320744 -0.262688 0.103776 -0.0258573 0.234983
4103 4 -15.1316 30.2278 41.7074 0.263031 -0.12032 0.266417 0.0394583 0.035296 -0.169577
4104 4 4.54897 0.387888 41.3967 0.481912 0.0757846 0.0194621 -0.206152 -0.0898688 -0.0402112
4105 4 3.24397 2.55941 44.4681 -0.0699925 -0.143741 -0.102119 0.0914567 0.0339549 0.132176
4106 4 -1.54244 9.30591 44.1451 0.2501 0.146495 -0.0242567 -0.12406 0.0131951 0.0389209
4107 4 -2.43492 12.4617 44.7044 -0.24143 -0.17634 -0.160695 0.0572036 0.126194 0.0858005
4108 4 -4.52378 14.3602 44.3773 -0.141473 0.15334 -0.351352 -0.0406639 -0.0527391 0.176447
4109 4 -5.32414 17.9084 44.6222 0.242529 0.497895 0.412936 -0.0384901 -0.0857407 -0.0177625
4110 4 -9.58638 21.0765 43.2611 0.102012 -0.0972598 -0.0486736 -0.166469 0.108906 0.0683601
4111 4 -10.2284 24.8099 44.5167 -0.628574 0.625944 -0.463283 0.231495 -0.227159 0.261829
4112 4 -12.4752 28.8813 44.2796 1.2507 -1.64425 0.109324 -0.601766 0.836338 -0.198781
4113 4 -13.5714 32.0038 45.3161 -0.194702 0.0137943 -0.0446987 0.151154 -0.0116219 0.0361811
4114 4 -6.08992 23.249 44.3302 0.0636188 0.432448 -0.291189 0.131476 0.140661 0.113642
4115 4 7.79012 4.56459 44.0468 0.64888 0.0291216 -0.0564052 -0.0819159 -0.00116704 0.136028
4116 4 6.6246 6.84339 43.9659 0.235099 -0.0744208 -0.26934 -0.0999951 0.11558 0.145292
4117 4 4.00019 11.617 44.3047 0.529251 0.195213 0.630269 0.353311 0.31831 -0.0382117
4118 4 0.829168 15.7454 44.5789 -1.01927 -1.72069 -0.931415 0.297011 -0.0204584 0.00774072
4119 4 -8.03113 31.4032 44.2107 0.598159 -0.162078 -0.816012 0.0847494 0.0778682 0.178112
4120 4 8.28096 8.68205 43.3812 -0.179833 0.0641127 -0.319012 0.0328349 -0.016642 0.137735
4121 4 4.24706 14.0713 44.4627 1.64419 1.48542 -0.835296 -0.109357 1.34231 0.576304
4122 4 -0.560553 21.4943 44.8818 1.24232 -1.28893 0.438908 -0.57018 -0.235326 -0.238615
4123 4 -2.4457 22.9403 43.6155 -0.52991 -0.651131 -1.85514 0.457486 0.934477 0.806258
4124 4 -3.90843 26.3663 43.4457 0.224377 -0.150439 -0.24981 -0.00706277 0.0016152 0.0462795
4125 4 -3.73155 28.7726 44.3288 0.639162 0.333193 -0.695644 0.0736189 0.0478111 0.0269357
4126 4 -5.89939 32.0682 43.0964 -0.490909 2.52319 -2.86888 0.0454834 0.182829 -0.0366091
4127 4 7.48705 13.256 44.4549 0.806759 1.27853 -1.40742 -0.854363 -0.679615 0.893233
4128 4 6.80569 15.8972 45.2606 0.445003 -0.159939 0.0197772 -0.204102 2.25099 0.484852
4129 4 -0.791745 25.5129 44.2633 -3.16375 -0.745508 -1.58684 -0.63216 0.170816 -0.356828
4130 4 -1.044 29.9836 43.8887 -6.32697 3.57852 -5.20532 -1.45131 0.976652 -1.06327
4131 4 -2.9994 31.8065 44.4477 1.37082 -0.347562 -2.06518 0.169947 -0.322061 0.0673624
4132 4 17.846 2.54442 43.9163 0.0677631 0.22486 -0.21445 0.109296 -0.286643 0.11591
4133 4 16.5633 5.05081 43.1819 0.488416 -0.436299 -1.1519 -0.162006 -0.0105427 0.24667
4134 4 14.3966 5.52 44.5358 0.0839403 -0.0833109 -0.100282 -0.150853 0.139028 0.270816
4135 4 13.0456 9.80292 43.6957 0.491698 -1.17072 -0.257071 -0.0667724 0.328969 0.303987
4136 4 11.9932 12.0237 44.3512 -0.343023 0.113448 -3.96664 -0.596557 0.878076 -0.260895
4137 4 11.0692 14.2407 44.6798 -0.141156 1.62825 -0.898555 0.256912 -0.185188 -0.174629
4138 4 14.1605 18.862 29.6276 -7.33025 -1.80232 6.05909 -4.54023 0.534697 -3.87767
4139 4 1.41274 27.2664 44.3883 -0.357593 0.0147737 -1.47079 -0.952739 0.750395 -0.357648
4140 4 20.3929 8.11959 44.0303 0.59623 0.384025 -0.857652 -0.166214 -0.13563 0.332847
4141 4 17.042 9.98179 44.439 -0.266769 0.0780279 -0.157808 -0.0787336 0.0907004 0.0418691
4142 4 15.3047 11.7455 43.7252 0.38843 -0.806755 1.17542 -0.0130166 0.0645956 0.257951
4143 4 12.3606 16.0514 45.8577 -0.763326 -0.335241 -1.85024 -2.9464 3.13817 -0.739893
4144 4 14.6416 17.0744 34.832 -0.883434 -5.33762 -1.422 6.22784 -8.55719 2.59347
4145 4 4.00393 31.3097 43.6562 0.536141 -0.430439 -3.15605 -0.356367 -0.308014 -0.180322
4146 4 22.8326 4.93258 43.8766 0.233971 -0.147592 -0.121708 -0.0626669 -0.158247 -0.0202297
4147 4 17.9704 16.7416 44.6581 -0.477938 -0.114967 0.705937 -0.222095 0.231597 -0.450466
4148 4 16.1137 18.4389 43.3846 2.72445 -0.305793 -1.67874 1.71919 -3.19555 -0.820511
4149 4 14.2791 16.4019 27.2492 -3.16284 2.49797 -5.52103 -4.70453 6.1529 -1.86202
4150 4 26.4759 1.69856 44.7759 -1.57979 -0.615167 -0.616607 0.0114338 -1.16902 0.281336
4151 4 28.1035 4.61962 45.5137 0.446459 0.577058 -0.393454 -0.200081 0.0780801 -0.143676
4152 4 26.3151 9.49325 43.9693 -0.110339 -0.250242 -0.215715 0.0502271 0.109525 0.164814
4153 4 23.9878 11.8217 44.4153 0.622347 -0.0128154 -0.530961 -0.123954 -0.00100837 0.379709
4154 4 20.956 16.6234 44.915 0.38572 0.079755 -0.603535 0.0218986 0.327887 0.279685
4155 4 20.658 21.0395 44.8742 0.506729 -2.20848 -0.124997 2.22723 -1.58434 0.340838
4156 4 17.337 29.8987 41.3139 -3.92371 -3.70197 -0.456812 -2.77808 -6.52451 2.57709
4157 4 14.8592 31.5285 44.228 0.109648 -0.689756 -1.48015 -1.17522 -0.379678 -2.62278
4158 4 29.8619 0.840489 45.239 -0.110056 0.063713 -0.844276 0.233347 -0.236258 0.16638
4159 4 27.0258 14.2782 43.4777 0.0415641 0.133054 0.0405588 0.0192924 -0.108174 0.0869162
4160 4 24.1496 19.7189 43.4834 0.198398 -0.079436 -0.45206 -0.0558722 -0.0275752 0.152411
4161 4 32.4664 7.14601 43.4127 0.522776 -0.693226 0.640359 -0.15916 0.180764 -0.117542
4162 4 21.3263 23.557 43.7873 -3.86303 0.00665865 -2.2575 -0.00143405 0.823582 1.84068
4163 4 20.5747 28.4438 42.9636 0.226564 0.193381 -0.864909 -0.601813 0.475864 0.222589
4164 4 -0.00745461 2.73941 44.0314 -0.276126 0.45479 0.133315 -0.00872254 0.173418 -0.00459165
4165 4 -2.49257 6.52965 44.798 0.468252 -0.269139 0.625427 -0.0565004 0.249427 0.0997616
4166 4 -3.87704 10.1366 43.4893 -0.0677635 -0.243302 -0.145487 0.0481863 0.109748 0.0878721
4167 4 -12.993 27.1912 46.0749 0.240178 -0.257276 0.779052 -0.104242 0.216431 -0.237803
4168 4 -16.1774 29.9902 45.1993 1.86727 0.3575 -0.203972 0.0173111 0.220017 -0.164557
4169 4 1.12876 0.822508 45.1521 0.0802538 0.681911 -0.105615 0.0744259 -0.0912671 -0.0386074
4170 4 -0.00206094 11.0424 45.5224 0.563271 0.350126 -0.129316 -0.0788866 -0.0570506 0.0876668
4171 4 -2.47226 14.4056 46.1948 0.129062 -0.154545 -0.357517 0.131871 0.0711963 0.115288
4172 4 -3.56975 17.493 46.5384 0.0261353 0.171814 -0.151541 0.0659236 -0.13512 0.146141
4173 4 -7.56443 21.4292 45.9192 -0.222887 0.0633494 -0.215075 0.0560967 0.119819 0.109741
4174 4 -7.8803 24.0439 45.7 0.28222 -0.25886 -0.227169 0.0972055 -0.171133 0.0331687
4175 4 4.73042 8.08354 46.1294 -0.271524 -0.0262655 -0.372482 0.0158894 -0.0437722 0.186861
4176 4 2.7284 8.16138 44.7671 -0.0220544 -0.190532 0.353902 0.13744 -0.00280683 -0.115281
4177 4 2.68129 10.0837 46.0759 0.2399 0.184704 0.110689 0.0187397 0.0903296 -0.0222999
4178 4 1.08603 13.6082 46.7105 0.307096 0.517963 0.203565 0.0579333 -0.130235 0.116487
4179 4 -5.53996 23.3957 46.7442 0.0858525 0.1473 0.0234733 -0.341847 -0.101072 0.222729
4180 4 9.16369 0.411863 45.7473 0.859051 -0.0437949 -1.33693 -0.110279 -0.105883 0.252268
4181 4 7.08283 9.51107 46.659 -0.0832319 0.28442 0.478541 0.0252469 0.213582 -0.018769
4182 4 3.48955 12.3583 46.6965 0.880805 0.342677 -0.585949 -0.162731 0.150268 0.125505
4183 4 1.4482 15.5457 48.3461 -0.20946 1.04233 1.04248 0.345109 -0.264655 -0.268453
4184 4 -3.33378 23.8875 45.8406 1.06825 1.17469 -0.140557 0.0818415 -0.0144129 0.397067
4185 4 -5.10049 27.0065 45.7933 0.165689 -0.545586 0.0384394 -0.0745662 0.0934997 0.146125
4186 4 -5.4481 31.5695 45.437 0.612259 -2.38505 -3.25537 -0.0104713 -0.0397296 0.0482885
4187 4 10.5469 2.26732 45.7243 0.361377 -0.0017452 0.624239 -0.031735 -0.0620517 0.132541
4188 4 3.81683 14.8633 46.8928 -0.358239 0.334344 -1.38551 -0.320566 0.0818651 -0.200024
4189 4 -0.512492 27.3682 46.3885 0.324898 -0.581408 0.186905 0.325114 -0.298471 0.190942
4190 4 -1.40992 31.8743 46.9688 -0.102803 0.0366628 -0.296969 -0.0790855 0.105696 0.131227
4191 4 16.4129 4.83385 46.124 0.60544 0.0919997 -0.855567 -0.110585 -0.00982177 0.162401
4192 4 14.5932 8.85521 45.5123 -0.110879 0.033345 -0.000723479 0.00938982 0.145167 0.0606482
4193 4 13.3958 11.3049 46.138 0.833766 0.536441 0.342465 -0.818751 0.198767 -0.632231
4194 4 14.1133 17.1644 44.1654 0.439099 -3.03114 -0.481307 -0.565558 -3.7175 4.97677
4195 4 1.52275 26.3738 40.7386 0.141882 0.301204 -1.07618 -0.218495 -0.0568899 1.48519
4196 4 2.54416 32.2448 46.5314 -0.154914 -0.058072 0.133281 -0.0940619 0.0962712 0.277089
4197 4 19.4329 1.22694 45.2698 -0.604992 0.307136 0.21181 -0.0558295 -0.121848 0.235986
4198 4 17.5052 12.424 45.113 0.0280572 0.0196305 -0.775711 0.0202129 -0.0870076 0.0654282
4199 4 14.5885 14.4948 47.0918 1.24589 -0.447655 -0.184153 -0.284193 -0.290384 -0.0696225
4200 4 3.54793 21.3114 37.4479 20.1696 -9.83568 0.862383 0.427812 0.63678 -1.63069
4201 4 3.0237 29.1554 31.4176 0.0175608 -0.883813 0.659251 -0.69778 -0.177544 0.393779
4202 4 15.661 21.8721 42.2337 -2.65363 1.0239 15.4931 2.78157 -2.2596 -2.34485
4203 4 21.1105 2.26614 47.3389 0.457479 0.193464 0.247146 -0.10568 -0.144992 0.021861
4204 4 24.1235 3.76865 46.6074 -0.857245 -0.776227 0.278494 0.0240881 0.00774455 -0.00108292
4205 4 16.4265 15.5007 45.9787 -0.0462581 0.125745 -0.384655 0.878876 -0.128354 -0.0253842
4206 4 2.94202 19.9626 34.2552 0.416106 0.935782 0.640152 -1.07708 -0.919374 1.13492
4207 4 26.0701 5.00636 47.8125 -1.09162 -0.75519 -4.73349 0.186317 0.0981757 0.408404
4208 4 18.4884 19.5287 46.6923 -1.1839 0.474401 -1.03595 1.03124 0.503193 0.145994
4209 4 10.5229 28.613 35.7519 13.734 -17.448 17.5237 -1.27671 -1.80406 -5.47022
4210 4 2.45186 20.7095 40.0308 1.89887 1.73192 1.84594 -2.05545 2.13152 -2.18408
4211 4 24.8763 0.370023 46.501 0.434486 0.697507 0.444718 -0.165522 -0.361876 0.0716613
4212 4 27.839 6.9915 46.749 3.05836 0.261754 0.783527 0.508716 0.120566 0.164793
4213 4 20.8939 18.6861 46.2103 -0.55816 0.374348 -0.326868 -0.482089 0.658859 0.0977138
4214 4 19.1521 24.2572 43.0251 1.40258 -0.25808 -0.427643 0.281276 0.750981 2.20999
4215 4 13.5603 16.8188 49.8762 -2.40641 1.19293 -3.01291 0.00671064 1.12792 1.05092
4216 4 32.9037 2.7471 46.2813 -0.234962 0.600875 -0.545094 0.19092 0.0975469 -0.209888
4217 4 29.8374 3.03486 46.3489 0.0389813 0.0628349 -0.0509696 0.202174 -0.19629 0.00532798
4218 4 30.4381 6.335 44.7486 0.116591 0.0233957 -0.0332108 -0.0261244 0.105614 0.128602
4219 4 29.386 9.89557 46.5533 -0.211247 0.261198 -0.278956 -0.0180279 -0.0186134 0.141053
4220 4 24.6726 14.2238 44.8635 -0.301178 0.151024 -0.0113597 0.145256 -0.0195596 0.0992189
4221 4 24.4285 16.5444 45.6561 -0.0147153 -0.159951 -0.273317 0.0562323 0.0231012 0.116308
4222 4 31.258 9.13672 44.7351 -0.0340627 -0.052825 -0.0684318 0.0666627 -0.0937443 0.124735
4223 4 -12.8838 24.9476 44.9429 -0.0433871 -0.0357812 0.00484322 0.0285552 -0.0994582 -0.221409
4224 4 21.9425 25.2399 45.6204 -0.189307 0.210806 0.545211 -0.0326069 -0.191253 -0.426696
4225 4 1.23606 5.19395 46.9411 0.264416 0.141329 0.0762591 -0.0930858 0.0518214 0.0816837
4226 4 -2.41736 10.4828 46.4413 1.31941 -0.0368322 0.423664 -0.259579 0.191532 -0.0821615
4227 4 -5.27999 11.6753 45.1314 0.0602392 0.0080852 -0.11467 -0.0183449 -0.102452 0.127685
4228 4 -7.58608 14.2887 44.4636 0.418715 1.18189 -0.9797 -0.0359587 -0.181438 0.26638
4229 4 -6.30929 17.2953 47.0176 0.486557 0.0801081 -0.537021 0.0990112 0.0127527 0.0380821
4230 4 -11.2195 21.478 45.6832 0.616272 0.0718132 -0.571866 -0.0269143 0.117621 0.155864
4231 4 -11.3448 24.1807 46.6463 0.251605 0.0836904 -0.224278 0.0353648 -0.130379 0.210781
4232 4 -10.8327 26.7191 47.6146 0.219927 0.339483 0.100789 -0.232528 0.00641402 0.0155817
4233 4 -14.1884 29.6809 46.4497 -1.23309 -0.897383 -0.321084 -0.317809 0.311363 0.110965
4234 4 2.26281 2.23902 46.9836 -0.207609 -0.0636042 0.0698873 -0.00539194 -0.157373 0.0918524
4235 4 -4.73655 19.8241 46.9828 -0.156006 0.150187 -0.257355 0.0855283 -0.012112 0.180729
4236 4 -10.8331 31.4378 47.3926 -0.223515 2.99115 -2.30076 0.248275 -0.554779 0.5349
4237 4 7.13334 6.49813 49.4508 1.54387 -0.211334 -0.583454 -0.168012 0.19302 0.239633
4238 4 5.37949 8.25324 48.5783 -0.398009 -1.7803 0.391442 -0.281322 0.148039 0.0914471
4239 4 -0.959837 17.6095 46.9019 1.27875 0.999759 -0.71172 0.174735 -0.166915 0.399546
4240 4 -5.11717 26.1153 48.3306 3.44949 -0.335132 -1.74433 -0.21599 -0.0877898 0.189152
4241 4 -8.25387 31.0267 47.9267 -1.63845 -0.583433 -0.631923 0.350154 0.0696828 0.163987
4242 4 9.44846 0.939121 48.5871 1.33802 -0.295154 -1.9345 -0.152877 -0.0246426 0.0536887
4243 4 11.111 4.55003 46.6237 -0.24192 -0.0508714 -0.134866 -0.149029 -0.145477 0.0949768
4244 4 8.40884 7.45648 47.3972 0.251346 0.182212 -0.354096 -0.0459563 -0.0135047 0.183445
4245 4 6.49509 11.5044 47.9331 -1.14345 0.205174 -1.2965 0.0734832 -0.153345 -0.218273
4246 4 2.14806 17.633 49.8002 0.896383 1.4852 2.12359 -0.976108 -0.149541 -0.597612
4247 4 -0.647881 19.5787 48.7267 -0.0549034 -2.39817 -2.44914 -0.00395421 0.554781 0.774855
4248 4 -2.68604 25.8647 47.2845 2.43624 0.0217947 -2.90071 -0.199078 -0.0653462 0.277498
4249 4 -3.14299 28.4191 47.8559 2.46536 0.27879 0.258092 -0.263945 -0.0967168 0.279298
4250 4 12.4364 1.07318 46.9028 5.36334 -0.365058 -4.0073 -0.0731141 -0.113822 0.136519
4251 4 13.3017 3.79046 47.8276 0.34726 0.121716 -0.257603 -0.0892962 -0.0749058 0.172588
4252 4 8.34745 9.39895 49.1484 0.779493 -0.223241 1.0033 -0.150063 0.32142 0.104705
4253 4 3.3049 17.5286 46.7802 1.85957 0.0574574 0.654244 -0.863973 0.0852554 0.400876
4254 4 2.87779 31.1819 39.2306 2.10658 -0.488015 -3.76093 2.22346 0.502244 -1.44665
4255 4 -0.419363 29.6629 47.2417 0.436601 0.159067 0.11113 -0.151333 -0.474318 0.20798
4256 4 14.9431 5.97342 47.771 1.18641 1.08157 -1.92576 -0.295258 -0.211156 0.346468
4257 4 9.58046 12.7013 48.5126 0.289639 0.776105 -0.758343 0.00134388 0.103907 0.269581
4258 4 8.42377 15.3066 49.1489 0.319747 -2.20068 1.20029 0.448689 -0.496467 -0.0943893
4259 4 19.8119 3.96145 46.1739 -0.635627 0.799072 -0.402837 0.0643915 -0.430054 0.379788
4260 4 10.8221 14.5223 47.377 -0.540351 2.12084 -0.852031 1.83545 -3.01345 2.68286
4261 4 -1.89375 21.9459 49.3501 -2.6386 -4.64174 -2.20993 -0.281483 0.254705 0.436704
4262 4 2.08253 29.0088 49.6175 -5.56657 7.37088 4.68036 -0.464383 -0.69479 0.313632
4263 4 3.16504 31.4029 49.6132 1.37385 4.32427 0.332442 -0.305983 -0.168976 -0.223397
4264 4 20.0414 0.919334 49.5083 -0.175882 3.43889 -0.0741618 -0.437662 0.117715 0.284768
4265 4 22.0397 3.90561 49.0052 -2.55617 -0.14663 1.45302 1.01538 -0.0974916 -0.546698
4266 4 16.3522 12.7418 47.5169 0.925116 0.353081 -0.48798 0.292592 -0.0557592 0.0497109
4267 4 14.068 14.2809 49.6757 0.380399 -0.700657 1.04474 0.0227338 1.74169 -0.619332
4268 4 20.128 24.8946 49.6559 -1.9078 0.187172 -0.52318 0.00970743 0.307418 0.054879
4269 4 8.36516 20.313 35.5543 5.36396 -11.7796 -4.80913 0.402419 2.80207 1.21686
4270 4 5.38089 28.4804 32.3769 1.02947 -4.29073 -3.69211 -0.231012 0.361975 -0.811345
4271 4 23.245 1.63892 48.617 -0.831367 0.492181 -0.0541986 -0.0238143 -0.186625 -0.097831
4272 4 21.442 8.41756 49.0639 -0.118119 0.882176 -0.175891 0.0258957 -0.015592 0.0731252
4273 4 20.6474 10.4051 46.8595 -0.566335 -0.0365851 -0.227606 0.114424 -0.0653032 0.160845
4274 4 18.8975 12.6706 48.2749 2.93888 -2.18523 -2.67239 -0.539867 0.81257 0.377928
4275 4 17.8584 16.3279 48.7894 1.41754 -1.96366 -1.38918 -1.0224 2.63543 -1.90375
4276 4 17.4905 18.8994 48.7723 -2.09569 1.85797 -3.2014 -2.12377 0.132411 0.84251
4277 4 22.9685 10.205 47.8372 -0.262491 -0.0189852 -0.825549 -0.0340672 -0.00506764 0.279968
4278 4 23.5033 12.8289 48.44 1.36689 -0.501399 -0.77421 -0.815974 0.360093 0.54323
4279 4 18.8993 19.6782 43.1916 -0.00787975 0.162474 -0.17897 1.91431 -0.365942 -0.3287
4280 4 3.55669 24.6152 22.4813 -8.53521 -0.0870883 -9.7531 -0.420197 -2.46052 6.74961
4281 4 20.4743 25.3554 69.2354 18.1784 1.66456 13.2554 -1.27317 -0.0757359 -0.879714
4282 4 29.2246 2.53044 49.2893 0.185045 -0.122235 -0.275123 0.542294 -0.492518 0.789615
4283 4 29.2535 5.40671 48.4559 1.26133 0.321521 1.83535 -0.0558104 -0.0465859 0.217964
4284 4 26.4701 9.3392 46.915 -0.132609 -0.324013 -0.409187 0.100678 0.0493017 0.145889
4285 4 22.9626 15.7318 48.7956 -1.87484 -0.561141 -0.332945 0.130318 -0.204108 0.0908802
4286 4 19.0835 29.0335 46.6907 -3.45776 -2.26713 1.73775 0.856005 0.0383242 3.53656
4287 4 19.263 29.4058 49.3228 -2.24541 -0.684828 -2.98675 -0.397225 -1.77233 0.151696
4288 4 34.2495 0.66358 46.5762 -0.574732 0.215579 -1.04822 0.680393 -0.300223 0.350469
4289 4 32.6879 2.12812 48.7596 3.11763 -3.31164 -1.66627 -0.000200866 -0.0325231 -0.0128894
4290 4 30.5138 8.02849 47.831 5.39319 2.0393 -4.58376 0.688231 0.289968 -0.374301
4291 4 26.1321 15.214 47.0344 0.0745567 -0.131456 -0.18821 -0.0171362 0.00282149 0.145095
4292 4 24.6735 18.2616 48.3733 -1.35689 7.82914 12.0028 -0.317927 -1.27049 -2.65446
4293 4 24.3177 20.6436 47.2829 -0.705955 0.326063 -0.383512 -0.465717 0.0444762 0.0113473
4294 4 -1.60542 4.72796 47.2451 0.111238 0.0684066 -0.440076 0.147902 0.00475304 0.451786
4295 4 -8.93737 16.0967 46.2395 0.0742705 -0.0689088 -0.212194 0.00981552 0.0815475 0.13235
4296 4 -10.7262 21.8474 48.3573 0.170352 -0.0873231 -0.177522 0.0666807 -0.0662178 0.0851514
4297 4 -12.973 23.0711 48.4632 0.175232 -0.0031438 -0.285787 -0.0753451 0.0258929 0.244904
4298 4 1.3962 1.39042 49.3145 0.0837936 0.0368144 0.0457061 0.194374 0.192954 -0.0691315
4299 4 2.93485 4.31115 48.5387 0.256838 -0.0762269 -0.0821316 -0.15717 0.0517801 0.228358
4300 4 -0.582712 6.89249 48.033 0.242307 0.261749 0.257896 -0.0617871 -0.166683 -0.0475924
4301 4 -2.79676 7.40271 48.8733 0.196973 0.625376 -0.269652 -0.142434 -0.121061 0.0472622
4302 4 -4.86221 14.4196 47.2476 -0.385528 -0.494546 -1.22436 0.131001 0.310072 0.118965
4303 4 -7.93519 16.9907 49.0698 -0.521441 -4.77522 -2.72704 -0.010272 -0.323722 0.189744
4304 4 -9.49401 24.3019 48.4703 0.178725 -0.0196839 -0.362022 0.0569185 -0.119183 0.144217
4305 4 -11.9807 29.1796 47.8548 0.895658 0.786346 0.460676 -0.126561 -0.291424 0.093435
4306 4 11.1999 15.3247 39.0897 0.840302 0.242557 -0.722375 -0.473382 0.276431 2.9203
4307 4 0.889347 25.0951 36.9141 -2.08062 -1.8523 1.00788 0.426538 -0.767027 -1.76433
4308 4 9.12765 10.1889 52.2942 -4.19223 -7.92671 -4.89977 -0.281473 0.165563 -0.362031
4309 4 6.22042 15.3801 37.6077 1.2433 2.32502 -0.407456 1.52435 -0.39694 0.312593
4310 4 -1.36618 13.6502 60.011 -8.78188 -5.21931 3.4178 1.32695 0.93733 -1.15796
4311 4 18.7167 23.3271 58.9816 15.1974 0.968612 8.58829 -0.714601 0.110079 0.0176663
4312 4 1.98798 27.6063 25.1438 -3.04987 -4.53131 2.4538 9.39418 6.68404 -4.0615
4313 4 5.35282 22.9058 21.9288 -10.9129 -5.84288 -1.97524 -2.04449 -1.10673 -2.37531
4314 4 12.5115 15.0876 33.7957 0.382939 2.56417 4.71002 -3.3354 6.11149 2.95879
4315 4 8.81144 30.7207 38.7539 13.1968 -22.1815 15.4145 4.11536 -0.292997 4.88962
4316 4 30.0885 0.686676 28.7005 3.57528 -1.54751 0.210864 1.73343 -1.83104 -0.958388
4317 4 4.62287 17.4581 22.847 4.57942 1.78075 1.3719 4.52276 4.10864 8.78764
4318 4 6.52354 18.0773 17.0195 3.38112 -2.16109 4.4767 1.36386 -0.736532 -1.20423
4319 4 8.00928 21.0799 14.1409 2.6452 2.37498 -4.56302 -1.04351 0.457874 0.926577
4320 4 13.7254 19.4702 11.5404 -0.00429945 -0.782458 2.23373 26.0218 6.23474 4.90953
4321 4 9.53597 24.6401 22.3126 4.07498 3.59853 -3.91954 2.16006 0.823895 4.04626
4322 4 12.5518 18.9422 16.8661 0.471164 -3.48068 2.20595 -0.831262 -2.88813 -1.62515
4323 4 18.2226 23.0982 18.3525 4.86553 -1.77114 0.328827 -0.930894 -4.19037 2.41502
4324 4 19.8131 26.6276 53.3062 8.46041 3.62151 5.28858 -0.727055 -0.870636 -0.0653319
4325 4 13.2499 16.1655 23.2933 1.53922 -2.53755 5.97858 4.648 -3.61743 1.2001
4326 4 5.06449 20.0309 17.522 5.09826 -5.17111 -4.09302 2.6352 6.48584 -0.0715315
4327 4 13.6769 16.49 38.1942 -0.498613 1.50232 0.0346031 -1.7903 -0.687575 2.91676
4328 4 16.8358 15.91 62.9213 16.8994 -22.595 33.0851 -1.17449 1.57033 -2.29938
4329 4 7.47158 23.364 21.7604 -9.02899 -7.32422 -15.7645 2.49443 0.907588 3.6126
4330 4 1.87412 25.662 26.9711 3.28899 2.10462 2.03167 2.64804 1.43955 5.10803
4331 4 7.271 29.6807 12.4299 -2.67295 0.892536 7.46681 0.731112 -0.0856109 -1.27162
4332 4 9.35284 21.0504 11.4126 1.48303 0.378366 0.319478 -7.0906 9.13608 18.7772
4333 4 10.9827 16.3977 21.1297 -0.0217824 2.63538 0.980818 -1.10608 7.14677 -0.326898
4334 4 15.794 18.757 54.4778 3.07245 -2.13103 0.560768 1.4888 0.295414 -1.32609
4335 4 8.5363 16.5875 19.9544 0.497092 -8.20718 4.9909 0.168354 3.82693 3.89715
4336 4 18.0166 24.2934 32.7904 -5.18969 -8.1338 -4.88405 5.51854 5.35165 1.20845
4337 4 9.44386 15.6094 37.2527 -1.08436 -2.02078 5.46434 -2.43844 -4.20419 4.41487
4338 4 3.64514 16.6203 62.0185 -3.69537 -26.7521 35.7141 0.968047 3.5317 -3.00471
4339 4 4.86858 28.2724 19.597 -2.14678 2.41259 -4.91351 0.349264 0.0951591 1.67801
4340 4 18.8767 28.1015 34.6139 -0.0939839 1.71253 -0.422589 -0.623125 1.33832 0.0554929
4341 4 19.2722 22.9787 46.8935 -1.40044 -0.079758 -0.906642 1.33136 -0.0798534 1.18957
4342 4 12.0981 20.7253 15.1506 5.49702 -3.91062 2.7928 -2.18554 4.49009 6.9743
4343 4 1.93464 25.8831 55.6667 8.53059 17.2949 -10.2442 1.43807 -0.537224 -1.85576
4344 4 4.4699 23.8363 32.0091 -0.555033 -2.26413 2.16904 1.60716 -0.784328 -0.853462
4345 4 8.14925 23.4704 16.3397 2.95727 2.37495 -4.68473 1.90233 0.83797 -0.988194
4346 4 7.50339 26.0843 22.1654 -0.494765 -0.703567 0.204815 -5.47296 1.98118 2.55199
4347 4 3.12625 24.2691 28.1018 1.6392 0.683828 -1.57991 7.06987 -5.43863 -0.540767
4348 4 13.4916 25.0774 11.9422 1.11434 0.555015 -0.524258 -13.6959 -15.8238 25.7414
4349 4 34.2076 1.28295 51.3045 -8.47513 0.460674 9.78441 -0.201246 -0.489629 -2.45007
4350 4 34.5363 2.68174 55.1129 11.0832 7.67515 -2.09966 -0.740237 -0.388032 0.451894
4351 4 18.8545 26.5675 46.2048 -1.22079 1.59787 -0.168418 0.796547 -0.528618 0.384498
4352 4 12.8962 30.5859 22.804 3.52384 -9.32158 -9.84138 0.778149 0.479426 -2.71842
4353 4 18.355 24.8507 27.3554 4.95137 -0.404458 0.720624 0.786248 -0.304683 -0.261258
4354 4 2.63984 29.3518 35.8153 -0.335451 -1.48055 4.60796 1.58892 -1.22975 1.55848
4355 4 14.6981 28.4568 29.7071 -0.0733973 -5.68618 12.9751 11.3546 -1.36129 0.254993
4356 4 4.30068 20.7505 45.8925 0.370108 4.61846 -4.31145 0.0389641 5.91792 0.55334
4357 4 5.23207 28.8673 23.4657 0.0970277 -9.98645 2.82832 1.17735 -4.43289 -2.49433
4358 4 8.99556 16.9258 24.2123 11.7248 -11.2023 -15.264 2.34851 -4.06764 1.82956
4359 4 -0.469951 21.104 59.1765 -0.387836 -10.9896 23.6255 0.762466 1.173 -2.92128
4360 4 0.816085 15.1388 57.7277 -11.0149 -4.29566 0.798092 0.712391 -0.148212 -0.229152
4361 4 16.7446 19.574 25.7607 1.92584 2.06069 1.59671 4.27414 -0.25655 9.58509
4362 4 35.9382 0.27814 48.8247 -6.16059 0.340769 -4.59694 0.768606 -0.215859 0.55083
4363 4 14.9263 14.6219 31.3936 -0.50993 -1.1779 0.0947511 -0.222082 0.178736 -0.18169
4364 4 4.52021 22.2254 34.7493 -0.676643 5.09715 8.09929 -2.00237 -0.881762 -0.434697
4365 4 11.7027 19.3384 13.5836 -0.109693 -4.4664 -1.2486 -1.4483 -2.53426 -6.63511
4366 4 20.8232 21.6614 65.7307 9.18737 -8.63114 9.17053 -0.919411 0.725048 -1.32076
4367 4 7.28899 19.6257 18.7754 -7.25331 -2.15319 7.11755 -6.57292 2.85689 -1.35637
4368 4 9.97418 13.5031 65.8907 2.03825 -20.0301 20.7405 0.726896 2.26885 -0.409188
4369 4 19.2823 26.7578 30.3113 4.67358 -0.169117 -0.245417 -2.31695 -1.68888 5.08695
4370 4 13.2982 23.004 18.6653 4.52722 2.85505 -0.13419 0.734196 4.82623 3.23008
4371 4 8.33615 30.9164 18.6352 2.02373 1.22286 -10.1972 -1.90215 0.0229533 -1.86783
4372 4 9.93631 18.8639 21.6189 -7.29657 2.02054 -4.60028 -0.266974 -0.443602 -0.0252645
4373 4 3.69519 16.3351 53.0831 0.608616 2.49165 3.82368 -0.107564 -0.874121 -1.4511
4374 4 19.6483 24.4863 55.6428 -0.759132 -6.582 13.5286 -0.0411933 0.135147 -1.09507
4375 4 0.937425 22.0551 30.998 3.84391 2.00835 1.00373 0.864095 1.36683 3.03035
4376 4 12.3161 22.0424 11.437 1.37357 -1.25359 0.571748 -23.2721 -15.4331 19.443
4377 4 10.6439 27.2703 14.8113 1.53232 0.407636 -6.05933 -5.19621 1.13257 3.77536
4378 4 14.612 21.6397 12.404 8.08041 -5.58264 -12.3052 -2.60837 -1.335 3.17234
4379 4 1.48658 23.356 45.3154 -2.26154 0.0162288 -2.96206 -2.77527 -0.323877 0.233929
4380 4 6.31709 16.0725 40.5936 -0.634705 -0.497167 0.37211 2.75611 0.453311 -3.76903
4381 4 7.4815 23.6962 13.6742 0.629875 -1.43839 4.66388 -2.09147 -1.66904 1.71223
4382 4 13.8995 29.8323 16.6509 -3.51853 -3.17137 -1.94693 -1.34833 -3.81315 3.6639
4383 4 5.81472 19.5405 25.9878 6.19682 6.19831 -3.95185 -2.31691 0.996844 2.11462
4384 4 15.2134 29.4829 31.9493 -3.1323 -3.70904 -6.19922 0.827557 0.779457 2.38312
4385 4 13.1919 32.2622 25.9843 -0.410145 3.98474 -4.02625 2.11213 1.37353 4.82043
4386 4 7.93271 16.4976 42.9006 0.895044 1.35593 0.451834 0.159232 -0.186462 1.39738
4387 4 14.5277 30.6573 27.2872 -0.191241 -1.8812 3.4964 1.26178 -3.10886 -0.415372
4388 4 8.73504 21.2644 25.4866 2.50871 4.50215 14.6605 -4.75115 -2.3362 2.3674
4389 4 15.4401 15.8647 84.0845 5.25184 -7.88449 26.476 -0.364998 0.547964 -1.84006
4390 4 7.49702 28.457 20.0729 1.82478 -4.64211 10.4703 1.99516 0.915661 -2.17303
4391 4 10.0411 24.0659 14.2774 -3.48034 0.749916 -2.69579 1.19822 -0.172759 2.82997
4392 4 7.27618 22.962 24.6596 7.39574 -2.50317 8.97271 -2.81392 0.263108 1.38544
4393 4 17.4168 20.6141 50.7107 1.26135 0.916031 -1.88172 -0.477638 0.193224 0.233697
4394 4 19.6526 21.8797 51.0692 1.5966 0.638179 -0.613185 -0.152219 -0.347403 -0.107173
4395 4 13.1144 27.0472 17.1232 4.59453 -0.0756548 -0.0611276 2.54245 -0.00240396 -1.57364
4396 4 15.7733 23.7129 18.7039 7.28062 4.21166 3.29924 -1.08395 1.54783 0.601018
4397 4 8.02799 18.1639 34.8452 -4.29642 -2.97755 3.65008 -0.34126 -2.4546 -0.463374
4398 4 19.0588 24.2359 52.7764 9.5592 7.04204 -2.52083 -0.111794 -1.04818 0.27204
4399 4 2.4546 21.4187 19.6609 3.43041 0.136705 -0.37818 -1.6612 -1.54566 -2.23703
4400 4 2.60291 18.6042 60.0228 0.48909 -8.72472 19.0893 -0.525454 -0.561803 0.0962558
4401 4 13.5948 21.0363 17.8223 1.01721 -3.52833 -2.33708 2.43199 -0.946169 1.73014
4402 4 10.0358 27.8547 20.3216 5.70392 -8.82204 7.96221 -1.39688 0.709358 -0.341779
4403 4 17.0981 22.4614 25.979 4.41207 6.9949 11.8467 2.95462 -4.47044 -3.30584
4404 4 32.6964 1.7234 57.5528 2.04034 15.5877 19.0331 -0.340123 -2.09986 0.719946
4405 4 17.3165 28.044 43.5236 5.74645 1.15847 4.91921 -10.8792 4.777 -0.839991
4406 4 9.99454 25.4413 18.4398 -6.21699 2.98176 16.3201 -0.983907 3.41932 -1.58552
4407 4 13.3707 21.4409 42.6472 -10.9 -9.77229 1.6546 -1.73309 -0.550409 0.427976
4408 4 10.8942 20.5455 17.558 -4.82851 -8.09142 1.23332 -3.35572 1.06656 -0.665248
4409 4 18.9144 20.65 28.89 -0.0401516 -1.85094 -1.28065 -0.00603175 -2.91326 2.41945
4410 4 17.6937 32.0328 53.5624 20.8446 8.41716 17.1488 -1.24078 0.160243 0.044713
4411 4 7.21205 30.8019 40.6121 0.265139 5.93747 4.46274 -0.995649 -3.34988 7.80216
4412 4 12.7914 28.1962 29.2316 10.6205 10.3762 -14.1654 -12.4435 2.51543 -3.316
4413 4 6.67905 32.1933 75.0729 2.60418 5.20433 9.34481 -0.180988 -0.361696 -0.649455
4414 4 -0.793262 27.4878 50.7445 -34.3832 -8.96462 -22.2337 0.992916 -0.482147 -0.331155
4415 4 3.75505 25.3504 19.2154 -12.0758 2.11461 -2.24544 -1.14805 -1.33452 0.0133602
4416 4 11.1267 30.4357 26.9968 -11.607 0.217586 1.30281 0.849847 1.30848 -0.376726
4417 4 15.8339 23.7728 34.2236 -1.26829 -1.11307 14.4633 2.20171 -0.953042 0.47124
4418 4 -2.9357 29.0886 59.2557 -18.1191 9.73426 14.5469 2.31211 -0.77839 -1.17001
4419 4 16.2679 14.9778 51.6117 -1.3708 -1.88918 10.3803 0.0470621 1.4015 -1.12909
4420 4 3.64546 23.4542 25.531 -3.53905 2.78297 -5.54046 -7.41878 -1.91505 2.56509
4421 4 1.7177 15.7056 55.1403 -2.70468 -6.58878 2.65531 0.121765 1.14745 0.366819
4422 4 9.72178 13.2824 50.9564 -4.8006 -8.11625 1.62815 0.526625 0.964245 0.013038
4423 4 2.22598 29.6964 52.3076 -12.633 0.65614 6.27534 2.1278 -0.0518488 -0.649863
4424 4 14.8091 18.1541 22.1729 0.947502 3.81546 -0.0347265 -0.977601 1.09811 -1.37769
4425 4 30.6472 4.73653 51.098 10.0813 15.8351 22.2013 -1.05963 -0.732827 -2.54678
4426 4 8.36253 27.4836 26.5059 -2.10082 -10.3352 -3.01159 4.06138 15.7341 1.50679
4427 4 6.27092 31.4865 34.9853 4.65459 4.7319 2.90534 1.2831 -11.1836 -1.53734
4428 4 11.0588 21.471 20.0298 0.125669 -3.52512 -3.55587 -0.87003 -0.408737 -10.9444
4429 4 7.74508 21.9134 19.7025 9.11847 6.72863 -3.32325 0.815408 -2.86606 -3.44329
4430 4 15.214 31.5695 40.1223 1.66449 -0.770193 1.39886 -0.672591 -7.26429 7.414
4431 4 16.5054 27.9587 24.2928 -7.27892 -8.01573 1.65748 -2.39238 6.56449 2.1906
4432 4 13.0238 19.1394 24.0615 -3.96374 10.5592 -1.1455 2.49254 -2.16768 -3.77786
4433 4 0.202798 26.1695 57.1447 -7.2915 -9.61209 -20.0413 -2.01373 1.96917 1.51857
4434 4 16.8886 26.2266 18.5625 -0.235176 9.47762 1.23344 -0.798232 0.573035 -0.77822
4435 4 3.86038 25.163 46.2101 4.61182 -8.27141 -4.47374 -2.73557 -0.20231 0.375178
4436 4 6.91766 16.0671 51.2178 0.411377 -4.45169 0.388333 0.369857 0.606115 0.885375
4437 4 4.24101 30.2109 33.6967 0.411261 -2.35718 -1.48363 -0.779515 3.48803 -1.62802
4438 4 25.5562 0.705214 22.3119 -4.61451 -0.103041 3.95322 2.79964 -6.89028 2.86429
4439 4 17.1088 19.0958 23.0809 -10.2686 1.60128 -0.750255 6.05809 -1.97455 -0.93815
4440 4 12.3289 19.0068 20.9787 3.71369 0.798591 -1.08143 0.613386 -4.74484 3.3691
4441 4 -2.57169 25.7388 51.6839 -35.4793 1.68199 -30.1557 2.73748 -0.559164 0.854505
4442 4 12.5918 29.0552 18.6606 3.06115 0.861271 3.03247 0.722259 0.50142 -0.815284
4443 4 13.2375 27.5744 21.8632 10.6005 3.03551 -0.323222 0.851036 1.06837 -2.02348
4444 4 25.868 0.184538 31.1622 1.41626 -1.95265 3.08497 -1.295 -1.00035 -2.33203
4445 4 6.88889 16.6264 68.0865 -14.3676 -21.3614 17.5657 1.25464 2.12216 -3.46194
4446 4 2.06082 25.3312 29.8335 0.655998 2.3758 3.39484 -6.52843 15.3886 1.49594
4447 4 32.73 0.457217 60.064 0.905826 9.99675 26.263 0.685117 2.1239 -2.54586
4448 4 15.6146 26.4493 27.4769 4.58019 7.98175 0.583366 0.692184 -0.0855114 -1.09605
4449 4 15.2576 25.5267 21.8931 -7.26301 7.41996 -10.1218 -3.008 -5.32331 0.205819
4450 4 7.79174 8.73985 54.5132 -1.85443 -20.276 8.4575 0.2625 2.55693 -1.69682
4451 4 6.62248 31.6947 26.7617 -4.98049 4.4552 -2.05746 -6.39529 1.96603 3.32508
4452 4 13.4201 24.2243 16.0396 6.32607 -7.45256 -1.48115 1.13291 0.557675 0.868158
4453 4 18.3549 24.9969 24.3214 5.99317 6.48313 -9.63125 7.85025 -0.301941 -2.2621
4454 4 10.3794 30.6607 19.7136 6.87946 -9.24345 -7.17622 4.26234 -3.62991 4.18278
4455 4 20.3753 20.0997 55.9515 8.27987 -6.81134 15.7854 -1.03346 1.00692 -1.90983
4456 4 9.38975 31.2187 23.0594 -6.60695 7.8158 8.20927 -0.524858 0.122616 -2.04232
4457 4 2.69731 19.3668 51.845 -9.26678 12.0969 -0.75998 0.389764 -1.73001 -0.534704
4458 4 10.803 30.8695 29.7068 -3.21669 3.71109 -3.64363 -0.804663 0.474629 0.81191
4459 4 17.8702 21.8255 34.5126 -2.61073 2.65718 2.65804 -2.41696 1.11232 -4.15599
4460 4 4.84745 28.284 36.0233 -16.9614 12.0874 -2.82647 -0.729347 3.43063 1.99749
4461 4 14.494 18.9072 46.0912 -2.34569 5.83333 0.204208 -1.33703 -2.20767 -2.7449
4462 4 10.0408 15.1099 33.3055 -2.43966 5.51184 0.845006 -2.09305 3.14222 3.84643
4463 4 2.38081 18.1683 54.5507 -7.67395 -5.19119 -3.33393 0.389582 0.762042 0.150215
4464 4 4.6663 18.7644 45.0948 -6.39209 2.10377 4.12315 6.30777 -6.07723 1.36603
4465 4 12.8774 18.5206 39.8187 2.47775 -17.4225 -3.11326 1.02337 0.354862 0.311737
4466 4 15.6681 30.4295 35.1548 -2.54427 -1.61182 0.75193 -6.67121 -6.06123 6.58094
4467 4 8.77946 26.0278 37.8142 -5.18888 -5.67555 1.63831 0.0826491 0.702343 -1.03588
4468 4 27.8351 0.329547 27.8333 3.01595 -0.535916 -5.23158 -1.641 -1.75873 -4.60252
4469 4 17.1872 17.2863 52.6291 4.73533 -0.414863 -2.35661 -2.73137 0.824271 -2.36021
4470 4 18.5167 26.8093 50.0707 -0.802509 0.701552 -2.35349 -0.50442 0.0178186 -0.704754
4471 4 18.1892 20.6449 53.932 1.17236 0.934876 -2.36734 -0.53176 -1.34384 -0.0499904
4472 4 23.9704 0.774987 51.3693 -20.9027 -16.8281 3.63269 1.5333 0.907215 -1.50006
4473 4 11.1574 25.0719 20.6813 -0.17261 -6.1758 2.05824 0.635068 2.83308 -2.15291
4474 4 5.43904 18.4622 32.8833 1.82955 11.5323 -10.3615 -9.37754 16.7297 -3.85324
4475 4 14.6071 23.7514 29.0119 1.17115 4.35785 7.05267 1.21728 0.0137566 0.688652
4476 4 3.09133 29.0273 44.0075 1.27639 -0.760997 0.206053 -0.778531 0.136309 -0.0250231
4477 4 13.0171 29.5775 25.1429 0.906465 15.7981 10.5981 -7.70556 6.18488 3.65558
4478 4 26.8674 4.96442 58.0789 17.593 22.6796 -2.65247 -2.49345 -2.47432 -0.207877
4479 4 3.84651 19.079 27.4715 7.72427 5.80619 -4.45829 -1.56284 1.134 5.1107
4480 4 6.79388 26.07 19.539 -0.701758 -1.67717 -2.72389 -1.12091 -1.40129 2.02718
4481 4 6.44686 11.8878 57.9798 -10.7824 -28.8187 2.31639 1.0845 2.44561 -0.433209
4482 4 13.9062 20.8882 20.3741 -0.423124 5.24342 -4.43439 -0.505655 1.94842 0.351797
4483 4 9.60727 17.8983 45.1843 -1.96262 -4.04335 6.32072 -0.140331 -2.91095 -1.8632
4484 4 2.21296 23.8229 32.487 -1.07405 4.74495 7.70726 -1.39121 -0.980024 -0.535128
4485 4 12.8252 23.5196 21.1967 3.47826 0.460028 -0.884708 5.73165 -2.01942 -7.70483
4486 4 25.0635 0.698729 54.1354 3.22826 12.5842 11.0732 1.56086 -0.895556 -2.56
4487 4 1.69478 23.9341 41.707 -1.66519 -0.837124 0.590169 -0.470469 1.93786 1.87375
4488 4 -14.0218 28.2999 62.5143 23.1449 9.58682 3.07439 -3.19823 -0.720807 -2.4532
4489 4 17.1035 28.2591 30.5096 -2.94391 -2.01198 -1.3292 -0.768348 -5.57723 3.3016
4490 4 19.0838 22.3826 61.7238 11.836 4.18483 24.8779 -0.519237 -0.167815 -3.46431
4491 4 3.56647 27.3234 28.7834 -6.62725 -3.06285 -7.68076 3.20387 -5.84638 1.40354
4492 4 10.2872 14.4534 56.1248 -3.08518 -8.42719 -1.41882 -0.128133 0.780186 -0.11826
4493 4 12.3109 31.4793 32.0368 4.78495 1.67711 -8.17126 2.02432 0.949456 2.37418
4494 4 5.44352 30.345 45.2386 -10.8101 8.8912 7.05558 3.41377 -0.486864 0.90241
4495 4 13.8087 25.9866 19.6586 -1.8212 -0.48756 -2.9841 -0.47384 -0.394274 -1.84615
4496 4 0.599176 23.1494 51.0969 2.14557 13.8675 18.9518 0.115283 0.288314 1.57666
4497 4 29.3798 1.09699 54.0255 -1.18618 0.67949 0.421219 -0.159023 -3.24171 -1.45268
4498 4 3.99823 30.8078 54.0558 -11.4706 0.0326043 0.492355 0.0408305 -0.219554 -1.11501
4499 4 0.0970642 28.6435 58.9373 -9.27433 7.42346 10.8086 0.812824 -0.832591 -0.52385
4500 4 9.04641 14.275 58.3073 -3.47179 -11.2246 -3.00534 0.13246 0.256726 0.0456879
4501 4 14.6732 31.0043 49.045 -13.6561 9.98414 18.8269 1.80806 1.31576 0.755329
4502 4 4.89077 21.9931 19.4333 -1.3414 -2.5461 0.241519 1.25684 -2.0625 -1.30681
4503 4 11.7509 20.3212 28.1097 -16.6452 10.4393 4.90859 1.03323 3.22984 1.74281
4504 4 11.6602 14.4929 68.307 5.80914 -11.609 23.1762 -1.24405 -0.0954969 -2.65292
4505 4 9.00707 23.7391 19.8023 -0.947006 0.282251 1.41252 0.796995 4.97084 1.31525
4506 4 10.8228 29.017 22.385 -5.95097 13.0206 4.37639 -2.09193 1.19584 -1.50003
4507 4 7.76167 18.7735 25.1783 8.09505 -3.51087 -0.35806 -4.14316 3.91291 -1.89156
4508 4 8.61093 17.559 28.9074 6.65421 7.5367 -12.1266 1.17799 -4.08596 6.83953
4509 4 5.73955 23.7575 26.3718 11.1342 8.61475 -17.4759 4.53219 -0.717407 3.5681
4510 4 28.3886 0.329486 37.8165 -4.44013 -2.78599 2.02852 6.07316 3.11715 -5.37297
4511 4 0.409935 25.1438 64.2952 16.7803 9.67503 3.80792 -1.0829 -0.0564615 -1.20727
4512 4 11.3766 25.5748 26.2531 -3.23136 7.87611 -0.754729 -0.877111 2.00855 0.832651
4513 4 33.2526 4.98104 56.7228 2.91951 25.2836 9.93444 0.0556033 -3.21461 -0.943182
4514 4 2.09508 20.8121 28.838 3.53739 1.94854 6.2831 11.0495 5.27359 -0.539371
4515 4 15.9969 2.14265 54.3722 -14.9657 27.9522 12.4246 1.03972 -1.94185 -0.85294
4516 4 1.23963 24.928 49.3229 -1.41621 -1.39701 0.0991745 -0.593585 0.101847 -0.261661
4517 4 11.8739 15.7835 41.6696 -5.35141 -0.303546 2.97165 -0.65069 -6.3793 -2.52512
4518 4 13.8565 21.2124 45.4028 9.39722 14.2097 12.7612 -3.14203 0.549882 -0.169208
4519 4 10.8048 17.882 28.3078 -4.54461 7.36184 4.38602 3.48038 -2.9454 -5.51599
4520 4 9.45132 14.706 53.2755 -6.6881 3.3702 -7.17252 -0.365729 -0.28599 0.303212
4521 4 3.09038 30.6996 59.5645 -12.6948 3.29378 14.3754 -0.169658 -0.970253 -1.28751
4522 4 1.13909 21.927 53.9584 -3.34301 -2.91717 8.7726 1.06524 0.767494 -1.35843
4523 4 5.50257 17.1748 34.9916 -2.18354 1.10134 0.0263035 -0.0761446 -0.444549 1.21664
4524 4 15.3646 24.4158 46.066 11.1301 6.93574 15.9192 1.10974 -1.06909 -0.508039
4525 4 31.2757 0.414054 40.645 -1.00094 0.076526 -0.126896 0.590371 1.22863 0.640337
4526 4 15.4595 22.967 21.363 0.0247773 2.55621 -12.0679 -0.257389 -1.62233 0.89081
4527 4 3.35954 23.3673 48.6662 5.52814 -10.9532 -3.93077 -1.51051 0.0206177 -1.24124
4528 4 5.87704 16.5854 65.4181 0.112969 -11.4356 9.66288 -1.01957 0.134119 0.596831
4529 4 15.963 17.6853 50.3062 -0.93339 -1.50854 -1.22262 2.25009 -0.309007 3.67206
4530 4 6.54939 16.9628 32.8522 -2.84769 27.0685 12.165 10.3425 -8.90773 -4.93985
4531 4 13.4275 16.4126 31.0771 0.451718 -1.26225 1.15745 0.424571 -1.03828 -0.96675
4532 4 8.04054 25.1768 39.9352 -5.71084 11.5184 4.43319 -0.296665 -0.276487 0.607981
4533 4 14.6744 20.6222 26.8873 10.1498 -11.3652 -0.759828 0.91543 0.687101 3.50043
4534 4 8.77121 29.7029 27.9434 6.13354 5.27009 7.61081 -0.609879 1.02403 0.518173
4535 4 7.03177 18.203 45.2485 3.8605 0.446129 0.385671 0.937392 1.30279 0.515538
4536 4 0.630342 22.2102 56.5526 -2.9912 4.99282 6.74816 -1.99183 -0.576227 2.18851
4537 4 -15.6687 30.3807 52.131 25.1621 24.4543 -4.38326 -1.63709 -1.13831 -0.499662
4538 4 2.82249 30.2814 67.1924 1.04643 16.5025 13.0752 -0.0727255 -1.14691 -0.90871
4539 4 17.9801 24.7018 30.1759 -2.2291 -0.591965 3.47855 0.158283 2.10002 3.03163
4540 4 3.94478 18.9727 29.8851 1.25987 -1.33988 5.0401 -5.60321 -6.27714 3.33262
4541 4 13.8493 26.4089 39.9734 5.59432 -8.58128 1.17892 -27.8804 -14.3089 -7.0428
4542 4 17.0978 22.6784 39.6098 -7.13863 -4.5118 7.45632 -5.29161 -6.49104 6.37026
4543 4 16.2945 28.9991 26.7457 0.924461 -0.325042 -0.499452 7.11188 6.75963 7.6037
4544 4 5.6709 27.3866 27.0962 -0.799455 0.175055 -6.38744 0.961446 -1.56523 -2.20921
4545 4 12.4598 30.8951 53.4675 11.1613 -3.66497 0.551186 -0.439023 1.02224 -0.234684
4546 4 13.29 30.3041 40.0066 -32.694 30.8541 -40.7838 -1.63975 -1.08717 -0.877168
4547 4 11.7269 23.3502 27.406 -0.204923 -3.25606 0.453756 -0.117521 -1.06258 0.377321
4548 4 16.6741 21.1871 28.0754 -4.40724 5.28705 -1.89166 -2.22506 1.01748 1.17419
4549 4 9.0334 26.4355 24.1849 -25.0443 -3.45642 4.73765 1.99498 0.432912 0.711124
4550 4 4.30591 29.4585 27.2893 -7.54593 -7.69406 -5.03387 -8.54734 -2.25728 -0.0985248
4551 4 13.9736 23.2139 39.3968 -5.73959 9.80748 -0.625934 1.32442 0.189227 0.52645
4552 4 15.5921 25.8229 24.6986 8.10901 -1.40306 -0.527724 -0.453514 4.52229 -2.56905
4553 4 10.0667 21.9391 29.8327 19.3155 16.3193 8.66506 -1.2194 -1.42765 -2.6296
4554 4 16.2457 24.1303 41.2357 -2.14973 11.7729 3.26787 0.0502073 1.48285 -0.495898
4555 4 6.81138 29.41 42.819 -3.05985 -9.45603 -8.67987 -1.15289 1.14577 0.0398044
4556 4 11.8082 21.0517 21.9329 1.45922 -0.325774 -10.8616 1.12519 1.8939 9.71543
4557 4 17.6022 30.9027 75.3942 9.00865 4.00625 28.1794 -1.52308 0.0127305 -3.5993
4558 4 4.34125 26.4351 24.7204 0.668807 1.73049 -6.48829 -2.26635 0.751094 2.0557
4559 4 4.2637 29.4679 29.3679 -12.361 -21.542 -4.34955 13.6039 4.20193 9.78764
4560 4 1.27548 27.4836 60.8293 -14.6891 1.65055 9.30608 0.82873 -0.0450086 0.20606
4561 4 11.7765 24.8376 31.0292 -4.47522 8.3681 -9.29308 2.49167 0.527422 3.75046
4562 4 7.26559 29.4781 24.9074 -3.55149 -14.4052 -9.29314 4.03024 -0.721172 -1.07836
4563 4 11.6227 17.3713 43.2394 16.3643 -16.3065 0.59543 -2.27716 4.52321 2.47612
4564 4 17.1857 26.4022 34.3938 -2.26203 10.6976 -0.88666 0.175523 -5.46411 2.95762
4565 4 22.828 24.7737 51.455 22.2031 -7.08935 32.4527 -2.03144 0.310307 -2.32494
4566 4 17.9692 29.5757 53.9356 6.33524 4.64751 -1.16228 -1.11898 -0.266795 -1.18757
4567 4 10.818 20.2944 31.3692 21.3012 2.12092 -4.9822 -0.472478 -2.02054 -0.27071
4568 4 28.7636 0.975648 40.3225 -0.623215 0.614397 -0.546576 0.641591 -1.1198 0.678998
4569 4 1.93316 26.8454 47.9679 -0.750379 -0.565894 0.351286 2.30606 -1.93932 -1.94255
4570 4 32.961 2.72152 62.4443 8.57432 11.7367 14.7371 -0.977736 -2.4958 -2.68527
4571 4 11.5468 17.8091 25.1079 -6.0912 -1.58655 4.89471 -1.5901 1.60434 5.77144
4572 4 15.6319 30.1291 51.6243 20.1294 -0.0849566 13.9894 2.3347 5.04606 -0.293403
4573 4 14.9573 19.8032 31.6954 17.9343 5.00894 -1.86528 -2.34965 2.2714 0.0133801
4574 4 10.3515 16.2158 51.4346 11.1868 0.364526 0.945632 0.203672 -0.0789621 1.33423
4575 4 13.3763 8.03187 53.8291 8.7493 -39.7615 11.223 -0.400903 2.67986 -0.713117
4576 4 13.7 31.5474 63.7005 10.2953 7.57464 22.5636 -1.28656 0.193734 -0.532614
4577 4 12.2317 21.5562 24.5834 -11.4927 -8.30281 4.95103 -5.70833 6.11162 -4.07625
4578 4 4.07847 27.7408 38.6459 4.11712 7.81067 -9.64681 -0.794608 6.05964 -4.11882
4579 4 8.41179 17.4261 26.6782 -2.3853 -6.70853 -11.1628 1.8483 -5.72685 2.22031
4580 4 8.38014 27.9507 50.2735 -2.59817 4.80827 13.704 -0.00464538 0.0242988 -0.000384453
4581 4 11.0901 17.2663 30.4772 1.39219 8.15327 -3.30911 -2.20157 3.12106 -2.71875
4582 4 7.0853 27.4787 35.6286 0.0586355 -19.6441 -21.9154 1.82726 -0.326093 0.0630174
4583 4 10.611 17.1863 47.2127 6.40227 13.0766 -5.20127 -6.10813 -2.18906 4.47857
4584 4 16.3721 30.8032 67.5562 13.45 10.8828 14.4365 -0.0312874 0.00432216 -0.0129943
4585 4 10.8648 31.2465 36.1754 6.96641 7.04296 3.14806 3.29342 -2.40331 -0.202631
4586 4 9.18505 22.2082 23.3505 -5.81437 -4.71337 2.84343 0.78966 -1.41546 -3.53861
4587 4 17.1143 21.7091 30.5678 -2.59519 4.37268 -11.7424 0.276625 5.37682 1.44903
4588 4 5.61125 19.473 37.6405 7.06519 -2.62987 -6.89639 -2.58404 -3.4372 -0.639852
4589 4 29.1264 0.65519 32.9087 1.5298 -4.67362 8.16557 -5.87063 -2.67208 1.86256
4590 4 13.6994 21.1266 34.4375 -11.3873 -0.936338 2.07857 -0.964879 0.588177 -1.23253
4591 4 15.9986 26.0209 37.5522 -10.38 0.190058 4.46623 1.93851 1.96809 -2.29501
4592 4 8.04134 24.4244 29.1239 0.365126 15.0185 -5.84665 -2.61198 0.10069 -1.66994
4593 4 2.71182 20.6081 47.6848 -1.50196 -1.61617 8.10422 0.238266 1.24093 -1.87949
4594 4 15.725 30.729 62.4835 5.93043 5.86737 16.7105 -0.203675 -1.0553 -1.76662
4595 4 7.79233 31.9887 43.2634 1.92999 0.296477 0.118696 0.470155 1.31244 -0.166542
4596 4 3.44665 29.1916 40.4193 -1.26976 3.05637 0.903855 3.07389 -1.60672 2.15649
4597 4 8.0425 27.1353 29.158 13.6325 1.33992 -8.98487 -1.36893 -0.167308 -1.06293
4598 4 16.2979 30.439 72.3942 8.31775 16.1405 35.1129 0.32107 -1.41815 -0.728843
4599 4 3.12138 26.1861 36.8384 3.67904 -1.15378 -1.82319 -2.00391 0.71908 1.81202
4600 4 -0.172736 25.0012 53.3552 -16.6317 -2.67721 7.80398 1.97707 -1.21611 -0.978538
4601 4 10.8618 29.2481 37.8015 7.22192 4.6662 14.8869 1.44756 1.68316 6.00803
4602 4 10.4887 23.3895 24.8115 -8.39537 -6.54184 -1.23542 -4.15452 -1.13928 3.55765
4603 4 6.86168 30.7163 29.9548 -2.07298 7.60107 -12.5444 -4.15241 -9.47121 0.990065
4604 4 12.133 18.583 37.3543 -10.3312 -3.57633 -0.704208 1.15213 0.4954 1.75792
4605 4 13.266 26.0033 29.3621 7.11752 -10.2414 -8.70878 1.76596 -3.63996 -0.616056
4606 4 4.59202 20.2276 42.4773 7.68924 -6.31867 -4.48223 -0.143935 -0.0563113 2.07423
4607 4 14.4614 22.7921 32.3779 -6.4367 -3.42274 1.17913 -1.67888 0.276266 -1.29163
4608 4 4.4588 22.0201 28.6548 1.23618 -11.2907 3.74479 3.39723 0.707354 5.66668
4609 4 14.8841 27.8367 34.5611 7.46256 2.27664 5.43755 0.603707 -0.196211 0.0808716
4610 4 17.2445 26.1649 39.6123 2.40652 -4.85681 -13.2904 -6.19913 -1.29998 0.789231
4611 4 8.70517 32.3032 64.0117 -1.96282 6.57338 13.1141 0.08273 -0.447515 -0.904002
4612 4 14.4471 20.197 37.148 7.47276 -3.16461 5.99886 0.286708 -1.45673 0.497706
4613 4 3.81671 25.7596 39.5374 -19.912 7.06845 -8.32097 -0.662844 -4.80947 2.96366
4614 4 13.3657 30.611 30.0861 -1.64773 8.92813 -3.03015 2.92302 -2.65311 -3.92519
4615 4 14.6211 23.7791 24.0069 -0.345558 -2.32686 2.17812 -1.61621 1.85967 -0.910626
4616 4 3.36275 26.8772 34.6359 11.0966 -4.25085 4.5201 6.44246 -1.85742 -0.434779
4617 4 7.12924 19.6801 40.0608 -11.7549 13.8754 1.1509 -1.1045 -0.563981 -0.188267
4618 4 9.99057 30.5927 32.4789 -7.51817 -16.2506 -10.1442 -1.57126 -1.08203 -0.113166
4619 4 8.26518 30.5494 36.5886 14.9908 19.7515 7.70271 -2.24135 1.11129 -3.729
4620 4 9.46032 17.3011 32.8903 -5.06918 5.48723 2.70189 -1.28451 1.97084 -3.73167
4621 4 1.86187 23.0468 39.3802 -3.74871 4.62614 -5.21183 8.31884 2.98781 8.36064
4622 4 9.62224 19.4113 23.8725 -7.58252 -0.099598 4.96724 3.33766 2.0434 0.158673
4623 4 2.35335 23.5184 35.8971 -0.194917 -4.1728 8.94811 8.31057 1.08068 -2.11688
4624 4 11.7785 18.2544 35.0434 -2.15632 -7.40669 -2.393 0.238971 -3.15574 -0.236285
4625 4 26.1012 2.94155 56.426 -6.03693 29.783 6.64008 1.90422 -2.38566 -0.408998
4626 4 10.3399 24.3486 29.3542 -7.45199 4.759 4.68978 -0.703731 1.56667 -4.79572
4627 4 15.6635 25.2881 31.9773 8.43381 -2.57127 4.56035 -11.9975 9.44816 2.71872
4628 4 16.1356 21.3652 45.3209 6.83546 -3.8048 4.59814 3.19703 -2.9802 0.792765
4629 4 20.7768 28.3803 59.0208 35.6163 -1.56015 19.8828 -0.886258 0.193465 0.880304
4630 4 11.9691 21.0786 36.4167 -1.56807 -3.59247 -0.993377 0.135258 -0.160576 -0.125201
4631 4 6.43794 21.5938 38.3443 14.5124 -22.5922 5.61906 0.324417 1.48955 0.43612
4632 4 10.3369 27.289 28.2113 -1.35426 -2.69054 2.65327 3.51531 2.95606 1.05493
4633 4 12.0266 27.6412 24.0088 -6.16149 5.21642 4.93967 -1.5403 -1.24146 2.90276
4634 4 7.2754 18.3726 30.7611 7.88517 5.02684 1.82994 2.77539 -0.210549 1.85695
4635 4 15.2792 27.1134 40.2988 24.965 -42.4441 -44.4997 24.0529 14.449 6.61537
