49
Lattice="28.0 0.0 0.0 0.0 28.0 0.0 0.0 0.0 28.0" Properties=species:S:1:pos:R:3:lammps_id:I:1:lammps_type:I:1:central_pair:I:1 source_config_type=AgTi_registry_probe_v13_01_periodic_PW_PBE_energy_force_v14_train source_dataset_path=research/mace-v12-transfer/periodic_interface_v4/mace_periodic_v14_interface_energy/data/train.extxyz source_dataset_sha256=3323cdbd3081fc8d91673662c5f83c8da93ba3b4d7a23428f6b70d0e7a4c9faf source_frame_geometry_sha256=18dc1be733a506b748386175293d2f094e720e3e1c9dc96e259623088c005b7c proposal_mode=transverse_Ag proposal_sign=1 proposal_displacement_A="_JSON [0.015632014538605056, 0.14918324343392203, 0.0]" candidate_role=proposed_training_acquisition_geometry_unassigned config_type=AgTi_transverse_Ag_p proposal_only_no_DFT_label=T pbc="T T T"
C       13.89902107      12.90667166       9.57093308   478831        3        0
Ti      12.62304525      14.70227784       8.74620905   478840        1        0
Si      16.74663914      14.99666412       9.05588053   478841        2        0
C       13.77615718      16.76659830       9.46205532   478844        3        0
Ti      12.49439364      12.82858132      11.26096292   479021        1        0
Ti      12.74652762      14.24815681      13.89771094   479027        1        1
Ti      13.27333691      17.52276133      13.67525409   479028        1        0
C       12.19406070      16.00730532      12.98699267   479030        3        0
C       11.92979276      17.83928667      10.04608242   479031        3        0
C       11.14030857      11.60980287      10.51944505   480798        3        0
Ti       9.67365027      11.73672021      12.52949502   480801        1        0
C       10.41266283       9.58775109      13.76894219   480802        3        0
C       11.34811906      12.99570560      13.31832051   480805        3        0
C       11.26779912      14.20441406      10.34350882   480807        3        0
Ti      10.63277880      14.68120764      12.23793466   480810        1        0
Ti      11.15181567      17.42898892      11.87855887   480811        1        0
Ti      10.57490139      16.47263116      14.34546801   480812        1        0
C       11.98467917      18.76062403      12.89743879   480813        3        0
C       10.74527181       9.34898918      15.92141080   480974        3        0
C       10.58950093      11.90905331      16.64358691   480975        3        0
Ti       9.93014220      13.54071165      15.28648610   480980        1        0
Ag      13.19484588      12.08395473      14.08448967   682693        4        0
Ag      19.28667192      16.21091004      16.14325276   685396        4        0
Ag      17.24624976      16.19662448      14.08084112   685467        4        0
Ag      15.23591751      12.07237670      16.13660310   686309        4        0
Ag      17.25638918      14.14729811      16.15267925   686324        4        0
Ag      15.22106833      10.02965731      14.08505358   686418        4        0
Ag      19.28363172      14.15349963      14.08329543   686622        4        0
Ag      17.25550346      16.19148526      18.18247801   686899        4        0
Ag      17.25215808      10.04096072      16.14439265   687243        4        0
Ag      15.32821105      14.12845896      14.09960194   687247        4        1
Ag      15.23782893      16.20056235      16.15723208   688096        4        0
Ag      17.26736123      10.03171645      12.04485225   688280        4        0
Ag      15.22438804      14.13646930      18.19713620   688689        4        0
Ag      17.22837001      18.24499463      16.15000652   688707        4        0
Ag      17.26706936      12.08156327      14.08784430   689682        4        0
Ag      13.19733788      16.19094794      18.17151177   690927        4        0
Ag      15.22197850      18.24495998      18.20004601   691757        4        0
Ag      13.19180825      12.10716911      18.19172182   694331        4        0
Ag      17.25523549      12.08091219      18.18219469   696686        4        0
Ag      13.19227916      10.03223303      16.15300997   700223        4        0
Ag      11.17225277      14.13731506      18.20237906   701905        4        0
Ag      17.23709047      18.24900462      12.03659182   703736        4        0
Ag      15.21929733      16.20354693      12.04745982   704767        4        0
Ag      17.25961354      14.13605014      12.02973371   716228        4        0
Ag      15.23161483      12.10203893      12.02298661   720990        4        0
Ag      13.19139481      18.25021570      16.12750949   721910        4        0
Ag      17.26128534      12.08578892       9.97615916   728014        4        0
Ag      13.19115107      10.03331131      12.01790751   741114        4        0
