51
Lattice="27.86 0.0 0.0 0.0 27.86 0.0 0.0 0.0 27.86" Properties=species:S:1:pos:R:3:lammps_id:I:1:lammps_type:I:1:central_pair:I:1:PW_PBE_forces:R:3:magmoms:R:1:forces:R:3 config_type=AgSi_registry_strain_acq_v14_01 dataset_role=acquisition geometry_family=AgSi_existing_cluster_motif correlation_note="Derived from an existing motif; not an independent material morphology." PW_PBE_energy_eV=-208.69345818474375 source_method="GPAW 26.7.0 PW-PBE 500 eV Gamma single point" free_energy=-209.63157219201307 energy=-208.69345818474375 dipole="-0.5085468581899589 -0.3139973324146975 2.41068578762849" magmom=0.0 pbc="T T T"
C       18.59997229      12.48568832      11.10844207   365143        3        0      -2.24518689      -0.55872276      -0.49419008       0.00000000      -2.24518689      -0.55872276      -0.49419008
Ti      17.68639525      11.50950205      17.41787882   365320        1        0      -4.04321274      -0.31854328      -2.56184931       0.00000000      -4.04321274      -0.31854328      -2.56184931
C       16.41880913      11.23745333       9.78030353   366772        3        0       1.21181821       1.34473881       1.33526023       0.00000000       1.21181821       1.34473881       1.33526023
C       16.47896696      14.68517760       9.59220696   366778        3        0      -1.11411011       0.75533704       0.28319699       0.00000000      -1.11411011       0.75533704       0.28319699
Si      13.03247546      10.81256428      11.54588199   366929        2        0       0.81914801       0.94659503      -0.60174770       0.00000000       0.81914801       0.94659503      -0.60174770
C       16.85595198      10.57457416      13.54804023   366931        3        0      -1.50033687       1.22157975       1.21553964       0.00000000      -1.50033687       1.22157975       1.21553964
Si      13.24756583      10.09299501      13.89543918   366933        2        0       0.32493900       0.72132685       1.34107991       0.00000000       0.32493900       0.72132685       1.34107991
Si      13.57862136      12.84027175      14.30526025   366934        2        1      -0.90814267      -0.57045803       0.14788249       0.00000000      -0.90814267      -0.57045803       0.14788249
Ti      15.29981075      11.23489767      15.30672895   366935        1        0       2.18273235      -2.22988339       0.50403447       0.00000000       2.18273235      -2.22988339       0.50403447
Si      14.07452393      13.07440001      11.84527460   366936        2        0      -0.25875206      -0.23159753      -0.69095066       0.00000000      -0.25875206      -0.23159753      -0.69095066
C       16.32293638       9.78228197      16.33324608   367109        3        0      -0.09671641       1.82273354       2.85619241       0.00000000      -0.09671641       1.82273354       2.85619241
Si      13.15366079      10.13595433      16.63871231   367110        2        0      -0.14185762       0.12412498      -0.51689420       0.00000000      -0.14185762       0.12412498      -0.51689420
C       16.48100250      12.76445334      16.24568078   367111        3        0       0.13876466       0.02655213       1.01961467       0.00000000       0.13876466       0.02655213       1.01961467
Ti      15.25461263       9.99188169      18.18059921   367112        1        0       0.98901642       0.43380148      -2.96141817       0.00000000       0.98901642       0.43380148      -2.96141817
Ti      15.21048961      12.94153364      18.03487212   367113        1        0       0.03484746       0.79037672       0.47396310       0.00000000       0.03484746       0.79037672       0.47396310
Si      13.17741765      13.14324215      19.70608455   367115        2        0      -0.25253769       0.46181548      -1.09524741       0.00000000      -0.25253769       0.46181548      -1.09524741
Ti      15.40588122      14.54471635      15.86904406   367117        1        0       1.12334683       0.01086205       2.30890333       0.00000000       1.12334683       0.01086205       2.30890333
Si      12.78455653      15.18854922      16.36834406   367118        2        0       0.80218727       0.24995910       0.21535414       0.00000000       0.80218727       0.24995910       0.21535414
Si      12.95712017      18.30295279      16.70442317   367120        2        0      -0.32156007      -1.42080957      -0.12545364       0.00000000      -0.32156007      -1.42080957      -0.12545364
Ti      14.51271213      16.54892641      18.01865841   367121        1        0       0.07950903      -2.27726418      -0.30741866       0.00000000       0.07950903      -2.27726418      -0.30741866
C       15.68829271      14.87916034      18.37964165   367122        3        0      -1.37025968       0.12601407      -1.75787805       0.00000000      -1.37025968       0.12601407      -1.75787805
C        9.90649004      12.77431746      10.77224184   368645        3        0       1.38131081       0.70592770      -0.20621772       0.00000000       1.38131081       0.70592770      -0.20621772
Ti      11.05639828       9.10291227      15.13117419   368823        1        0      -0.00810855       2.49625850       1.66730054       0.00000000      -0.00810855       2.49625850       1.66730054
Ti      11.06514563      10.57972820      12.94209330   368827        1        0      -2.40336139       0.41085639      -0.96227522       0.00000000      -2.40336139       0.41085639      -0.96227522
C        9.58869661      11.96959291      13.50714254   368829        3        0       0.86263583       0.26385890       0.34156774       0.00000000       0.86263583       0.26385890       0.34156774
Ti       8.41925107      13.28695754      14.63229457   368832        1        0       0.47120257       0.31635047       0.04241111       0.00000000       0.47120257       0.31635047       0.04241111
Ti      10.95041350      12.38211774      15.00689863   368833        1        0       0.08429522      -1.06429084       1.89176892       0.00000000       0.08429522      -1.06429084       1.89176892
C        9.56136862      16.94432396      11.26681068   368838        3        0       1.47678663      -0.95646886      -0.86980215       0.00000000       1.47678663      -0.95646886      -0.86980215
C        8.74996730      15.07383077      14.18303296   368841        3        0       1.33286922       0.38419708       0.94556687       0.00000000       1.33286922       0.38419708       0.94556687
Ti      10.21724449      15.52569843      15.45789755   368844        1        0      -1.25606994      -1.67546602      -0.29704678       0.00000000      -1.25606994      -1.67546602      -0.29704678
C       10.10142178      10.76686600      15.98766623   369024        3        0       2.15993118      -0.98180702      -2.04770766       0.00000000       2.15993118      -0.98180702      -2.04770766
C        9.73645404      13.62008341      16.26033390   369026        3        0       1.19299925       0.69245553      -0.08721865       0.00000000       1.19299925       0.69245553      -0.08721865
Ti      11.11186787      13.46402473      17.97657710   369031        1        0      -0.08595758       0.94992743      -1.98309485       0.00000000      -0.08595758       0.94992743      -1.98309485
Ti      11.68602437      16.29832535      18.34290273   369042        1        0       0.79789770      -0.11468269      -0.75844385       0.00000000       0.79789770      -0.11468269      -0.75844385
Ag      14.09197856      15.15232698      13.71795822   683609        4        1      -0.50447538       1.08286093      -0.86334293       0.00000000      -0.50447538       1.08286093      -0.86334293
Ag      16.12538059      13.12050930      13.71829332   685172        4        0       1.17306389      -0.27476843      -1.65075996       0.00000000       1.17306389      -0.27476843      -1.65075996
Ag      12.08854379      17.19725852      13.71397964   696217        4        0      -0.07827636       0.02260401       0.35290931       0.00000000      -0.07827636       0.02260401       0.35290931
Ag      12.08619018      17.19660466       9.63054985   700029        4        0      -0.35466505      -0.09393471       0.44821008       0.00000000      -0.35466505      -0.09393471       0.44821008
Ag      16.13567093      17.19679278      13.71503183   701518        4        0       0.04841787      -0.09989123       0.21907666       0.00000000       0.04841787      -0.09989123       0.21907666
Ag      16.11715484      17.19075927       9.63473704   703887        4        0       0.17403831      -1.10901811       0.48259760       0.00000000       0.17403831      -1.10901811       0.48259760
Ag      10.05728489      15.15219953       9.63702147   707313        4        0      -0.17631212       0.08347908       1.59030633       0.00000000      -0.17631212       0.08347908       1.59030633
Ag      14.12054979      15.14317032       9.63909963   710704        4        0       1.13192687      -0.46708992       0.32714505       0.00000000       1.13192687      -0.46708992       0.32714505
Ag      18.13107594      17.19899850      11.67442682   714846        4        0      -0.51117894      -0.27863644      -0.02477357       0.00000000      -0.51117894      -0.27863644      -0.02477357
Ag      12.07877319      19.23307260      11.68116928   729574        4        0       0.04098488      -0.45881935       0.09875274       0.00000000       0.04098488      -0.45881935       0.09875274
Ag      12.09901372      15.14556080      11.67845050   730721        4        0      -0.44775113      -0.15147591       0.05121029       0.00000000      -0.44775113      -0.15147591       0.05121029
Ag      12.08780489      13.12467486       9.61141820   735549        4        0      -0.69538407      -0.34975819       0.95258399       0.00000000      -0.69538407      -0.34975819       0.95258399
Ag      14.11516063      17.18751707      11.67590227   737082        4        0       0.17319479       0.31310942       0.00202513       0.00000000       0.17319479       0.31310942       0.00202513
Ag      16.13201046      19.24623853      15.76315800   737200        4        0      -0.30570747      -0.68916645      -0.08254916       0.00000000      -0.30570747      -0.68916645      -0.08254916
Ag      14.10514044      19.25766994      13.71347117   744883        4        0      -0.08007266      -0.42217334       0.20005045       0.00000000      -0.08007266      -0.42217334       0.20005045
Ag      18.14419536      15.16383374      13.70696502   752169        4        0      -0.43520778       0.13174916       0.01450101       0.00000000      -0.43520778       0.13174916       0.01450101
Ag      18.14428412      17.20305253      15.76426284   755982        4        0      -0.61883776      -0.09048026      -0.38323823       0.00000000      -0.61883776      -0.09048026      -0.38323823
