32
Lattice="8.18 0.0 0.0 0.0 8.18 0.0 0.0 0.0 8.18" Properties=species:S:1:pos:R:3:local_new_id:I:1 proposal_role=pure_phase_numerical_stability_control_NOT_VALIDATED phase=Ag case=displacement_m01 identity_note="Local new IDs only; not historical lammps identities" pbc="T T T"
Ag      -0.01000000       0.00000000       0.00000000        1
Ag       0.00000000       2.04500000       2.04500000        2
Ag       2.04500000       0.00000000       2.04500000        3
Ag       2.04500000       2.04500000       0.00000000        4
Ag       0.00000000       0.00000000       4.09000000        5
Ag       0.00000000       2.04500000       6.13500000        6
Ag       2.04500000       0.00000000       6.13500000        7
Ag       2.04500000       2.04500000       4.09000000        8
Ag       0.00000000       4.09000000       0.00000000        9
Ag       0.00000000       6.13500000       2.04500000       10
Ag       2.04500000       4.09000000       2.04500000       11
Ag       2.04500000       6.13500000       0.00000000       12
Ag       0.00000000       4.09000000       4.09000000       13
Ag       0.00000000       6.13500000       6.13500000       14
Ag       2.04500000       4.09000000       6.13500000       15
Ag       2.04500000       6.13500000       4.09000000       16
Ag       4.09000000       0.00000000       0.00000000       17
Ag       4.09000000       2.04500000       2.04500000       18
Ag       6.13500000       0.00000000       2.04500000       19
Ag       6.13500000       2.04500000       0.00000000       20
Ag       4.09000000       0.00000000       4.09000000       21
Ag       4.09000000       2.04500000       6.13500000       22
Ag       6.13500000       0.00000000       6.13500000       23
Ag       6.13500000       2.04500000       4.09000000       24
Ag       4.09000000       4.09000000       0.00000000       25
Ag       4.09000000       6.13500000       2.04500000       26
Ag       6.13500000       4.09000000       2.04500000       27
Ag       6.13500000       6.13500000       0.00000000       28
Ag       4.09000000       4.09000000       4.09000000       29
Ag       4.09000000       6.13500000       6.13500000       30
Ag       6.13500000       4.09000000       6.13500000       31
Ag       6.13500000       6.13500000       4.09000000       32
