32
Lattice="8.234173764201724 0.0 0.0 0.0 8.234173764201724 0.0 0.0 0.0 8.234173764201724" Properties=species:S:1:pos:R:3:local_new_id:I:1 proposal_role=pure_phase_numerical_stability_control_NOT_VALIDATED phase=Ag case=volume_p02 identity_note="Local new IDs only; not historical lammps identities" pbc="T T T"
Ag       0.00000000       0.00000000       0.00000000        1
Ag       0.00000000       2.05854344       2.05854344        2
Ag       2.05854344       0.00000000       2.05854344        3
Ag       2.05854344       2.05854344       0.00000000        4
Ag       0.00000000       0.00000000       4.11708688        5
Ag       0.00000000       2.05854344       6.17563032        6
Ag       2.05854344       0.00000000       6.17563032        7
Ag       2.05854344       2.05854344       4.11708688        8
Ag       0.00000000       4.11708688       0.00000000        9
Ag       0.00000000       6.17563032       2.05854344       10
Ag       2.05854344       4.11708688       2.05854344       11
Ag       2.05854344       6.17563032       0.00000000       12
Ag       0.00000000       4.11708688       4.11708688       13
Ag       0.00000000       6.17563032       6.17563032       14
Ag       2.05854344       4.11708688       6.17563032       15
Ag       2.05854344       6.17563032       4.11708688       16
Ag       4.11708688       0.00000000       0.00000000       17
Ag       4.11708688       2.05854344       2.05854344       18
Ag       6.17563032       0.00000000       2.05854344       19
Ag       6.17563032       2.05854344       0.00000000       20
Ag       4.11708688       0.00000000       4.11708688       21
Ag       4.11708688       2.05854344       6.17563032       22
Ag       6.17563032       0.00000000       6.17563032       23
Ag       6.17563032       2.05854344       4.11708688       24
Ag       4.11708688       4.11708688       0.00000000       25
Ag       4.11708688       6.17563032       2.05854344       26
Ag       6.17563032       4.11708688       2.05854344       27
Ag       6.17563032       6.17563032       0.00000000       28
Ag       4.11708688       4.11708688       4.11708688       29
Ag       4.11708688       6.17563032       6.17563032       30
Ag       6.17563032       4.11708688       6.17563032       31
Ag       6.17563032       6.17563032       4.11708688       32
