48
Lattice="6.1150000000000002 0 0 -3.0574999999999988 5.2957453441418432 0 0 0 17.6235" Properties=species:S:1:pos:R:3:PW_PBE_forces:R:3:local_new_id:I:1 pbc="T T T" PW_PBE_energy_eV=-389.80690198274016 config_type=Ti3SiC2_Ti4f_id0003_z_m020A_k10x10x4_v19
Ti 0 0 0 -0.026981689209249145 -0.015577485459197151 -0.042785781606843862 1
Ti 0 0 8.81175 -0.0011243094824951217 -0.00064185058584196447 -0.00054164555462591789 2
Ti 1.5287652899999999 0.88261540000000005 2.3679842500000001 0.00068543807144989376 -0.00039381885810508757 0.30827443571622731 3
Ti 0 1.7652308000000001 11.199734250000001 -0.0012774183225750964 0.0010680809537589086 -0.04347294571420373 4
Ti 1.5287500000000001 0.88264187999999999 6.4237657500000003 0.0010453617588522851 -0.00093446339610043312 0.060625134391299219 5
Ti -1.5290000000000001e-05 1.76525727 15.235515749999999 -0.0022349974677655974 0.0012870399473755138 0.051745696582102443 6
Si 0 0 4.405875 0.025033829215688995 0.015176286477988313 -0.031156431732968538 7
Si 0 0 13.217625 0.00088593850119375616 -0.0002353813832095577 -0.002280401763191788 8
C -1.5290000000000001e-05 1.76525727 1.2724167 -0.030234073243687432 0.017461497310651868 0.034190110120713546 9
C 1.5287500000000001 0.88264187999999999 10.084166700000001 0.00054655328549213988 -0.00074207325528747518 0.087757541924851926 10
C 0 1.7652308000000001 7.5393333 -0.00051362115572980266 0.00072318520195935722 -0.089292474441837646 11
C 1.5287652899999999 0.88261540000000005 16.351083299999999 0.00017879290949974282 -0.00010931527309960592 -0.097338879807645592 12
Ti -1.5287500000000001 2.6478726699999999 0 3.0334782205944505e-05 -1.7529516521184535e-05 -0.013223339104662798 13
Ti -1.5287500000000001 2.6478726699999999 8.81175 1.3316993057050968e-05 -7.6173305190043514e-06 -3.0574766488157831e-05 14
Ti 1.5290000000000001e-05 3.5304880700000001 2.3879842500000001 0.012942862141135906 0.0066130163789812598 -0.034776729661721274 15
Ti -1.5287500000000001 4.4131034700000003 11.199734250000001 -0.0010540783506769794 0.00067363305358505955 -0.043528965890739874 16
Ti 0 3.5305145499999999 6.4237657500000003 6.6318931193033812e-05 -0.0015040306754078943 0.040161185007593171 17
Ti -1.5287652899999999 4.4131299500000001 15.235515749999999 -0.00075378865208868559 -0.0013271702828701825 0.051836140081833758 18
Si -1.5287500000000001 2.6478726699999999 4.405875 -0.00070064050480393833 0.00041471695772445734 -0.0047208112808765574 19
Si -1.5287500000000001 2.6478726699999999 13.217625 0.00068161199207396762 -0.00040350376972820158 -0.0023349781804169918 20
C -1.5287652899999999 4.4131299500000001 1.2724167 -0.00016019856662460128 -0.034652518244199439 0.034196197543358252 21
C 0 3.5305145499999999 10.084166700000001 0.00046779807083883947 -0.00075950856786943788 0.087535774145321349 22
C -1.5287500000000001 4.4131034700000003 7.5393333 -0.00053133994910916716 0.00076446291053714681 -0.089292066804673817 23
C 1.5290000000000001e-05 3.5304880700000001 16.351083299999999 -0.0017389416506837115 -0.0011645796752217778 -0.085791577623597612 24
Ti 3.0575000000000001 0 0 0.026998431132721545 -0.015587700512065183 -0.042837494162945931 25
Ti 3.0575000000000001 0 8.81175 0.0011226916688900175 -0.00064818859222497182 -0.00052770017544656839 26
Ti 4.58626529 0.88261540000000005 2.3879842500000001 0.00074711749721834933 -0.014510249101911009 -0.034776930609569247 27
Ti 3.0575000000000001 1.7652308000000001 11.199734250000001 -0.00082421493524863936 0.0010718607778190323 -0.04352893646437693 28
Ti 4.5862499999999997 0.88264187999999999 6.4237657500000003 0.001049479061809607 0.0001984629037864571 0.040161253791854923 29
Ti 3.0574847100000002 1.76525727 15.235515749999999 0.00076954070577576561 0.0013113877066313095 0.051836116487908444 30
Si 3.0575000000000001 0 4.405875 -0.026348972790291025 0.015222771675867421 -0.031131639039193526 31
Si 3.0575000000000001 0 13.217625 0.00044557282755109702 -0.00026728768880921534 -0.0022756386453494804 32
C 3.0574847100000002 1.76525727 1.2724167 0.029936600591606979 0.017474729407687076 0.034194792564732623 33
C 4.5862499999999997 0.88264187999999999 10.084166700000001 0.0005223540292276941 -0.00066516025535725014 0.087535729012025373 34
C 3.0575000000000001 1.7652308000000001 7.5393333 -0.00055828025317567094 0.00071784655878866601 -0.08929212622754619 35
C 4.58626529 0.88261540000000005 16.351083299999999 0.0001339133661538659 0.002079344046957182 -0.085791605551698277 36
Ti 1.5287500000000001 2.6478726699999999 0 -4.8742186090219552e-07 0.031155739527775839 -0.042785987933360782 37
Ti 1.5287500000000001 2.6478726699999999 8.81175 -6.2960864051785252e-06 0.0012947352132090144 -0.00054162788560454839 38
Ti 3.05751529 3.5304880700000001 2.3879842500000001 -0.011475637542288095 0.0066286184904921696 -0.034722535846307738 39
Ti 1.5287500000000001 4.4131034700000003 11.199734250000001 -0.0010389441409900816 0.0009304003462158835 -0.043104247673467516 40
Ti 3.0575000000000001 3.5305145499999999 6.4237657500000003 0.0020252321544434958 -0.0014997615765473078 0.040101799312956952 41
Ti 1.5287347099999999 4.4131299500000001 15.235515749999999 -0.00071828790045659998 0.00041132216818631155 0.049146172578771345 42
Si 1.5287500000000001 2.6478726699999999 4.405875 -0.00061731360442175557 -0.029253275826276192 -0.031156419771326629 43
Si 1.5287500000000001 2.6478726699999999 13.217625 0.00063812555874623908 -0.0006645244327727921 -0.0022803628340014228 44
C 1.5287347099999999 4.4131299500000001 1.2724167 -0.00016848395193298557 0.00010330605027247048 0.089740982175230882 45
C 3.0575000000000001 3.5305145499999999 10.084166700000001 0.00059357433767060852 -0.00076917107555441811 0.087562582347840326 46
C 1.5287500000000001 4.4131034700000003 7.5393333 -0.00053077295855703929 0.00073298266598239865 -0.085341292069598701 47
C 3.05751529 3.5304880700000001 16.351083299999999 0.0020283587587600418 -0.0011770594035980699 -0.085838566105525788 48
