52
Lattice="6.1150000000000002 0 0 -3.0574999999999988 5.2957453441418432 0 0 0 34.205876500000002" Properties=species:S:1:pos:R:3:PW_PBE_forces:R:3:lammps_id:I:1:central_pair:I:1 pbc="T T T" PW_PBE_energy_eV=-390.1118882487292 config_type=AgSi_COD9009647_pilot_k3x3
Ti 0 0 10.388251500000001 -5.0131455336074514e-05 -3.0290035334780701e-05 0.19728397234325445 19101000 0
Ti 0 0 19.200001499999999 -0.00020519225711035477 -0.0001385992605140214 0.035935250909949389 19101001 0
Ti 1.5287652899999999 0.88261540000000005 12.77623575 -0.00037339855357848133 0.00014823554939764479 -0.16431207739369727 19101002 0
Ti 0 1.7652308000000001 21.587985750000001 0.0092643063123206641 0.0073827010054775708 -0.0080361075098941241 19101003 0
Ti 1.5287500000000001 0.88264187999999999 16.81201725 -0.00035504091044997397 -0.00068773616110553396 -0.19463744529822979 19101004 0
Ti -1.5290000000000001e-05 1.76525727 8.0002672500000003 0.00018044945165475841 -0.00013824766114073922 0.49408478056825283 19101005 0
Si 0 0 14.794126500000001 -3.1804541664408797e-05 -2.0758036901064544e-06 0.10722299929120567 19101006 0
Si 0 0 23.605876500000001 0.040784160790424948 0.020362886368701674 0.94786673131793486 19101007 1
C -1.5290000000000001e-05 1.76525727 11.6606682 0.00042517204949419989 -9.1793490408761242e-05 0.14182236426314748 19101008 0
C 1.5287500000000001 0.88264187999999999 20.4724182 -0.0018865548314417359 -0.0016394229390550726 -0.0059275970476551591 19101009 0
C 0 1.7652308000000001 17.927584800000002 0.00092534895864670747 0.0010423432658579115 -0.042108061271626328 19101010 0
C 1.5287652899999999 0.88261540000000005 9.1158348 -0.00026667276184995359 0.00014898894148382809 -0.8544197623777019 19101011 0
Ti -1.5287500000000001 2.6478726699999999 10.388251500000001 -5.2694810914636297e-05 -2.6512887594629671e-05 0.19728551086861287 19101012 0
Ti -1.5287500000000001 2.6478726699999999 19.200001499999999 -0.00020471079813345989 -0.00013725910247710629 0.035932624976542989 19101013 0
Ti 1.5290000000000001e-05 3.5304880700000001 12.77623575 -0.00037252340326165631 0.000147876391671914 -0.16430727086250002 19101014 0
Ti -1.5287500000000001 4.4131034700000003 21.587985750000001 0.0092644011242377557 0.0073813105576988362 -0.0080344891236563826 19101015 0
Ti 0 3.5305145499999999 16.81201725 -0.00035324633895333609 -0.00068851429334789772 -0.19463985642924711 19101016 0
Ti -1.5287652899999999 4.4131299500000001 8.0002672500000003 0.00017900127491727075 -0.00014018619252931973 0.49408269957929529 19101017 0
Si -1.5287500000000001 2.6478726699999999 14.794126500000001 -3.2256701947796422e-05 -3.5436929119725861e-07 0.10722197008414831 19101018 0
Si -1.5287500000000001 2.6478726699999999 23.605876500000001 0.040784589955153799 0.02036544816176681 0.94786553991132461 19101019 0
C -1.5287652899999999 4.4131299500000001 11.6606682 0.00042526739451010487 -8.656314619181483e-05 0.14181943321377125 19101020 0
C 0 3.5305145499999999 20.4724182 -0.0018875151830391626 -0.001639294428478487 -0.0059281127267345659 19101021 0
C -1.5287500000000001 4.4131034700000003 17.927584800000002 0.00092597768951597733 0.001042378984685018 -0.042110011200103638 19101022 0
C 1.5290000000000001e-05 3.5304880700000001 9.1158348 -0.00026764350384132963 0.00014758244577153801 -0.85441969767758963 19101023 0
Ti 3.0575000000000001 0 10.388251500000001 -5.0178907921705462e-05 -3.0248638723360009e-05 0.19728397484508217 19101024 0
Ti 3.0575000000000001 0 19.200001499999999 -0.00020524744333810674 -0.00013886518021093925 0.035934911012853593 19101025 0
Ti 4.58626529 0.88261540000000005 12.77623575 -0.00037340030266716317 0.00014843249418748701 -0.1643119127559651 19101026 0
Ti 3.0575000000000001 1.7652308000000001 21.587985750000001 0.0092639815232586735 0.0073826766436413038 -0.0080363457166921053 19101027 0
Ti 4.5862499999999997 0.88264187999999999 16.81201725 -0.00035496600697687276 -0.00068799006894487745 -0.19463774826726737 19101028 0
Ti 3.0574847100000002 1.76525727 8.0002672500000003 0.0001802127634566829 -0.000138233957411137 0.49408474791555457 19101029 0
Si 3.0575000000000001 0 14.794126500000001 -3.1757923350320825e-05 -2.0718705785888292e-06 0.10722298380780208 19101030 0
Si 3.0575000000000001 0 23.605876500000001 0.040784430015189055 0.020362528330237103 0.94786670171871201 19101031 0
C 3.0574847100000002 1.76525727 11.6606682 0.00042543786306631527 -9.1678669085235457e-05 0.14182241840320123 19101032 0
C 4.5862499999999997 0.88264187999999999 20.4724182 -0.0018865731517325665 -0.0016394039127364498 -0.0059275545551349803 19101033 0
C 3.0575000000000001 1.7652308000000001 17.927584800000002 0.00092536717791629668 0.0010423524835767274 -0.042108105537532824 19101034 0
C 4.58626529 0.88261540000000005 9.1158348 -0.00026666767425288605 0.00014902196334151972 -0.8544199011854724 19101035 0
Ti 1.5287500000000001 2.6478726699999999 10.388251500000001 -5.2586715959373975e-05 -2.6484370705586924e-05 0.19728518347296942 19101036 0
Ti 1.5287500000000001 2.6478726699999999 19.200001499999999 -0.0002047396938522974 -0.00013719694711445681 0.035932936524412068 19101037 0
Ti 3.05751529 3.5304880700000001 12.77623575 -0.00037250326354441128 0.00014777652113491676 -0.16430753209120907 19101038 0
Ti 1.5287500000000001 4.4131034700000003 21.587985750000001 0.0092646357675845309 0.0073812848754496885 -0.008034916865419222 19101039 0
Ti 3.0575000000000001 3.5305145499999999 16.81201725 -0.00035337840657758302 -0.00068852418602216798 -0.19464026618189265 19101040 0
Ti 1.5287347099999999 4.4131299500000001 8.0002672500000003 0.00017907220748412521 -0.00014031183129620628 0.49408126679716013 19101041 0
Si 1.5287500000000001 2.6478726699999999 14.794126500000001 -3.2206420611982224e-05 -2.8860858572967292e-07 0.10722206214276715 19101042 0
Si 1.5287500000000001 2.6478726699999999 23.605876500000001 0.040784360758105313 0.020365848921570139 0.94786556801388866 19101043 0
C 1.5287347099999999 4.4131299500000001 11.6606682 0.00042527301011326081 -8.6510946599366271e-05 0.1418194992270119 19101044 0
C 3.0575000000000001 3.5305145499999999 20.4724182 -0.0018876213363528396 -0.0016393814974261563 -0.0059281356772735742 19101045 0
C 1.5287500000000001 4.4131034700000003 17.927584800000002 0.00092593293199720345 0.0010423437182295605 -0.042109972093209956 19101046 0
C 3.05751529 3.5304880700000001 9.1158348 -0.00026766656906238701 0.00014748758657003245 -0.85441953333330434 19101047 0
Ag 0.81023750000000005 0.55605325999999999 26.205876499999999 -0.048184933248528627 -0.025932504942512941 -0.6524377919530141 19101048 1
Ag -0.7185125 3.20392593 26.205876499999999 -0.048170453401328486 -0.025941636796317526 -0.65243407998359393 19101049 0
Ag 3.8677375000000001 0.55605325999999999 26.205876499999999 -0.048182520932236739 -0.025931889822718435 -0.65244141982872006 19101050 0
Ag 2.3389875 3.20392593 26.205876499999999 -0.048171394655704858 -0.025946118149108313 -0.65243113322381419 19101051 0
