32
Lattice="8.1250990169424178 0 0 0 8.1250990169424178 0 0 0 8.1250990169424178" Properties=species:S:1:pos:R:3:PW_PBE_forces:R:3:local_new_id:I:1 pbc="T T T" PW_PBE_energy_eV=-91.075607694692025 config_type=Ag_volume_m02_k6x6x6_v19
Ag 0 0 0 -1.4178445651548888e-23 -1.4178445651548888e-23 -1.4178445651548888e-23 1
Ag 0 2.0312747500000001 2.0312747500000001 -7.0892228257744438e-24 -1.2513701083145558e-05 -1.2513701083145558e-05 2
Ag 2.0312747500000001 0 2.0312747500000001 -1.2513701083145558e-05 1.7058442424519757e-23 -1.2513701083145558e-05 3
Ag 2.0312747500000001 2.0312747500000001 0 -1.2513701083145558e-05 -1.2513701083145558e-05 -1.4178445651548888e-23 4
Ag 0 0 4.0625495100000002 1.4178445651548888e-23 1.4178445651548888e-23 -2.8356891303097775e-23 5
Ag 0 2.0312747500000001 6.0938242599999999 -7.0892228257744438e-24 -1.2513701083145558e-05 1.2513701083145558e-05 6
Ag 2.0312747500000001 0 6.0938242599999999 -1.2513701083145557e-05 -1.4178445651548888e-23 1.2513701083145558e-05 7
Ag 2.0312747500000001 2.0312747500000001 4.0625495100000002 1.2575977936131847e-05 1.2575977936131843e-05 -3.5446114128872221e-23 8
Ag 0 4.0625495100000002 0 1.4178445651548888e-23 -2.8356891303097775e-23 -2.8356891303097775e-23 9
Ag 0 6.0938242599999999 2.0312747500000001 -7.0892228257744438e-24 1.2513701083145558e-05 -1.2513701083145558e-05 10
Ag 2.0312747500000001 4.0625495100000002 2.0312747500000001 1.2575977936131848e-05 -9.2159896735067765e-23 1.2575977936131847e-05 11
Ag 2.0312747500000001 6.0938242599999999 0 -1.2513701083145558e-05 1.2513701083145558e-05 -4.2535336954646666e-23 12
Ag 0 4.0625495100000002 4.0625495100000002 0 2.8356891303097775e-23 2.8356891303097775e-23 13
Ag 0 6.0938242599999999 6.0938242599999999 2.1267668477323333e-23 1.2513701083145562e-05 1.2513701083145558e-05 14
Ag 2.0312747500000001 4.0625495100000002 6.0938242599999999 1.2575977936131847e-05 -1.4178445651548888e-23 -1.2575977936131852e-05 15
Ag 2.0312747500000001 6.0938242599999999 4.0625495100000002 1.2575977936131843e-05 -1.2575977936131847e-05 4.2535336954646666e-23 16
Ag 4.0625495100000002 0 0 -2.1267668477323333e-23 2.8356891303097775e-23 2.8356891303097775e-23 17
Ag 4.0625495100000002 2.0312747500000001 2.0312747500000001 2.8356891303097775e-23 1.2575977936131848e-05 1.2575977936131852e-05 18
Ag 6.0938242599999999 0 2.0312747500000001 1.2513701083145558e-05 1.4178445651548888e-23 -1.2513701083145558e-05 19
Ag 6.0938242599999999 2.0312747500000001 0 1.2513701083145558e-05 -1.2513701083145558e-05 1.4178445651548888e-23 20
Ag 4.0625495100000002 0 4.0625495100000002 2.1267668477323333e-23 0 0 21
Ag 4.0625495100000002 2.0312747500000001 6.0938242599999999 1.134275652123911e-22 1.2575977936131847e-05 -1.2575977936131852e-05 22
Ag 6.0938242599999999 0 6.0938242599999999 1.2513701083145558e-05 2.1267668477323333e-23 1.2513701083145558e-05 23
Ag 6.0938242599999999 2.0312747500000001 4.0625495100000002 -1.2575977936131847e-05 1.2575977936131847e-05 -4.2535336954646666e-23 24
Ag 4.0625495100000002 4.0625495100000002 0 0 0 0 25
Ag 4.0625495100000002 6.0938242599999999 2.0312747500000001 -3.8990725541759443e-23 -1.2575977936131847e-05 1.2575977936131852e-05 26
Ag 6.0938242599999999 4.0625495100000002 2.0312747500000001 -1.2575977936131848e-05 -4.2535336954646666e-23 1.2575977936131852e-05 27
Ag 6.0938242599999999 6.0938242599999999 0 1.2513701083145558e-05 1.2513701083145558e-05 -7.0892228257744438e-24 28
Ag 4.0625495100000002 4.0625495100000002 4.0625495100000002 0 0 0 29
Ag 4.0625495100000002 6.0938242599999999 6.0938242599999999 6.0258394019082785e-23 -1.2575977936131847e-05 -1.2575977936131852e-05 30
Ag 6.0938242599999999 4.0625495100000002 6.0938242599999999 -1.2575977936131852e-05 -6.3803005431969996e-23 -1.2575977936131852e-05 31
Ag 6.0938242599999999 6.0938242599999999 4.0625495100000002 -1.2575977936131847e-05 -1.2575977936131848e-05 -5.6713782606195551e-23 32
