51
Lattice="27.86 0.0 0.0 0.0 27.86 0.0 0.0 0.0 27.86" Properties=species:S:1:pos:R:3:lammps_id:I:1:lammps_type:I:1:central_pair:I:1:PW_PBE_forces:R:3:magmoms:R:1:forces:R:3 source_config_type=AgSi_registry_strain_acq_v14_01_periodic_PW_PBE_energy_force_v14_train source_dataset_path=research/mace-v12-transfer/periodic_interface_v4/mace_periodic_v14_interface_energy/data/train.extxyz source_dataset_sha256=3323cdbd3081fc8d91673662c5f83c8da93ba3b4d7a23428f6b70d0e7a4c9faf source_frame_geometry_sha256=4a5540c7fd824a01df8fcb6155e62c7ff045ec36d637ac5f405247c9b5dbe4e5 proposal_mode=framework_neighbor proposal_sign=-1 proposal_displacement_A="0.03241019800115845 -0.004590769355366923 -0.022989212736662573" candidate_role=proposed_training_acquisition_geometry_unassigned config_type=AgSi_framework_neighbor_m_acq_v17_01 proposal_only_no_DFT_label=T PW_PBE_energy_eV=-208.66166442089514 source_method="GPAW 26.7.0 PW-PBE 500 eV Gamma single point" free_energy=-209.59844249338516 energy=-208.66166442089514 dipole="-0.5085648331823163 -0.31000903076834563 2.4120157891321505" magmom=0.0 pbc="T T T"
C       18.59997229      12.48568832      11.10844207   365143        3        0      -2.24806172      -0.55667389      -0.48991885       0.00000000      -2.24806172      -0.55667389      -0.48991885
Ti      17.68639525      11.50950205      17.41787882   365320        1        0      -4.04258481      -0.31936925      -2.56000174       0.00000000      -4.04258481      -0.31936925      -2.56000174
C       16.41880913      11.23745333       9.78030353   366772        3        0       1.21008866       1.34466945       1.33617499       0.00000000       1.21008866       1.34466945       1.33617499
C       16.47896696      14.68517760       9.59220696   366778        3        0      -1.11149365       0.75673591       0.28232278       0.00000000      -1.11149365       0.75673591       0.28232278
Si      13.03247546      10.81256428      11.54588199   366929        2        0       0.80905101       0.93493547      -0.61075210       0.00000000       0.80905101       0.93493547      -0.61075210
C       16.85595198      10.57457416      13.54804023   366931        3        0      -1.50022252       1.22082664       1.21983031       0.00000000      -1.50022252       1.22082664       1.21983031
Si      13.24756583      10.09299501      13.89543918   366933        2        0       0.32099757       0.72222015       1.34157935       0.00000000       0.32099757       0.72222015       1.34157935
Si      13.61103156      12.83568098      14.28227104   366934        2        1      -1.07662183      -0.58562132       0.16946011       0.00000000      -1.07662183      -0.58562132       0.16946011
Ti      15.29981075      11.23489767      15.30672895   366935        1        0       2.21704732      -2.27708066       0.53272085       0.00000000       2.21704732      -2.27708066       0.53272085
Si      14.07452393      13.07440001      11.84527460   366936        2        0      -0.26603403      -0.23129482      -0.76242385       0.00000000      -0.26603403      -0.23129482      -0.76242385
C       16.32293638       9.78228197      16.33324608   367109        3        0      -0.09630193       1.81786206       2.86221966       0.00000000      -0.09630193       1.81786206       2.86221966
Si      13.15366079      10.13595433      16.63871231   367110        2        0      -0.13987846       0.11766544      -0.51457771       0.00000000      -0.13987846       0.11766544      -0.51457771
C       16.48100250      12.76445334      16.24568078   367111        3        0       0.13999716       0.03004893       1.02766747       0.00000000       0.13999716       0.03004893       1.02766747
Ti      15.25461263       9.99188169      18.18059921   367112        1        0       0.98978227       0.43183369      -2.96052381       0.00000000       0.98978227       0.43183369      -2.96052381
Ti      15.21048961      12.94153364      18.03487212   367113        1        0       0.03763591       0.79204521       0.47634734       0.00000000       0.03763591       0.79204521       0.47634734
Si      13.17741765      13.14324215      19.70608455   367115        2        0      -0.25214495       0.46284209      -1.09576425       0.00000000      -0.25214495       0.46284209      -1.09576425
Ti      15.40588122      14.54471635      15.86904406   367117        1        0       1.12281180       0.00757264       2.31672610       0.00000000       1.12281180       0.00757264       2.31672610
Si      12.78455653      15.18854922      16.36834406   367118        2        0       0.79358812       0.25566240       0.22681634       0.00000000       0.79358812       0.25566240       0.22681634
Si      12.95712017      18.30295279      16.70442317   367120        2        0      -0.32299989      -1.42028458      -0.12428756       0.00000000      -0.32299989      -1.42028458      -0.12428756
Ti      14.51271213      16.54892641      18.01865841   367121        1        0       0.07517843      -2.27547757      -0.30895595       0.00000000       0.07517843      -2.27547757      -0.30895595
C       15.68829271      14.87916034      18.37964165   367122        3        0      -1.36831195       0.12465482      -1.75510412       0.00000000      -1.36831195       0.12465482      -1.75510412
C        9.90649004      12.77431746      10.77224184   368645        3        0       1.38338682       0.70694413      -0.20724399       0.00000000       1.38338682       0.70694413      -0.20724399
Ti      11.05639828       9.10291227      15.13117419   368823        1        0      -0.00276800       2.49496697       1.66775145       0.00000000      -0.00276800       2.49496697       1.66775145
Ti      11.06514563      10.57972820      12.94209330   368827        1        0      -2.40437473       0.39544248      -0.97003042       0.00000000      -2.40437473       0.39544248      -0.97003042
C        9.58869661      11.96959291      13.50714254   368829        3        0       0.86657754       0.26725337       0.35482622       0.00000000       0.86657754       0.26725337       0.35482622
Ti       8.41925107      13.28695754      14.63229457   368832        1        0       0.47259965       0.31610189       0.04133847       0.00000000       0.47259965       0.31610189       0.04133847
Ti      10.95041350      12.38211774      15.00689863   368833        1        0       0.14367340      -1.06174829       1.88380928       0.00000000       0.14367340      -1.06174829       1.88380928
C        9.56136862      16.94432396      11.26681068   368838        3        0       1.47626068      -0.95615007      -0.86958080       0.00000000       1.47626068      -0.95615007      -0.86958080
C        8.74996730      15.07383077      14.18303296   368841        3        0       1.33154238       0.38313658       0.94530252       0.00000000       1.33154238       0.38313658       0.94530252
Ti      10.21724449      15.52569843      15.45789755   368844        1        0      -1.25232831      -1.67249594      -0.29434192       0.00000000      -1.25232831      -1.67249594      -0.29434192
C       10.10142178      10.76686600      15.98766623   369024        3        0       2.16338554      -0.95787771      -2.06018438       0.00000000       2.16338554      -0.95787771      -2.06018438
C        9.73645404      13.62008341      16.26033390   369026        3        0       1.19521121       0.68417039      -0.09395900       0.00000000       1.19521121       0.68417039      -0.09395900
Ti      11.11186787      13.46402473      17.97657710   369031        1        0      -0.08165910       0.95384897      -1.98257427       0.00000000      -0.08165910       0.95384897      -1.98257427
Ti      11.68602437      16.29832535      18.34290273   369042        1        0       0.79732617      -0.11095128      -0.75405613       0.00000000       0.79732617      -0.11095128      -0.75405613
Ag      14.09197856      15.15232698      13.71795822   683609        4        1      -0.52019109       1.14290695      -0.85449276       0.00000000      -0.52019109       1.14290695      -0.85449276
Ag      16.12538059      13.12050930      13.71829332   685172        4        0       1.26969417      -0.27346433      -1.66609191       0.00000000       1.26969417      -0.27346433      -1.66609191
Ag      12.08854379      17.19725852      13.71397964   696217        4        0      -0.07820528       0.02237503       0.35225598       0.00000000      -0.07820528       0.02237503       0.35225598
Ag      12.08619018      17.19660466       9.63054985   700029        4        0      -0.35408644      -0.09452185       0.44748820       0.00000000      -0.35408644      -0.09452185       0.44748820
Ag      16.13567093      17.19679278      13.71503183   701518        4        0       0.05051604      -0.09867439       0.21804699       0.00000000       0.05051604      -0.09867439       0.21804699
Ag      16.11715484      17.19075927       9.63473704   703887        4        0       0.17475739      -1.10987755       0.48271465       0.00000000       0.17475739      -1.10987755       0.48271465
Ag      10.05728489      15.15219953       9.63702147   707313        4        0      -0.17465938       0.08285192       1.58975853       0.00000000      -0.17465938       0.08285192       1.58975853
Ag      14.12054979      15.14317032       9.63909963   710704        4        0       1.13074267      -0.46600454       0.32854847       0.00000000       1.13074267      -0.46600454       0.32854847
Ag      18.13107594      17.19899850      11.67442682   714846        4        0      -0.51209410      -0.27937072      -0.02530750       0.00000000      -0.51209410      -0.27937072      -0.02530750
Ag      12.07877319      19.23307260      11.68116928   729574        4        0       0.04046346      -0.45876695       0.09932142       0.00000000       0.04046346      -0.45876695       0.09932142
Ag      12.09901372      15.14556080      11.67845050   730721        4        0      -0.44744153      -0.15100440       0.05125428       0.00000000      -0.44744153      -0.15100440       0.05125428
Ag      12.08780489      13.12467486       9.61141820   735549        4        0      -0.69733732      -0.34996312       0.95507016       0.00000000      -0.69733732      -0.34996312       0.95507016
Ag      14.11516063      17.18751707      11.67590227   737082        4        0       0.17206274       0.31296423       0.00140355       0.00000000       0.17206274       0.31296423       0.00140355
Ag      16.13201046      19.24623853      15.76315800   737200        4        0      -0.30743360      -0.68966407      -0.08247585       0.00000000      -0.30743360      -0.68966407      -0.08247585
Ag      14.10514044      19.25766994      13.71347117   744883        4        0      -0.08033591      -0.42129521       0.20030723       0.00000000      -0.08033591      -0.42129521       0.20030723
Ag      18.14419536      15.16383374      13.70696502   752169        4        0      -0.43269789       0.13107409       0.01381232       0.00000000      -0.43269789       0.13107409       0.01381232
Ag      18.14428412      17.20305253      15.76426284   755982        4        0      -0.62007787      -0.09163802      -0.38300246       0.00000000      -0.62007787      -0.09163802      -0.38300246
