52
Lattice="6.1150000000000002 0 0 -3.0574999999999988 5.2957453441418432 0 0 0 34.205876500000002" Properties=species:S:1:pos:R:3:PW_PBE_forces:R:3:lammps_id:I:1:central_pair:I:1 pbc="T T T" PW_PBE_energy_eV=-389.75422846120836 config_type=AgSi_COD9009647_pilot_k2x2
Ti 0 0 10.388251500000001 -0.018576683915083964 0.010486583347594973 0.19617478822025139 19101000 0
Ti 0 0 19.200001499999999 0.02537806093905599 -0.014382073573166365 0.0088070165185739294 19101001 0
Ti 1.5287652899999999 0.88261540000000005 12.77623575 0.0017874170099126615 -0.00057195888985459866 -0.25277286159577689 19101002 0
Ti 0 1.7652308000000001 21.587985750000001 -0.070929321307989027 0.059511568476311581 -0.29575218601024472 19101003 0
Ti 1.5287500000000001 0.88264187999999999 16.81201725 0.02647488152930514 -0.01606106900862278 0.0018227905718368458 19101004 0
Ti -1.5290000000000001e-05 1.76525727 8.0002672500000003 0.0043316723253596177 -0.0028795404722669143 0.50034228028651484 19101005 0
Si 0 0 14.794126500000001 0.047327016396222395 -0.027117128352590187 0.078830834862168131 19101006 0
Si 0 0 23.605876500000001 0.0079706396776168704 0.045862083598811845 1.1508931128743398 19101007 1
C -1.5290000000000001e-05 1.76525727 11.6606682 -0.016081306622597082 0.0093301476616913445 0.12340691638650206 19101008 0
C 1.5287500000000001 0.88264187999999999 20.4724182 0.093754314760308849 -0.059964845132430049 0.098857447545341939 19101009 0
C 0 1.7652308000000001 17.927584800000002 -0.055110691993411128 0.033153234979709643 -0.063757659579386228 19101010 0
C 1.5287652899999999 0.88261540000000005 9.1158348 0.0053591989500450651 -0.0028573026192425192 -0.87223625707295871 19101011 0
Ti -1.5287500000000001 2.6478726699999999 10.388251500000001 -0.018575642607820068 0.010486019754530718 0.19617391531419881 19101012 0
Ti -1.5287500000000001 2.6478726699999999 19.200001499999999 0.025379345835946462 -0.01438075950867064 0.0088081404105475498 19101013 0
Ti 1.5290000000000001e-05 3.5304880700000001 12.77623575 0.0017863049708608184 -0.00057359959984740693 -0.25277234038475671 19101014 0
Ti -1.5287500000000001 4.4131034700000003 21.587985750000001 -0.070929916950484534 0.059511489831069242 -0.29575165739106363 19101015 0
Ti 0 3.5305145499999999 16.81201725 0.026474392797923452 -0.016060668022832389 0.0018210336520980549 19101016 0
Ti -1.5287652899999999 4.4131299500000001 8.0002672500000003 0.0043328047410477275 -0.0028796880686224528 0.50034066995407367 19101017 0
Si -1.5287500000000001 2.6478726699999999 14.794126500000001 0.047328424509312052 -0.027117764941818261 0.078831048826095984 19101018 0
Si -1.5287500000000001 2.6478726699999999 23.605876500000001 0.0079679691634880045 0.045863472089779249 1.1508926743579733 19101019 0
C -1.5287652899999999 4.4131299500000001 11.6606682 -0.016081852586396508 0.0093285586486713135 0.12340629699802073 19101020 0
C 0 3.5305145499999999 20.4724182 0.093753361445803457 -0.0599666424410535 0.098857743217845545 19101021 0
C -1.5287500000000001 4.4131034700000003 17.927584800000002 -0.055112684941028223 0.033154133052607219 -0.063758473761214587 19101022 0
C 1.5290000000000001e-05 3.5304880700000001 9.1158348 0.0053584464847735314 -0.0028579974807659103 -0.87223516699410308 19101023 0
Ti 3.0575000000000001 0 10.388251500000001 -0.018575551159454553 0.01048603474790699 0.19617392848502649 19101024 0
Ti 3.0575000000000001 0 19.200001499999999 0.025379333356214423 -0.01438080189094966 0.0088083745761826891 19101025 0
Ti 4.58626529 0.88261540000000005 12.77623575 0.0017862953667251821 -0.00057371040002217105 -0.25277230857405658 19101026 0
Ti 3.0575000000000001 1.7652308000000001 21.587985750000001 -0.070929844615931506 0.059511502198134759 -0.2957515468165135 19101027 0
Ti 4.5862499999999997 0.88264187999999999 16.81201725 0.026474304621631996 -0.016060619514514395 0.0018213392673545326 19101028 0
Ti 3.0574847100000002 1.76525727 8.0002672500000003 0.0043327781552803179 -0.0028799709680424183 0.50034143252348118 19101029 0
Si 3.0575000000000001 0 14.794126500000001 0.047328453668547994 -0.027117731876577355 0.078830974213324259 19101030 0
Si 3.0575000000000001 0 23.605876500000001 0.00796800822617965 0.045863703898169662 1.1508929645179531 19101031 0
C 3.0574847100000002 1.76525727 11.6606682 -0.016081894383099715 0.0093284314997183898 0.1234063742943013 19101032 0
C 4.5862499999999997 0.88264187999999999 20.4724182 0.093753394868350742 -0.059966786314038324 0.098857678017270259 19101033 0
C 3.0575000000000001 1.7652308000000001 17.927584800000002 -0.055112697055233383 0.033154236510623769 -0.063758403291196572 19101034 0
C 4.58626529 0.88261540000000005 9.1158348 0.0053583975191950437 -0.0028582806049975628 -0.87223507848529647 19101035 0
Ti 1.5287500000000001 2.6478726699999999 10.388251500000001 -0.018576685279514855 0.010486589406495888 0.19617479214839692 19101036 0
Ti 1.5287500000000001 2.6478726699999999 19.200001499999999 0.025378068927006139 -0.014382021992185967 0.0088068874402921164 19101037 0
Ti 3.05751529 3.5304880700000001 12.77623575 0.0017873794853964986 -0.000571892555329227 -0.25277281149573261 19101038 0
Ti 1.5287500000000001 4.4131034700000003 21.587985750000001 -0.070929440313936623 0.059511509977587328 -0.29575227881022575 19101039 0
Ti 3.0575000000000001 3.5305145499999999 16.81201725 0.026474982147264695 -0.016061080734707699 0.0018224061543356228 19101040 0
Ti 1.5287347099999999 4.4131299500000001 8.0002672500000003 0.0043316191935192649 -0.0028795779818381181 0.50034054161175445 19101041 0
Si 1.5287500000000001 2.6478726699999999 14.794126500000001 0.047326988517659492 -0.027117161840719876 0.078830893399185434 19101042 0
Si 1.5287500000000001 2.6478726699999999 23.605876500000001 0.0079706008857275829 0.045861842917038376 1.1508927895685832 19101043 0
C 1.5287347099999999 4.4131299500000001 11.6606682 -0.016081238718998796 0.0093302725538556217 0.12340685530799819 19101044 0
C 3.0575000000000001 3.5305145499999999 20.4724182 0.093754260092137484 -0.059964705109194084 0.098857556579560552 19101045 0
C 1.5287500000000001 4.4131034700000003 17.927584800000002 -0.055110656453201005 0.033153143399480674 -0.063757745498114735 19101046 0
C 3.05751529 3.5304880700000001 9.1158348 0.0053591891807303772 -0.0028571111126961873 -0.87223637746330751 19101047 0
Ag 0.81023750000000005 0.55605325999999999 26.205876499999999 -0.050442048334599497 -0.033760842928465151 -0.67328094646192138 19101048 1
Ag -0.7185125 3.20392593 26.205876499999999 -0.050443575945723927 -0.033760584296002059 -0.67327440600384836 19101049 0
Ag 3.8677375000000001 0.55605325999999999 26.205876499999999 -0.050446339577569325 -0.033758396764767919 -0.67327972170094963 19101050 0
Ag 2.3389875 3.20392593 26.205876499999999 -0.050438725278646401 -0.033763247692513931 -0.67327418074183998 19101051 0
