48
Lattice="28.139999999999997 0.0 0.0 0.0 28.139999999999997 0.0 0.0 0.0 28.139999999999997" Properties=species:S:1:pos:R:3:lammps_id:I:1:lammps_type:I:1:central_pair:I:1:PW_PBE_forces:R:3:magmoms:R:1:forces:R:3 config_type=AgC_residual_shell_v15_01 dataset_role=v15_acquisition_candidate geometry_family=AgC_residual_targeted_local_perturbation correlation_note="Targeted local perturbation of an existing small-cell motif; not an independent morphology or thermal snapshot." source_label=AgC_registry_strain_acq_v14_01 targeted_lammps_ids="604804 688433 604600" PW_PBE_energy_eV=-257.90607943715185 source_method="GPAW 26.7.0 PW-PBE 500 eV Gamma single point" free_energy=-259.0665784578528 energy=-257.90607943715185 dipole="1.465084898507634 -1.31869251597959 0.2198891502220981" magmom=0.0 pbc="T T T"
Ti      14.77773371      12.05600926      19.11551806   113766        1        0      -0.71378187      -0.05589251      -1.94666780       0.00000000      -0.71378187      -0.05589251      -1.94666780
Ti      19.82811217      14.16747384      12.33246569   600768        1        0      -1.37292218      -0.66501512       1.82459001       0.00000000      -1.37292218      -0.66501512       1.82459001
Ti      15.12909886      14.05949712       8.96376420   602398        1        0      -0.65807570      -1.12196892       1.60380684       0.00000000      -0.65807570      -1.12196892       1.60380684
Ti      16.68771955      11.36614851      12.36412218   602560        1        0       1.04259993       1.24892293      -1.27256619       0.00000000       1.04259993       1.24892293      -1.27256619
C       15.83587001      12.27557301      10.41285829   602563        3        0      -0.02371392      -0.53459891       0.84780744       0.00000000      -0.02371392      -0.53459891       0.84780744
C       15.25544723      10.21890544      13.18240648   602564        3        0       4.73331311      -2.06563972      -0.19348650       0.00000000       4.73331311      -2.06563972      -0.19348650
C       15.07182108      17.80401535      11.06558824   602568        3        0       0.53112090       1.02499410       1.57523077       0.00000000       0.53112090       1.02499410       1.57523077
Ti      16.21049706      17.82520003      12.72755326   602569        1        0      -0.58925818       0.72478332       0.47576352       0.00000000      -0.58925818       0.72478332       0.47576352
C       15.07271794      19.59145303      13.76221691   602577        3        0      -1.73797695      -4.39964880      -2.14112510       0.00000000      -1.73797695      -4.39964880      -2.14112510
Ti      16.76365713      12.95482339      14.33572664   602709        1        0      -0.27943389       0.31586964       0.37429781       0.00000000      -0.27943389       0.31586964       0.37429781
Ti      16.29602899       9.87292906      15.17910921   602714        1        0      -0.77681036       1.67878912      -1.50991678       0.00000000      -0.77681036       1.67878912      -1.50991678
Si      16.29623736      11.70576048      16.93692730   602717        2        0      -0.47312408       0.25673103       0.10872082       0.00000000      -0.47312408       0.25673103       0.10872082
Ti      19.60392340      12.82762980      14.90690853   602720        1        0      -1.59728915       0.74671372      -1.11439203       0.00000000      -1.59728915       0.74671372      -1.11439203
Si      17.67857728      13.64819382      16.56818905   602722        2        0       0.82754878       0.29898449      -0.26616337       0.00000000       0.82754878       0.29898449      -0.26616337
Si      17.74352034      16.08282763      16.29483697   602726        2        0      -0.01312259       0.35319924      -1.43758797       0.00000000      -0.01312259       0.35319924      -1.43758797
Si      18.23918609      18.04904044      14.55915110   602728        2        0      -0.56935711      -1.73777839       0.82533384       0.00000000      -0.56935711      -1.73777839       0.82533384
Ti      14.76166482      10.24594345      11.01127789   604584        1        0       0.81511987      -2.98320042      -1.30628974       0.00000000       0.81511987      -2.98320042      -1.30628974
C       13.17986737       8.67583329      11.62428134   604585        3        0       1.32991270       0.19368930       0.69697377       0.00000000       1.32991270       0.19368930       0.69697377
Ti      11.77271855      10.16054437      12.07961346   604586        1        0       0.16194988      -2.20922953      -0.43597883       0.00000000       0.16194988      -2.20922953      -0.43597883
C       13.16309866      11.15703239      11.24994476   604587        3        0      -2.16520232      -1.27390377       0.91490046       0.00000000      -2.16520232      -1.27390377       0.91490046
Ti      14.35882364       8.52198837      13.27154629   604588        1        0      -3.53303971       0.47943979      -0.55789704       0.00000000      -3.53303971       0.47943979      -0.55789704
Ti      13.90292133      11.48431288      13.20346969   604589        1        0      -0.15797519       3.42426726       0.12658262       0.00000000      -0.15797519       3.42426726       0.12658262
Ti      13.90703556      12.76733695      10.88907204   604590        1        0       3.54211614       2.39145489      -0.35534405       0.00000000       3.54211614       2.39145489      -0.35534405
C       12.76931668      10.06742890      13.79881864   604592        3        0      -2.12486424      -2.31416345       3.63683345       0.00000000      -2.12486424      -2.31416345       3.63683345
Si       9.97310494      12.81272528      11.37092765   604593        2        0       0.20215200      -0.18062707       1.33765307       0.00000000       0.20215200      -0.18062707       1.33765307
Si       9.89761420      11.48436655      13.67768514   604594        2        0       0.34853751       1.06618702      -0.46722164       0.00000000       0.34853751       1.06618702      -0.46722164
C       13.37656913      13.46623496       9.20585782   604596        3        0       0.57406366       0.51217327      -2.28367086       0.00000000       0.57406366       0.51217327      -2.28367086
C       12.81750902      16.18495834       9.90954883   604598        3        0      -0.99485481      -0.47290558       1.18434005       0.00000000      -0.99485481      -0.47290558       1.18434005
Ti      11.96120210      14.25624470      10.39312951   604599        1        0      -0.78923572       2.49533071      -0.29058946       0.00000000      -0.78923572       2.49533071      -0.29058946
Ti      14.04607861      15.95105818      11.57808362   604600        1        0      -2.79305595       3.93527813      -3.85441587       0.00000000      -2.79305595       3.93527813      -3.85441587
Ti      11.41425653      17.44566529      10.57183703   604601        1        0       2.36883176      -1.09597684       0.00475310       0.00000000       2.36883176      -1.09597684       0.00475310
C       13.08863827      14.11930030      12.10603268   604602        3        0      -0.18115489       0.40696754       0.10814018       0.00000000      -0.18115489       0.40696754       0.10814018
C       12.76935077      17.50188077      12.47641392   604603        3        0      -1.07916953       1.32860589       0.80554717       0.00000000      -1.07916953       1.32860589       0.80554717
Si       9.79798089      15.57341805      10.56012221   604605        2        0      -1.04744691      -0.29428368       1.55076965       0.00000000      -1.04744691      -0.29428368       1.55076965
Ti      13.88557001      19.22526666      11.81736422   604608        1        0       1.81485598      -1.41413110       0.20735631       0.00000000       1.81485598      -1.41413110       0.20735631
Ti      11.26219267      18.91472392      12.54529904   604611        1        0       0.55519041      -0.89332004       1.20176192       0.00000000       0.55519041      -0.89332004       1.20176192
Ti      12.26634854      10.47500164      17.74830506   604794        1        0       0.50062157       1.08489677      -0.85024088       0.00000000       0.50062157       1.08489677      -0.85024088
Ti      11.80033518       8.66345692      15.22903044   604795        1        0       1.53544736       2.70238511      -1.04361087       0.00000000       1.53544736       2.70238511      -1.04361087
Ti      12.15593909      11.72392467      15.14179805   604796        1        0      -0.13495165       0.14529562       0.25989817       0.00000000      -0.13495165       0.14529562       0.25989817
Si      10.16894577      12.97965800      16.18023886   604803        2        0       0.12324208       1.08725370      -0.32267565       0.00000000       0.12324208       1.08725370      -0.32267565
C       13.51061795      13.06152122      14.25082641   604804        3        1      -0.22262112       0.66734765       1.53292331       0.00000000      -0.22262112       0.66734765       1.53292331
Ti      13.93203645      17.72049792      14.28296046   604805        1        0       0.30760790       1.52534050      -1.13636492       0.00000000       0.30760790       1.52534050      -1.13636492
Ti      12.31879570      13.64348345      17.69452560   604806        1        0       1.04853144       0.30242095      -1.95333438       0.00000000       1.04853144       0.30242095      -1.95333438
C       13.49249159      14.93042593      16.58342693   604810        3        0      -1.37067967      -1.26046185       0.18747320       0.00000000      -1.37067967      -1.26046185       0.18747320
Si      10.25583337      15.68024025      15.68223448   604813        2        0       0.71702310      -1.72349368       0.19160248       0.00000000       0.71702310      -1.72349368       0.19160248
Si       9.70307372      16.94008547      12.67728352   606503        2        0       0.49778326      -0.84891672      -1.04161138       0.00000000       0.49778326      -0.84891672      -1.04161138
Ag      14.35743866      15.07721391      13.69028371   688433        4        1       0.36615687      -1.79418770       4.13830911       0.00000000       0.36615687      -1.79418770       4.13830911
Ag      16.41629644      15.10794589      11.66569942   751743        4        0       1.47895532      -1.06327290       0.06516625       0.00000000       1.47895532      -1.06327290       0.06516625
