48
Lattice="28.0 0.0 0.0 0.0 28.0 0.0 0.0 0.0 28.0" Properties=species:S:1:pos:R:3:lammps_id:I:1:lammps_type:I:1:central_pair:I:1:magmoms:R:1:forces:R:3 free_energy=-260.28839422846255 energy=-259.1460694818018 dipole="1.4419725328841986 -1.302095524760312 0.1960564488449489" magmom=0.0 pbc="T T T"
Ti      14.70421265      11.99602911      19.02041598   113766        1        0       0.00000000      -0.73490601      -0.06339355      -1.92897578
Ti      19.72946485      14.09698890      12.27111014   600768        1        0       0.00000000      -1.40701992      -0.61819652       1.77114792
Ti      15.07396679      14.02135323       8.94561416   602398        1        0       0.00000000      -0.99853106      -1.24893887       1.72684727
Ti      16.62929910      11.29786275      12.28481694   602560        1        0       0.00000000       0.90762970       1.58264452      -0.88921352
C       15.72969900      12.22025104      10.36095243   602563        3        0       0.00000000       0.57258234      -0.61503358       0.74126065
C       15.17669210      10.20026769      13.15152436   602564        3        0       0.00000000       5.17904886      -2.28371074      -0.26370407
C       15.01908631      17.68667141      11.01228795   602568        3        0       0.00000000       0.56385414       1.02849137       1.36096193
Ti      16.11448967      17.76311691      12.69635565   602569        1        0       0.00000000      -0.15906125       0.66015994       0.49490412
C       15.00354719      19.49982550      13.65818251   602577        3        0       0.00000000      -1.72518781      -4.36925782      -2.09225012
Ti      16.66547951      12.91999110      14.39568336   602709        1        0       0.00000000      -0.54082681      -0.19089689      -0.91376668
Ti      16.21991955       9.83047336      15.09283891   602714        1        0       0.00000000      -0.78705826       1.76891736      -1.33381457
Si      16.19906282      11.72691730      16.84655127   602717        2        0       0.00000000      -0.67698793      -0.25023311       0.22844295
Ti      19.50639144      12.76381075      14.83274481   602720        1        0       0.00000000      -1.52968945       0.70561709      -1.10801614
Si      17.59062416      13.58029236      16.48576025   602722        2        0       0.00000000       1.32452655       0.82776722       0.48647298
Si      17.63267815      16.01971860      16.22972921   602726        2        0       0.00000000      -0.03305201       0.37198407      -1.43670341
Si      18.14844387      17.95924422      14.48671751   602728        2        0       0.00000000      -0.50964541      -1.74196580       0.85234474
Ti      14.69157055      10.19724740      10.96370450   604584        1        0       0.00000000       1.39881937      -3.39185383      -1.60966432
C       13.11429589       8.63266994      11.56644909   604585        3        0       0.00000000       0.99332444       0.20158090       0.64989800
Ti      11.65349978      10.09302321      11.98742137   604586        1        0       0.00000000       1.66914464      -1.56940335      -0.14084468
C       13.13979285      11.11718839      11.16941206   604587        3        0       0.00000000      -3.98618162      -2.66079169       1.49572881
Ti      14.28738671       8.47959042      13.20551870   604588        1        0       0.00000000      -3.41689812       0.59107451      -0.40294735
Ti      13.81107131      11.42356511      13.12787750   604589        1        0       0.00000000      -0.27986296       3.85793354      -0.11563548
Ti      13.83486296      12.70685820      10.84009666   604590        1        0       0.00000000       3.92796604       3.32132477      -0.08262618
C       12.73392275      10.02554673      13.76644647   604592        3        0       0.00000000      -2.79041285      -2.81598049       3.17175330
Si       9.92348750      12.74898038      11.31435587   604593        2        0       0.00000000       0.21399425      -0.20738051       1.28138555
Si       9.89304472      11.38372228      13.60459646   604594        2        0       0.00000000       0.17494454       1.05574931      -0.46310225
C       13.29592661      13.41218506       9.19704134   604596        3        0       0.00000000       0.91942093       0.66451209      -3.19665567
C       12.75409091      16.11854113       9.85522983   604598        3        0       0.00000000      -0.66647854      -0.66673517       1.02633722
Ti      11.89403153      14.19520326      10.32262416   604599        1        0       0.00000000      -0.84387000       2.47134190      -0.02426334
Ti      13.99002587      15.88789818      11.51308169   604600        1        0       0.00000000      -1.75553441       2.58053882      -1.76970431
Ti      11.37655870      17.34674296      10.50781042   604601        1        0       0.00000000       2.00474629      -0.72536693       0.15456479
C       13.05169693      14.06274742      12.05531177   604602        3        0       0.00000000      -0.07032512       0.62490276       0.64984942
C       12.73083688      17.44324369      12.40804017   604603        3        0       0.00000000      -1.32560481       0.97161541       0.79561151
Si       9.75810803      15.47933378      10.52333573   604605        2        0       0.00000000      -1.30340441      -0.23539937       1.55040908
Ti      13.82491636      19.11920886      11.74146196   604608        1        0       0.00000000       1.87497312      -1.05883790       0.02789843
Ti      11.20201144      18.83132959      12.48771158   604611        1        0       0.00000000       0.47347048      -0.83636165       1.10837012
Ti      12.20532193      10.42288720      17.66000503   604794        1        0       0.00000000       0.45303316       1.10862265      -0.86534950
Ti      11.74162704       8.62035514      15.15326412   604795        1        0       0.00000000       1.51918434       2.71178151      -1.02985149
Ti      12.10728202      11.67814678      15.04999314   604796        1        0       0.00000000      -0.36536878       0.33435482       0.62920962
Si      10.07867620      12.90234182      16.16506260   604803        2        0       0.00000000       0.20917339       0.88246601      -0.47495892
C       13.49237812      13.03797364      14.17230927   604804        3        1       0.00000000      -0.13202350       0.73916061       1.29521741
Ti      13.85080071      17.62213886      14.17289370   604805        1        0       0.00000000       0.22976394       1.44101728      -0.74443256
Ti      12.20322713      13.58204009      17.56905296   604806        1        0       0.00000000       1.07571234       0.26401768      -1.62750665
C       13.41127052      14.82936034      16.48807003   604810        3        0       0.00000000      -1.21357702      -1.19569817      -0.06601984
Si      10.20068675      15.60669127      15.59047793   604813        2        0       0.00000000       0.71905874      -1.68215930       0.20689783
Si       9.65479972      16.85580644      12.61421246   606503        2        0       0.00000000       0.47033043      -0.85899802      -0.97456614
Ag      14.50762188      14.96202636      13.82769073   688433        4        1       0.00000000      -0.23275557      -0.74958751       1.73358026
Ag      16.53600026      14.96202636      11.77289621   751743        4        0       0.00000000       0.62587429      -0.72604895       0.11670892
