49
Lattice="28.0 0.0 0.0 0.0 28.0 0.0 0.0 0.0 28.0" Properties=species:S:1:pos:R:3:lammps_id:I:1:lammps_type:I:1:central_pair:I:1:PW_PBE_forces:R:3:magmoms:R:1:forces:R:3 config_type=AgTi_widespan_distance_acq_v16_01 dataset_role=unlabeled_training_acquisition_proposal parent_config_type=AgTi_registry_probe_v13_01_periodic_PW_PBE_energy_force_v14_train parent_file_sha256=3323cdbd3081fc8d91673662c5f83c8da93ba3b4d7a23428f6b70d0e7a4c9faf parent_geometry_sha256=b78ee569d0bafe0cbb68dc693ce5a47df03eff043b70e2ea8ca96c5bca7e8964 sampling_axis=distance sampling_offset_A=0.35 not_validated_training_data=T geometry_screening_decision=GEOMETRY_PASS_A_REVIEW requires_A_review=T geometry_review_flags=none PW_PBE_energy_eV=-175.11572270393648 source_method="GPAW 26.7.0 PW-PBE 500 eV Gamma single point" free_energy=-175.77168568448354 energy=-175.11572270393648 dipole="0.48007722937130154 0.31926000271910043 0.1894956621601257" magmom=0.0 pbc="T T T"
C       13.89902107      12.90667166       9.57093308   478831        3        0      -1.66974008       2.48903721       0.26837494       0.00000000      -1.66974008       2.48903721       0.26837494
Ti      12.62304525      14.70227784       8.74620905   478840        1        0       1.33819614      -0.87750577       3.95818312       0.00000000       1.33819614      -0.87750577       3.95818312
Si      16.74663914      14.99666412       9.05588053   478841        2        0      -0.85300596      -0.83148757       1.36753305       0.00000000      -0.85300596      -0.83148757       1.36753305
C       13.77615718      16.76659830       9.46205532   478844        3        0      -3.96863494       0.18026010       0.77715595       0.00000000      -3.96863494       0.18026010       0.77715595
Ti      12.49439364      12.82858132      11.26096292   479021        1        0       0.89171870      -1.20871537      -1.36113041       0.00000000       0.89171870      -1.20871537      -1.36113041
Ti      12.74652762      14.24815681      13.89771094   479027        1        1      -0.30010606       2.25860463       1.22368658       0.00000000      -0.30010606       2.25860463       1.22368658
Ti      13.27333691      17.52276133      13.67525409   479028        1        0      -0.05596609       0.33716774      -1.42374728       0.00000000      -0.05596609       0.33716774      -1.42374728
C       12.19406070      16.00730532      12.98699267   479030        3        0      -0.83969703      -1.15352846       0.62606079       0.00000000      -0.83969703      -1.15352846       0.62606079
C       11.92979276      17.83928667      10.04608242   479031        3        0       3.52988914      -2.33090890      -0.90258246       0.00000000       3.52988914      -2.33090890      -0.90258246
C       11.14030857      11.60980287      10.51944505   480798        3        0      -1.15141457       0.80460252       2.16765533       0.00000000      -1.15141457       0.80460252       2.16765533
Ti       9.67365027      11.73672021      12.52949502   480801        1        0       4.23377499      -0.85536261       0.05933158       0.00000000       4.23377499      -0.85536261       0.05933158
C       10.41266283       9.58775109      13.76894219   480802        3        0       0.09349611       1.44349070       3.09102252       0.00000000       0.09349611       1.44349070       3.09102252
C       11.34811906      12.99570560      13.31832051   480805        3        0      -1.22489929      -0.40514578      -0.31079549       0.00000000      -1.22489929      -0.40514578      -0.31079549
C       11.26779912      14.20441406      10.34350882   480807        3        0       0.95517790       0.41202000      -0.44240572       0.00000000       0.95517790       0.41202000      -0.44240572
Ti      10.63277880      14.68120764      12.23793466   480810        1        0      -0.81832689      -0.26165564      -0.39627318       0.00000000      -0.81832689      -0.26165564      -0.39627318
Ti      11.15181567      17.42898892      11.87855887   480811        1        0      -0.04106633       0.43851717      -1.27672395       0.00000000      -0.04106633       0.43851717      -1.27672395
Ti      10.57490139      16.47263116      14.34546801   480812        1        0       1.40079828      -0.23418492      -0.03695161       0.00000000       1.40079828      -0.23418492      -0.03695161
C       11.98467917      18.76062403      12.89743879   480813        3        0       0.54749350      -0.85500634       0.99015200       0.00000000       0.54749350      -0.85500634       0.99015200
C       10.74527181       9.34898918      15.92141080   480974        3        0       0.09881245       1.91276408      -3.73435267       0.00000000       0.09881245       1.91276408      -3.73435267
C       10.58950093      11.90905331      16.64358691   480975        3        0      -0.19185577       1.65250882      -1.80197500       0.00000000      -0.19185577       1.65250882      -1.80197500
Ti       9.93014220      13.54071165      15.28648610   480980        1        0       2.27136948      -2.13621405       0.02043976       0.00000000       2.27136948      -2.13621405       0.02043976
Ag      13.52624729      11.89840795      14.11179346   682693        4        0       0.07699142      -1.47323063      -0.04012324       0.00000000       0.07699142      -1.47323063      -0.04012324
Ag      19.61807333      16.02536326      16.17055655   685396        4        0      -0.37147474      -0.12751068      -0.14084772       0.00000000      -0.37147474      -0.12751068      -0.14084772
Ag      17.57765117      16.01107770      14.10814491   685467        4        0       0.08040612       0.38099261      -0.16637443       0.00000000       0.08040612       0.38099261      -0.16637443
Ag      15.56731892      11.88682992      16.16390689   686309        4        0      -0.19272440      -0.19692567       0.36150970       0.00000000      -0.19272440      -0.19692567       0.36150970
Ag      17.58779059      13.96175133      16.17998304   686324        4        0       0.34875784      -0.08628758       0.22742784       0.00000000       0.34875784      -0.08628758       0.22742784
Ag      15.55246974       9.84411053      14.11235737   686418        4        0       0.03687132       0.03407101       0.01332198       0.00000000       0.03687132       0.03407101       0.01332198
Ag      19.61503313      13.96795285      14.11059922   686622        4        0      -0.37796785       0.17072551       0.16447075       0.00000000      -0.37796785       0.17072551       0.16447075
Ag      17.58690487      16.00593848      18.20978180   686899        4        0      -0.12958890       0.00581798      -0.21741588       0.00000000      -0.12958890       0.00581798      -0.21741588
Ag      17.58355949       9.85541394      16.17169644   687243        4        0      -0.28559672       0.34734146      -0.17076177       0.00000000      -0.28559672       0.34734146      -0.17076177
Ag      15.65961246      13.94291218      14.12690573   687247        4        1      -0.67410371       0.28072318      -0.07863644       0.00000000      -0.67410371       0.28072318      -0.07863644
Ag      15.56923034      16.01501557      16.18453587   688096        4        0      -0.46208527       0.19218832      -0.21142465       0.00000000      -0.46208527       0.19218832      -0.21142465
Ag      17.59876264       9.84616967      12.07215604   688280        4        0      -0.29721489       0.47346049       0.08106710       0.00000000      -0.29721489       0.47346049       0.08106710
Ag      15.55578945      13.95092252      18.22443999   688689        4        0      -0.17293395      -0.10828087      -0.10135232       0.00000000      -0.17293395      -0.10828087      -0.10135232
Ag      17.55977142      18.05944785      16.17731031   688707        4        0      -0.09282105      -0.23821062      -0.04730692       0.00000000      -0.09282105      -0.23821062      -0.04730692
Ag      17.59847077      11.89601649      14.11514809   689682        4        0       0.29963900      -0.26982736      -0.03846623       0.00000000       0.29963900      -0.26982736      -0.03846623
Ag      13.52873929      16.00540116      18.19881556   690927        4        0       0.01248718      -0.33607690      -0.20332017       0.00000000       0.01248718      -0.33607690      -0.20332017
Ag      15.55337991      18.05941320      18.22734980   691757        4        0       0.08662798      -0.31655542      -0.29530113       0.00000000       0.08662798      -0.31655542      -0.29530113
Ag      13.52320966      11.92162233      18.21902561   694331        4        0      -0.06176026       0.25097494      -0.51373236       0.00000000      -0.06176026       0.25097494      -0.51373236
Ag      17.58663690      11.89536541      18.20949848   696686        4        0      -0.28450808       0.14519834      -0.43079549       0.00000000      -0.28450808       0.14519834      -0.43079549
Ag      13.52368057       9.84668625      16.18031376   700223        4        0      -0.66760506       0.27454553      -0.25839576       0.00000000      -0.66760506       0.27454553      -0.25839576
Ag      11.50365418      13.95176828      18.22968285   701905        4        0       0.11781591      -0.48242620      -0.89580392       0.00000000       0.11781591      -0.48242620      -0.89580392
Ag      17.56849188      18.06345784      12.06389561   703736        4        0      -0.25403411      -0.56090042       0.34006488       0.00000000      -0.25403411      -0.56090042       0.34006488
Ag      15.55069874      16.01800015      12.07476361   704767        4        0      -0.02564808      -0.09126918      -0.39505739       0.00000000      -0.02564808      -0.09126918      -0.39505739
Ag      17.59101495      13.95050336      12.05703750   716228        4        0       0.00080460       0.06740427      -0.73940711       0.00000000       0.00080460       0.06740427      -0.73940711
Ag      15.56301624      11.91649215      12.05029040   720990        4        0      -0.39163187      -0.03032008      -0.50869030       0.00000000      -0.39163187      -0.03032008      -0.50869030
Ag      13.52279622      18.06466892      16.15481328   721910        4        0      -0.08634143      -0.20221596       0.82384608       0.00000000      -0.08634143      -0.20221596       0.82384608
Ag      17.59268675      11.90024214      10.00346295   728014        4        0      -0.34108223       0.61780452       0.38609436       0.00000000      -0.34108223       0.61780452       0.38609436
Ag      13.52255248       9.84776453      12.04521130   741114        4        0      -0.13251625       0.49106703       0.19436049       0.00000000      -0.13251625       0.49106703       0.19436049
