48
Lattice="28.0 0.0 0.0 0.0 28.0 0.0 0.0 0.0 28.0" Properties=species:S:1:pos:R:3:lammps_id:I:1:lammps_type:I:1:central_pair:I:1:REF_forces:R:3 config_type=AgC_secondary_2.0A_LCAO training_label_policy=forces_only_LCAO_energy_excluded pbc="T T T"
Ti      14.70421265      11.99602911      19.02041598   113766        1        0      -0.80249684      -0.04994561      -1.96903902
Ti      19.72946485      14.09698890      12.27111014   600768        1        0      -1.45395277      -0.63148483       1.80147293
Ti      15.07396679      14.02135323       8.94561416   602398        1        0      -0.87650803      -1.15303404       1.69258617
Ti      16.62929910      11.29786275      12.28481694   602560        1        0       1.05520111       1.67206230      -0.88964878
C       15.72969900      12.22025104      10.36095243   602563        3        0       0.61142604      -0.57730554       0.70189382
C       15.17669210      10.20026769      13.15152436   602564        3        0       5.19705335      -2.25441538      -0.24541737
C       15.01908631      17.68667141      11.01228795   602568        3        0       0.63450504       1.02394612       1.25238884
Ti      16.11448967      17.76311691      12.69635565   602569        1        0      -0.07970137       0.64282848       0.52373063
C       15.00354719      19.49982550      13.65818251   602577        3        0      -1.72183549      -4.31859474      -2.08746755
Ti      16.66547951      12.91999110      14.39568336   602709        1        0      -0.54855832      -0.21426792      -0.99006467
Ti      16.21991955       9.83047336      15.09283891   602714        1        0      -0.77596135       1.74839874      -1.32392903
Si      16.19906282      11.72691730      16.84655127   602717        2        0      -0.74851585      -0.34606683       0.27149249
Ti      19.50639144      12.76381075      14.83274481   602720        1        0      -1.58413477       0.72319613      -1.13777353
Si      17.59062416      13.58029236      16.48576025   602722        2        0       1.45150688       0.86659772       0.58652001
Si      17.63267815      16.01971860      16.22972921   602726        2        0      -0.03591764       0.42538327      -1.42608690
Si      18.14844387      17.95924422      14.48671751   602728        2        0      -0.48690370      -1.72892063       0.82444400
Ti      14.69157055      10.19724740      10.96370450   604584        1        0       1.53937429      -3.59869324      -1.76760875
C       13.11429589       8.63266994      11.56644909   604585        3        0       0.94351804       0.07895291       0.58146757
Ti      11.65349978      10.09302321      11.98742137   604586        1        0       1.53664585      -1.59276021      -0.12817865
C       13.13979285      11.11718839      11.16941206   604587        3        0      -4.07468548      -2.63618050       1.53303479
Ti      14.28738671       8.47959042      13.20551870   604588        1        0      -3.40586447       0.48729733      -0.35201678
Ti      13.81107131      11.42356511      13.12787750   604589        1        0      -0.46459448       4.26092772       0.25697498
Ti      13.83486296      12.70685820      10.84009666   604590        1        0       4.09375923       3.37567680      -0.03870085
C       12.73392275      10.02554673      13.76644647   604592        3        0      -2.77181909      -2.78338915       3.24210006
Si       9.92348750      12.74898038      11.31435587   604593        2        0       0.19286773      -0.22439400       1.27089205
Si       9.89304472      11.38372228      13.60459646   604594        2        0       0.15820854       1.03254276      -0.41956378
C       13.29592661      13.41218506       9.19704134   604596        3        0       0.82879842       0.59021003      -3.31928837
C       12.75409091      16.11854113       9.85522983   604598        3        0      -0.56496655      -0.69849012       0.92929009
Ti      11.89403153      14.19520326      10.32262416   604599        1        0      -0.94939788       2.58905732      -0.04667910
Ti      13.99002587      15.88789818      11.51308169   604600        1        0      -1.66756267       2.62561704      -1.69247931
Ti      11.37655870      17.34674296      10.50781042   604601        1        0       2.00114083      -0.71057617       0.05144080
C       13.05169693      14.06274742      12.05531177   604602        3        0      -0.20056295       0.51395968       0.78922405
C       12.73083688      17.44324369      12.40804017   604603        3        0      -1.33718694       0.89128941       0.85351812
Si       9.75810803      15.47933378      10.52333573   604605        2        0      -1.38272350      -0.26045594       1.50104438
Ti      13.82491636      19.11920886      11.74146196   604608        1        0       1.81320397      -0.98927955      -0.05851615
Ti      11.20201144      18.83132959      12.48771158   604611        1        0       0.40227768      -0.71098312       1.22139426
Ti      12.20532193      10.42288720      17.66000503   604794        1        0       0.48797104       1.16361205      -0.94588226
Ti      11.74162704       8.62035514      15.15326412   604795        1        0       1.49749412       2.70408328      -0.98537186
Ti      12.10728202      11.67814678      15.04999314   604796        1        0      -0.34960515       0.42377709       0.72819233
Si      10.07867620      12.90234182      16.16506260   604803        2        0       0.19834170       0.87618361      -0.46189809
C       13.53907096      13.12646420      14.15645966   604804        3        1      -0.78327983      -1.08041318       1.10596436
Ti      13.85080071      17.62213886      14.17289370   604805        1        0       0.24835923       1.26606757      -0.64381854
Ti      12.20322713      13.58204009      17.56905296   604806        1        0       1.04998779       0.15295101      -1.58415826
C       13.41127052      14.82936034      16.48807003   604810        3        0      -1.16596538      -1.19122511      -0.17570485
Si      10.20068675      15.60669127      15.59047793   604813        2        0       0.73111931      -1.66546489       0.19704353
Si       9.65479972      16.85580644      12.61421246   606503        2        0       0.42986856      -0.87649256      -0.90941063
Ag      14.46092904      14.87353580      13.84354034   688433        4        1       0.47714019       0.82783699       1.48928156
Ag      16.53600026      14.96202636      11.77289621   751743        4        0       0.64983413      -0.74714627       0.14387883
