51
Lattice="28.0 0.0 0.0 0.0 28.0 0.0 0.0 0.0 28.0" Properties=species:S:1:pos:R:3:lammps_id:I:1:lammps_type:I:1:central_pair:I:1:REF_forces:R:3 config_type=AgSi_2p8A_LCAO training_label_policy=forces_only_LCAO_energy_excluded pbc="T T T"
C       18.69343949      12.54843047      11.16426339   365143        3        0      -2.22813587      -0.41961936      -0.30128188
Ti      17.77527161      11.56733874      17.50540585   365320        1        0      -4.18222847      -0.35754175      -2.58471818
C       16.50131571      11.29392294       9.82945078   366772        3        0       1.11829089       1.34741493       1.36368041
C       16.56177584      14.75897246       9.64040901   366778        3        0      -0.76634167       0.79414883       0.11392968
Si      13.06792779      10.84352028      11.57948201   366929        2        0       0.76125210       1.03386458      -0.51610445
C       16.90853430      10.60971273      13.62762261   366931        3        0      -1.43928555       1.33305092       1.15263153
Si      13.29299928      10.09088002      13.97440872   366933        2        0       0.28037083       0.76010114       1.10433050
Si      13.58698243      12.73630969      14.43875195   366934        2        1      -0.76317386       0.66560183      -0.54996005
Ti      15.36087474      11.30986335      15.32968892   366935        1        0       2.88065526      -2.48648141       1.06323974
Si      14.12319488      13.12695146      11.90081949   366936        2        0      -0.18247286      -0.45557525      -0.29646699
C       16.40496119       9.83143917      16.41532269   367109        3        0      -0.22136550       1.93224183       2.81407019
Si      13.21435913      10.17655112      16.69028210   367110        2        0      -0.10332665       0.19687696      -0.47781035
C       16.53339143      12.79840769      16.35358160   367111        3        0       0.12916727       0.28419663       0.86955883
Ti      15.33126897      10.04209215      18.27195901   367112        1        0       1.02812996       0.55477252      -3.18083553
Ti      15.30176319      13.03108330      18.14132801   367113        1        0      -0.09481572       0.53714376       0.46719477
Si      13.24363583      13.20928859      19.80511010   367115        2        0      -0.25905200       0.45316709      -1.13029522
Ti      15.44240477      14.64299255      15.95068572   367117        1        0       1.07924037      -0.62576761       1.35882694
Si      12.84812044      15.22784025      16.43301567   367118        2        0       0.64891005       0.32001881       0.27393615
Si      13.02223133      18.39492743      16.78836500   367120        2        0      -0.31892920      -1.60278447       0.04897035
Ti      14.58564033      16.63208684      18.10920443   367121        1        0      -0.02645559      -2.33490254      -0.34637492
C       15.76712835      14.95392999      18.47200166   367122        3        0      -1.31481784       0.39052061      -1.78760866
C        9.95627140      12.83851001      10.82637371   368645        3        0       1.35652504       0.48284789      -0.09272565
Ti      11.11195807       9.14865555      15.20721024   368823        1        0      -0.09211669       2.48946367       1.64446373
Ti      11.07723836      10.64868816      13.00866724   368827        1        0      -1.91115286       0.42960202      -0.89161763
C        9.65866396      12.02107833      13.56598470   368829        3        0       0.72638638       0.57889494       0.64558888
Ti       8.46155886      13.35372617      14.70582369   368832        1        0       0.95621557       0.32079739       0.05906168
Ti      11.06251923      12.46190745      15.09991626   368833        1        0      -0.84568777      -1.16344667       1.79317481
C        9.60941570      17.02947132      11.32342782   368838        3        0       1.40812367      -0.83432286      -0.63285601
C        8.79393698      15.14957866      14.25430448   368841        3        0       1.30966493       0.28311703       0.94134120
Ti      10.26858743      15.60371702      15.53557543   368844        1        0      -1.19580051      -1.72837026      -0.31191030
C       10.15218269      10.82097085      16.06800626   369024        3        0       2.27576594      -0.87663709      -2.14073831
C        9.78538094      13.68852604      16.34204412   369026        3        0       1.18411691       0.72465425      -0.12942035
Ti      11.16770640      13.53168315      18.06691166   369031        1        0      -0.03911169       0.95680220      -1.95752121
Ti      11.74474811      16.38022648      18.43507812   369042        1        0       0.89444715      -0.14952903      -0.91866301
Ag      14.41301757      15.26369031      13.56124805   683609        4        1      -0.35596709      -0.43342825      -0.26267378
Ag      16.39037606      13.05279264      13.61544690   685172        4        0       0.62803564      -0.11165193      -1.07405586
Ag      12.33361930      17.16238168      13.61544690   696217        4        0      -0.27884012       0.04788637       0.35072702
Ag      12.33361930      17.16238168       9.50585786   700029        4        0      -0.30938230      -0.07823758       0.45376933
Ag      16.39037606      17.16238168      13.61544690   701518        4        0       0.34567272       0.06483854       0.28697102
Ag      16.39037606      17.16238168       9.50585786   703887        4        0       0.15652153      -1.10398405       0.64557197
Ag      10.30524092      15.10758716       9.50585786   707313        4        0      -0.11258422      -0.02535036       1.53530701
Ag      14.36199768      15.10758716       9.50585786   710704        4        0       0.81101633      -0.38164815       0.34099471
Ag      18.41875444      17.16238168      11.56065238   714846        4        0      -0.63466069      -0.35132802       0.04530749
Ag      12.33361930      19.21717620      11.56065238   729574        4        0       0.04462950      -0.56175345       0.13193541
Ag      12.33361930      15.10758716      11.56065238   730721        4        0      -0.48067469      -0.13481637       0.00138489
Ag      12.33361930      13.05279264       9.50585786   735549        4        0      -0.54159149      -0.17651027       0.89967924
Ag      14.36199768      17.16238168      11.56065238   737082        4        0       0.16974384       0.49158705      -0.23839373
Ag      16.39037606      19.21717620      15.67024142   737200        4        0      -0.23494508      -0.72479566      -0.15901056
Ag      14.36199768      19.21717620      13.61544690   744883        4        0      -0.02704508      -0.39969752       0.15613104
Ag      18.41875444      15.10758716      13.61544690   752169        4        0      -0.45554526       0.17430499      -0.09658281
Ag      18.41875444      17.16238168      15.67024142   755982        4        0      -0.70006178      -0.08076519      -0.47362304
