52
Lattice="6.1150000000000002 0 0 -3.0574999999999988 5.2957453441418432 0 0 0 34.205876500000002" Properties=species:S:1:pos:R:3:PW_PBE_forces:R:3:lammps_id:I:1:central_pair:I:1 pbc="T T T" PW_PBE_energy_eV=-392.1041689830476 config_type=AgSi_COD9009647_pilot_gamma
Ti 0 0 10.388251500000001 -1.7892798728790214e-05 -6.3927094930331052e-05 0.10752772184699134 19101000 0
Ti 0 0 19.200001499999999 -0.0012789276079703748 -0.00089879564384664514 -0.16247039244824768 19101001 0
Ti 1.5287652899999999 0.88261540000000005 12.77623575 -0.00027749232427999463 0.00018299403253548238 -2.1349921066826814 19101002 0
Ti 0 1.7652308000000001 21.587985750000001 -0.059780205125627185 -0.033811108340324129 -2.9346610860184024 19101003 0
Ti 1.5287500000000001 0.88264187999999999 16.81201725 -0.000475948751285407 -0.00049165131713116027 2.103757693105643 19101004 0
Ti -1.5290000000000001e-05 1.76525727 8.0002672500000003 0.00019960688738519962 -0.00011731428786196321 0.9945981974137289 19101005 0
Si 0 0 14.794126500000001 0.00010238931093602566 3.5474778515901491e-05 -0.0017104632549687579 19101006 0
Si 0 0 23.605876500000001 -0.06328800953223146 -0.066380060292340309 2.6171407693521904 19101007 1
C -1.5290000000000001e-05 1.76525727 11.6606682 0.00036723387142379804 -0.00014175288878993432 1.2706502600795841 19101008 0
C 1.5287500000000001 0.88264187999999999 20.4724182 -0.010976179162076723 -0.0044648461451335048 1.6140390027441607 19101009 0
C 0 1.7652308000000001 17.927584800000002 0.00083593026964010649 0.00068243678236882112 -1.2734168975391076 19101010 0
C 1.5287652899999999 0.88261540000000005 9.1158348 -0.00022930053285411927 5.5672317423044472e-05 -1.609310219526199 19101011 0
Ti -1.5287500000000001 2.6478726699999999 10.388251500000001 -1.7108011628019951e-05 -6.2591773504361891e-05 0.10752729883667662 19101012 0
Ti -1.5287500000000001 2.6478726699999999 19.200001499999999 -0.0012792365003344314 -0.00089873967734255191 -0.16246971276131042 19101013 0
Ti 1.5290000000000001e-05 3.5304880700000001 12.77623575 -0.00027822348115899689 0.00018204763226747426 -2.1349931219542446 19101014 0
Ti -1.5287500000000001 4.4131034700000003 21.587985750000001 -0.059779615680024073 -0.033811244536420919 -2.9346617752819539 19101015 0
Ti 0 3.5305145499999999 16.81201725 -0.00047621723890903418 -0.00049211167450985806 2.1037578318027799 19101016 0
Ti -1.5287652899999999 4.4131299500000001 8.0002672500000003 0.00020256649672432012 -0.00011873406008882203 0.99459533273317824 19101017 0
Si -1.5287500000000001 2.6478726699999999 14.794126500000001 0.00010179579084098644 3.4966469502545806e-05 -0.0017108048727278893 19101018 0
Si -1.5287500000000001 2.6478726699999999 23.605876500000001 -0.063289029447638381 -0.066379780847739517 2.6171412682550748 19101019 0
C -1.5287652899999999 4.4131299500000001 11.6606682 0.00036778246923929492 -0.00014326536815548321 1.2706497923322526 19101020 0
C 0 3.5305145499999999 20.4724182 -0.010975548798293343 -0.0044655814927132206 1.614039409740033 19101021 0
C -1.5287500000000001 4.4131034700000003 17.927584800000002 0.00083522859510702045 0.00068175203972143641 -1.2734167147328257 19101022 0
C 1.5290000000000001e-05 3.5304880700000001 9.1158348 -0.00023039054073502945 5.5090596049835536e-05 -1.6093136725172801 19101023 0
Ti 3.0575000000000001 0 10.388251500000001 -1.8037416994013623e-05 -6.3744901209631015e-05 0.10752802686773766 19101024 0
Ti 3.0575000000000001 0 19.200001499999999 -0.0012789948217881513 -0.00089879346910576947 -0.16247029094731602 19101025 0
Ti 4.58626529 0.88261540000000005 12.77623575 -0.00027836999466374123 0.00018246252886905623 -2.1349921436340003 19101026 0
Ti 3.0575000000000001 1.7652308000000001 21.587985750000001 -0.059780203694660923 -0.033810988384776766 -2.9346611644655858 19101027 0
Ti 4.5862499999999997 0.88264187999999999 16.81201725 -0.00047606482793948217 -0.00049157913020670481 2.1037573541159262 19101028 0
Ti 3.0574847100000002 1.76525727 8.0002672500000003 0.00019962675223946438 -0.00011760458476349648 0.99459853317085911 19101029 0
Si 3.0575000000000001 0 14.794126500000001 0.00010305045702850235 3.6170532445001007e-05 -0.0017105971665358757 19101030 0
Si 3.0575000000000001 0 23.605876500000001 -0.063288017502291669 -0.066380028046463924 2.6171406373180015 19101031 0
C 3.0574847100000002 1.76525727 11.6606682 0.00036729377212101961 -0.00014164281996752152 1.2706509218951798 19101032 0
C 4.5862499999999997 0.88264187999999999 20.4724182 -0.010976268435451733 -0.0044648311560021147 1.6140390329324816 19101033 0
C 3.0575000000000001 1.7652308000000001 17.927584800000002 0.00083620163246062409 0.0006828022107532569 -1.2734171212568333 19101034 0
C 4.58626529 0.88261540000000005 9.1158348 -0.00022919215332617334 5.5868260939882712e-05 -1.6093105440129705 19101035 0
Ti 1.5287500000000001 2.6478726699999999 10.388251500000001 -1.7134499657340377e-05 -6.2536231552730615e-05 0.10752759774996298 19101036 0
Ti 1.5287500000000001 2.6478726699999999 19.200001499999999 -0.0012793423782713458 -0.00089876029038590073 -0.1624695840965634 19101037 0
Ti 3.05751529 3.5304880700000001 12.77623575 -0.00027898087341558835 0.00018146961484427775 -2.1349931023385187 19101038 0
Ti 1.5287500000000001 4.4131034700000003 21.587985750000001 -0.059779481982750883 -0.033811101031773691 -2.9346619250221049 19101039 0
Ti 3.0575000000000001 3.5305145499999999 16.81201725 -0.00047641512939059296 -0.00049195905675262607 2.1037576717187076 19101040 0
Ti 1.5287347099999999 4.4131299500000001 8.0002672500000003 0.00020258359689538625 -0.00011841117344006538 0.99459436675704915 19101041 0
Si 1.5287500000000001 2.6478726699999999 14.794126500000001 0.00010247803442588145 3.5713046070921263e-05 -0.0017108397561944229 19101042 0
Si 1.5287500000000001 2.6478726699999999 23.605876500000001 -0.063289054530006092 -0.066379759337039893 2.6171411855511675 19101043 0
C 1.5287347099999999 4.4131299500000001 11.6606682 0.00036794915881765104 -0.00014320733615653773 1.2706503846831863 19101044 0
C 3.0575000000000001 3.5305145499999999 20.4724182 -0.010975554379119857 -0.0044655038963154915 1.6140395867205695 19101045 0
C 1.5287500000000001 4.4131034700000003 17.927584800000002 0.00083563529326952297 0.00068233664728979421 -1.2734169096882151 19101046 0
C 3.05751529 3.5304880700000001 9.1158348 -0.00023006942775591934 5.5219299952212673e-05 -1.6093135575170607 19101047 0
Ag 0.81023750000000005 0.55605325999999999 26.205876499999999 0.13527891525271643 0.1057495214707693 -0.5904815634691184 19101048 1
Ag -0.7185125 3.20392593 26.205876499999999 0.13528241392755022 0.10575409820708349 -0.5904946170251012 19101049 0
Ag 3.8677375000000001 0.55605325999999999 26.205876499999999 0.1352830065996127 0.10575355684285893 -0.5904831804553301 19101050 0
Ag 2.3389875 3.20392593 26.205876499999999 0.13528681089241307 0.10575830771395253 -0.59049845702352721 19101051 0
