48
Lattice="28.139999999999997 0.0 0.0 0.0 28.139999999999997 0.0 0.0 0.0 28.139999999999997" Properties=species:S:1:pos:R:3:lammps_id:I:1:lammps_type:I:1:central_pair:I:1:PW_PBE_forces:R:3:magmoms:R:1:forces:R:3 config_type=AgC_registry_strain_acq_v14_01 dataset_role=acquisition geometry_family=AgC_existing_cluster_motif correlation_note="Derived from an existing motif; not an independent material morphology." PW_PBE_energy_eV=-257.5833982481984 source_method="GPAW 26.7.0 PW-PBE 500 eV Gamma single point" free_energy=-258.7408486187545 energy=-257.5833982481984 dipole="1.4432497904616697 -1.3216913786706685 0.21600066775553536" magmom=0.0 pbc="T T T"
Ti      14.77773371      12.05600926      19.11551806   113766        1        0      -0.72482108      -0.04777731      -1.97870200       0.00000000      -0.72482108      -0.04777731      -1.97870200
Ti      19.82811217      14.16747384      12.33246569   600768        1        0      -1.35368250      -0.66377413       1.82164876       0.00000000      -1.35368250      -0.66377413       1.82164876
Ti      15.14933662      14.09146000       8.99034223   602398        1        0      -1.17482706      -1.42497901       1.86327192       0.00000000      -1.17482706      -1.42497901       1.86327192
Ti      16.70700672      11.35471852      12.38368619   602560        1        0       0.91268495       1.32283435      -1.11056061       0.00000000       0.91268495       1.32283435      -1.11056061
C       15.80834749      12.28135230      10.41275719   602563        3        0       0.25926803      -0.57948836       0.74124655       0.00000000       0.25926803      -0.57948836       0.74124655
C       15.24595730      10.24678088      13.19736310   602564        3        0       5.09580132      -2.55143955      -0.17338333       0.00000000       5.09580132      -2.55143955      -0.17338333
C       15.09615209      17.79866568      11.05647245   602568        3        0       0.53376166       0.98285929       1.63430314       0.00000000       0.53376166       0.98285929       1.63430314
Ti      16.22196177      17.83062629      12.74423018   602569        1        0      -0.66398522       0.80916502       0.35480948       0.00000000      -0.66398522       0.80916502       0.35480948
C       15.07856493      19.59732463      13.72647342   602577        3        0      -1.66943992      -4.40663141      -2.04056109       0.00000000      -1.66943992      -4.40663141      -2.04056109
Ti      16.76440974      12.97642676      14.38731587   602709        1        0      -0.42418135       0.13228110      -0.10374663       0.00000000      -0.42418135       0.13228110      -0.10374663
Ti      16.30101915       9.87962573      15.16830310   602714        1        0      -0.80051782       1.78407244      -1.41551843       0.00000000      -0.80051782       1.78407244      -1.41551843
Si      16.28907112      11.75977571      16.92416559   602717        2        0      -0.57673321      -0.03356728       0.13318748       0.00000000      -0.57673321      -0.03356728       0.13318748
Ti      19.60392340      12.82762980      14.90690853   602720        1        0      -1.59653383       0.73716423      -1.11916443       0.00000000      -1.59653383       0.73716423      -1.11916443
Si      17.67857728      13.64819382      16.56818905   602722        2        0       1.04421637       0.54790065      -0.04098912       0.00000000       1.04421637       0.54790065      -0.04098912
Si      17.72084154      16.09981719      16.31087786   602726        2        0      -0.01476592       0.35188942      -1.43228299       0.00000000      -0.01476592       0.35188942      -1.43228299
Si      18.23918609      18.04904044      14.55915110   602728        2        0      -0.55047161      -1.74367951       0.84858197       0.00000000      -0.55047161      -1.74367951       0.84858197
Ti      14.76502840      10.24823364      11.01852302   604584        1        0       1.24271389      -3.25559452      -1.39824449       0.00000000       1.24271389      -3.25559452      -1.39824449
C       13.17986737       8.67583329      11.62428134   604585        3        0       1.13634057       0.34792735       0.71308265       0.00000000       1.13634057       0.34792735       0.71308265
Ti      11.74276545      10.17736294      12.03503218   604586        1        0       1.03896665      -1.94505518       0.04815806       0.00000000       1.03896665      -1.94505518       0.04815806
C       13.19563199      11.17968796      11.24892195   604587        3        0      -3.58704744      -3.16470621       1.38927116       0.00000000      -3.58704744      -3.16470621       1.38927116
Ti      14.35882364       8.52198837      13.27154629   604588        1        0      -3.46519445       0.72149077      -0.54840103       0.00000000      -3.46519445       0.72149077      -0.54840103
Ti      13.89522027      11.47862233      13.19404990   604589        1        0      -0.60807361       3.44708078       0.32198507       0.00000000      -0.60807361       3.44708078       0.32198507
Ti      13.89476314      12.73690514      10.90480480   604590        1        0       3.93495258       4.77950626      -0.70768434       0.00000000       3.93495258       4.77950626      -0.70768434
C       12.76671152      10.07059819      13.82600363   604592        3        0      -2.34296382      -2.36181030       3.02218282       0.00000000      -2.34296382      -2.36181030       3.02218282
Si       9.97310494      12.81272528      11.37092765   604593        2        0       0.25888872      -0.16073495       1.36987077       0.00000000       0.25888872      -0.16073495       1.36987077
Si       9.91049250      11.50366541      13.68373389   604594        2        0       0.32722516       0.98787323      -0.52723209       0.00000000       0.32722516       0.98787323      -0.52723209
C       13.36240624      13.47924599       9.24302655   604596        3        0       1.11216667       0.54558425      -2.59247848       0.00000000       1.11216667       0.54558425      -2.59247848
C       12.81786136      16.19913384       9.90450598   604598        3        0      -0.76234292      -0.56985983       1.14334466       0.00000000      -0.76234292      -0.56985983       1.14334466
Ti      11.95350169      14.26617928      10.37423728   604599        1        0      -0.64113912       2.51528342      -0.09310762       0.00000000      -0.64113912       2.51528342      -0.09310762
Ti      14.07288981      15.96040749      11.56987937   604600        1        0      -3.02391439       3.63512732      -3.54715373       0.00000000      -3.02391439       3.63512732      -3.54715373
Ti      11.43344149      17.43347667      10.56034947   604601        1        0       2.10297455      -0.90018985       0.24563425       0.00000000       2.10297455      -0.90018985       0.24563425
C       13.06646719      14.13684670      12.10746617   604602        3        0       0.05633455       0.32257362       0.13522377       0.00000000       0.05633455       0.32257362       0.13522377
C       12.78805257      17.51047972      12.49636784   604603        3        0      -1.15108256       1.39755567       0.68957146       0.00000000      -1.15108256       1.39755567       0.68957146
Si       9.80689857      15.55673045      10.57595241   604605        2        0      -1.17172176      -0.16311300       1.56393313       0.00000000      -1.17172176      -0.16311300       1.56393313
Ti      13.89404094      19.21480490      11.80016927   604608        1        0       1.81933402      -1.43413204       0.27945631       0.00000000       1.81933402      -1.43413204       0.27945631
Ti      11.25802150      18.92548624      12.55015014   604611        1        0       0.66506630      -1.08692507       1.05304353       0.00000000       0.66506630      -1.08692507       1.05304353
Ti      12.26634854      10.47500164      17.74830506   604794        1        0       0.47511853       1.11528313      -0.87052828       0.00000000       0.47511853       1.11528313      -0.87052828
Ti      11.80033518       8.66345692      15.22903044   604795        1        0       1.55190818       2.73384601      -1.07176398       0.00000000       1.55190818       2.73384601      -1.07176398
Ti      12.16895326      11.73834240      15.12525415   604796        1        0      -0.35204022       0.28552999       0.48763045       0.00000000      -0.35204022       0.28552999       0.48763045
Si      10.14239037      12.97278704      16.23387027   604803        2        0       0.26104892       0.94329842      -0.46642371       0.00000000       0.26104892       0.94329842      -0.46642371
C       13.53093455      13.07225817      14.23329628   604804        3        1      -0.18054510       0.79546202       1.34055658       0.00000000      -0.18054510       0.79546202       1.34055658
Ti      13.94132315      17.72599046      14.28329593   604805        1        0       0.26357911       1.62413455      -1.17080684       0.00000000       0.26357911       1.62413455      -1.17080684
Ti      12.29104930      13.63698510      17.68575294   604806        1        0       1.11952686       0.32434647      -1.79063066       0.00000000       1.11952686       0.32434647      -1.79063066
C       13.50469061      14.90550135      16.60374365   604810        3        0      -1.38361151      -1.27206666       0.13830572       0.00000000      -1.38361151      -1.27206666       0.13830572
Si      10.25169018      15.68472473      15.66843032   604813        2        0       0.69748656      -1.68969230       0.19788914       0.00000000       0.69748656      -1.68969230       0.19788914
Si       9.70307372      16.94008547      12.67728352   606503        2        0       0.53240320      -0.83632478      -1.04024360       0.00000000       0.53240320      -0.83632478      -1.04024360
Ag      14.36040925      15.11324150      13.72951918   688433        4        1       0.23198815      -1.78797072       3.62268486       0.00000000       0.23198815      -1.78797072       3.62268486
Ag      16.41657402      15.11397897      11.65879226   751743        4        0       1.56539162      -1.10881881       0.08687638       0.00000000       1.56539162      -1.10881881       0.08687638
