LAMMPS (30 Sep 2026)
OMP_NUM_THREADS environment is not set. Defaulting to 1 thread.
  using 1 OpenMP thread(s) per MPI task
units metal
dimension 3
atom_style atomic
boundary p p f
read_data structures/impact_cool_0p05ps.data
Reading data file ...
  triclinic box = (0 0 -10) to (37.285975 32.290601 100) with tilt (-18.642987 0 0)
WARNING: Triclinic box skew is large. LAMMPS will run inefficiently. (src/domain.cpp:214)
  1 by 1 by 1 MPI processor grid
  reading atoms ...
  4308 atoms
  reading velocities ...
  4308 velocities
  read_data CPU = 0.030 seconds
include potentials/potential_stage69.inc
# Stage69 collision-ready candidate potential; no physical run is implied.
# Baseline: Ag EAM + Ti/Si/C TSCBOP + calibrated Ag-interface Morse.
# ZBL is overlaid only in the 0.8-1.5 A short-range window.
pair_style hybrid/overlay eam tersoff morse 8.0 zbl 0.8 1.5
pair_coeff 4 4 eam potentials/Ag_u3.eam
Reading eam potential file potentials/Ag_u3.eam with DATE: 2007-06-11
pair_coeff * * tersoff potentials/TSCBOP.tersoff Ti Si C NULL
pair_coeff 1 4 morse 0.94814194 2.00000000 2.33708864 8.0
pair_coeff 2 4 morse 0.93944948 2.00000000 2.40407837 8.0
pair_coeff 3 4 morse 1.35077230 2.00000000 2.15255924 8.0
pair_coeff 1 4 zbl 22 47
pair_coeff 2 4 zbl 14 47
pair_coeff 3 4 zbl 6 47
pair_coeff 4 4 zbl 47 47
neighbor 2.0 bin
neigh_modify delay 0 every 1 check yes
region fixed_region block INF INF INF INF -10.0 5.0 units box
region sink_region block INF INF INF INF 5.0 15.0 units box
region crater_region cylinder z 9.9573898076 24.2578814220 8.0 12.0 100.0 units box
group projectiles id 4306 4307 4308
3 atoms in group projectiles
group fixed region fixed_region
379 atoms in group fixed
group sink region sink_region
845 atoms in group sink
group mobile subtract all fixed
3929 atoms in group mobile
group crater region crater_region
516 atoms in group crater
group freezone intersect mobile crater
516 atoms in group freezone
group free_substrate subtract freezone projectiles
513 atoms in group free_substrate
group anchored subtract mobile freezone
3413 atoms in group anchored
group bath subtract sink freezone
814 atoms in group bath
fix hold fixed setforce 0.0 0.0 0.0
fix integrate all nve
fix anchor anchored spring/self 100.0
fix_modify anchor energy yes
fix bathfix bath langevin 300.0 300.0 0.05 441037 zero yes tally yes
compute Tfree free_substrate temp
compute Tmobile mobile temp
timestep 0.0001
thermo 100
thermo_style custom step time atoms c_Tfree c_Tmobile pe ke etotal f_bathfix
thermo_modify flush yes
dump tr all custom 100 dumps/impact_cool_0p10ps.dump id type x y z vx vy vz fx fy fz
dump_modify tr sort id
run 1000
Neighbor list info ...
  update: every = 1 steps, delay = 0 steps, check = yes
  max neighbors/atom: 2000, page size: 100000
  master list distance cutoff = 10
  ghost atom cutoff = 10
  binsize = 5, bins = 12 7 22
  6 neighbor lists, perpetual/occasional/extra = 6 0 0
  (1) pair eam, perpetual, skip from (5)
      attributes: half, newton on
      pair build: skip
      stencil: none
      bin: none
  (2) pair tersoff, perpetual, skip from (6)
      attributes: full, newton on
      pair build: skip
      stencil: none
      bin: none
  (3) pair morse, perpetual, skip from (5)
      attributes: half, newton on
      pair build: skip
      stencil: none
      bin: none
  (4) pair zbl, perpetual, skip from (5)
      attributes: half, newton on
      pair build: skip
      stencil: none
      bin: none
  (5) neighbor class addition, perpetual, half/full from (6)
      attributes: half, newton on
      pair build: halffull/newton/tri
      stencil: none
      bin: none
  (6) neighbor class addition, perpetual
      attributes: full, newton on
      pair build: full/bin/atomonly
      stencil: full/bin/3d
      bin: standard
Per MPI rank memory allocation (min/avg/max) = 13.47 | 13.47 | 13.47 Mbytes
   Step          Time         Atoms       c_Tfree       c_Tmobile        PotEng         KinEng         TotEng       f_bathfix   
         0   0                   4308   2229.3713      439.31626     -25408.591      223.05573     -25185.535     -0            
       100   0.01                4308   2202.2129      378.35098     -25372.853      192.1016      -25180.751     -4.7820936    
       200   0.02                4308   2108.6506      433.80569     -25395.549      220.25783     -25175.291     -10.240582    
       300   0.03                4308   2048.9688      407.4585      -25378.482      206.88047     -25171.602     -13.928625    
       400   0.04                4308   2266.6147      407.77012     -25376.012      207.0387      -25168.973     -16.555207    
       500   0.05                4308   2143.0687      413.76155     -25376.057      210.08075     -25165.977     -19.531228    
       600   0.06                4308   2085.3165      416.83508     -25375.863      211.64128     -25164.222     -21.284665    
       700   0.07                4308   2147.9689      397.11621     -25363.951      201.62934     -25162.322     -23.189614    
       800   0.08                4308   2159.8742      406.3156      -25366.399      206.30018     -25160.099     -25.407461    
       900   0.09                4308   2397.6822      473.47878     -25398.598      240.4012      -25158.197     -27.307827    
      1000   0.1                 4308   2469.5844      440.20409     -25380.075      223.50652     -25156.569     -28.940012    
Loop time of 28.9879 on 1 procs for 1000 steps with 4308 atoms

Performance: 0.298 ns/day, 80.522 hours/ns, 34.497 timesteps/s, 148.614 katom-step/s
100.0% CPU use with 1 MPI tasks x 1 OpenMP threads

MPI task timing breakdown:
Section |  min time  |  avg time  |  max time  |%varavg| %total
---------------------------------------------------------------
Pair    | 28.589     | 28.589     | 28.589     |   0.0 | 98.62
Neigh   | 0.099777   | 0.099777   | 0.099777   |   0.0 |  0.34
Comm    | 0.041115   | 0.041115   | 0.041115   |   0.0 |  0.14
Output  | 0.10426    | 0.10426    | 0.10426    |   0.0 |  0.36
Modify  | 0.13213    | 0.13213    | 0.13213    |   0.0 |  0.46
Other   |            | 0.02161    |            |       |  0.07

Nlocal:           4308 ave        4308 max        4308 min
Histogram: 1 0 0 0 0 0 0 0 0 0
Nghost:           7142 ave        7142 max        7142 min
Histogram: 1 0 0 0 0 0 0 0 0 0
Neighs:              0 ave           0 max           0 min
Histogram: 1 0 0 0 0 0 0 0 0 0

Total # of neighbors = 0
Ave neighs/atom = 0
Neighbor list builds = 4
Dangerous builds = 0
undump tr
write_data structures/impact_cool_0p10ps.data
System init for write_data ...
write_restart restart/impact_cool_0p10ps.restart
System init for write_restart ...
Total wall time: 0:00:29
