LAMMPS (30 Sep 2026)
OMP_NUM_THREADS environment is not set. Defaulting to 1 thread.
  using 1 OpenMP thread(s) per MPI task
units metal
dimension 3
atom_style atomic
boundary p p f
read_data structures/impact_cool_0p10ps.data
Reading data file ...
  triclinic box = (0 0 -10) to (37.285975 32.290601 100) with tilt (-18.642987 0 0)
WARNING: Triclinic box skew is large. LAMMPS will run inefficiently. (src/domain.cpp:214)
  1 by 1 by 1 MPI processor grid
  reading atoms ...
  4308 atoms
  reading velocities ...
  4308 velocities
  read_data CPU = 0.027 seconds
create_atoms 4 single 9.9573898076 24.2578814220 60.0 units box
Created 1 atoms
  using box units in triclinic box = (0 0 -10) to (37.285975 32.290601 100) with tilt (-18.642987 0 0)
  create_atoms CPU = 0.000 seconds
include potentials/potential_stage69.inc
# Stage69 collision-ready candidate potential; no physical run is implied.
# Baseline: Ag EAM + Ti/Si/C TSCBOP + calibrated Ag-interface Morse.
# ZBL is overlaid only in the 0.8-1.5 A short-range window.
pair_style hybrid/overlay eam tersoff morse 8.0 zbl 0.8 1.5
pair_coeff 4 4 eam potentials/Ag_u3.eam
Reading eam potential file potentials/Ag_u3.eam with DATE: 2007-06-11
pair_coeff * * tersoff potentials/TSCBOP.tersoff Ti Si C NULL
pair_coeff 1 4 morse 0.94814194 2.00000000 2.33708864 8.0
pair_coeff 2 4 morse 0.93944948 2.00000000 2.40407837 8.0
pair_coeff 3 4 morse 1.35077230 2.00000000 2.15255924 8.0
pair_coeff 1 4 zbl 22 47
pair_coeff 2 4 zbl 14 47
pair_coeff 3 4 zbl 6 47
pair_coeff 4 4 zbl 47 47
neighbor 2.0 bin
neigh_modify delay 0 every 1 check yes
region fixed_region block INF INF INF INF -10.0 5.0 units box
region sink_region block INF INF INF INF 5.0 15.0 units box
region crater_region cylinder z 9.9573898076 24.2578814220 8.0 12.0 100.0 units box
group projectiles id 4306 4307 4308 4309
4 atoms in group projectiles
group new_projectile id 4309
1 atoms in group new_projectile
group fixed region fixed_region
379 atoms in group fixed
group sink region sink_region
842 atoms in group sink
group mobile subtract all fixed
3930 atoms in group mobile
group crater region crater_region
512 atoms in group crater
group freezone intersect mobile crater
512 atoms in group freezone
group free_substrate subtract freezone projectiles
508 atoms in group free_substrate
group anchored subtract mobile freezone
3418 atoms in group anchored
group bath subtract sink freezone
812 atoms in group bath
velocity new_projectile set 0.0 0.0 -105.3164
fix hold fixed setforce 0.0 0.0 0.0
fix integrate all nve
fix anchor anchored spring/self 100.0
fix_modify anchor energy yes
fix bathfix bath langevin 300.0 300.0 0.05 441038 zero yes tally yes
compute Tfree free_substrate temp
compute Tmobile mobile temp
timestep 0.0001
thermo 100
thermo_style custom step time atoms c_Tfree c_Tmobile pe ke etotal f_bathfix
thermo_modify flush yes
dump tr all custom 100 dumps/impact_4th_Ag_62eV.dump id type x y z vx vy vz fx fy fz
dump_modify tr sort id
run 1400
Neighbor list info ...
  update: every = 1 steps, delay = 0 steps, check = yes
  max neighbors/atom: 2000, page size: 100000
  master list distance cutoff = 10
  ghost atom cutoff = 10
  binsize = 5, bins = 12 7 22
  6 neighbor lists, perpetual/occasional/extra = 6 0 0
  (1) pair eam, perpetual, skip from (5)
      attributes: half, newton on
      pair build: skip
      stencil: none
      bin: none
  (2) pair tersoff, perpetual, skip from (6)
      attributes: full, newton on
      pair build: skip
      stencil: none
      bin: none
  (3) pair morse, perpetual, skip from (5)
      attributes: half, newton on
      pair build: skip
      stencil: none
      bin: none
  (4) pair zbl, perpetual, skip from (5)
      attributes: half, newton on
      pair build: skip
      stencil: none
      bin: none
  (5) neighbor class addition, perpetual, half/full from (6)
      attributes: half, newton on
      pair build: halffull/newton/tri
      stencil: none
      bin: none
  (6) neighbor class addition, perpetual
      attributes: full, newton on
      pair build: full/bin/atomonly
      stencil: full/bin/3d
      bin: standard
Per MPI rank memory allocation (min/avg/max) = 13.47 | 13.47 | 13.47 Mbytes
   Step          Time         Atoms       c_Tfree       c_Tmobile        PotEng         KinEng         TotEng       f_bathfix   
         0   0                   4309   2472.9537      562.17491     -25506.555      285.5079      -25221.047     -0            
       100   0.01                4309   2496.7133      541.08698     -25491.964      274.79812     -25217.166     -3.8767142    
       200   0.02                4309   2411.3049      538.81397     -25485.578      273.64374     -25211.934     -9.1143305    
       300   0.03                4309   2369.9618      529.44589     -25478.09       268.88603     -25209.204     -11.842289    
       400   0.04                4309   2211.5205      527.97258     -25475.598      268.1378      -25207.46      -13.591933    
       500   0.05                4309   2147.7124      507.16241     -25463.088      257.56908     -25205.519     -15.530751    
       600   0.06                4309   2077.7478      494.77681     -25454.74       251.27889     -25203.461     -17.586842    
       700   0.07                4309   2100.4407      509.65625     -25461.946      258.83561     -25203.11      -17.9414      
       800   0.08                4309   2209.7869      528.82724     -25469.237      268.57184     -25200.665     -20.387338    
       900   0.09                4309   2205.8191      508.63656     -25457.381      258.31774     -25199.064     -21.987402    
      1000   0.1                 4309   2177.59        521.78565     -25462.003      264.99568     -25197.008     -24.044998    
      1100   0.11                4309   2099.2045      523.34028     -25462.032      265.78522     -25196.247     -24.804314    
      1200   0.12                4309   2121.0191      506.61894     -25453.878      257.29307     -25196.585     -24.468852    
      1300   0.13                4309   2154.3108      518.06853     -25460.232      263.10789     -25197.124     -23.927641    
      1400   0.14                4309   2167.6509      536.90769     -25469.303      272.67561     -25196.628     -24.425347    
Loop time of 39.2577 on 1 procs for 1400 steps with 4309 atoms

Performance: 0.308 ns/day, 77.892 hours/ns, 35.662 timesteps/s, 153.667 katom-step/s
100.0% CPU use with 1 MPI tasks x 1 OpenMP threads

MPI task timing breakdown:
Section |  min time  |  avg time  |  max time  |%varavg| %total
---------------------------------------------------------------
Pair    | 38.502     | 38.502     | 38.502     |   0.0 | 98.08
Neigh   | 0.35482    | 0.35482    | 0.35482    |   0.0 |  0.90
Comm    | 0.050361   | 0.050361   | 0.050361   |   0.0 |  0.13
Output  | 0.13737    | 0.13737    | 0.13737    |   0.0 |  0.35
Modify  | 0.18239    | 0.18239    | 0.18239    |   0.0 |  0.46
Other   |            | 0.03034    |            |       |  0.08

Nlocal:           4309 ave        4309 max        4309 min
Histogram: 1 0 0 0 0 0 0 0 0 0
Nghost:           7153 ave        7153 max        7153 min
Histogram: 1 0 0 0 0 0 0 0 0 0
Neighs:              0 ave           0 max           0 min
Histogram: 1 0 0 0 0 0 0 0 0 0

Total # of neighbors = 0
Ave neighs/atom = 0
Neighbor list builds = 14
Dangerous builds = 0
undump tr
write_data structures/impact_4th_Ag_62eV.data
System init for write_data ...
write_restart restart/impact_4th_Ag_62eV.restart
System init for write_restart ...
Total wall time: 0:00:39
