LAMMPS (30 Sep 2026)
OMP_NUM_THREADS environment is not set. Defaulting to 1 thread.
  using 1 OpenMP thread(s) per MPI task
units metal
dimension 3
atom_style atomic
boundary p p f
read_data structures/active_local_relaxed.data
Reading data file ...
  triclinic box = (0 0 -10) to (37.285975 32.290601 100) with tilt (-18.642987 0 0)
WARNING: Triclinic box skew is large. LAMMPS will run inefficiently. (src/domain.cpp:214)
  1 by 1 by 1 MPI processor grid
  reading atoms ...
  4305 atoms
  reading velocities ...
  4305 velocities
  read_data CPU = 0.024 seconds
create_atoms 4 single 9.9573898076 24.2578814220 60.0 units box
Created 1 atoms
  using box units in triclinic box = (0 0 -10) to (37.285975 32.290601 100) with tilt (-18.642987 0 0)
  create_atoms CPU = 0.000 seconds
include potentials/potential_stage69.inc
# Stage69 collision-ready candidate potential; no physical run is implied.
# Baseline: Ag EAM + Ti/Si/C TSCBOP + calibrated Ag-interface Morse.
# ZBL is overlaid only in the 0.8-1.5 A short-range window.
pair_style hybrid/overlay eam tersoff morse 8.0 zbl 0.8 1.5
pair_coeff 4 4 eam potentials/Ag_u3.eam
Reading eam potential file potentials/Ag_u3.eam with DATE: 2007-06-11
pair_coeff * * tersoff potentials/TSCBOP.tersoff Ti Si C NULL
pair_coeff 1 4 morse 0.94814194 2.00000000 2.33708864 8.0
pair_coeff 2 4 morse 0.93944948 2.00000000 2.40407837 8.0
pair_coeff 3 4 morse 1.35077230 2.00000000 2.15255924 8.0
pair_coeff 1 4 zbl 22 47
pair_coeff 2 4 zbl 14 47
pair_coeff 3 4 zbl 6 47
pair_coeff 4 4 zbl 47 47
neighbor 2.0 bin
neigh_modify delay 0 every 1 check yes
region fixed_region block INF INF INF INF -10.0 5.0 units box
region sink_region block INF INF INF INF 5.0 15.0 units box
region crater_region cylinder z 9.9573898076 24.2578814220 8.0 12.0 100.0 units box
group projectile id 4306
1 atoms in group projectile
group fixed region fixed_region
379 atoms in group fixed
group sink region sink_region
850 atoms in group sink
group mobile subtract all fixed
3927 atoms in group mobile
group crater region crater_region
528 atoms in group crater
group freezone intersect mobile crater
528 atoms in group freezone
group free_substrate subtract freezone projectile
527 atoms in group free_substrate
group anchored subtract mobile freezone
3399 atoms in group anchored
group bath subtract sink freezone
817 atoms in group bath
velocity all create 300.0 977302 mom yes rot no dist gaussian
velocity fixed set 0.0 0.0 0.0
velocity projectile set 0.0 0.0 -105.3164
fix hold fixed setforce 0.0 0.0 0.0
fix integrate all nve
fix anchor anchored spring/self 100.0
fix_modify anchor energy yes
fix bathfix bath langevin 300.0 300.0 0.05 441030 zero yes tally yes
compute Tfree free_substrate temp
compute Tmobile mobile temp
timestep 0.00002
thermo 100
thermo_style custom step time atoms c_Tfree c_Tmobile pe ke etotal f_bathfix
thermo_modify flush yes
dump tr all custom 500 dumps/impact_Ag_62eV_single.dump id type x y z vx vy vz fx fy fz
dump_modify tr sort id
run 9000
Neighbor list info ...
  update: every = 1 steps, delay = 0 steps, check = yes
  max neighbors/atom: 2000, page size: 100000
  master list distance cutoff = 10
  ghost atom cutoff = 10
  binsize = 5, bins = 12 7 22
  6 neighbor lists, perpetual/occasional/extra = 6 0 0
  (1) pair eam, perpetual, skip from (5)
      attributes: half, newton on
      pair build: skip
      stencil: none
      bin: none
  (2) pair tersoff, perpetual, skip from (6)
      attributes: full, newton on
      pair build: skip
      stencil: none
      bin: none
  (3) pair morse, perpetual, skip from (5)
      attributes: half, newton on
      pair build: skip
      stencil: none
      bin: none
  (4) pair zbl, perpetual, skip from (5)
      attributes: half, newton on
      pair build: skip
      stencil: none
      bin: none
  (5) neighbor class addition, perpetual, half/full from (6)
      attributes: half, newton on
      pair build: halffull/newton/tri
      stencil: none
      bin: none
  (6) neighbor class addition, perpetual
      attributes: full, newton on
      pair build: full/bin/atomonly
      stencil: full/bin/3d
      bin: standard
Per MPI rank memory allocation (min/avg/max) = 13.46 | 13.46 | 13.46 Mbytes
   Step          Time         Atoms       c_Tfree       c_Tmobile        PotEng         KinEng         TotEng       f_bathfix   
         0   0                   4306   304.36295      421.63496     -24947.652      213.96934     -24733.683     -0            
       100   0.002               4306   295.26318      415.97209     -24944.643      211.09557     -24733.547     -0.13559003   
       200   0.004               4306   272.3946       397.71352     -24936.033      201.8298      -24734.203      0.52096713   
       300   0.006               4306   242.39358      374.50241     -24924.23       190.05073     -24734.179      0.49761846   
       400   0.008               4306   212.75248      353.12592     -24913.183      179.20269     -24733.98       0.29848746   
       500   0.01                4306   188.43429      341.12951     -24906.922      173.11481     -24733.807      0.12501834   
       600   0.012               4306   171.00629      341.01853     -24906.151      173.05849     -24733.093     -0.58956865   
       700   0.014               4306   160.31475      345.14343     -24907.247      175.15177     -24732.096     -1.5868145    
       800   0.016               4306   154.08155      345.58988     -24907.352      175.37834     -24731.974     -1.7085647    
       900   0.018               4306   149.7256       347.53844     -24908.186      176.36718     -24731.818     -1.8642327    
      1000   0.02                4306   145.76209      355.2069      -24912.047      180.25874     -24731.788     -1.8945701    
      1100   0.022               4306   141.98556      365.55454     -24917.009      185.50991     -24731.499     -2.1839554    
      1200   0.024               4306   138.36791      369.15716     -24918.751      187.33815     -24731.413     -2.2695343    
      1300   0.026               4306   136.06874      365.3192      -24916.632      185.39048     -24731.241     -2.4409409    
      1400   0.028               4306   136.53538      362.79219     -24915.257      184.10809     -24731.148     -2.5337447    
      1500   0.03                4306   140.4741       369.41488     -24918.257      187.46894     -24730.788     -2.8946965    
      1600   0.032               4306   147.45396      378.93914     -24922.757      192.30227     -24730.455     -3.2280654    
      1700   0.034               4306   156.13066      379.29519     -24923.211      192.48295     -24730.728     -2.954991     
      1800   0.036               4306   164.24734      372.09837     -24919.002      188.83074     -24730.171     -3.5117318    
      1900   0.038               4306   169.82371      365.84046     -24915.328      185.65501     -24729.673     -4.0095026    
      2000   0.04                4306   172.27314      368.54946     -24916.873      187.02976     -24729.843     -3.8398834    
      2100   0.042               4306   171.81351      378.12217     -24920.776      191.88767     -24728.888     -4.7947455    
      2200   0.044               4306   170.04247      376.28645     -24920.002      190.95609     -24729.046     -4.6374947    
      2300   0.046               4306   167.94622      362.71448     -24912.416      184.06865     -24728.347     -5.3366483    
      2400   0.048               4306   167.4186       344.88281     -24903.307      175.01952     -24728.288     -5.3958274    
      2500   0.05                4306   169.60252      338.26324     -24899.396      171.66025     -24727.736     -5.9471061    
      2600   0.052               4306   174.36099      342.299       -24901.429      173.7083      -24727.721     -5.9626301    
      2700   0.054               4306   180.3024       350.32674     -24905.266      177.78218     -24727.483     -6.2003536    
      2800   0.056               4306   186.17739      357.62965     -24908.632      181.48822     -24727.144     -6.5401676    
      2900   0.058               4306   191.23891      368.87874     -24914.198      187.19686     -24727.002     -6.6831341    
      3000   0.06                4306   195.23041      387.00043     -24923.629      196.39317     -24727.236     -6.4478009    
      3100   0.062               4306   198.36232      404.6704      -24933.251      205.36024     -24727.891     -5.7931625    
      3200   0.064               4306   201.59556      412.50537     -24936.945      209.3363      -24727.608     -6.0755107    
      3300   0.066               4306   205.15426      402.65256     -24931.704      204.33624     -24727.367     -6.3163433    
      3400   0.068               4306   209.47244      380.97432     -24921.713      193.33507     -24728.378     -5.3048221    
      3500   0.07                4306   215.10671      366.94822     -24914.07       186.21717     -24727.853     -5.8299459    
      3600   0.072               4306   221.90378      362.4207      -24911.268      183.91956     -24727.348     -6.3350294    
      3700   0.074               4306   228.79902      362.10759     -24911.073      183.76067     -24727.313     -6.3708856    
      3800   0.076               4306   234.9948       361.39897     -24910.896      183.40106     -24727.495     -6.1878415    
      3900   0.078               4306   239.72505      363.35658     -24911.181      184.3945      -24726.787     -6.8969963    
      4000   0.08                4306   243.40555      367.67474     -24913.95       186.58586     -24727.364     -6.319251     
      4100   0.082               4306   246.49243      379.22593     -24919.063      192.4478      -24726.615     -7.0688513    
      4200   0.084               4306   249.67951      387.21231     -24922.972      196.50069     -24726.472     -7.2123728    
      4300   0.086               4306   253.67571      387.5469      -24922.502      196.67049     -24725.832     -7.8524129    
      4400   0.088               4306   258.58943      381.43814     -24918.917      193.57045     -24725.346     -8.3370131    
      4500   0.09                4306   264.41069      377.44612     -24916.817      191.5446      -24725.273     -8.4110215    
      4600   0.092               4306   271.10368      381.51424     -24919.023      193.60907     -24725.414     -8.2699505    
      4700   0.094               4306   277.85971      390.23066     -24923.381      198.03243     -24725.349     -8.3345441    
      4800   0.096               4306   283.65454      396.7428      -24926.438      201.33718     -24725.101     -8.5815379    
      4900   0.098               4306   288.11537      400.26995     -24927.836      203.12712     -24724.709     -8.9751493    
      5000   0.1                 4306   291.79232      403.15611     -24929.65       204.59178     -24725.058     -8.6257894    
      5100   0.102               4306   295.32346      410.05109     -24932.899      208.09081     -24724.809     -8.8760735    
      5200   0.104               4306   299.63587      414.23255     -24934.918      210.2128      -24724.705     -8.979468     
      5300   0.106               4306   304.60365      410.00811     -24932.784      208.069       -24724.715     -8.9705111    
      5400   0.108               4306   308.77993      398.98333     -24927.022      202.4742      -24724.547     -9.1380484    
      5500   0.11                4306   315.33829      387.01781     -24921.079      196.40199     -24724.677     -9.0088226    
      5600   0.112               4306   322.82115      379.67785     -24917.228      192.67714     -24724.551     -9.1344401    
      5700   0.114               4306   335.30456      376.87305     -24916.102      191.25377     -24724.848     -8.8369059    
      5800   0.116               4306   355.14039      379.98358     -24917.375      192.83229     -24724.542     -9.1431191    
      5900   0.118               4306   379.29967      387.27729     -24920.803      196.53367     -24724.269     -9.4154701    
      6000   0.12                4306   399.79997      395.91475     -24925.923      200.91697     -24725.006     -8.6791587    
      6100   0.122               4306   410.20062      406.7398      -24931.481      206.41041     -24725.071     -8.61445      
      6200   0.124               4306   411.08328      414.77129     -24935.477      210.4862      -24724.991     -8.6940336    
      6300   0.126               4306   409.14127      415.37168     -24935.495      210.79088     -24724.704     -8.9806987    
      6400   0.128               4306   421.19192      406.9409      -24931.243      206.51247     -24724.731     -8.9538902    
      6500   0.13                4306   467.90234      396.37915     -24925.904      201.15264     -24724.751     -8.9350898    
      6600   0.132               4306   551.08528      390.65276     -24922.899      198.24664     -24724.652     -9.0336672    
      6700   0.134               4306   631.43754      387.0647      -24921.388      196.42578     -24724.962     -8.724343     
      6800   0.136               4306   678.31026      381.93282     -24919.227      193.82149     -24725.406     -8.2806351    
      6900   0.138               4306   699.51065      375.23946     -24916.287      190.42477     -24725.863     -7.824064     
      7000   0.14                4306   711.4858       368.98607     -24913.587      187.25133     -24726.336     -7.3502368    
      7100   0.142               4306   725.17017      365.61907     -24911.893      185.54266     -24726.35      -7.336366     
      7200   0.144               4306   707.18129      360.21977     -24909.265      182.80265     -24726.463     -7.2235833    
      7300   0.146               4306   660.80861      353.58507     -24906.023      179.4357      -24726.587     -7.0994317    
      7400   0.148               4306   626.6528       348.92793     -24904.062      177.07232     -24726.99      -6.6966772    
      7500   0.15                4306   644.65788      350.7207      -24904.734      177.9821      -24726.752     -6.9342515    
      7600   0.152               4306   682.82093      350.64807     -24904.815      177.94525     -24726.87      -6.8156954    
      7700   0.154               4306   699.75058      344.12356     -24901.593      174.63422     -24726.959     -6.7277028    
      7800   0.156               4306   749.72743      344.7851      -24901.243      174.96993     -24726.273     -7.413409     
      7900   0.158               4306   799.79654      352.0146      -24904.592      178.63872     -24725.953     -7.7329508    
      8000   0.16                4306   773.84253      352.47408     -24904.697      178.8719      -24725.825     -7.8607401    
      8100   0.162               4306   827.35442      361.14456     -24909.464      183.27195     -24726.192     -7.4939145    
      8200   0.164               4306   858.65902      364.13038     -24911.018      184.78719     -24726.231     -7.4549944    
      8300   0.166               4306   874.58012      363.87542     -24910.557      184.6578      -24725.899     -7.7868513    
      8400   0.168               4306   893.97084      361.39019     -24909.686      183.39661     -24726.289     -7.3976073    
      8500   0.17                4306   887.76876      355.42148     -24906.8        180.36763     -24726.432     -7.2547697    
      8600   0.172               4306   855.78676      345.78018     -24901.653      175.47491     -24726.178     -7.5081332    
      8700   0.174               4306   821.91068      335.96767     -24896.528      170.49531     -24726.033     -7.6528819    
      8800   0.176               4306   827.90129      332.89297     -24894.821      168.93497     -24725.886     -7.8002652    
      8900   0.178               4306   841.37479      332.79278     -24895.275      168.88413     -24726.391     -7.2954905    
      9000   0.18                4306   853.20852      338.38784     -24897.38       171.72348     -24725.656     -8.0309771    
Loop time of 259.542 on 1 procs for 9000 steps with 4306 atoms

Performance: 0.060 ns/day, 400.528 hours/ns, 34.676 timesteps/s, 149.317 katom-step/s
100.0% CPU use with 1 MPI tasks x 1 OpenMP threads

MPI task timing breakdown:
Section |  min time  |  avg time  |  max time  |%varavg| %total
---------------------------------------------------------------
Pair    | 257.22     | 257.22     | 257.22     |   0.0 | 99.10
Neigh   | 0.41374    | 0.41374    | 0.41374    |   0.0 |  0.16
Comm    | 0.34351    | 0.34351    | 0.34351    |   0.0 |  0.13
Output  | 0.19127    | 0.19127    | 0.19127    |   0.0 |  0.07
Modify  | 1.1701     | 1.1701     | 1.1701     |   0.0 |  0.45
Other   |            | 0.2062     |            |       |  0.08

Nlocal:           4306 ave        4306 max        4306 min
Histogram: 1 0 0 0 0 0 0 0 0 0
Nghost:           7127 ave        7127 max        7127 min
Histogram: 1 0 0 0 0 0 0 0 0 0
Neighs:              0 ave           0 max           0 min
Histogram: 1 0 0 0 0 0 0 0 0 0

Total # of neighbors = 0
Ave neighs/atom = 0
Neighbor list builds = 16
Dangerous builds = 0
undump tr
write_data structures/impact_Ag_62eV_single.data
System init for write_data ...
write_restart restart/impact_Ag_62eV_single.restart
System init for write_restart ...
Total wall time: 0:04:19
