LAMMPS (30 Sep 2026)
OMP_NUM_THREADS environment is not set. Defaulting to 1 thread.
  using 1 OpenMP thread(s) per MPI task
units metal
dimension 3
atom_style atomic
boundary p p f
read_data structures/impact_continuation_0p05ps.data
Reading data file ...
  triclinic box = (0 0 -10) to (37.285975 32.290601 100) with tilt (-18.642987 0 0)
WARNING: Triclinic box skew is large. LAMMPS will run inefficiently. (src/domain.cpp:214)
  1 by 1 by 1 MPI processor grid
  reading atoms ...
  4306 atoms
  reading velocities ...
  4306 velocities
  read_data CPU = 0.043 seconds
create_atoms 4 single 9.9573898076 24.2578814220 60.0 units box
Created 1 atoms
  using box units in triclinic box = (0 0 -10) to (37.285975 32.290601 100) with tilt (-18.642987 0 0)
  create_atoms CPU = 0.000 seconds
include potentials/potential_stage69.inc
# Stage69 collision-ready candidate potential; no physical run is implied.
# Baseline: Ag EAM + Ti/Si/C TSCBOP + calibrated Ag-interface Morse.
# ZBL is overlaid only in the 0.8-1.5 A short-range window.
pair_style hybrid/overlay eam tersoff morse 8.0 zbl 0.8 1.5
pair_coeff 4 4 eam potentials/Ag_u3.eam
Reading eam potential file potentials/Ag_u3.eam with DATE: 2007-06-11
pair_coeff * * tersoff potentials/TSCBOP.tersoff Ti Si C NULL
pair_coeff 1 4 morse 0.94814194 2.00000000 2.33708864 8.0
pair_coeff 2 4 morse 0.93944948 2.00000000 2.40407837 8.0
pair_coeff 3 4 morse 1.35077230 2.00000000 2.15255924 8.0
pair_coeff 1 4 zbl 22 47
pair_coeff 2 4 zbl 14 47
pair_coeff 3 4 zbl 6 47
pair_coeff 4 4 zbl 47 47
neighbor 2.0 bin
neigh_modify delay 0 every 1 check yes
region fixed_region block INF INF INF INF -10.0 5.0 units box
region sink_region block INF INF INF INF 5.0 15.0 units box
region crater_region cylinder z 9.9573898076 24.2578814220 8.0 12.0 100.0 units box
group projectiles id 4306 4307
2 atoms in group projectiles
group new_projectile id 4307
1 atoms in group new_projectile
group fixed region fixed_region
379 atoms in group fixed
group sink region sink_region
849 atoms in group sink
group mobile subtract all fixed
3928 atoms in group mobile
group crater region crater_region
528 atoms in group crater
group freezone intersect mobile crater
528 atoms in group freezone
group free_substrate subtract freezone projectiles
526 atoms in group free_substrate
group anchored subtract mobile freezone
3400 atoms in group anchored
group bath subtract sink freezone
818 atoms in group bath
velocity new_projectile set 0.0 0.0 -105.3164
fix hold fixed setforce 0.0 0.0 0.0
fix integrate all nve
fix anchor anchored spring/self 100.0
fix_modify anchor energy yes
fix bathfix bath langevin 300.0 300.0 0.05 441034 zero yes tally yes
compute Tfree free_substrate temp
compute Tmobile mobile temp
timestep 0.0001
thermo 100
thermo_style custom step time atoms c_Tfree c_Tmobile pe ke etotal f_bathfix
thermo_modify flush yes
dump tr all custom 100 dumps/impact_2nd_Ag_62eV.dump id type x y z vx vy vz fx fy fz
dump_modify tr sort id
run 1400
Neighbor list info ...
  update: every = 1 steps, delay = 0 steps, check = yes
  max neighbors/atom: 2000, page size: 100000
  master list distance cutoff = 10
  ghost atom cutoff = 10
  binsize = 5, bins = 12 7 22
  6 neighbor lists, perpetual/occasional/extra = 6 0 0
  (1) pair eam, perpetual, skip from (5)
      attributes: half, newton on
      pair build: skip
      stencil: none
      bin: none
  (2) pair tersoff, perpetual, skip from (6)
      attributes: full, newton on
      pair build: skip
      stencil: none
      bin: none
  (3) pair morse, perpetual, skip from (5)
      attributes: half, newton on
      pair build: skip
      stencil: none
      bin: none
  (4) pair zbl, perpetual, skip from (5)
      attributes: half, newton on
      pair build: skip
      stencil: none
      bin: none
  (5) neighbor class addition, perpetual, half/full from (6)
      attributes: half, newton on
      pair build: halffull/newton/tri
      stencil: none
      bin: none
  (6) neighbor class addition, perpetual
      attributes: full, newton on
      pair build: full/bin/atomonly
      stencil: full/bin/3d
      bin: standard
Per MPI rank memory allocation (min/avg/max) = 13.47 | 13.47 | 13.47 Mbytes
   Step          Time         Atoms       c_Tfree       c_Tmobile        PotEng         KinEng         TotEng       f_bathfix   
         0   0                   4307   899.31717      436.81401     -25222.064      221.7288      -25000.335     -0            
       100   0.01                4307   951.25431      358.74797     -25179.077      182.10212     -24996.975     -3.3582749    
       200   0.02                4307   942.89747      432.45766     -25210.952      219.51749     -24991.434     -8.9000853    
       300   0.03                4307   923.64454      415.54309     -25201.066      210.93158     -24990.134     -10.197978    
       400   0.04                4307   957.22595      384.63622     -25182.431      195.24311     -24987.188     -13.14395     
       500   0.05                4307   958.80113      407.12664     -25192.03       206.65935     -24985.371     -14.961       
       600   0.06                4307   952.26859      436.38392     -25204.682      221.51048     -24983.171     -17.163479    
       700   0.07                4307   971.35709      383.97869     -25177.568      194.90935     -24982.658     -17.676161    
       800   0.08                4307   993.03831      408.54748     -25187.448      207.38058     -24980.067     -20.269016    
       900   0.09                4307   988.41526      440.13895     -25202.548      223.41655     -24979.132     -21.204067    
      1000   0.1                 4307   1073.4099      410.44718     -25186.065      208.34487     -24977.72      -22.619364    
      1100   0.11                4307   1086.3526      417.57352     -25189.261      211.96224     -24977.299     -23.038713    
      1200   0.12                4307   1145.2001      455.67724     -25208.77       231.30386     -24977.466     -22.871505    
      1300   0.13                4307   1130.1854      442.30812     -25201.039      224.51763     -24976.521     -23.816519    
      1400   0.14                4307   1158.1793      399.01769     -25178.623      202.54321     -24976.08      -24.259761    
Loop time of 40.8054 on 1 procs for 1400 steps with 4307 atoms

Performance: 0.296 ns/day, 80.963 hours/ns, 34.309 timesteps/s, 147.769 katom-step/s
99.9% CPU use with 1 MPI tasks x 1 OpenMP threads

MPI task timing breakdown:
Section |  min time  |  avg time  |  max time  |%varavg| %total
---------------------------------------------------------------
Pair    | 40.052     | 40.052     | 40.052     |   0.0 | 98.15
Neigh   | 0.35753    | 0.35753    | 0.35753    |   0.0 |  0.88
Comm    | 0.050496   | 0.050496   | 0.050496   |   0.0 |  0.12
Output  | 0.13999    | 0.13999    | 0.13999    |   0.0 |  0.34
Modify  | 0.17734    | 0.17734    | 0.17734    |   0.0 |  0.43
Other   |            | 0.02856    |            |       |  0.07

Nlocal:           4307 ave        4307 max        4307 min
Histogram: 1 0 0 0 0 0 0 0 0 0
Nghost:           7129 ave        7129 max        7129 min
Histogram: 1 0 0 0 0 0 0 0 0 0
Neighs:              0 ave           0 max           0 min
Histogram: 1 0 0 0 0 0 0 0 0 0

Total # of neighbors = 0
Ave neighs/atom = 0
Neighbor list builds = 14
Dangerous builds = 0
undump tr
write_data structures/impact_2nd_Ag_62eV.data
System init for write_data ...
write_restart restart/impact_2nd_Ag_62eV.restart
System init for write_restart ...
Total wall time: 0:00:40
