LAMMPS (30 Sep 2026)
OMP_NUM_THREADS environment is not set. Defaulting to 1 thread.
  using 1 OpenMP thread(s) per MPI task
units metal
dimension 3
atom_style atomic
boundary p p f
read_data structures/nohit_cool_0p05ps.data
Reading data file ...
  triclinic box = (0 0 -10) to (37.285975 32.290601 100) with tilt (-18.642987 0 0)
WARNING: Triclinic box skew is large. LAMMPS will run inefficiently. (src/domain.cpp:214)
  1 by 1 by 1 MPI processor grid
  reading atoms ...
  4305 atoms
  reading velocities ...
  4305 velocities
  read_data CPU = 0.030 seconds
include potentials/potential_stage69.inc
# Stage69 collision-ready candidate potential; no physical run is implied.
# Baseline: Ag EAM + Ti/Si/C TSCBOP + calibrated Ag-interface Morse.
# ZBL is overlaid only in the 0.8-1.5 A short-range window.
pair_style hybrid/overlay eam tersoff morse 8.0 zbl 0.8 1.5
pair_coeff 4 4 eam potentials/Ag_u3.eam
Reading eam potential file potentials/Ag_u3.eam with DATE: 2007-06-11
pair_coeff * * tersoff potentials/TSCBOP.tersoff Ti Si C NULL
pair_coeff 1 4 morse 0.94814194 2.00000000 2.33708864 8.0
pair_coeff 2 4 morse 0.93944948 2.00000000 2.40407837 8.0
pair_coeff 3 4 morse 1.35077230 2.00000000 2.15255924 8.0
pair_coeff 1 4 zbl 22 47
pair_coeff 2 4 zbl 14 47
pair_coeff 3 4 zbl 6 47
pair_coeff 4 4 zbl 47 47
neighbor 2.0 bin
neigh_modify delay 0 every 1 check yes
region fixed_region block INF INF INF INF -10.0 5.0 units box
region sink_region block INF INF INF INF 5.0 15.0 units box
region crater_region cylinder z 9.9573898076 24.2578814220 8.0 12.0 100.0 units box
group fixed region fixed_region
379 atoms in group fixed
group sink region sink_region
844 atoms in group sink
group mobile subtract all fixed
3926 atoms in group mobile
group crater region crater_region
516 atoms in group crater
group freezone intersect mobile crater
516 atoms in group freezone
group anchored subtract mobile freezone
3410 atoms in group anchored
group bath subtract sink freezone
813 atoms in group bath
fix hold fixed setforce 0.0 0.0 0.0
fix integrate all nve
fix anchor anchored spring/self 100.0
fix_modify anchor energy yes
fix bathfix bath langevin 300.0 300.0 0.05 441037 zero yes tally yes
compute Tfree freezone temp
compute Tmobile mobile temp
timestep 0.0001
thermo 100
thermo_style custom step time atoms c_Tfree c_Tmobile pe ke etotal f_bathfix
thermo_modify flush yes
dump tr all custom 200 dumps/nohit_cool_0p10ps.dump id type x y z vx vy vz fx fy fz
dump_modify tr sort id
run 1000
Neighbor list info ...
  update: every = 1 steps, delay = 0 steps, check = yes
  max neighbors/atom: 2000, page size: 100000
  master list distance cutoff = 10
  ghost atom cutoff = 10
  binsize = 5, bins = 12 7 22
  6 neighbor lists, perpetual/occasional/extra = 6 0 0
  (1) pair eam, perpetual, skip from (5)
      attributes: half, newton on
      pair build: skip
      stencil: none
      bin: none
  (2) pair tersoff, perpetual, skip from (6)
      attributes: full, newton on
      pair build: skip
      stencil: none
      bin: none
  (3) pair morse, perpetual, skip from (5)
      attributes: half, newton on
      pair build: skip
      stencil: none
      bin: none
  (4) pair zbl, perpetual, skip from (5)
      attributes: half, newton on
      pair build: skip
      stencil: none
      bin: none
  (5) neighbor class addition, perpetual, half/full from (6)
      attributes: half, newton on
      pair build: halffull/newton/tri
      stencil: none
      bin: none
  (6) neighbor class addition, perpetual
      attributes: full, newton on
      pair build: full/bin/atomonly
      stencil: full/bin/3d
      bin: standard
Per MPI rank memory allocation (min/avg/max) = 13.47 | 13.47 | 13.47 Mbytes
   Step          Time         Atoms       c_Tfree       c_Tmobile        PotEng         KinEng         TotEng       f_bathfix   
         0   0                   4305   774.67773      219.48391     -25465.856      111.3543      -25354.501     -0            
       100   0.01                4305   748.16643      161.66862     -25431.663      82.02194      -25349.641     -4.8583436    
       200   0.02                4305   742.19745      222.48979     -25457.412      112.87932     -25344.532     -9.9684624    
       300   0.03                4305   718.54562      205.87516     -25446.618      104.44995     -25342.168     -12.332801    
       400   0.04                4305   714.10768      177.47844     -25428.713      90.042991     -25338.67      -15.831884    
       500   0.05                4305   721.60622      206.54783     -25440.251      104.79123     -25335.46      -19.040546    
       600   0.06                4305   756.29058      224.80386     -25447.338      114.05336     -25333.285     -21.215245    
       700   0.07                4305   767.46193      193.86312     -25430.522      98.35569      -25332.167     -22.335563    
       800   0.08                4305   783.69934      207.41419     -25434.875      105.23077     -25329.644     -24.858586    
       900   0.09                4305   747.70592      233.54706     -25446.938      118.48918     -25328.449     -26.052046    
      1000   0.1                 4305   814.62302      204.15667     -25431.366      103.57809     -25327.788     -26.713444    
Loop time of 28.5015 on 1 procs for 1000 steps with 4305 atoms

Performance: 0.303 ns/day, 79.171 hours/ns, 35.086 timesteps/s, 151.045 katom-step/s
100.0% CPU use with 1 MPI tasks x 1 OpenMP threads

MPI task timing breakdown:
Section |  min time  |  avg time  |  max time  |%varavg| %total
---------------------------------------------------------------
Pair    | 28.237     | 28.237     | 28.237     |   0.0 | 99.07
Neigh   | 0.024356   | 0.024356   | 0.024356   |   0.0 |  0.09
Comm    | 0.037725   | 0.037725   | 0.037725   |   0.0 |  0.13
Output  | 0.048853   | 0.048853   | 0.048853   |   0.0 |  0.17
Modify  | 0.13016    | 0.13016    | 0.13016    |   0.0 |  0.46
Other   |            | 0.02294    |            |       |  0.08

Nlocal:           4305 ave        4305 max        4305 min
Histogram: 1 0 0 0 0 0 0 0 0 0
Nghost:           7127 ave        7127 max        7127 min
Histogram: 1 0 0 0 0 0 0 0 0 0
Neighs:              0 ave           0 max           0 min
Histogram: 1 0 0 0 0 0 0 0 0 0

Total # of neighbors = 0
Ave neighs/atom = 0
Neighbor list builds = 1
Dangerous builds = 0
undump tr
write_data structures/nohit_cool_0p10ps.data
System init for write_data ...
write_restart restart/nohit_cool_0p10ps.restart
System init for write_restart ...
Total wall time: 0:00:28
