LAMMPS (30 Sep 2026)
OMP_NUM_THREADS environment is not set. Defaulting to 1 thread.
  using 1 OpenMP thread(s) per MPI task
units metal
dimension 3
atom_style atomic
boundary p p f
read_data structures/nohit_8shot_control_0p14ps.data
Reading data file ...
  triclinic box = (0 0 -10) to (37.285975 32.290601 100) with tilt (-18.642987 0 0)
WARNING: Triclinic box skew is large. LAMMPS will run inefficiently. (src/domain.cpp:214)
  1 by 1 by 1 MPI processor grid
  reading atoms ...
  4305 atoms
  reading velocities ...
  4305 velocities
  read_data CPU = 0.054 seconds
include potentials/potential_stage69.inc
# Stage69 collision-ready candidate potential; no physical run is implied.
# Baseline: Ag EAM + Ti/Si/C TSCBOP + calibrated Ag-interface Morse.
# ZBL is overlaid only in the 0.8-1.5 A short-range window.
pair_style hybrid/overlay eam tersoff morse 8.0 zbl 0.8 1.5
pair_coeff 4 4 eam potentials/Ag_u3.eam
Reading eam potential file potentials/Ag_u3.eam with DATE: 2007-06-11
pair_coeff * * tersoff potentials/TSCBOP.tersoff Ti Si C NULL
pair_coeff 1 4 morse 0.94814194 2.00000000 2.33708864 8.0
pair_coeff 2 4 morse 0.93944948 2.00000000 2.40407837 8.0
pair_coeff 3 4 morse 1.35077230 2.00000000 2.15255924 8.0
pair_coeff 1 4 zbl 22 47
pair_coeff 2 4 zbl 14 47
pair_coeff 3 4 zbl 6 47
pair_coeff 4 4 zbl 47 47
neighbor 2.0 bin
neigh_modify delay 0 every 1 check yes
region fixed_region block INF INF INF INF -10.0 5.0 units box
region sink_region block INF INF INF INF 5.0 15.0 units box
region crater_region cylinder z 9.9573898076 24.2578814220 8.0 12.0 100.0 units box
group fixed region fixed_region
379 atoms in group fixed
group sink region sink_region
835 atoms in group sink
group mobile subtract all fixed
3926 atoms in group mobile
group crater region crater_region
509 atoms in group crater
group freezone intersect mobile crater
509 atoms in group freezone
group anchored subtract mobile freezone
3417 atoms in group anchored
group bath subtract sink freezone
805 atoms in group bath
fix hold fixed setforce 0.0 0.0 0.0
fix integrate all nve
fix anchor anchored spring/self 100.0
fix_modify anchor energy yes
fix bathfix bath langevin 300.0 300.0 0.05 441044 zero yes tally yes
compute Tfree freezone temp
compute Tmobile mobile temp
timestep 0.0001
thermo 100
thermo_style custom step time atoms c_Tfree c_Tmobile pe ke etotal f_bathfix
thermo_modify flush yes
dump tr all custom 200 dumps/nohit_8shot_final_cool_0p10ps.dump id type x y z vx vy vz fx fy fz
dump_modify tr sort id
run 1000
Neighbor list info ...
  update: every = 1 steps, delay = 0 steps, check = yes
  max neighbors/atom: 2000, page size: 100000
  master list distance cutoff = 10
  ghost atom cutoff = 10
  binsize = 5, bins = 12 7 22
  6 neighbor lists, perpetual/occasional/extra = 6 0 0
  (1) pair eam, perpetual, skip from (5)
      attributes: half, newton on
      pair build: skip
      stencil: none
      bin: none
  (2) pair tersoff, perpetual, skip from (6)
      attributes: full, newton on
      pair build: skip
      stencil: none
      bin: none
  (3) pair morse, perpetual, skip from (5)
      attributes: half, newton on
      pair build: skip
      stencil: none
      bin: none
  (4) pair zbl, perpetual, skip from (5)
      attributes: half, newton on
      pair build: skip
      stencil: none
      bin: none
  (5) neighbor class addition, perpetual, half/full from (6)
      attributes: half, newton on
      pair build: halffull/newton/tri
      stencil: none
      bin: none
  (6) neighbor class addition, perpetual
      attributes: full, newton on
      pair build: full/bin/atomonly
      stencil: full/bin/3d
      bin: standard
Per MPI rank memory allocation (min/avg/max) = 13.47 | 13.47 | 13.47 Mbytes
   Step          Time         Atoms       c_Tfree       c_Tmobile        PotEng         KinEng         TotEng       f_bathfix   
         0   0                   4305   855.78962      215.27712     -25774.824      109.22        -25665.604     -0            
       100   0.01                4305   821.72568      187.2622      -25757.284      95.00674      -25662.277     -3.3218914    
       200   0.02                4305   826.08012      178.60383     -25747.347      90.613952     -25656.733     -8.866662     
       300   0.03                4305   889.26247      200.76587     -25753.914      101.85777     -25652.057     -13.542464    
       400   0.04                4305   862.79449      220.84945     -25761.2        112.0471      -25649.153     -16.447769    
       500   0.05                4305   820.96672      186.21385     -25742.102      94.474863     -25647.627     -17.972155    
       600   0.06                4305   813.10213      188.92172     -25740.599      95.84869      -25644.751     -20.848547    
       700   0.07                4305   836.03872      223.10578     -25756.476      113.19184     -25643.284     -22.314893    
       800   0.08                4305   865.23059      204.80615     -25746.962      103.9076      -25643.055     -22.544404    
       900   0.09                4305   853.15876      193.0688      -25740.135      97.952697     -25642.183     -23.415889    
      1000   0.1                 4305   869.58259      219.27526     -25753.094      111.24844     -25641.846     -23.75184     
Loop time of 28.6917 on 1 procs for 1000 steps with 4305 atoms

Performance: 0.301 ns/day, 79.699 hours/ns, 34.853 timesteps/s, 150.043 katom-step/s
99.9% CPU use with 1 MPI tasks x 1 OpenMP threads

MPI task timing breakdown:
Section |  min time  |  avg time  |  max time  |%varavg| %total
---------------------------------------------------------------
Pair    | 28.454     | 28.454     | 28.454     |   0.0 | 99.17
Neigh   | 0          | 0          | 0          |   0.0 |  0.00
Comm    | 0.037784   | 0.037784   | 0.037784   |   0.0 |  0.13
Output  | 0.04929    | 0.04929    | 0.04929    |   0.0 |  0.17
Modify  | 0.12951    | 0.12951    | 0.12951    |   0.0 |  0.45
Other   |            | 0.02079    |            |       |  0.07

Nlocal:           4305 ave        4305 max        4305 min
Histogram: 1 0 0 0 0 0 0 0 0 0
Nghost:           7130 ave        7130 max        7130 min
Histogram: 1 0 0 0 0 0 0 0 0 0
Neighs:              0 ave           0 max           0 min
Histogram: 1 0 0 0 0 0 0 0 0 0

Total # of neighbors = 0
Ave neighs/atom = 0
Neighbor list builds = 0
Dangerous builds = 0
undump tr
write_data structures/nohit_8shot_final_cool_0p10ps.data
System init for write_data ...
write_restart restart/nohit_8shot_final_cool_0p10ps.restart
System init for write_restart ...
Total wall time: 0:00:28
