LAMMPS (30 Sep 2026)
OMP_NUM_THREADS environment is not set. Defaulting to 1 thread.
  using 1 OpenMP thread(s) per MPI task
units metal
dimension 3
atom_style atomic
boundary p p f
read_data structures/nohit_continuation_0p05ps.data
Reading data file ...
  triclinic box = (0 0 -10) to (37.285975 32.290601 100) with tilt (-18.642987 0 0)
WARNING: Triclinic box skew is large. LAMMPS will run inefficiently. (src/domain.cpp:214)
  1 by 1 by 1 MPI processor grid
  reading atoms ...
  4305 atoms
  reading velocities ...
  4305 velocities
  read_data CPU = 0.042 seconds
include potentials/potential_stage69.inc
# Stage69 collision-ready candidate potential; no physical run is implied.
# Baseline: Ag EAM + Ti/Si/C TSCBOP + calibrated Ag-interface Morse.
# ZBL is overlaid only in the 0.8-1.5 A short-range window.
pair_style hybrid/overlay eam tersoff morse 8.0 zbl 0.8 1.5
pair_coeff 4 4 eam potentials/Ag_u3.eam
Reading eam potential file potentials/Ag_u3.eam with DATE: 2007-06-11
pair_coeff * * tersoff potentials/TSCBOP.tersoff Ti Si C NULL
pair_coeff 1 4 morse 0.94814194 2.00000000 2.33708864 8.0
pair_coeff 2 4 morse 0.93944948 2.00000000 2.40407837 8.0
pair_coeff 3 4 morse 1.35077230 2.00000000 2.15255924 8.0
pair_coeff 1 4 zbl 22 47
pair_coeff 2 4 zbl 14 47
pair_coeff 3 4 zbl 6 47
pair_coeff 4 4 zbl 47 47
neighbor 2.0 bin
neigh_modify delay 0 every 1 check yes
region fixed_region block INF INF INF INF -10.0 5.0 units box
region sink_region block INF INF INF INF 5.0 15.0 units box
region crater_region cylinder z 9.9573898076 24.2578814220 8.0 12.0 100.0 units box
group fixed region fixed_region
379 atoms in group fixed
group sink region sink_region
848 atoms in group sink
group mobile subtract all fixed
3926 atoms in group mobile
group crater region crater_region
526 atoms in group crater
group freezone intersect mobile crater
526 atoms in group freezone
group anchored subtract mobile freezone
3400 atoms in group anchored
group bath subtract sink freezone
817 atoms in group bath
fix hold fixed setforce 0.0 0.0 0.0
fix integrate all nve
fix anchor anchored spring/self 100.0
fix_modify anchor energy yes
fix bathfix bath langevin 300.0 300.0 0.05 441034 zero yes tally yes
compute Tfree freezone temp
compute Tmobile mobile temp
timestep 0.0001
thermo 100
thermo_style custom step time atoms c_Tfree c_Tmobile pe ke etotal f_bathfix
thermo_modify flush yes
dump tr all custom 200 dumps/nohit_2shot_control_0p14ps.dump id type x y z vx vy vz fx fy fz
dump_modify tr sort id
run 1400
Neighbor list info ...
  update: every = 1 steps, delay = 0 steps, check = yes
  max neighbors/atom: 2000, page size: 100000
  master list distance cutoff = 10
  ghost atom cutoff = 10
  binsize = 5, bins = 12 7 22
  6 neighbor lists, perpetual/occasional/extra = 6 0 0
  (1) pair eam, perpetual, skip from (5)
      attributes: half, newton on
      pair build: skip
      stencil: none
      bin: none
  (2) pair tersoff, perpetual, skip from (6)
      attributes: full, newton on
      pair build: skip
      stencil: none
      bin: none
  (3) pair morse, perpetual, skip from (5)
      attributes: half, newton on
      pair build: skip
      stencil: none
      bin: none
  (4) pair zbl, perpetual, skip from (5)
      attributes: half, newton on
      pair build: skip
      stencil: none
      bin: none
  (5) neighbor class addition, perpetual, half/full from (6)
      attributes: half, newton on
      pair build: halffull/newton/tri
      stencil: none
      bin: none
  (6) neighbor class addition, perpetual
      attributes: full, newton on
      pair build: full/bin/atomonly
      stencil: full/bin/3d
      bin: standard
Per MPI rank memory allocation (min/avg/max) = 13.47 | 13.47 | 13.47 Mbytes
   Step          Time         Atoms       c_Tfree       c_Tmobile        PotEng         KinEng         TotEng       f_bathfix   
         0   0                   4305   440.54293      251.14811     -25252.875      127.41901     -25125.456     -0            
       100   0.01                4305   467.15744      173.29782     -25209.005      87.921969     -25121.083     -4.3704585    
       200   0.02                4305   451.43888      243.70969     -25239.028      123.64515     -25115.383     -10.072291    
       300   0.03                4305   442.39011      230.72031     -25229.402      117.05504     -25112.347     -13.107525    
       400   0.04                4305   444.62837      192.22586     -25208.206      97.525035     -25110.681     -14.772616    
       500   0.05                4305   434.05026      212.21993     -25216.176      107.66895     -25108.507     -16.944956    
       600   0.06                4305   430.51896      242.67275     -25229.12       123.11907     -25106.001     -19.45095     
       700   0.07                4305   439.19706      192.25487     -25202.355      97.539751     -25104.815     -20.635001    
       800   0.08                4305   477.22229      215.04255     -25212.083      109.10099     -25102.982     -22.467439    
       900   0.09                4305   497.28685      253.72141     -25229.964      128.72456     -25101.24      -24.210952    
      1000   0.1                 4305   524.17977      214.39014     -25209.06       108.77        -25100.29      -25.159851    
      1100   0.11                4305   529.9356       219.4276      -25210.926      111.32573     -25099.6       -25.848924    
      1200   0.12                4305   531.95699      250.40122     -25225.981      127.04008     -25098.941     -26.508809    
      1300   0.13                4305   527.02288      228.49557     -25216.417      115.92633     -25100.491     -24.958124    
      1400   0.14                4305   510.95222      199.61823     -25201.79       101.27552     -25100.514     -24.934109    
Loop time of 41.003 on 1 procs for 1400 steps with 4305 atoms

Performance: 0.295 ns/day, 81.355 hours/ns, 34.144 timesteps/s, 146.989 katom-step/s
99.9% CPU use with 1 MPI tasks x 1 OpenMP threads

MPI task timing breakdown:
Section |  min time  |  avg time  |  max time  |%varavg| %total
---------------------------------------------------------------
Pair    | 40.588     | 40.588     | 40.588     |   0.0 | 98.99
Neigh   | 0.061755   | 0.061755   | 0.061755   |   0.0 |  0.15
Comm    | 0.055385   | 0.055385   | 0.055385   |   0.0 |  0.14
Output  | 0.075093   | 0.075093   | 0.075093   |   0.0 |  0.18
Modify  | 0.19099    | 0.19099    | 0.19099    |   0.0 |  0.47
Other   |            | 0.03215    |            |       |  0.08

Nlocal:           4305 ave        4305 max        4305 min
Histogram: 1 0 0 0 0 0 0 0 0 0
Nghost:           7126 ave        7126 max        7126 min
Histogram: 1 0 0 0 0 0 0 0 0 0
Neighs:              0 ave           0 max           0 min
Histogram: 1 0 0 0 0 0 0 0 0 0

Total # of neighbors = 0
Ave neighs/atom = 0
Neighbor list builds = 2
Dangerous builds = 0
undump tr
write_data structures/nohit_2shot_control_0p14ps.data
System init for write_data ...
write_restart restart/nohit_2shot_control_0p14ps.restart
System init for write_restart ...
Total wall time: 0:00:41
