32
Lattice="8.1799999999999997 0 0 0 8.1799999999999997 0 0 0 8.1799999999999997" Properties=species:S:1:pos:R:3:PW_PBE_forces:R:3:local_new_id:I:1 pbc="T T T" PW_PBE_energy_eV=-91.402401849997858 config_type=Ag_baseline_k8x8x8_v19
Ag 0 0 0 -1.0384603748693034e-26 4.3269182286220972e-27 -1.0384603748693034e-26 1
Ag 0 2.0449999999999999 2.0449999999999999 0 5.6998116579715047e-06 5.6998116579715022e-06 2
Ag 2.0449999999999999 0 2.0449999999999999 5.699811657971503e-06 3.8544187580565643e-24 5.6998116579715047e-06 3
Ag 2.0449999999999999 2.0449999999999999 0 5.6998116579715022e-06 5.699811657971503e-06 2.2153821330545137e-25 4
Ag 0 0 4.0899999999999999 0 0 -1.0384603748693034e-26 5
Ag 0 2.0449999999999999 6.1349999999999998 8.8615285322180548e-25 5.6998116579715047e-06 -5.6998116579715022e-06 6
Ag 2.0449999999999999 0 6.1349999999999998 5.699811657971503e-06 3.5446114128872219e-24 -5.6998116579715047e-06 7
Ag 2.0449999999999999 2.0449999999999999 4.0899999999999999 1.9118839171160141e-05 1.9118839171160148e-05 0 8
Ag 0 4.0899999999999999 0 0 -1.0384603748693034e-26 0 9
Ag 0 6.1349999999999998 2.0449999999999999 2.2153821330545138e-24 -5.6998116579715022e-06 5.6998116579715047e-06 10
Ag 2.0449999999999999 4.0899999999999999 2.0449999999999999 1.9118839171160141e-05 -7.0892228257744438e-24 1.9118839171160145e-05 11
Ag 2.0449999999999999 6.1349999999999998 0 5.6998116579715022e-06 -5.6998116579715013e-06 0 12
Ag 0 4.0899999999999999 4.0899999999999999 5.1923018743465168e-27 0 0 13
Ag 0 6.1349999999999998 6.1349999999999998 3.5446114128872219e-24 -5.6998116579715022e-06 -5.6998116579715047e-06 14
Ag 2.0449999999999999 4.0899999999999999 6.1349999999999998 1.9118839171160138e-05 1.3292292798327083e-24 -1.9118839171160145e-05 15
Ag 2.0449999999999999 6.1349999999999998 4.0899999999999999 1.9118839171160138e-05 -1.9118839171160152e-05 1.3292292798327083e-24 16
Ag 4.0899999999999999 0 0 -1.0384603748693034e-26 0 0 17
Ag 4.0899999999999999 2.0449999999999999 2.0449999999999999 -5.3169171193308332e-24 1.9118839171160141e-05 1.9118839171160145e-05 18
Ag 6.1349999999999998 0 2.0449999999999999 -5.6998116579715022e-06 1.772305706443611e-24 5.6998116579715022e-06 19
Ag 6.1349999999999998 2.0449999999999999 0 -5.6998116579715022e-06 5.6998116579715047e-06 0 20
Ag 4.0899999999999999 0 4.0899999999999999 0 5.1923018743465168e-27 0 21
Ag 4.0899999999999999 2.0449999999999999 6.1349999999999998 1.4123061098222525e-24 1.9118839171160141e-05 -1.9118839171160141e-05 22
Ag 6.1349999999999998 0 6.1349999999999998 -5.6998116579715022e-06 2.5970163208189828e-24 -5.6998116579715047e-06 23
Ag 6.1349999999999998 2.0449999999999999 4.0899999999999999 -1.9118839171160145e-05 1.9118839171160148e-05 -4.4307642661090274e-25 24
Ag 4.0899999999999999 4.0899999999999999 0 2.7692276663181421e-26 0 5.1923018743465168e-27 25
Ag 4.0899999999999999 6.1349999999999998 2.0449999999999999 1.3846138331590711e-25 -1.9118839171160141e-05 1.9118839171160145e-05 26
Ag 6.1349999999999998 4.0899999999999999 2.0449999999999999 -1.9118839171160141e-05 3.1015349862763194e-24 1.9118839171160152e-05 27
Ag 6.1349999999999998 6.1349999999999998 0 -5.6998116579715013e-06 -5.6998116579715005e-06 8.8615285322180548e-25 28
Ag 4.0899999999999999 4.0899999999999999 4.0899999999999999 -5.1923018743465168e-27 -1.3846138331590711e-26 -6.9230691657953553e-27 29
Ag 4.0899999999999999 6.1349999999999998 6.1349999999999998 3.5446114128872219e-24 -1.9118839171160141e-05 -1.9118839171160145e-05 30
Ag 6.1349999999999998 4.0899999999999999 6.1349999999999998 -1.9118839171160138e-05 3.5446114128872219e-24 -1.9118839171160152e-05 31
Ag 6.1349999999999998 6.1349999999999998 4.0899999999999999 -1.9118839171160141e-05 -1.9118839171160145e-05 3.5446114128872219e-24 32
