52
Lattice="6.1150000000000002 0 0 -3.0574999999999988 5.2957453441418432 0 0 0 34.205876500000002" Properties=species:S:1:pos:R:3:PW_PBE_forces:R:3:lammps_id:I:1:central_pair:I:1 pbc="T T T" PW_PBE_energy_eV=-390.49894690525127 config_type=AgSi_COD9009647_pilot_k5x5
Ti 0 0 10.388251500000001 1.7423747657767381e-05 8.0979909229487092e-06 0.1632930146531239 19101000 0
Ti 0 0 19.200001499999999 -0.00030703382583100982 -0.00026960287893317356 -0.029287843742480717 19101001 0
Ti 1.5287652899999999 0.88261540000000005 12.77623575 -0.00031827835064460018 0.00014602088316781835 -0.2998649764138045 19101002 0
Ti 0 1.7652308000000001 21.587985750000001 0.010534158295251355 0.0078312379609574764 -0.069403281665964461 19101003 0
Ti 1.5287500000000001 0.88264187999999999 16.81201725 -0.0011668980588730932 -0.00090381562427846007 0.058019732209935622 19101004 0
Ti -1.5290000000000001e-05 1.76525727 8.0002672500000003 0.00026051095377689664 -0.00014447347816020606 0.56598487782794626 19101005 0
Si 0 0 14.794126500000001 0.00025717972655817003 0.00013479708033720686 0.07290836815264036 19101006 0
Si 0 0 23.605876500000001 0.041489889305991831 0.020609592739575355 0.93751381889800756 19101007 1
C -1.5290000000000001e-05 1.76525727 11.6606682 0.00033408134773105821 -0.00010796650452522454 0.1802187801319676 19101008 0
C 1.5287500000000001 0.88264187999999999 20.4724182 -0.0028384158446078727 -0.0020482535767040355 0.091626143687253997 19101009 0
C 0 1.7652308000000001 17.927584800000002 0.0011459986563721214 0.001120939058071728 -0.10714766410166879 19101010 0
C 1.5287652899999999 0.88261540000000005 9.1158348 -0.00030106932625580736 0.00011438225672053311 -0.90472410858441998 19101011 0
Ti -1.5287500000000001 2.6478726699999999 10.388251500000001 1.6992399445387702e-05 8.2637734962953214e-06 0.16329396075783828 19101012 0
Ti -1.5287500000000001 2.6478726699999999 19.200001499999999 -0.0003065282482984613 -0.00026994859277605215 -0.029287651645673866 19101013 0
Ti 1.5290000000000001e-05 3.5304880700000001 12.77623575 -0.00031620182648752138 0.00014484062844988548 -0.29986485417579722 19101014 0
Ti -1.5287500000000001 4.4131034700000003 21.587985750000001 0.010533830138417679 0.0078339111122576379 -0.069401238093159054 19101015 0
Ti 0 3.5305145499999999 16.81201725 -0.0011649482755131332 -0.00090469652735026488 0.058016632916997421 19101016 0
Ti -1.5287652899999999 4.4131299500000001 8.0002672500000003 0.0002599263353096628 -0.00014494469551285118 0.56598299982096922 19101017 0
Si -1.5287500000000001 2.6478726699999999 14.794126500000001 0.00025728176766856678 0.00013515183514518518 0.072909889997994207 19101018 0
Si -1.5287500000000001 2.6478726699999999 23.605876500000001 0.041489089472741596 0.020609285609463138 0.93751384495067958 19101019 0
C -1.5287652899999999 4.4131299500000001 11.6606682 0.00033134227554892221 -0.00010878361528135476 0.18021834047654359 19101020 0
C 0 3.5305145499999999 20.4724182 -0.0028368489869583877 -0.0020446418565052901 0.091624686869840169 19101021 0
C -1.5287500000000001 4.4131034700000003 17.927584800000002 0.0011456306165598528 0.0011218444692897131 -0.10714713838551666 19101022 0
C 1.5290000000000001e-05 3.5304880700000001 9.1158348 -0.00030328651612711679 0.00011625153733996313 -0.90472380231669403 19101023 0
Ti 3.0575000000000001 0 10.388251500000001 1.7410827611236762e-05 8.0921502966549364e-06 0.16329301145595021 19101024 0
Ti 3.0575000000000001 0 19.200001499999999 -0.00030702508984573827 -0.00026959809803638176 -0.029287845652174748 19101025 0
Ti 4.58626529 0.88261540000000005 12.77623575 -0.00031829232296012801 0.00014600636565260789 -0.29986486704681409 19101026 0
Ti 3.0575000000000001 1.7652308000000001 21.587985750000001 0.010534171724014054 0.007831230032801402 -0.069403270642249618 19101027 0
Ti 4.5862499999999997 0.88264187999999999 16.81201725 -0.0011669124170312355 -0.00090379828184116687 0.058019751494561393 19101028 0
Ti 3.0574847100000002 1.76525727 8.0002672500000003 0.0002604587228528856 -0.00014444008077404343 0.56598464870711818 19101029 0
Si 3.0575000000000001 0 14.794126500000001 0.00025715876362614757 0.00013479296145595696 0.072908374545509705 19101030 0
Si 3.0575000000000001 0 23.605876500000001 0.04148990070016411 0.020609598683948929 0.93751380603904566 19101031 0
C 3.0574847100000002 1.76525727 11.6606682 0.00033405872172344216 -0.00010796289792794087 0.18021877977627074 19101032 0
C 4.5862499999999997 0.88264187999999999 20.4724182 -0.0028384230712289035 -0.002048263424451319 0.09162615124344009 19101033 0
C 3.0575000000000001 1.7652308000000001 17.927584800000002 0.001145963253573331 0.0011209269232539672 -0.10714765047770033 19101034 0
C 4.58626529 0.88261540000000005 9.1158348 -0.00030106981155562045 0.00011433998837655569 -0.90472414020326919 19101035 0
Ti 1.5287500000000001 2.6478726699999999 10.388251500000001 1.6987855361874241e-05 8.2621363938365088e-06 0.16329390129489169 19101036 0
Ti 1.5287500000000001 2.6478726699999999 19.200001499999999 -0.00030652592539929082 -0.00026992687770166409 -0.029287690662018983 19101037 0
Ti 3.05751529 3.5304880700000001 12.77623575 -0.00031621896710880981 0.00014485404177322001 -0.29986481836754136 19101038 0
Ti 1.5287500000000001 4.4131034700000003 21.587985750000001 0.01053383025287727 0.0078339377143147072 -0.069401258371376229 19101039 0
Ti 3.0575000000000001 3.5305145499999999 16.81201725 -0.0011649370686333551 -0.00090469783848956141 0.058016683114251608 19101040 0
Ti 1.5287347099999999 4.4131299500000001 8.0002672500000003 0.00025981971987580827 -0.00014500038622878789 0.56598331427519699 19101041 0
Si 1.5287500000000001 2.6478726699999999 14.794126500000001 0.00025727078385790234 0.0001351428265042598 0.072909906243982761 19101042 0
Si 1.5287500000000001 2.6478726699999999 23.605876500000001 0.041489105806701836 0.020609291532819131 0.93751385839150603 19101043 0
C 1.5287347099999999 4.4131299500000001 11.6606682 0.00033134539705301978 -0.00010879055332226727 0.18021833874233428 19101044 0
C 3.0575000000000001 3.5305145499999999 20.4724182 -0.0028368737504456038 -0.0020446453187060068 0.091624688942569227 19101045 0
C 1.5287500000000001 4.4131034700000003 17.927584800000002 0.0011456129050523261 0.0011218243640664881 -0.10714711723029428 19101046 0
C 3.05751529 3.5304880700000001 9.1158348 -0.00030335788376800542 0.00011625557414452622 -0.90472380347754389 19101047 0
Ag 0.81023750000000005 0.55605325999999999 26.205876499999999 -0.048804625684678353 -0.026122021574987043 -0.65800858567789733 19101048 1
Ag -0.7185125 3.20392593 26.205876499999999 -0.048790140544027548 -0.026121151407171781 -0.6580102122261462 19101049 0
Ag 3.8677375000000001 0.55605325999999999 26.205876499999999 -0.048804977468957671 -0.026122203863468946 -0.65800880250931215 19101050 0
Ag 2.3389875 3.20392593 26.205876499999999 -0.048790183664079528 -0.026121065683414112 -0.65801055925634844 19101051 0
