32
Lattice="8.1799999999999997 0 0 0 8.1799999999999997 0 0 0 8.1799999999999997" Properties=species:S:1:pos:R:3:PW_PBE_forces:R:3:local_new_id:I:1 pbc="T T T" PW_PBE_energy_eV=-91.445952049988321 config_type=Ag_displacement_m01_k6x6x6_v19
Ag -0.01 0 0 0.058626569310230865 0 0 1
Ag 0 2.0449999999999999 2.0449999999999999 0.0014948636323447626 -2.0828414622719044e-06 -2.0828414622719099e-06 2
Ag 2.0449999999999999 0 2.0449999999999999 -0.0076746662450502649 -1.0889046260389546e-20 -0.009009591394848436 3
Ag 2.0449999999999999 2.0449999999999999 0 -0.0076746662450502675 -0.009009591394848436 0 4
Ag 0 0 4.0899999999999999 0.00032030160564942091 0 0 5
Ag 0 2.0449999999999999 6.1349999999999998 0.0014948636323447631 -2.0828414622719154e-06 2.0828414622718989e-06 6
Ag 2.0449999999999999 0 6.1349999999999998 -0.0076746662450502675 -5.4445231301947732e-21 0.009009591394848436 7
Ag 2.0449999999999999 2.0449999999999999 4.0899999999999999 -0.00011504970670018336 -0.00024294639363526958 1.3611307825486933e-21 8
Ag 0 4.0899999999999999 0 0.00032030160564942091 1.3611307825486933e-21 0 9
Ag 0 6.1349999999999998 2.0449999999999999 0.0014948636323447628 2.0828414622719044e-06 -2.0828414622719044e-06 10
Ag 2.0449999999999999 4.0899999999999999 2.0449999999999999 -0.00011504970670018336 1.3611307825486933e-21 -0.00024294639363526958 11
Ag 2.0449999999999999 6.1349999999999998 0 -0.0076746662450502658 0.009009591394848436 0 12
Ag 0 4.0899999999999999 4.0899999999999999 -0.00014528697065890908 -2.1778092520779093e-20 0 13
Ag 0 6.1349999999999998 6.1349999999999998 0.0014948636323447631 2.0828414622719044e-06 2.0828414622719154e-06 14
Ag 2.0449999999999999 4.0899999999999999 6.1349999999999998 -0.00011504970670018336 2.7222615650973866e-21 0.00024294639363526958 15
Ag 2.0449999999999999 6.1349999999999998 4.0899999999999999 -0.00011504970670018336 0.00024294639363526958 2.7222615650973866e-21 16
Ag 4.0899999999999999 0 0 -0.0011896283069720885 -1.0889046260389546e-20 0 17
Ag 4.0899999999999999 2.0449999999999999 2.0449999999999999 -0.00040933745080793077 -4.6842792819868805e-06 -4.6842792819868729e-06 18
Ag 6.1349999999999998 0 2.0449999999999999 -0.0079056008175192472 -8.1667846952921595e-21 0.0093152659488871924 19
Ag 6.1349999999999998 2.0449999999999999 0 -0.007905600817519249 0.0093152659488871924 2.7222615650973866e-21 20
Ag 4.0899999999999999 0 4.0899999999999999 0.00030516082254201129 0 0 21
Ag 4.0899999999999999 2.0449999999999999 6.1349999999999998 -0.00040933745080793077 -4.6842792819868695e-06 4.6842792819868729e-06 22
Ag 6.1349999999999998 0 6.1349999999999998 -0.0079056008175192472 -1.0889046260389546e-20 -0.0093152659488871924 23
Ag 6.1349999999999998 2.0449999999999999 4.0899999999999999 -0.0001049072480308135 0.00021725346800174601 0 24
Ag 4.0899999999999999 4.0899999999999999 0 0.00030516082254201129 0 0 25
Ag 4.0899999999999999 6.1349999999999998 2.0449999999999999 -0.00040933745080793077 4.6842792819868805e-06 -4.6842792819868831e-06 26
Ag 6.1349999999999998 4.0899999999999999 2.0449999999999999 -0.00010490724803081353 0 0.00021725346800174596 27
Ag 6.1349999999999998 6.1349999999999998 0 -0.0079056008175192472 -0.0093152659488871924 0 28
Ag 4.0899999999999999 4.0899999999999999 4.0899999999999999 0.00035925833375825432 0 0 29
Ag 4.0899999999999999 6.1349999999999998 6.1349999999999998 -0.00040933745080793077 4.684279281986878e-06 4.6842792819868797e-06 30
Ag 6.1349999999999998 4.0899999999999999 6.1349999999999998 -0.00010490724803081353 -1.3611307825486933e-21 -0.00021725346800174601 31
Ag 6.1349999999999998 6.1349999999999998 4.0899999999999999 -0.00010490724803081353 -0.00021725346800174601 -1.3611307825486933e-21 32
