ITEM: TIMESTEP
0
ITEM: NUMBER OF ATOMS
4585
ITEM: BOX BOUNDS xy xz yz pp pp ff
-1.8642987430510001e+01 3.7285974861020001e+01 -1.8642987430510001e+01
0.0000000000000000e+00 3.2290601434510997e+01 0.0000000000000000e+00
-1.0000000000000000e+01 1.0000000000000000e+02 0.0000000000000000e+00
ITEM: ATOMS id type x y z vx vy vz fx fy fz
1 2 18.5461 32.2699 3.94166 0 0 0 0 0 0
2 1 0.0316457 1.74732 2.06017 0 0 0 0 0 0
3 3 1.1639 0.795549 0.610904 0 0 0 0 0 0
4 1 0.188269 1.85961 5.55948 0 0 0 0 0 0
5 1 -1.41434 2.75991 7.84307 0 0 0 0 0 0
6 1 0.16813 0.104468 17.9007 0.108865 3.79878 -2.20957 -3.75083 -5.96747 -0.528497
7 1 1.70158 1.1621 15.2986 0.854933 -0.90424 1.49042 5.49535 8.17525 3.89172
8 3 0.663781 1.96882 16.8492 7.65903 -0.214946 6.33069 3.63128 2.9766 -9.62537
9 2 -1.48356 2.59233 3.85583 0 0 0 0 0 0
10 1 -0.804532 4.5239 10.739 1.84608 -0.0169053 -2.61319 15.4855 -3.41715 -7.65339
11 3 -1.61347 5.63313 9.2831 2.76222 6.69919 6.10461 8.34776 -1.54692 0.21576
12 3 0.274166 3.76233 7.18554 0 0 0 0 0 0
13 1 -1.23752 2.8372 16.9867 -1.13948 -1.65676 0.783901 8.47479 9.98844 -1.08316
14 2 0.130183 5.67365 12.8367 -2.13934 2.41331 -3.641 7.85462 -0.473382 10.1157
15 3 -1.48004 4.77145 16.3234 -4.18237 -8.1383 1.81421 6.74899 4.31232 1.5935
16 1 -3.10716 7.17569 2.22916 0 0 0 0 0 0
17 3 -1.72972 6.28201 0.783527 0 0 0 0 0 0
18 1 -1.39895 7.03824 10.6184 -0.508941 0.65222 0.614379 -13.3486 2.41004 4.07328
19 1 -2.6544 5.45639 17.7931 -3.89406 0.232142 1.19283 3.15749 -3.08458 8.23703
20 2 -1.50979 8.05478 12.9881 -4.62367 0.318496 -3.56752 13.5072 -12.0109 -2.35164
21 1 -1.56686 6.30874 14.981 4.9691 1.84157 3.73027 -3.87845 8.40799 -13.0504
22 3 -3.04191 6.88736 16.4671 6.08377 3.33444 -3.10674 -5.32525 0.487524 -5.43027
23 2 32.404 8.40592 3.98447 0 0 0 0 0 0
24 1 -4.51214 9.87322 1.90885 0 0 0 0 0 0
25 3 -3.10065 8.8433 0.797443 0 0 0 0 0 0
26 1 -4.73977 9.96332 5.93089 0 0 0 0 0 0
27 1 31.0186 10.5989 8.24644 -1.77025 1.28984 -2.9722 13.3008 -11.1168 -6.37156
28 3 -5.08044 9.37087 9.12104 1.87741 5.72112 6.18785 2.37046 -3.43844 -4.48912
29 1 -4.82274 10.8552 10.4436 0.82366 0.252993 -5.28258 2.96978 7.46428 -8.21019
30 1 29.5879 13.0713 8.29358 2.28758 0.197406 -0.253839 -2.02235 7.61541 -2.9219
31 3 -6.36565 11.9907 9.50205 -6.12149 2.00428 -0.555112 -5.81589 0.157393 1.52079
32 3 -4.78769 11.4643 7.35678 0 0 0 0 0 0
33 1 -6.02096 11.1451 17.0539 4.07286 -0.398102 -3.25598 12.2543 -10.3454 9.33213
34 3 -6.3292 12.9066 16.1444 0.428648 -3.24376 0.364968 -8.65235 3.30428 3.14805
35 1 -7.46816 15.3411 5.85453 0 0 0 0 0 0
36 3 -6.25912 14.3866 7.299 0 0 0 0 0 0
37 1 29.4073 13.2575 17.2849 1.20033 1.30099 0.67532 1.66079 -7.83886 -9.46768
38 2 28.0911 15.8469 3.85373 0 0 0 0 0 0
39 1 -9.40118 17.7369 2.14695 0 0 0 0 0 0
40 3 -7.923 16.9077 0.797968 0 0 0 0 0 0
41 1 -9.22138 17.7239 5.50015 0 0 0 0 0 0
42 2 -7.97313 19.2139 13.0637 -2.54944 -7.16942 -4.26029 -5.95484 13.3674 13.3639
43 2 26.2268 18.7913 4.18862 0 0 0 0 0 0
44 3 -9.27699 19.6887 0.608713 0 0 0 0 0 0
45 1 -10.8751 20.6301 6.07086 0 0 0 0 0 0
46 1 -9.5033 20.1486 11.4011 -1.16678 -0.985876 0.0257863 17.7486 14.2498 -6.61195
47 1 24.8722 21.4806 8.54307 -0.284004 1.68522 -3.65883 -6.00857 6.62144 -9.16893
48 3 -11.0113 20.9351 10.1383 0.697979 5.98322 0.923329 3.26187 -7.0851 -5.91608
49 1 -10.6892 19.3845 17.5891 -1.80152 2.17207 -1.48067 4.69967 -7.09661 -17.1544
50 2 -8.74846 21.8183 13.2288 0.293792 1.74807 2.0048 11.5638 -10.7138 0.522437
51 1 -9.66061 19.7246 14.9058 -1.79179 4.55235 1.42918 6.72561 12.7517 15.2632
52 3 -10.9637 20.8555 16.2143 1.06214 8.59151 3.40573 -4.6398 5.11187 7.40094
53 2 -12.3967 21.528 4.0999 0 0 0 0 0 0
54 1 -12.5785 23.5438 2.09611 0 0 0 0 0 0
55 1 -12.238 23.3236 5.89478 0 0 0 0 0 0
56 1 -10.9949 22.6505 11.1788 -1.81067 -2.12927 5.33397 -10.9294 -5.36322 14.97
57 1 23.3377 23.9337 8.45193 2.08999 1.09678 0.165903 -7.05297 -1.69152 -13.2235
58 3 -12.8666 23.0014 10.1726 -4.94812 10.3826 -10.0129 1.54124 -0.422517 5.30827
59 3 -10.7389 22.4838 7.18478 0 0 0 0 0 0
60 2 -13.9178 24.3562 4.04052 0 0 0 0 0 0
61 3 -12.4823 25.1664 0.812998 0 0 0 0 0 0
62 1 -13.8514 26.1517 6.15981 0 0 0 0 0 0
63 1 -12.8576 25.0028 10.9813 -2.82581 -0.0346496 -2.33547 -7.75779 15.8881 9.82533
64 1 -15.3384 27.7249 8.72167 -2.28046 0.108175 -3.81817 0.673649 3.60096 -13.6598
65 3 -14.6768 25.6855 9.31578 7.16233 0.219263 3.43966 5.33546 0.792246 -2.68276
66 3 -12.4938 24.9462 7.15575 0 0 0 0 0 0
67 1 -13.7903 23.8995 17.6262 -4.15964 -6.12745 -0.966293 4.13622 -6.54774 -4.0653
68 2 -12.3729 26.4379 13.0188 2.23856 0.153433 1.60914 1.06086 -11.8909 12.2065
69 1 -12.1811 24.7578 14.8196 -0.339952 -1.51955 0.414039 14.7221 -10.7785 5.69207
70 3 -13.486 25.5116 16.1623 0.655339 3.13332 -1.00898 -4.37706 9.55137 -7.68987
71 1 -15.311 29.066 2.18021 0 0 0 0 0 0
72 1 -15.467 28.7039 6.11813 0 0 0 0 0 0
73 3 -13.9143 27.9367 7.25335 0 0 0 0 0 0
74 2 20.2213 29.5545 4.17429 0 0 0 0 0 0
75 1 -17.5227 30.9896 2.1771 0 0 0 0 0 0
76 3 -15.5498 30.6153 0.827037 0 0 0 0 0 0
77 1 -17.1727 31.5221 5.78393 0 0 0 0 0 0
78 2 3.75995 0.743147 13.5017 2.37947 1.14106 5.42624 3.51336 -1.93312 5.56035
79 3 -17.3892 31.5863 16.4461 0.557423 -4.45415 0.480208 -6.22581 3.21605 7.61358
80 2 -15.4473 32.018 4.00546 0 0 0 0 0 0
81 1 2.85535 1.02431 1.78348 0 0 0 0 0 0
82 3 4.73202 0.88585 0.917102 0 0 0 0 0 0
83 1 3.12089 1.84871 5.32028 0 0 0 0 0 0
84 1 4.17878 1.10753 11.0742 1.15228 -2.09827 -0.83527 -16.9258 2.02829 -17.5053
85 1 1.78569 2.60201 7.99621 0 0 0 0 0 0
86 1 -15.3878 32.0696 17.6326 2.17191 -2.69351 2.43443 7.97039 5.87738 -2.06352
87 2 3.45101 3.07504 12.326 1.67551 0.0232908 -1.75454 9.35388 -6.48427 -10.4914
88 1 5.01702 0.504605 15.5959 -2.05225 0.235384 1.42036 4.45121 -16.4997 -10.7432
89 3 3.18151 1.48546 16.7572 7.89381 1.06981 -2.97495 6.99645 6.81095 7.72201
90 2 1.51902 2.91549 3.72958 0 0 0 0 0 0
91 1 1.5365 4.69757 5.83644 0 0 0 0 0 0
92 1 0.117721 5.34672 8.36278 -0.957967 -1.75201 -3.7527 5.15091 -10.8955 0.870898
93 3 1.53841 4.43672 9.60208 -3.70465 3.38572 3.30787 7.15468 3.40111 8.40932
94 3 3.20492 3.72175 6.98616 0 0 0 0 0 0
95 1 1.81323 2.32372 18.2887 -0.270144 -0.353149 0.177853 0.341424 1.20228 -0.540832
96 2 -0.0687399 5.52084 4.11024 0 0 0 0 0 0
97 1 -0.0262304 7.14265 2.21229 0 0 0 0 0 0
98 1 0.102835 7.2497 5.91248 0 0 0 0 0 0
99 1 1.66342 6.16679 10.9501 0.459485 0.981681 2.14198 -11.905 6.27432 -5.05448
100 3 1.50104 6.39571 7.19363 0 0 0 0 0 0
101 1 0.302441 5.54829 17.0737 2.11849 -1.49057 -1.26307 -4.34414 15.1222 3.09768
102 2 1.75057 7.8545 12.8944 -0.0973825 5.39826 -0.115253 -10.8884 -13.5991 -0.74516
103 3 -0.0650538 7.25942 16.0873 3.10883 4.81809 -6.64345 2.88762 -0.35372 -3.01901
104 2 -1.55358 8.07265 4.15001 0 0 0 0 0 0
105 1 -1.61206 9.84437 2.31049 0 0 0 0 0 0
106 3 -0.216987 8.74103 0.459978 0 0 0 0 0 0
107 1 -1.60712 9.92508 5.95387 0 0 0 0 0 0
108 1 -3.25517 10.5111 8.36786 4.7105 -0.723884 -0.997481 -14.3054 -9.86352 -12.1144
109 1 -1.32102 8.09152 17.3124 -3.58347 -0.212857 -0.576842 0.464528 -11.3507 -6.29999
110 1 0.276188 8.75661 14.7517 1.80196 -1.84281 -1.25884 -7.39521 -0.253132 14.598
111 2 -3.11231 10.7664 4.08062 0 0 0 0 0 0
112 1 -3.0301 12.5504 2.22434 0 0 0 0 0 0
113 3 -1.55358 11.6605 0.961352 0 0 0 0 0 0
114 1 -3.10424 12.4412 5.9325 0 0 0 0 0 0
115 1 -4.81792 13.1442 8.47373 0.904003 0.220938 2.37765 -7.69603 -10.4259 9.66005
116 3 -3.38105 12.4449 9.84683 4.28507 1.12788 4.76992 7.41356 8.60186 -3.13664
117 3 -1.51478 11.6077 7.33764 0 0 0 0 0 0
118 3 -3.97319 13.0206 15.7107 1.17419 -0.674443 -1.11219 -5.30264 4.21971 -7.56921
119 2 -4.60693 13.44 4.19633 0 0 0 0 0 0
120 1 -4.52237 15.0679 2.13623 0 0 0 0 0 0
121 3 -3.03821 14.3163 0.903122 0 0 0 0 0 0
122 1 -4.56535 15.103 6.15388 0 0 0 0 0 0
123 3 -3.25625 13.933 7.36069 0 0 0 0 0 0
124 1 -4.79111 13.7734 17.3738 0.184196 -1.38453 -1.07821 15.0874 -9.13051 -2.54275
125 1 -2.95566 14.6411 15.2246 -1.96843 0.713824 4.14904 15.2855 10.7387 9.48814
126 3 -4.29124 15.588 16.5777 5.05626 -0.406083 5.33876 3.30072 -5.85571 6.08112
127 2 -6.12786 15.944 3.836 0 0 0 0 0 0
128 1 -6.47647 17.7575 2.01192 0 0 0 0 0 0
129 1 -5.93432 17.9123 5.35998 0 0 0 0 0 0
130 1 -7.82023 18.9776 8.59613 0.190639 3.70623 0.330506 3.22238 -4.90754 -7.40573
131 1 -6.22898 16.1216 17.1592 -0.315405 -3.24573 0.110116 -12.3472 -1.90518 -5.49357
132 2 -4.32991 19.6703 13.0507 -4.16855 3.68106 -3.89249 9.79761 -6.28965 9.20678
133 1 -4.58674 16.9991 15.1347 -1.72434 0.74853 -0.686395 -7.25353 -6.26472 16.2043
134 3 -6.11789 17.9745 16.0822 -2.87354 3.59195 2.60219 -5.97576 6.99724 1.02023
135 2 -7.70746 18.9989 3.97811 0 0 0 0 0 0
136 1 -7.63519 20.4452 1.93185 0 0 0 0 0 0
137 1 -7.77434 20.6438 6.02942 0 0 0 0 0 0
138 1 -6.16632 19.7435 11.4266 -3.27027 -0.0387592 0.137374 -8.37996 -4.54564 -0.0311236
139 1 -9.42692 21.286 8.50417 6.83665 -4.76886 -1.57634 -15.4433 16.664 -4.10699
140 3 -7.91711 20.4169 9.90104 1.54564 5.11343 -6.41861 2.65623 -7.37367 -7.14431
141 3 -6.18961 19.8618 7.19662 0 0 0 0 0 0
142 1 -7.70631 18.8744 17.3113 -1.20204 -1.52734 -0.955933 16.1203 -13.5579 9.00836
143 2 -5.95333 21.6675 13.032 0.164438 -1.99177 -4.40267 9.3789 -3.00683 7.73717
144 1 -6.1795 19.8895 14.8187 -1.25222 -2.46371 -1.4857 -15.5696 -0.75762 -5.30917
145 3 -7.85921 20.4999 16.0343 -7.14858 -3.15733 4.14032 -6.65586 -4.53472 6.27273
146 2 -9.2342 21.6503 4.16458 0 0 0 0 0 0
147 1 -9.2879 23.3912 6.01879 0 0 0 0 0 0
148 3 -7.81624 22.4012 7.25838 0 0 0 0 0 0
149 1 -9.20363 22.1139 16.1432 4.14496 1.00292 -3.12573 4.74043 8.80166 6.07035
150 2 -10.8505 24.1177 3.97677 0 0 0 0 0 0
151 1 -11.2725 26.1631 2.17682 0 0 0 0 0 0
152 1 -10.956 25.9766 5.64764 0 0 0 0 0 0
153 1 -12.7134 26.8095 8.59928 3.75024 4.79512 -1.37199 10.6989 -4.539 -4.19317
154 2 -9.3797 26.7797 13.2283 -0.645093 3.56856 1.27256 5.17945 -4.76904 13.7947
155 1 -9.24722 25.399 15.4102 0.927531 0.886049 -0.916866 -3.04168 -3.67741 16.757
156 2 -12.5756 27.0863 4.10496 0 0 0 0 0 0
157 1 -11.9858 29.0074 2.22934 0 0 0 0 0 0
158 3 -10.8922 27.8008 0.94548 0 0 0 0 0 0
159 1 -10.8759 27.6605 11.3237 3.35949 0.678163 0.765236 15.579 3.10208 7.37544
160 3 -12.2952 28.5497 10.1354 -4.137 -5.81193 1.51759 -0.236665 1.55999 -0.0831529
161 2 -10.9927 30.022 13.1578 5.03167 -0.853868 -5.07338 4.63796 13.4823 5.55023
162 1 -11.153 27.9044 14.6074 -1.95694 -0.0775845 0.864168 0.838116 -8.51189 -14.6571
163 1 -13.6081 31.4421 2.34435 0 0 0 0 0 0
164 3 -12.4149 30.5331 0.896531 0 0 0 0 0 0
165 1 -12.5797 30.4958 10.9265 -2.53272 -4.71656 0.546067 -0.821436 -15.501 12.796
166 3 -11.9469 30.0929 6.96351 0 0 0 0 0 0
167 2 6.06554 0.0712997 12.7237 7.28073 -2.57991 -1.88129 -5.55889 1.64445 9.71075
168 1 -13.3212 30.5041 14.1131 -2.19432 0.496927 -1.72468 -13.3274 3.97223 -14.2049
169 3 -13.6009 30.9151 16.2463 -6.01075 -0.944256 3.48184 6.78474 -7.34729 8.44428
170 3 7.67288 0.832675 0.878057 0 0 0 0 0 0
171 1 6.18319 1.80777 5.92967 0 0 0 0 0 0
172 1 7.25339 0.908529 10.5999 -1.47657 2.77018 1.45565 15.5578 -17.4568 -11.5523
173 1 4.64643 2.612 8.02878 2.18054 -0.663579 2.35047 7.7862 -8.55216 -0.828307
174 3 5.68691 1.71637 9.52558 6.58279 -1.31206 1.3325 3.05117 6.37064 3.64516
175 3 8.06318 0.846277 7.04307 0 0 0 0 0 0
176 3 6.2123 1.6947 16.5739 2.04985 0.867518 -5.6515 -2.46196 -8.33028 3.00604
177 1 4.87291 4.86663 6.17476 0 0 0 0 0 0
178 1 5.31077 3.62938 10.7424 7.20171 -4.60938 1.38537 -4.78753 14.9657 0.731901
179 1 2.925 5.28119 8.38271 2.91531 -2.29501 0.363627 4.02424 -3.47078 -1.55747
180 3 4.64958 4.35882 9.00781 -3.75604 -0.262958 3.74293 8.96111 -6.21492 3.25919
181 3 6.11696 3.51345 7.12843 0 0 0 0 0 0
182 1 4.74192 2.79606 17.5441 -3.53167 -4.00836 0.88633 -14.5452 -10.8333 -2.67459
183 3 4.38722 4.42823 16.1709 -0.817397 2.22044 -2.80615 0.543183 -1.8974 6.08928
184 2 3.12415 6.03286 3.78904 0 0 0 0 0 0
185 1 3.06515 7.18273 6.08097 0 0 0 0 0 0
186 1 5.07728 6.26468 9.28988 -1.0007 2.09915 -1.94631 9.01834 17.666 -16.8201
187 3 3.11355 7.09122 9.47417 -4.37085 1.0433 1.48112 1.49504 -0.629543 -0.279818
188 3 4.39302 6.40995 7.46943 0 0 0 0 0 0
189 1 1.22182 9.71605 1.58577 0 0 0 0 0 0
190 3 3.10716 8.96961 0.961352 0 0 0 0 0 0
191 1 3.45453 8.56294 10.8486 -1.92869 3.09794 -2.24749 0.951377 0.734058 -16.0118
192 1 0.033718 10.4407 8.60258 2.29366 -2.46438 0.584924 7.31132 -16.7685 -16.2316
193 3 1.75219 9.46759 9.64786 -2.05977 8.58321 -3.53095 -3.55062 0.405573 7.24224
194 2 2.94062 10.2369 12.8273 0.745746 0.7478 0.101 -9.75211 -2.62267 3.78981
195 1 3.28246 8.65686 14.8749 -0.250746 1.65326 -0.318083 -0.0470605 -15.528 -4.28821
196 3 1.86586 9.56136 16.0199 0.805396 3.57828 -5.50187 -1.73929 -4.47366 6.18559
197 1 1.85362 11.5188 10.9321 -0.501419 -1.52205 0.0556374 10.3661 17.5292 -16.441
198 1 -1.55162 13.3262 8.6342 1.53198 -2.18779 4.99673 -10.7803 -12.5976 1.23769
199 3 0.127099 12.4346 9.817 4.43392 4.97636 4.5153 8.06287 -3.37028 1.6285
200 2 1.86407 13.3413 13.0819 2.35479 -5.95331 0.0386451 -4.19067 -12.5717 3.88798
201 1 1.51796 11.3755 15.0348 -0.463775 1.51521 -1.96982 -9.62451 -6.15746 0.07593
202 3 -0.166224 12.1627 16.4889 -4.03751 -2.88282 -2.92167 6.11851 -3.00974 6.05826
203 1 -1.55358 15.2483 2.22916 0 0 0 0 0 0
204 1 0.360134 14.3793 10.881 -0.778563 -1.84923 0.500788 11.9246 -10.3663 -1.09349
205 3 -1.27217 15.2747 9.83761 -4.87986 0.28443 0.0285035 -5.88584 4.62457 -5.42449
206 3 -0.0242833 14.3636 7.32159 0 0 0 0 0 0
207 1 -1.44772 13.6192 17.4292 -4.83359 2.43594 -0.728736 11.1298 0.972545 15.5587
208 1 -0.0867621 13.691 14.9374 0.210302 1.85889 0.539986 -2.86733 -3.22742 -5.43875
209 3 -1.32311 15.2958 16.1933 3.58894 1.05114 -4.3658 -6.31217 1.0027 6.68235
210 3 -1.55358 17.0423 0.961352 0 0 0 0 0 0
211 1 -0.636 17.1472 11.3225 3.51133 -1.46636 -0.578165 7.24912 3.0461 -4.30625
212 1 -2.86636 16.3765 17.536 2.08815 -0.0553309 1.16854 11.7647 12.6254 -0.413775
213 2 -1.48309 18.8764 12.9753 0.309035 0.882239 1.27197 -12.8664 -6.56002 -9.55833
214 1 -1.43604 17.0051 14.7367 2.7387 -0.233306 4.11726 -8.90234 -8.87492 -14.3774
215 3 -3.1357 17.8613 16.1678 -0.342682 4.32063 6.4217 -0.723651 -1.54552 -8.41048
216 1 -3.27115 18.9917 10.8572 -1.39522 0.208714 -0.368367 16.1651 -11.3722 -0.740988
217 1 -6.3441 21.383 8.57058 4.29915 -0.0418443 1.10418 -2.17153 -9.64503 -15.4756
218 3 -4.80036 20.3473 9.75931 -1.59102 3.96499 -0.755692 -6.01734 -6.22794 3.09798
219 1 -4.82412 18.7024 17.4062 -0.10166 0.231967 1.0206 -3.74246 -6.29718 -17.5868
220 1 -3.11579 19.5331 15.1793 -2.23939 -2.96148 -1.38851 -9.6569 17.8378 16.8042
221 3 -4.70047 20.3006 16.3228 -2.11215 0.423571 2.12795 -6.0941 7.13757 -7.37483
222 2 -6.20439 21.5388 4.03501 0 0 0 0 0 0
223 1 -5.97445 23.4323 2.15749 0 0 0 0 0 0
224 3 -4.72521 22.3883 0.877806 0 0 0 0 0 0
225 1 -6.21656 23.1221 5.96563 0 0 0 0 0 0
226 3 -4.75435 22.3678 7.51299 0 0 0 0 0 0
227 1 -6.21805 21.5789 17.1972 2.94291 1.10467 -3.59759 -7.44583 7.56949 -10.3032
228 3 -5.20767 23.2741 16.1203 4.71778 -2.32304 -4.64075 8.19943 5.41092 0.511132
229 3 -6.30941 25.0101 0.858699 0 0 0 0 0 0
230 1 -6.21269 25.1669 10.8757 3.50768 0.965233 0.370658 -14.3394 13.4945 0.874086
231 3 -6.22183 24.8435 7.11661 0 0 0 0 0 0
232 1 -6.89664 24.1177 17.2309 -1.81185 -0.174408 -1.33679 5.20148 -13.8718 3.21071
233 2 -6.35167 26.6851 12.9717 -3.04148 3.29191 -0.21292 -1.75984 12.308 -6.13874
234 1 -6.13905 24.7752 14.8633 -1.50285 3.06442 0.936915 0.995131 -1.3961 7.90735
235 3 -7.3743 25.6916 16.1381 -2.24945 -8.29928 6.51568 -2.4919 5.45164 -2.24069
236 1 -9.17115 28.2018 2.19509 0 0 0 0 0 0
237 3 -7.64601 27.7718 0.86196 0 0 0 0 0 0
238 1 -7.9273 27.7992 11.225 -0.332359 -2.70203 1.24979 -9.20437 1.7073 -6.14781
239 1 -10.8658 29.4275 8.63344 4.03355 1.09578 1.19163 -11.688 2.73756 -1.82581
240 3 -9.38413 28.9148 10.0292 -4.74477 5.1748 -2.44837 0.0651371 7.60704 3.8826
241 2 -8.11059 29.3524 13.2601 -3.95628 2.32797 -0.348219 -10.1318 6.38577 -3.11722
242 1 -7.84243 27.696 15.185 -3.3265 -3.04729 -1.22073 17.4363 -4.19089 17.7266
243 3 -9.54147 28.6342 16.4478 -3.60099 -3.01665 3.43022 1.85116 7.57278 -6.9914
244 1 -9.52971 30.7009 11.088 -2.41888 5.96817 -0.4341 2.24992 -8.14822 10.3324
245 1 -12.2316 32.1702 7.91549 -0.714249 -1.59985 -0.790649 -0.12036 -0.166341 -0.317371
246 3 -11.1769 31.3522 9.47279 5.17327 2.32477 -4.86187 0.467205 4.56899 8.55503
247 3 -9.12289 30.5267 7.48934 0 0 0 0 0 0
248 2 -8.60282 31.8449 13.4059 -2.46378 3.69834 0.353244 0.222201 6.32929 -1.82133
249 1 -9.60173 30.4941 15.3514 4.76175 2.55548 0.299478 2.94821 -17.6421 12.5833
250 2 9.46087 0.362618 3.89774 0 0 0 0 0 0
251 1 9.00822 1.93617 2.01271 0 0 0 0 0 0
252 1 9.53153 1.81751 5.95271 0 0 0 0 0 0
253 1 10.719 0.923883 11.2884 -2.61896 -0.162098 -0.0621601 9.51944 9.42297 3.2883
254 3 10.9466 0.944556 7.38381 0 0 0 0 0 0
255 2 7.66526 2.69429 4.12638 0 0 0 0 0 0
256 1 7.56152 4.48155 2.03961 0 0 0 0 0 0
257 3 9.33238 3.61181 0.790335 0 0 0 0 0 0
258 1 7.77331 4.62081 5.85886 0 0 0 0 0 0
259 2 9.57617 5.32253 12.7406 -3.05072 4.09305 -1.36235 6.34946 1.93246 7.20722
260 2 6.17531 5.48368 4.13582 0 0 0 0 0 0
261 1 6.25461 7.31137 2.23258 0 0 0 0 0 0
262 3 7.69541 6.29398 0.840511 0 0 0 0 0 0
263 1 7.74218 6.01841 10.5114 -1.39596 4.06846 0.0391602 12.3784 -4.72555 3.22794
264 3 6.79854 7.1487 9.03845 4.72432 -1.11953 3.39427 -3.02413 5.99763 -0.749031
265 1 5.87021 5.44836 17.2672 -0.106056 0.704173 -2.85322 -4.62133 -9.19157 -3.34215
266 2 7.74931 7.74417 12.5992 1.73089 0.842643 0.755904 8.39529 7.62477 1.647
267 1 8.08217 6.22842 14.7464 0.38216 -0.0997436 0.238888 -15.5703 -0.852026 -10.2799
268 3 6.67417 6.96983 16.139 1.0839 1.48855 -0.172103 3.11065 4.82154 0.952136
269 1 4.98085 9.9416 2.05363 0 0 0 0 0 0
270 3 6.31948 8.90142 0.86437 0 0 0 0 0 0
271 1 6.31763 8.65327 10.3003 0.959798 1.59907 6.63112 9.72042 -12.2559 -6.12712
272 1 3.03047 10.4628 8.58295 0.265701 -3.93271 0.569018 -15.949 5.61203 8.50567
273 3 4.6869 9.51369 9.35936 2.97033 2.89986 -2.92465 6.19077 8.0658 1.38392
274 1 5.14504 7.99359 16.984 3.41268 -1.3064 -3.78166 4.97503 7.79398 -12.0336
275 1 6.34977 8.47646 14.6624 3.16912 -2.50902 1.70136 -3.72224 8.78071 11.1586
276 3 5.0128 9.63805 15.8385 -5.97387 1.36487 0.197234 -6.6541 9.21054 -8.48995
277 3 4.65929 11.6682 0.95644 0 0 0 0 0 0
278 1 4.76454 11.1109 10.6991 1.82037 -2.57764 1.62689 0.804815 -0.27188 -6.42388
279 1 1.53898 13.1924 8.33698 2.41453 4.49417 1.89419 8.88764 -4.8692 7.8767
280 3 3.32098 12.4526 9.68213 0.919694 -2.36162 -4.81509 3.95423 -4.48994 3.42993
281 1 3.51538 10.4146 17.2051 -1.555 -5.68703 0.0718216 -3.53027 -16.3362 -3.05619
282 2 4.50467 14.4084 13.0305 5.91363 0.914273 0.598807 -0.386607 9.26868 -4.24795
283 1 4.5136 11.2399 14.5913 0.87056 -0.9216 -0.741267 6.46612 11.0005 1.94906
284 3 2.90888 12.3393 16.2695 -1.31308 -2.2211 -5.78241 2.62693 7.80355 -7.5103
285 1 1.53576 15.2374 2.20755 0 0 0 0 0 0
286 3 3.10716 14.3514 0.961352 0 0 0 0 0 0
287 1 1.51187 15.2459 6.0236 0 0 0 0 0 0
288 1 3.0421 14.4677 10.8829 -0.289272 3.98621 -1.21527 -4.77067 -11.296 -3.87464
289 1 -0.111769 16.1921 8.40387 -2.04829 -1.0133 7.76304 2.13628 6.69924 15.6406
290 3 1.54729 14.8324 9.30586 -1.79874 -5.96999 2.3482 -7.08124 -1.04112 8.59645
291 3 3.0637 14.3659 7.2547 0 0 0 0 0 0
292 1 1.36056 12.8187 17.6845 -3.66577 -3.79696 1.73929 9.88804 -5.0661 3.77825
293 1 2.54314 14.6198 15.0897 1.95423 0.256717 0.466156 -1.37845 -1.64616 -4.97386
294 1 0.030201 17.8082 2.18656 0 0 0 0 0 0
295 3 1.55364 17.0409 0.95884 0 0 0 0 0 0
296 1 -1.59221 18.9825 8.50603 -2.84101 0.835226 0.363658 -7.61585 5.37157 -9.96953
297 3 -0.162822 18.1153 9.54703 5.39232 4.86751 4.72649 -3.91636 9.20811 -2.06602
298 3 1.50278 17.0021 7.31861 0 0 0 0 0 0
299 1 -1.42914 20.346 2.23517 0 0 0 0 0 0
300 3 0.0401593 19.7087 0.914631 0 0 0 0 0 0
301 1 -0.285454 19.958 11.0439 -3.68043 -1.66946 0.0504864 11.2479 18.3505 13.6672
302 1 -3.3297 21.7299 9.07383 1.41661 1.50203 -1.00554 6.32 -10.1753 8.66994
303 3 -1.87577 20.4564 9.80936 6.66066 2.44597 -3.75364 2.9653 6.77276 -2.14399
304 3 0.160797 19.8511 7.58297 0 0 0 0 0 0
305 2 -0.648302 21.9803 12.6404 3.163 4.34019 -1.35649 -0.746834 11.7 -7.20063
306 1 -0.356855 20.204 14.7505 1.29799 -1.26784 1.46002 9.29178 -13.2281 -5.57946
307 3 -1.95571 20.9436 15.8591 -3.17423 -1.51141 -4.3646 -5.98079 1.58255 5.59825
308 1 -3.13308 22.7258 2.15821 0 0 0 0 0 0
309 3 -1.49831 22.3915 0.882305 0 0 0 0 0 0
310 1 -3.25028 23.2018 6.29535 0 0 0 0 0 0
311 1 -4.82424 24.1251 8.29661 -1.06611 2.51293 -2.44738 11.9346 -10.1811 6.27149
312 3 -1.91697 21.8414 7.17835 0 0 0 0 0 0
313 1 -2.12852 22.6982 15.0143 2.32691 0.0402154 0.40242 0.88908 4.79489 -13.5848
314 3 -3.7822 23.3319 16.3621 -0.765181 -7.37193 -1.6957 -4.89569 3.07486 1.22343
315 2 -4.6049 24.1417 4.12101 0 0 0 0 0 0
316 1 -5.20348 26.301 2.04135 0 0 0 0 0 0
317 1 -4.67642 25.9807 6.33759 0 0 0 0 0 0
318 1 -3.19513 25.3793 10.9402 0.513473 1.8278 5.10405 2.33437 -14.1078 -3.97287
319 1 -6.19732 26.7743 8.55204 -1.20331 -3.00954 -6.33991 7.5718 15.0439 10.6927
320 3 -4.72853 25.5565 9.53797 4.039 3.61719 -1.4091 -0.163166 5.55032 1.13921
321 3 -3.37393 25.0508 7.65176 0 0 0 0 0 0
322 2 -3.1019 26.6099 13.1848 -2.51413 -0.255458 -1.23396 -7.65202 13.6995 -9.99023
323 1 -3.03983 25.5191 15.9949 -3.50794 -0.537788 -0.771598 8.73847 -7.04701 13.0279
324 3 -4.91167 25.9887 15.7378 -3.18992 -0.975664 -3.40315 6.08199 -3.89789 -3.86229
325 2 -6.65502 26.9487 4.1769 0 0 0 0 0 0
326 1 -6.35092 28.9864 2.25281 0 0 0 0 0 0
327 3 -4.7366 27.8649 0.766804 0 0 0 0 0 0
328 1 -6.21433 28.7028 6.07086 0 0 0 0 0 0
329 1 -7.7251 29.7194 8.76821 0.585012 0.477462 -0.444723 -0.00703387 -9.52384 -10.2415
330 3 -6.52206 28.5297 9.89682 3.60708 2.4352 -3.587 2.2407 -2.886 9.08209
331 3 -4.71733 27.8528 7.35722 0 0 0 0 0 0
332 1 -5.92061 26.7773 17.4139 4.15199 -2.10347 -2.06992 -6.55735 -8.71068 14.7483
333 3 -6.28901 28.597 16.5023 2.77247 -1.94138 -0.453644 2.36381 3.07983 6.2457
334 2 -7.86058 29.6431 4.17031 0 0 0 0 0 0
335 1 -7.64296 31.2669 6.24429 0 0 0 0 0 0
336 1 9.26066 0.0303425 8.49456 0.543004 0.608128 -4.51273 -5.65429 13.4101 -8.85581
337 3 -7.99613 31.6781 9.74457 -1.78671 0.588985 -5.46835 0.271229 -2.16336 6.37361
338 3 -6.18151 30.3934 7.42303 0 0 0 0 0 0
339 1 -7.7579 29.1784 17.6635 2.34437 2.3364 -3.65857 13.9912 5.0487 -11.4206
340 2 -6.23165 32.1171 4.36823 0 0 0 0 0 0
341 1 11.9146 2.03523 1.67283 0 0 0 0 0 0
342 3 14.1161 0.958878 0.661661 0 0 0 0 0 0
343 1 12.4569 1.79385 6.07179 0 0 0 0 0 0
344 1 14.0252 0.949819 11.3707 1.2254 -3.55767 0.80118 10.4347 -11.776 -14.1379
345 3 12.5473 1.65865 10.223 -1.01859 3.24727 -0.0740382 -6.47292 -4.98629 -0.89405
346 3 13.9827 0.902217 7.3416 0 0 0 0 0 0
347 1 -6.4529 32.1138 16.9023 1.37306 3.82202 -0.658434 10.3716 -14.1948 4.93905
348 2 13.598 2.99426 12.9501 -3.99212 3.24491 0.275177 3.38981 10.4415 6.10844
349 1 14.2839 1.2505 14.5689 3.70933 3.6827 1.56312 -0.278511 4.36473 16.9873
350 3 12.4205 0.961334 15.1083 0.081609 -7.67088 0.201451 1.53087 -1.15422 -3.50925
351 1 10.6679 4.66545 1.98945 0 0 0 0 0 0
352 3 12.4824 3.81687 0.783101 0 0 0 0 0 0
353 1 12.3704 3.69372 10.8514 1.02508 -2.05084 -1.63812 1.53908 9.36985 7.96548
354 2 12.3119 5.24567 13.0188 -1.56561 -3.45391 0.472014 1.85916 -0.840099 12.318
355 1 12.1156 3.32438 14.9379 0.394879 0.212409 0.577958 13.753 -15.7573 3.99315
356 2 9.10383 5.25629 3.84386 0 0 0 0 0 0
357 1 9.17863 7.18096 2.15326 0 0 0 0 0 0
358 3 10.8846 6.39664 0.873975 0 0 0 0 0 0
359 1 10.9815 6.27864 10.9321 0.843994 -5.88169 -1.41935 -2.30903 6.34691 8.53181
360 3 9.43961 6.70045 9.43161 -0.529387 -0.466548 -0.524729 -4.74512 9.50677 -5.02191
361 2 10.9904 7.78624 12.9284 -1.43507 0.628761 -3.72134 -12.2834 1.93674 11.3455
362 1 11.3243 6.31629 14.9944 -2.21511 0.648018 -3.39884 5.74304 2.81213 0.595613
363 3 9.6081 6.98468 16.0016 4.85358 4.19777 -8.65827 2.07611 -3.79784 -1.28438
364 1 7.90493 9.81724 2.13639 0 0 0 0 0 0
365 1 9.33823 8.49121 10.6295 -4.28957 1.25005 0.888861 -5.24488 12.8461 -1.5172
366 1 6.12279 10.42 7.98181 -1.4946 0.202003 -1.35065 -0.884929 -0.646153 0.928554
367 3 7.74123 9.53907 9.28577 -2.1991 0.701698 -2.85931 6.46331 3.38097 4.73906
368 3 9.61544 8.86137 7.38546 0 0 0 0 0 0
369 1 8.05127 7.7487 17.383 -2.61113 -0.543663 -5.31245 0.841214 -16.4087 4.17597
370 1 9.54692 8.79137 14.8298 -1.78779 0.513712 -1.90744 12.9567 -13.6319 -12.5625
371 3 7.80167 9.31539 15.8678 -6.89463 -1.83366 -4.65988 -5.93421 -2.22355 1.82287
372 2 6.219 10.9343 3.99764 0 0 0 0 0 0
373 1 6.21455 12.6218 2.15575 0 0 0 0 0 0
374 3 7.71381 11.666 0.866204 0 0 0 0 0 0
375 1 6.01718 12.5305 5.90796 0 0 0 0 0 0
376 1 4.58996 13.355 8.29736 1.32122 3.43889 -3.45338 17.4416 12.4914 3.14418
377 3 7.87963 11.1796 7.15653 0 0 0 0 0 0
378 1 6.67278 10.7151 16.8806 0.448936 -0.641971 0.531574 -1.02992 -7.38277 -8.21895
379 3 5.8329 12.3225 15.749 -1.4036 -0.6253 -0.287491 3.3167 -7.31771 0.591996
380 2 4.61426 13.4694 4.06823 0 0 0 0 0 0
381 1 4.66075 15.2483 2.22916 0 0 0 0 0 0
382 1 4.48749 15.2537 5.82173 0 0 0 0 0 0
383 1 2.90967 15.9727 8.34054 1.1864 0.273217 -3.28219 -5.16448 -5.71157 0.584753
384 3 4.58742 15.4827 9.47514 6.0955 6.74639 4.48747 -1.34702 0.00633765 -7.15962
385 1 4.55573 13.3429 17.2366 0.705098 4.25578 1.7955 3.1574 2.39806 -5.06069
386 2 6.7469 15.5043 12.5602 -1.14733 -5.12317 -1.03058 2.90845 4.55169 8.9612
387 1 6.12559 14.2382 14.8814 -1.09796 -0.584735 -1.39274 1.88082 16.834 14.7004
388 3 4.51278 15.0534 16.1744 2.94859 0.0621304 -6.73569 5.6372 -1.35347 -6.32961
389 2 3.02714 16.1344 3.99796 0 0 0 0 0 0
390 1 3.15998 17.8699 2.20784 0 0 0 0 0 0
391 1 2.91742 17.8083 5.84736 0 0 0 0 0 0
392 1 3.48896 17.5417 10.5052 -1.83246 0.611798 5.08111 9.35275 3.41088 -3.04689
393 1 1.57108 18.7925 8.54588 1.34693 3.25722 -3.53579 8.09854 11.5399 -10.2646
394 1 2.70482 15.7324 17.478 -1.12335 -0.903315 0.27962 4.85891 -13.687 -7.40868
395 1 4.65913 16.9078 13.5681 -1.34378 -0.746685 1.43208 -2.239 -7.79696 -3.01103
396 2 1.48164 18.7026 4.01076 0 0 0 0 0 0
397 1 1.70985 20.4135 2.2066 0 0 0 0 0 0
398 3 3.16285 19.7061 0.911766 0 0 0 0 0 0
399 1 1.52368 20.3832 5.8578 0 0 0 0 0 0
400 1 -0.0685809 21.5607 8.56605 -0.212208 -0.28933 -2.15653 -8.58228 9.74886 17.3765
401 3 1.61805 20.6696 9.72636 0.340702 -2.93041 4.89189 -8.6208 5.25693 5.99224
402 3 3.00321 19.4883 7.1043 0 0 0 0 0 0
403 2 1.57475 20.3476 13.0254 0.723226 -0.949599 3.32822 -5.57607 -6.31719 -0.226918
404 1 2.4482 18.9994 15.2669 2.34561 1.20492 1.30966 7.14553 15.1162 1.15498
405 3 0.758192 19.3034 16.4897 -0.56935 -7.78066 3.99701 4.88264 -0.42532 5.75527
406 2 0.0522192 21.2852 4.0122 0 0 0 0 0 0
407 1 0.11985 22.8689 2.0831 0 0 0 0 0 0
408 3 1.69696 22.3681 0.838062 0 0 0 0 0 0
409 1 -0.345701 22.6256 6.08088 0 0 0 0 0 0
410 1 1.32651 22.3809 10.9677 -0.856547 1.23105 0.684552 5.42432 16.5854 -8.74773
411 1 -1.73918 23.9966 8.48814 -0.39943 -2.34583 -2.39602 15.9069 17.1784 1.82323
412 3 -0.209534 23.2199 9.77442 2.1537 4.13604 5.00664 -4.16082 -6.54272 8.08961
413 3 1.48522 22.3841 7.0635 0 0 0 0 0 0
414 1 -0.58042 20.8368 17.2632 -1.78544 -0.0334197 -0.677984 -17.1039 -14.1393 -14.0749
415 2 1.46816 24.3818 12.7325 1.99574 -3.26358 0.801244 -11.6244 12.0957 -10.9447
416 1 1.09622 22.5296 14.3371 1.1621 -2.07206 4.82811 -12.9655 13.8415 8.30532
417 3 -0.217716 22.858 15.9464 -6.85163 -4.85699 -2.27819 -2.92772 -5.07953 6.02454
418 1 -0.0280214 25.0723 10.6694 -1.29696 -0.37114 0.918253 5.52582 6.80443 7.04766
419 1 -3.24365 26.9805 8.67193 3.91626 -0.847297 -1.63388 12.2203 -2.84606 3.84299
420 3 -1.609 25.9666 9.6073 3.60462 2.22278 -2.00144 -1.5255 7.9596 -6.25759
421 3 -0.596782 24.4278 7.06931 0 0 0 0 0 0
422 2 -0.168765 26.9032 13.0217 2.84979 3.74373 5.31189 7.59497 9.91632 3.15015
423 1 -0.128141 25.0146 14.7429 -0.47414 -6.30615 -2.56399 -16.3522 5.17401 11.1306
424 2 -2.53917 27.651 3.9919 0 0 0 0 0 0
425 1 -3.33646 28.8358 1.94375 0 0 0 0 0 0
426 1 -3.27074 28.8078 6.08022 0 0 0 0 0 0
427 1 -1.55284 27.756 10.9868 3.33469 1.17551 1.43128 -16.4241 4.17472 -5.37366
428 3 -1.82089 28.0773 7.36577 0 0 0 0 0 0
429 2 -1.58227 29.4796 12.968 -0.412457 1.03923 -0.421192 -0.759572 4.26339 1.1229
430 1 -1.70745 27.7502 14.9655 -1.73229 2.3835 -1.60054 11.5271 11.495 -11.9387
431 2 -4.79557 29.5489 4.1335 0 0 0 0 0 0
432 1 -4.76472 31.3767 1.66733 0 0 0 0 0 0
433 3 -2.96003 30.516 0.793338 0 0 0 0 0 0
434 1 -4.71678 31.3433 6.30918 0 0 0 0 0 0
435 1 12.3873 0.0595321 8.67611 -2.66681 1.25443 -1.55812 17.1552 -9.60964 10.2306
436 3 17.4076 1.00732 0.44149 0 0 0 0 0 0
437 1 17.3934 1.31012 11.321 2.91846 1.97885 3.75721 11.5487 -4.86827 -10.3119
438 1 14.0799 2.54978 8.79657 2.09416 -1.14188 1.69939 15.3804 2.02596 1.68909
439 3 15.6825 1.7313 10.0638 -1.09016 6.68255 -4.20894 -6.48099 4.26178 -5.04282
440 1 15.5239 0.187823 17.1914 1.58866 1.62658 -6.68551 -4.67656 12.3834 -8.94681
441 2 17.6417 3.1403 13.0194 6.13272 2.32116 0.624405 4.73238 6.87163 -7.06627
442 1 17.1132 1.07803 14.6995 -2.10604 0.268608 0.354665 4.14892 -1.99569 3.04105
443 3 15.8598 1.89535 15.9592 -3.0482 1.65668 10.2227 5.82419 7.50769 -4.80762
444 1 14.0381 4.05305 2.3062 0 0 0 0 0 0
445 3 15.5849 3.51458 0.957677 0 0 0 0 0 0
446 1 15.4684 3.52202 11.386 1.65808 -1.36571 -3.04123 -2.78728 -11.9262 5.56531
447 1 13.0174 5.1734 8.63294 2.0836 2.95756 -2.43536 0.513933 6.93822 0.623874
448 3 14.2196 4.44077 9.97266 1.20472 -6.74801 -7.15737 2.43238 3.00747 7.64336
449 3 15.5377 3.58435 7.3388 0 0 0 0 0 0
450 1 14.3158 2.52187 17.0679 -0.219282 -0.356999 -1.0546 17.9772 -15.5072 16.4099
451 1 15.4255 3.70221 14.6642 0.746487 -1.28422 2.40302 18.2983 -2.72088 3.68633
452 3 13.6584 4.01288 16.2264 4.3967 3.57805 1.28662 -4.11218 -8.39415 -1.19643
453 1 12.8124 6.62976 1.64992 0 0 0 0 0 0
454 3 14.3205 6.05876 0.350737 0 0 0 0 0 0
455 1 10.9179 7.55291 8.09194 0.823061 -1.25151 0.780697 17.0808 17.1307 -10.9374
456 3 12.353 6.94864 9.27713 3.91701 7.79447 5.23745 -3.33106 -4.76166 -0.287707
457 3 14.1948 6.15843 7.23501 0 0 0 0 0 0
458 3 12.4034 7.06191 16.9508 10.9934 0.856142 -7.18549 4.49957 6.63355 -8.85313
459 1 10.6533 10.0727 6.0649 0 0 0 0 0 0
460 1 12.4459 8.52144 10.6608 -4.26264 2.90543 0.334921 1.1007 -8.22172 11.9504
461 1 9.44723 10.4373 8.49562 -2.31595 0.57887 -0.937797 -14.3311 17.4957 4.9054
462 3 10.9946 9.54791 9.58896 -0.670917 7.22896 4.16088 2.76085 -6.71191 -3.10154
463 3 12.5138 8.70878 7.25948 0 0 0 0 0 0
464 1 10.8054 8.27012 17.2786 0.731318 0.685805 -1.5451 -0.722891 10.7003 -14.2418
465 3 10.6886 9.85081 16.1969 -2.59582 1.73776 -2.04564 -3.99628 -2.40727 1.8751
466 2 9.18232 10.9782 3.94047 0 0 0 0 0 0
467 1 9.26865 12.6524 6.06834 0 0 0 0 0 0
468 1 10.6043 11.552 10.5423 -3.34299 2.5122 -1.53335 -7.86672 5.05075 9.445
469 3 10.9436 11.6389 7.40925 0 0 0 0 0 0
470 2 7.66684 13.5007 4.17255 0 0 0 0 0 0
471 1 7.89753 15.2575 5.93166 0 0 0 0 0 0
472 3 9.63225 14.2303 7.47688 0 0 0 0 0 0
473 2 9.77799 15.5397 12.6217 -4.19957 -1.10065 1.53568 -11.3526 -9.37129 -12.4093
474 3 7.53297 15.0179 15.9911 0.777934 1.26639 6.2462 5.24624 2.25253 3.80292
475 2 6.1959 16.0598 4.18897 0 0 0 0 0 0
476 1 7.99064 17.3327 11.2987 1.3989 -1.75979 1.89776 -3.53932 -2.26504 -6.12108
477 1 5.81828 15.9311 17.356 0.711564 0.524297 -3.65906 8.03443 12.0175 12.8446
478 2 5.49191 18.2749 11.5381 -2.25933 -2.05614 -2.41671 13.8713 -5.90261 -12.3268
479 1 8.1446 16.3959 14.3231 1.9864 -2.10343 -1.57872 8.37038 10.5692 -9.92261
480 3 5.64012 18.5943 18.9649 -8.67292 -17.0443 -19.5212 0.087916 1.57792 -0.198724
481 1 2.84322 21.3361 8.16298 2.17363 2.15733 -1.51342 -1.25171 7.51321 15.5381
482 1 4.41051 18.2064 17.2894 0.549746 2.92253 0.117875 3.07964 11.3403 3.43911
483 2 2.61678 18.0002 12.8336 -6.38343 -1.81033 2.97272 -11.3569 -4.2447 12.5871
484 1 4.1799 19.7851 12.9048 -3.53011 -1.82873 5.41701 1.47095 1.76809 1.07694
485 3 3.32601 19.8122 16.8106 0.673816 7.84572 2.72108 -0.198922 -0.251629 2.14313
486 2 3.07809 21.3234 4.14489 0 0 0 0 0 0
487 1 3.13555 23.2531 5.97168 0 0 0 0 0 0
488 3 4.50606 22.2502 7.17516 0 0 0 0 0 0
489 1 1.81851 20.0276 18.0435 -1.8453 0.116691 1.01883 -0.850307 -3.07596 -3.96701
490 1 3.55528 23.1688 11.8522 0.741306 -2.1169 -2.13617 -14.1667 -3.64364 -4.77078
491 3 2.81909 23.1461 15.6802 -4.0444 -15.2278 15.3036 -2.30683 -2.27104 4.66538
492 1 -0.310932 27.1685 8.38752 -1.0538 3.58345 -3.87478 10.0238 -4.81531 2.03432
493 3 3.08866 24.5827 8.04287 -5.9523 3.81295 -7.70132 -5.71767 -2.18168 0.26246
494 1 1.22677 23.5626 16.9809 3.91507 -1.15493 0.611214 6.44363 -3.39799 -2.76819
495 1 2.87253 24.8178 14.814 -4.66296 1.8595 -1.90758 1.03849 -0.962867 -3.003
496 3 1.28238 25.943 15.9526 0.330811 0.967374 -4.16357 2.36375 -0.943957 -4.51852
497 2 0.208907 26.7291 3.43399 0 0 0 0 0 0
498 1 0.282017 28.6223 1.80775 0 0 0 0 0 0
499 3 1.73074 27.8789 0.528383 0 0 0 0 0 0
500 1 -0.354073 28.7873 5.82488 0 0 0 0 0 0
501 3 0.545315 28.3188 10.0555 3.24941 -2.7707 12.2518 -0.275884 0.842355 4.64243
502 2 1.1926 29.5884 13.2066 -1.49202 2.81244 4.58767 -11.448 -4.59456 -9.71191
503 1 0.974737 28.2015 15.2361 -0.255745 5.50778 0.385055 15.5785 -7.47305 -12.6273
504 1 -1.38177 31.0033 2.17586 0 0 0 0 0 0
505 3 0.114397 30.4542 0.851814 0 0 0 0 0 0
506 1 -0.245928 30.4112 10.9641 1.23521 0.460317 -3.75337 -10.9882 17.0083 2.20401
507 1 15.6551 0.121101 8.58191 -3.88148 -0.161721 -0.82528 9.9901 12.1671 6.84962
508 2 -0.101323 32.2696 12.9328 -0.328829 5.51084 0.399888 -10.345 -8.75711 11.4612
509 1 -0.568909 30.6826 15.0266 -0.222119 -1.97724 -0.433833 4.13532 6.28615 4.07669
510 3 -2.42593 31.4947 15.5644 -4.1565 -4.62703 1.65702 6.26216 3.06972 6.34458
511 3 20.2711 0.91151 0.921965 0 0 0 0 0 0
512 1 20.2185 0.626168 10.659 -1.04371 0.672693 -4.30578 -14.3265 14.8415 6.23622
513 1 17.0014 2.64417 8.44103 -4.40873 -2.65189 2.73577 8.57823 0.00578735 5.59771
514 3 18.6455 1.85489 9.65087 0.00075153 7.15023 -7.50644 7.62615 -8.67843 1.82121
515 3 20.1966 0.896961 7.33867 0 0 0 0 0 0
516 1 16.8709 4.77301 2.13431 0 0 0 0 0 0
517 3 18.6977 3.64939 0.867532 0 0 0 0 0 0
518 1 17.0895 4.4661 6.05747 0 0 0 0 0 0
519 1 15.6924 5.29933 8.62179 1.67227 1.1555 -1.12422 9.10473 -8.81423 -14.7557
520 3 18.643 3.58784 7.33867 0 0 0 0 0 0
521 1 16.8889 3.00832 17.3964 -0.278577 -3.56405 -1.26519 -1.37561 -15.1023 6.98241
522 3 16.4706 4.81767 16.1183 0.570009 0.911694 -7.86642 2.38716 -5.15924 -5.62363
523 1 15.5627 7.38646 2.31017 0 0 0 0 0 0
524 3 17.1869 6.29165 0.76214 0 0 0 0 0 0
525 1 14.1396 7.87916 8.41114 -2.62167 -2.00645 0.107075 -6.71411 5.15815 5.95185
526 3 15.665 7.17896 9.6295 -3.86217 -3.40425 10.2884 -5.05545 -0.249909 -8.81758
527 3 17.0998 6.149 7.26411 0 0 0 0 0 0
528 1 15.0454 5.3284 17.3984 -0.730375 2.78121 -0.371922 10.6218 -11.8188 2.13233
529 1 16.2387 6.86972 15.3315 -1.95721 1.46882 -1.54141 -12.7009 12.5785 -9.03679
530 3 15.5344 8.96708 0.961704 0 0 0 0 0 0
531 1 14.1358 9.5902 5.85872 0 0 0 0 0 0
532 1 15.7289 8.71029 10.9162 -4.45781 -3.09719 -1.15287 17.402 -11.241 17.4178
533 1 12.5134 10.3918 8.34368 -3.15809 1.42014 1.21925 10.0897 -7.12397 6.80169
534 3 14.0986 9.45219 9.74762 -1.03699 -1.30957 -4.58149 -7.43241 -0.372617 7.84677
535 3 15.7523 8.72321 7.21595 0 0 0 0 0 0
536 3 13.5265 9.72021 15.9807 -6.51724 -0.895794 -5.87929 7.30348 3.22705 8.37815
537 2 12.1253 10.7529 3.905 0 0 0 0 0 0
538 3 14.0107 11.4953 0.691211 0 0 0 0 0 0
539 1 12.2296 12.5266 5.80799 0 0 0 0 0 0
540 3 14.1224 11.1279 7.24564 0 0 0 0 0 0
541 1 12.0636 11.0612 17.1107 0.346353 -0.0589192 -0.647294 -13.261 11.3712 -5.65174
542 2 13.8424 13.5643 12.9479 3.08317 -2.68755 -1.00184 -1.67652 4.38129 0.0275296
543 1 14.1045 11.3769 14.7802 4.32097 -3.73616 2.11046 0.409393 17.5713 -5.9995
544 3 12.6986 12.4482 15.7003 1.37582 -0.207133 2.83197 -1.11928 8.28853 8.24648
545 2 10.6991 13.5058 4.09533 0 0 0 0 0 0
546 1 10.8265 15.1403 5.98024 0 0 0 0 0 0
547 1 8.65616 16.4213 8.15936 0.824344 1.85325 2.01676 -2.69617 -0.21111 -7.24886
548 2 13.0036 16.1423 13.0346 -1.99469 -1.87003 2.1852 2.08174 -11.2405 3.42064
549 1 12.5835 14.5149 14.9361 0.49245 0.212936 4.13295 16.1373 -12.8385 -1.03678
550 2 9.1947 16.0411 3.94731 0 0 0 0 0 0
551 1 9.27291 17.9475 5.77881 0 0 0 0 0 0
552 1 11.2664 16.6112 10.8649 2.139 0.892696 0.72903 -2.1471 16.0156 1.98199
553 3 9.55914 17.1527 9.86566 9.42328 8.19131 -3.42395 3.02556 -3.39048 8.54896
554 3 10.5984 16.9284 7.00066 0 0 0 0 0 0
555 2 6.82492 18.3635 13.6636 -6.92876 -0.281854 -0.631428 -2.29499 -3.76515 -4.19111
556 2 7.67873 18.5585 3.6687 0 0 0 0 0 0
557 1 7.76791 20.6301 2.22916 0 0 0 0 0 0
558 3 9.34937 19.7718 0.872721 0 0 0 0 0 0
559 1 7.50262 20.3005 5.44887 0 0 0 0 0 0
560 3 9.2587 19.4711 7.42446 0 0 0 0 0 0
561 3 6.74133 20.558 15.9344 11.9393 7.70622 -13.5924 -3.63554 2.02875 4.41395
562 2 6.01634 21.5282 3.86204 0 0 0 0 0 0
563 1 6.1342 23.2191 2.0287 0 0 0 0 0 0
564 3 7.76791 22.424 0.961352 0 0 0 0 0 0
565 1 6.22269 23.0023 5.8667 0 0 0 0 0 0
566 1 7.7345 22.9822 10.8952 0.216297 2.27954 1.92342 13.8707 -15.4906 -16.3905
567 3 6.72561 24.5008 10.1222 -5.41836 13.7328 -0.324177 -5.98749 1.13019 8.38285
568 3 7.37446 22.5479 7.52658 0 0 0 0 0 0
569 1 4.2771 21.0869 15.6906 3.68924 -1.55989 -7.14004 4.17283 0.156136 -1.97326
570 2 5.52869 21.3843 11.2754 -1.12646 -6.52468 -2.2647 -4.72597 1.31468 5.20714
571 1 5.15899 22.4874 13.3979 1.52509 -7.43785 4.98019 -1.25879 1.91144 0.185686
572 3 5.24956 22.2004 16.8572 3.6011 -9.54039 7.37138 0.655843 3.59802 2.03191
573 2 4.35679 23.9686 3.80323 0 0 0 0 0 0
574 1 4.7641 25.8033 1.8979 0 0 0 0 0 0
575 3 6.31495 25.0748 0.734974 0 0 0 0 0 0
576 1 4.90145 25.6026 5.6109 0 0 0 0 0 0
577 3 6.18641 25.2507 7.21517 0 0 0 0 0 0
578 1 3.88224 23.8357 18.0672 -9.17086 -8.40418 11.0572 -2.60918 -4.17103 -6.19218
579 3 5.69592 25.1377 13.2777 -3.28169 0.519004 -2.44399 -1.17573 3.30041 1.23423
580 2 3.47763 27.0557 3.63307 0 0 0 0 0 0
581 1 3.2747 28.6165 1.69474 0 0 0 0 0 0
582 3 4.77586 27.8267 0.502439 0 0 0 0 0 0
583 1 3.45648 28.611 5.65407 0 0 0 0 0 0
584 1 1.54367 29.5693 8.55099 5.03286 4.27946 3.91009 0.778045 -13.5646 -8.86314
585 1 3.24497 27.3066 16.1377 10.9954 10.9112 5.09527 0.0499571 -5.97117 -0.400393
586 3 2.81239 29.2982 16.4271 1.02512 4.26332 7.13439 8.81786 -8.18548 -0.0765403
587 2 1.54604 29.5396 4.09326 0 0 0 0 0 0
588 1 1.88154 31.1496 2.15841 0 0 0 0 0 0
589 3 3.2679 30.4728 0.777022 0 0 0 0 0 0
590 1 2.8202 30.4252 11.3143 2.65467 -3.15103 1.10268 14.7497 5.92795 -17.566
591 1 18.5653 0.0138505 8.70252 0.549241 -0.254151 1.94308 1.58759 9.58982 -13.6007
592 3 1.52286 31.197 9.6286 -2.8658 0.316261 -5.96667 -1.74929 -3.11606 8.03145
593 3 2.98215 30.4364 7.1287 0 0 0 0 0 0
594 2 21.4195 0.293017 12.8425 2.69744 5.32716 1.52152 8.32634 0.251659 -5.32484
595 1 2.3274 31.0147 15.0369 3.13993 -0.789399 -2.19732 5.80427 -5.78708 -1.78364
596 1 21.6286 1.79843 2.22948 0 0 0 0 0 0
597 3 23.221 0.847713 0.881811 0 0 0 0 0 0
598 1 23.2459 0.631103 11.0742 -2.14212 -2.42479 -5.54465 -1.79489 6.35437 7.70294
599 1 20.2776 2.40528 8.35142 1.40384 4.3583 0.356099 -16.0762 10.0135 -11.2769
600 3 21.8271 1.62121 9.65391 3.86316 -4.15132 -0.912616 3.9009 7.93738 -4.71878
601 2 22.7716 2.9203 12.6442 -2.03136 -4.84891 0.982374 -2.94954 -7.76808 13.1539
602 1 23.391 1.19892 14.4106 -3.74597 2.35142 -3.5287 6.67635 -4.81743 14.7018
603 1 20.1728 4.46868 2.20003 0 0 0 0 0 0
604 3 21.7502 3.58784 0.961352 0 0 0 0 0 0
605 1 20.0992 4.17916 5.8441 0 0 0 0 0 0
606 1 21.5289 3.52409 10.6517 1.86417 2.10725 -2.3016 -5.08683 -8.74655 -0.797239
607 3 21.7452 3.58523 7.33159 0 0 0 0 0 0
608 1 22.0229 3.83403 14.8752 1.17077 -3.25571 -0.156063 14.8266 -15.2441 -6.06011
609 3 19.9621 4.66898 15.8798 -4.22978 -6.71451 0.480864 2.49116 4.18308 3.84565
610 2 18.643 5.38177 4.15001 0 0 0 0 0 0
611 1 18.4791 7.2193 2.08806 0 0 0 0 0 0
612 1 17.2152 7.95011 8.45389 0.205095 -2.33575 -4.03149 -7.34488 -2.42248 -4.56558
613 1 18.1127 5.61404 17.0412 1.40481 1.1784 -0.172839 6.33194 6.73333 0.19283
614 2 20.5768 7.56771 12.5343 4.81522 1.36899 1.08589 11.7756 -2.41514 8.0526
615 1 20.289 6.30489 14.7788 1.99485 -0.363038 1.96804 -3.48639 -14.9445 14.7819
616 3 18.4022 7.26528 15.6799 4.50142 6.39694 -3.7612 -6.07356 -0.48957 -3.85274
617 2 17.2097 8.20574 3.99852 0 0 0 0 0 0
618 1 17.0217 9.92131 2.17475 0 0 0 0 0 0
619 1 17.0976 9.70926 5.98879 0 0 0 0 0 0
620 1 19.0367 9.23484 11.1252 1.1957 0.594659 3.68864 -2.8921 10.319 1.17671
621 1 15.7048 10.5695 8.60038 -0.0873976 -0.0362794 1.61913 12.4615 -4.7737 7.35688
622 3 17.3324 9.61876 9.85503 5.85194 7.92766 0.999581 2.63089 -4.94222 -5.25266
623 2 19.0748 10.999 13.2181 1.68622 2.16446 3.03079 3.69886 3.46928 1.42919
624 1 18.2693 8.69947 14.1098 -0.681597 -2.68505 0.950023 -3.61772 3.64789 11.1259
625 3 18.4005 9.73404 16.1543 -3.47471 1.72338 3.1827 3.0744 -6.74483 5.19339
626 2 15.5224 10.6879 4.02717 0 0 0 0 0 0
627 1 15.4477 12.5295 2.13346 0 0 0 0 0 0
628 3 16.9506 11.4787 0.606679 0 0 0 0 0 0
629 1 15.3313 12.296 5.92765 0 0 0 0 0 0
630 1 17.3969 11.7015 10.9533 1.56137 1.25715 -0.744581 12.0151 12.9736 7.21926
631 3 16.161 12.6348 9.55077 1.27765 0.33536 -2.01849 -8.33115 -1.19637 0.0693872
632 3 17.1175 11.3467 7.25636 0 0 0 0 0 0
633 1 15.1134 9.99609 17.1175 0.906993 4.27469 1.14766 -9.93574 -5.07881 -8.33807
634 2 17.1237 13.1242 13.0344 2.39783 3.33751 5.36849 -10.9058 12.3574 4.37332
635 1 17.3105 11.3337 15.2114 -0.982186 0.636572 1.23474 15.1824 12.3064 4.84644
636 3 15.6713 11.9961 16.2514 -1.70266 0.266556 1.72477 7.99055 -3.68854 2.98442
637 2 13.6076 13.2917 3.6393 0 0 0 0 0 0
638 1 13.9208 15.2332 2.10088 0 0 0 0 0 0
639 3 15.5413 14.3544 0.953738 0 0 0 0 0 0
640 1 14.1548 12.9772 17.268 -0.544057 0.797392 -3.21356 -5.67616 11.1168 2.78826
641 2 16.0648 15.6828 12.886 3.40801 -2.10315 1.51958 5.57302 -10.6505 6.66134
642 1 15.4952 13.6997 14.8172 1.23498 -3.64282 -2.85263 -10.074 13.4296 1.8959
643 3 14.3264 14.9916 16.1538 2.19438 -7.74961 -2.64013 6.61606 -2.48801 -4.26552
644 2 12.371 15.9573 3.9197 0 0 0 0 0 0
645 1 12.2528 17.6619 2.0991 0 0 0 0 0 0
646 3 13.9814 17.0419 0.960716 0 0 0 0 0 0
647 1 12.3302 17.643 5.76116 0 0 0 0 0 0
648 1 13.986 17.2577 10.8608 0.141754 0.255514 2.26182 5.92743 9.26311 9.38313
649 1 10.848 18.2893 8.4584 0.263131 1.65337 -4.24059 7.17486 18.992 -8.55448
650 3 12.4258 18.2549 9.92658 3.23553 9.44136 4.57131 -2.17192 -7.4174 -0.838168
651 1 12.7763 15.4397 17.5598 1.22098 0.40453 0.713098 4.12999 10.2259 -8.89037
652 2 15.4709 19.9701 13.8598 11.0116 -11.7252 1.29793 -0.103822 1.88923 -1.12757
653 1 14.9467 16.6472 14.7881 -4.61298 1.08866 0.000567655 12.6119 -2.60143 -5.90781
654 2 10.8977 18.8563 4.11492 0 0 0 0 0 0
655 1 10.8858 20.6076 2.18712 0 0 0 0 0 0
656 3 12.2403 19.7166 0.590709 0 0 0 0 0 0
657 1 11.9631 19.7707 11.0334 -1.47708 -1.55167 4.65904 1.0235 -3.49653 18.4867
658 3 12.6827 19.0103 7.2759 0 0 0 0 0 0
659 1 9.2513 23.2321 2.21448 0 0 0 0 0 0
660 3 10.8751 22.424 0.961352 0 0 0 0 0 0
661 1 10.5189 22.6814 10.4555 -1.52944 -2.53011 -0.468222 -1.85078 3.05594 13.4601
662 1 7.89782 24.4949 8.4274 1.78191 3.00491 2.15125 -10.3492 -17.3411 -8.86942
663 3 9.37036 24.2543 9.92025 3.36069 4.11701 1.18563 -6.48613 -4.08918 -6.00353
664 2 11.4207 28.6468 10.9187 -0.320553 -0.167578 2.2159 0.585136 4.07357 -8.76371
665 1 8.07641 28.2593 13.6656 9.19783 9.12569 -12.3285 0.572457 -2.80032 0.813327
666 3 7.07796 21.7933 12.3243 -5.04329 -0.361907 1.09826 2.13418 -0.567412 5.61597
667 2 7.30782 24.2699 3.9889 0 0 0 0 0 0
668 1 7.77069 26.078 6.03604 0 0 0 0 0 0
669 1 9.4462 26.0689 10.7022 1.80239 -3.72771 2.85857 -3.85229 -10.771 8.2755
670 1 6.06661 27.0905 8.40385 4.58473 -2.2065 -0.616666 -3.99327 -5.92859 7.11349
671 3 7.84761 26.5247 9.41943 -0.460741 3.37104 -3.91869 1.88279 9.90289 -9.46059
672 3 9.32743 25.2951 7.1549 0 0 0 0 0 0
673 2 4.05884 25.6223 12.2168 -3.75662 4.32797 0.116629 0.106569 -0.458264 0.701293
674 1 7.32996 25.4697 12.0116 -1.68133 -2.53348 6.06184 -0.199282 -1.62066 1.50135
675 2 6.37151 27.0602 4.21495 0 0 0 0 0 0
676 1 6.35086 28.7699 6.06625 0 0 0 0 0 0
677 1 7.36107 28.082 10.8598 -2.4967 0.514604 1.01431 7.58724 -16.2567 2.37679
678 3 5.53443 28.4543 10.0066 5.12818 -3.71327 1.38535 -0.552992 5.36173 -2.56167
679 3 7.77012 27.8317 7.30188 0 0 0 0 0 0
680 2 5.72684 27.1855 12.9878 12.8264 -2.68302 -5.53848 0.73072 0.138268 -0.124426
681 2 4.81671 29.6772 3.85203 0 0 0 0 0 0
682 1 4.7978 31.3665 2.01348 0 0 0 0 0 0
683 1 4.60468 31.2899 5.93259 0 0 0 0 0 0
684 1 6.03409 30.3848 10.6403 1.18047 -1.80571 0.529352 -2.13622 1.05455 -18.8947
685 1 3.15333 32.1003 8.45323 2.68835 1.44434 1.47496 -11.5987 -6.83267 8.54893
686 3 4.19529 30.7232 9.84268 2.92652 7.58352 -11.2462 -1.27419 -4.81117 -7.8319
687 3 6.33395 30.716 7.36639 0 0 0 0 0 0
688 1 5.00718 30.1759 16.2592 1.15697 3.38541 9.68975 -3.42217 0.0136989 2.95919
689 2 6.54762 32.1536 12.7932 -1.52237 0.354752 -3.67841 -9.82604 -8.76772 -0.878309
690 1 4.60276 30.8943 13.615 -1.19056 -1.88717 -0.793886 -1.6495 9.704 -15.1745
691 3 4.16864 31.7969 15.5363 -3.12787 -7.05741 0.395483 2.37153 -7.45837 -3.54725
692 2 6.20555 32.2818 3.86218 0 0 0 0 0 0
693 1 24.5555 1.78939 2.15482 0 0 0 0 0 0
694 1 23.3159 2.66134 8.58187 -0.687646 -2.76482 -0.647405 -6.76689 17.1051 13.2646
695 2 25.4761 2.57096 12.9497 -1.03408 -0.168373 -1.43562 12.8918 -9.77417 2.3569
696 1 26.5757 1.10079 14.598 -0.386746 3.08304 -2.53752 -12.0323 -5.73025 -14.7233
697 3 24.8566 1.62852 15.8375 -1.99782 -8.63532 -7.62522 4.59676 -7.71523 -1.8246
698 1 23.2831 4.47233 2.20388 0 0 0 0 0 0
699 3 24.8573 3.58784 0.961352 0 0 0 0 0 0
700 1 22.9732 4.73266 5.92209 0 0 0 0 0 0
701 1 24.6978 3.85145 10.9476 -2.4721 1.98079 0.13315 4.5726 0.630592 4.42493
702 1 21.8117 5.24779 8.44959 -2.95896 0.357521 -3.6009 14.7362 -11.8149 -12.8882
703 3 23.1717 4.53284 9.72063 2.94731 -3.65387 -5.48155 -6.63389 -4.84065 7.03859
704 1 23.4063 2.67458 17.3955 -1.10209 2.64993 -1.86732 -16.414 -15.509 4.20411
705 2 24.8933 5.3302 13.0104 4.77502 0.904801 4.13046 -11.7239 -5.64595 -4.90164
706 1 25.0756 3.7318 15.2661 -0.106491 -2.21704 -3.85037 -5.07753 7.64253 9.97581
707 3 23.3799 4.58537 16.3467 5.95947 -3.66356 -2.34691 1.74079 -0.89768 -5.24855
708 2 21.6172 5.4848 3.9651 0 0 0 0 0 0
709 1 22.9093 6.25128 11.0998 5.85204 0.00895044 -4.75422 -15.064 -6.41015 -2.50061
710 3 23.3037 6.26507 7.36261 0 0 0 0 0 0
711 1 21.5932 5.37152 17.4708 -1.53624 -3.20571 -0.0265168 -9.30085 -9.73815 13.4153
712 2 23.3491 7.77664 13.0684 -2.29679 -4.59611 3.62218 3.80094 0.554508 -8.32062
713 1 23.6158 6.35706 15.0618 0.00377483 -1.81849 0.523143 4.19012 3.58436 6.64953
714 3 21.6173 7.25678 16.0443 -2.09291 4.29228 -5.54201 3.15584 -0.55979 -0.446326
715 2 20.1344 8.03496 4.35922 0 0 0 0 0 0
716 1 20.284 9.94802 5.95675 0 0 0 0 0 0
717 1 21.9364 8.99206 11.025 0.773539 -3.23249 0.713309 2.13524 -0.0759275 -12.5096
718 1 18.801 10.6028 8.51755 0.479224 -0.840691 3.63052 -10.5109 -13.0548 13.1707
719 3 20.4213 9.53434 9.52373 2.36847 -15.346 -0.161455 7.11681 -1.46407 4.83137
720 3 18.5964 12.4318 9.39482 -1.9616 0.395292 -2.85858 -0.49612 -5.47314 6.05374
721 3 20.2865 11.5613 7.25502 0 0 0 0 0 0
722 1 18.2545 11.0667 17.8334 -0.801797 -0.853358 0.876841 17.7873 -5.29253 9.80273
723 1 20.1718 10.9567 15.5507 -1.43124 2.78425 -0.765601 -13.7538 1.80029 -15.7018
724 3 18.8219 12.3192 16.5957 2.17041 -5.78818 2.23482 8.52396 -6.5067 -6.74617
725 1 17.0086 15.1253 2.23301 0 0 0 0 0 0
726 3 18.5397 13.8475 6.85271 0 0 0 0 0 0
727 1 17.1359 13.4843 17.194 -2.91184 2.15042 2.3854 -9.0275 0.988869 -0.197018
728 1 15.5292 17.6784 2.18297 0 0 0 0 0 0
729 3 17.0272 17.0204 0.913614 0 0 0 0 0 0
730 1 17.0798 17.03 10.7697 -4.38984 2.02376 -0.190871 15.9806 1.74094 2.31347
731 1 13.9054 19.5026 8.97574 -5.70077 0.926067 0.715102 13.1283 6.04055 -7.73258
732 3 15.5266 18.2943 9.90618 0.757904 -2.63515 -7.28976 -1.21415 -6.22275 2.5781
733 1 15.6269 15.583 17.6126 -1.41199 2.41191 0.620477 8.37763 12.8557 7.83767
734 2 17.8387 19.2144 12.8914 -0.463109 1.22833 4.18484 9.07267 -3.40628 11.1462
735 3 15.948 17.3307 16.4185 2.0354 -0.485147 -0.146015 9.23141 -4.0978 -2.87863
736 1 13.8384 20.3986 6.25203 0 0 0 0 0 0
737 1 15.9713 19.7864 11.1012 0.660705 -1.2614 -2.30871 7.16528 6.19219 -2.6092
738 1 12.4464 21.9161 8.74592 -5.13318 0.709717 -1.3945 4.92826 17.6894 0.997016
739 3 13.9523 21.1351 10.1514 -4.13066 -2.11399 -7.28664 -6.6916 5.58444 -1.84268
740 3 15.3854 20.0317 7.57883 0 0 0 0 0 0
741 1 14.2596 17.8842 17.5949 -12.4051 15.4437 2.33577 -1.04861 -2.87796 -2.22831
742 1 12.3889 23.3479 2.23036 0 0 0 0 0 0
743 3 13.7091 22.687 0 0 0 0 0 0 0
744 1 13.9043 23.0164 10.9947 -1.45469 1.31265 2.54469 -16.583 -10.373 3.13066
745 1 10.8481 24.7709 8.72072 -0.684787 -0.174529 -3.52685 -1.80469 -0.717682 18.9638
746 3 12.3209 23.5157 9.67221 5.61527 1.63285 0.00897717 -0.936414 5.32135 -0.805836
747 3 13.9182 22.5339 7.33087 0 0 0 0 0 0
748 2 9.97564 26.166 12.9855 -7.28835 8.43134 -4.99121 -3.06002 -1.56187 -1.18645
749 3 9.205 29.8334 13.282 12.1549 -9.14352 3.83404 2.32435 -2.23454 -2.14147
750 3 12.4287 25.1149 0.961352 0 0 0 0 0 0
751 1 9.21055 26.9147 8.16462 -0.625439 0.832892 -3.30946 -3.10241 13.8267 11.9812
752 1 13.3938 18.6394 13.5019 8.26479 -6.44839 2.73622 2.83665 -1.68616 0.490237
753 2 14.5098 28.5087 14.726 10.0201 -7.81645 1.73187 -1.41159 -1.57484 1.69435
754 1 11.0942 27.8345 19.0086 -6.37892 12.1742 -3.3927 -3.10846 -3.24143 1.23342
755 3 11.3729 26.8455 11.7094 1.8557 2.59351 -1.05487 4.79109 -0.817356 5.39721
756 2 9.26437 27.1685 3.63807 0 0 0 0 0 0
757 1 9.27511 28.7611 5.92039 0 0 0 0 0 0
758 2 11.7754 30.8635 17.1382 7.05882 -2.37155 5.77917 -3.43081 -1.05283 0.719614
759 1 13.4213 29.1265 12.4228 4.20723 -2.16933 0.537832 1.82926 -1.2224 3.74367
760 2 7.75775 29.6638 4.10351 0 0 0 0 0 0
761 1 7.52699 31.4445 5.83856 0 0 0 0 0 0
762 2 27.8168 1.90348 12.4537 1.32288 2.09505 -3.30908 -2.47352 0.974639 -4.63749
763 1 7.73344 30.4535 14.5352 8.50338 0.948822 3.33885 -2.34265 3.02466 -0.0498707
764 3 9.7671 31.2179 16.8723 5.99885 1.28546 -7.52121 3.57346 -0.456537 -0.0179836
765 2 9.14556 32.2689 4.12546 0 0 0 0 0 0
766 3 29.4531 0.935918 0.799955 0 0 0 0 0 0
767 1 27.9811 1.82837 5.79118 0 0 0 0 0 0
768 1 26.5855 3.0526 8.27273 -1.87822 0.0875118 -2.40167 1.28578 -16.6536 14.0165
769 3 29.4587 0.920401 7.31456 0 0 0 0 0 0
770 2 29.6855 3.4963 12.9464 3.35164 -1.89465 -0.515334 -4.42868 -2.84188 -10.9526
771 1 29.1946 2.02139 14.7038 0.234916 -3.314 -1.40807 5.47784 -16.3142 1.42872
772 3 27.7992 2.238 16.3122 1.83431 12.051 -4.24034 3.38014 2.07871 -1.87141
773 1 24.8406 5.41901 8.58507 -0.791136 -3.00398 0.602467 -14.6032 -12.8395 4.2462
774 3 26.4614 4.47612 9.68308 -2.03237 -0.534575 -1.52154 -0.993214 -5.78273 1.0734
775 3 28.193 3.80048 7.04569 0 0 0 0 0 0
776 3 26.7955 4.17517 16.6945 -2.17032 -0.394136 -9.25378 -4.54019 6.47888 -3.91282
777 2 24.7571 5.3381 4.02374 0 0 0 0 0 0
778 1 25.4422 6.69611 2.04365 0 0 0 0 0 0
779 1 24.9061 6.93184 5.94002 0 0 0 0 0 0
780 3 26.4109 6.30971 7.29692 0 0 0 0 0 0
781 1 24.9775 5.33811 17.7308 0.752306 -1.16093 -0.209886 -4.58437 8.87811 -16.8782
782 3 24.8419 7.62503 16.5745 -4.14378 6.45087 -8.72523 -1.25686 -2.61424 -0.0668248
783 2 23.2993 7.9567 4.32634 0 0 0 0 0 0
784 1 23.1809 9.91366 2.23762 0 0 0 0 0 0
785 3 24.7873 8.933 0.825166 0 0 0 0 0 0
786 1 23.2723 9.92921 5.85695 0 0 0 0 0 0
787 1 24.6199 9.25494 11.5636 -0.797143 -4.56892 1.30114 2.52132 -11.0093 -17.612
788 1 21.8929 10.3122 8.25259 -0.813518 -0.302269 -0.335606 14.5661 -3.96979 9.7078
789 3 23.1944 10.1246 9.99528 1.34375 -11.7977 -2.41986 5.97059 3.09386 -6.3705
790 2 24.6156 11.235 13.0256 -5.30725 -1.66641 -0.751459 13.4035 -5.8908 -4.06539
791 1 24.4953 9.36434 14.8934 -2.95456 -4.113 2.48142 6.32401 -13.9464 5.46689
792 2 21.7225 10.7616 4.08506 0 0 0 0 0 0
793 1 21.8277 12.4599 6.14225 0 0 0 0 0 0
794 1 23.0187 11.7812 11.0341 3.21024 1.1326 1.45124 12.7907 5.28056 -9.88215
795 1 19.9522 13.5096 8.15538 0.489137 2.75304 -1.32514 -11.9419 -0.933203 10.7661
796 3 23.3093 11.6243 7.32323 0 0 0 0 0 0
797 1 22.0009 10.8832 17.7198 3.56288 1.47331 1.88748 -11.4306 5.90312 -13.7008
798 1 23.1428 11.673 15.0573 2.3232 2.28193 0.684077 -9.03668 2.03943 -12.5777
799 3 21.7048 12.3844 16.3529 -1.17697 9.20124 1.81341 4.99985 9.01875 6.0262
800 1 18.6462 16.274 8.56599 -0.419818 -1.25198 2.53668 9.55969 -8.93173 2.24335
801 3 20.0783 15.2843 9.30227 -0.154095 -5.6979 -2.77315 -1.05417 -7.42203 -3.27113
802 3 21.7566 14.3127 7.21121 0 0 0 0 0 0
803 1 20.5417 13.3238 17.8048 1.57901 3.44057 -2.80523 14.6163 16.1856 9.63336
804 1 21.1023 14.2022 15.4188 0.798246 2.23836 -1.71198 -16.359 -13.901 -10.049
805 2 18.6387 16.2032 4.18434 0 0 0 0 0 0
806 1 18.6542 17.5483 2.08081 0 0 0 0 0 0
807 3 20.1291 16.9831 0.741545 0 0 0 0 0 0
808 1 20.4579 16.8138 10.5253 -1.45081 -1.61926 -0.828264 12.4358 5.6233 -2.02282
809 1 17.1423 19.0271 8.67755 -2.08432 -0.427417 0.540824 15.5158 -1.38118 3.0519
810 3 18.8763 17.9878 9.73453 -2.89389 3.27105 3.24577 -7.42243 -4.93214 5.53324
811 3 20.0828 17.0544 7.22911 0 0 0 0 0 0
812 2 20.7192 18.4674 12.7279 -0.308248 -3.19007 2.97286 -4.58332 4.98689 9.63274
813 1 21.1982 16.7764 14.6135 -2.36967 -0.10965 -0.504521 -6.40631 -5.99829 -4.11812
814 1 19.0948 19.6991 10.9302 0.180081 1.04466 -2.17132 2.72611 -8.0604 14.1188
815 1 15.6516 21.8728 8.5899 1.54954 -3.46008 -2.99765 8.8263 6.0169 14.0911
816 3 17.3929 20.7094 9.69459 -1.45616 2.56532 -1.76074 0.0801668 -3.15627 8.44682
817 3 18.7579 19.6391 7.29098 0 0 0 0 0 0
818 2 15.6058 21.3493 4.13383 0 0 0 0 0 0
819 1 15.9455 23.4768 1.58643 0 0 0 0 0 0
820 1 15.4564 23.1795 5.93052 0 0 0 0 0 0
821 1 13.9337 24.359 8.28492 0.0425793 0.659663 0.168713 14.6023 -10.4517 16.2458
822 3 15.1731 23.6906 9.84206 -4.88206 2.0123 0.0614792 -6.94736 -0.798051 -2.17764
823 3 17.2791 22.1744 7.06639 0 0 0 0 0 0
824 1 16.5088 19.5396 16.3101 -4.14396 -1.38039 3.1527 6.76181 -0.619439 -1.12229
825 3 13.0362 24.8611 14.2058 2.90549 -6.90022 3.71462 -6.70981 -1.7727 1.73768
826 2 14.2374 24.2301 3.99564 0 0 0 0 0 0
827 1 13.9459 25.941 2.12908 0 0 0 0 0 0
828 3 15.4068 25.2832 0.729 0 0 0 0 0 0
829 1 14.8498 25.5374 10.694 0.102681 -2.50008 7.99261 13.0959 2.087 -19.6087
830 3 15.9159 24.7354 7.21751 0 0 0 0 0 0
831 1 17.198 21.7217 13.1377 -12.0183 0.921464 -3.25359 -0.715019 -0.563503 -0.214524
832 2 15.0576 27.0269 12.7714 -2.96415 2.50996 -4.23835 0.956778 -1.43096 -2.55843
833 1 16.5579 24.9283 13.6597 0.0483625 -1.41463 0.797179 -0.565533 2.46431 1.40138
834 3 16.0453 21.3336 15.155 -12.3446 4.60168 -1.2472 -1.93556 -0.985297 -1.88367
835 2 12.5526 27.0117 3.90296 0 0 0 0 0 0
836 1 12.4225 28.7826 2.14761 0 0 0 0 0 0
837 3 13.7147 27.9043 0.464103 0 0 0 0 0 0
838 1 12.1923 28.7543 5.66028 0 0 0 0 0 0
839 1 9.23832 30.2267 11.3383 -0.104585 2.35429 7.71006 -18.3905 -11.9785 -17.9177
840 2 13.8247 31.4799 12.7334 3.65037 -0.682625 4.18747 -7.6023 -4.18931 11.4954
841 2 10.7025 29.7318 3.91118 0 0 0 0 0 0
842 1 10.9359 31.3864 2.05589 0 0 0 0 0 0
843 3 12.441 30.4896 0.951965 0 0 0 0 0 0
844 1 10.7748 31.5537 5.88772 0 0 0 0 0 0
845 1 28.7156 0.0190986 18.6304 -0.106296 0.899512 3.8306 -0.0489812 -0.753831 -1.28423
846 2 30.1751 0.710567 12.5939 0.810284 2.00753 0.188274 3.38466 11.9012 3.44159
847 1 14.6789 30.9043 15.1468 -0.956222 -0.737693 0.862472 8.06167 -6.47746 15.9162
848 3 12.7134 31.8488 15.7419 9.24687 -1.74409 -1.16721 0.0496675 0.670584 -3.12311
849 2 30.7239 0.242276 3.95981 0 0 0 0 0 0
850 1 31.3273 1.78928 2.09516 0 0 0 0 0 0
851 3 32.4671 0.962875 0.531889 0 0 0 0 0 0
852 1 30.8954 2.09599 5.70241 0 0 0 0 0 0
853 1 32.2555 0.89846 10.6858 1.22466 -1.25424 -1.12647 -11.034 11.5445 -15.7601
854 1 29.5781 2.93213 8.22066 -0.873659 -1.39514 -0.772694 -1.63693 -11.4466 4.55949
855 3 31.0429 1.92062 9.34117 0.458968 0.345814 -5.88099 1.52766 3.15128 5.61785
856 3 32.8527 1.3224 7.07472 0 0 0 0 0 0
857 1 31.5283 1.05137 17.006 -0.902157 4.17884 5.3398 6.0505 10.1209 -15.9161
858 3 30.864 2.68685 16.2654 -2.17511 1.50676 4.38377 -8.00266 4.37193 6.09653
859 3 31.0846 3.54481 0.915378 0 0 0 0 0 0
860 1 31.2084 3.67134 10.7294 5.07 -3.88201 3.0578 16.9612 10.9669 1.15845
861 1 27.9899 5.48466 8.4525 0.939109 2.89835 -2.70753 7.3074 -9.39513 -16.9683
862 3 29.4841 4.6454 9.78156 6.72209 4.11238 5.40076 -1.37029 -1.21914 -5.19887
863 3 31.129 3.65358 7.26012 0 0 0 0 0 0
864 1 29.5513 3.13847 17.4702 4.14818 2.46258 -0.307967 -7.95277 11.3059 17.9539
865 2 31.6658 5.01837 12.8146 1.82477 -4.47298 -5.70134 -4.25239 -0.798355 -3.18812
866 1 31.6489 3.76872 14.9727 -2.69735 1.11656 -4.4853 4.34644 -3.76788 -7.71236
867 2 27.9558 5.46779 4.00523 0 0 0 0 0 0
868 1 28.3215 7.19518 2.22584 0 0 0 0 0 0
869 3 29.5832 6.23256 0.895531 0 0 0 0 0 0
870 1 28.1079 6.96551 5.99722 0 0 0 0 0 0
871 1 30.1374 6.32191 10.9724 2.68015 0.63525 -0.119057 -0.770751 10.9756 1.27499
872 3 29.5542 6.34946 7.34508 0 0 0 0 0 0
873 1 28.2129 5.56751 16.7386 2.63891 3.80519 -2.04123 -9.42929 13.7993 -2.83926
874 3 27.6626 7.00353 15.4192 -3.67982 -1.66972 -2.38192 6.78428 -0.197691 -0.29628
875 2 26.4109 8.07265 4.15001 0 0 0 0 0 0
876 1 26.1691 9.74207 2.13829 0 0 0 0 0 0
877 3 27.7966 8.82473 0.772027 0 0 0 0 0 0
878 1 24.7312 10.7548 8.67582 -2.95668 1.61158 1.41932 8.1583 12.7198 15.1488
879 1 26.742 7.92019 16.9402 1.98867 2.45393 2.89682 -16.2492 0.488279 -10.3522
880 1 28.0305 9.03337 14.7838 -4.42507 -1.71385 -4.01755 -9.8976 -9.82856 0.0523611
881 3 26.4577 9.78556 15.887 -3.41664 8.35045 6.04189 1.30848 1.60425 9.16775
882 2 24.8643 10.6386 4.06908 0 0 0 0 0 0
883 1 25.2585 12.5404 1.97421 0 0 0 0 0 0
884 3 26.5981 11.5085 0.778882 0 0 0 0 0 0
885 1 24.8878 12.3711 5.86699 0 0 0 0 0 0
886 1 26.4024 11.7677 11.268 1.41707 -4.4234 2.88934 0.608181 -16.5238 9.41354
887 1 23.2813 13.4321 8.44957 -3.31602 4.45667 3.5993 -5.76232 -12.9273 12.52
888 3 24.782 12.6527 9.81623 1.68029 5.38148 -11.1416 2.49507 -8.64598 8.37606
889 1 24.8925 11.0306 16.9239 1.52812 -2.40775 -1.15218 -4.63493 -15.0135 -16.146
890 2 26.5846 13.7688 12.8063 -1.22973 -2.03298 4.41137 -10.0084 -9.04441 -5.10374
891 1 26.4548 11.6295 14.6347 0.0198806 0.351896 -1.86758 15.2509 15.4768 10.0175
892 2 23.367 13.2132 4.0747 0 0 0 0 0 0
893 1 23.3666 15.2223 2.17112 0 0 0 0 0 0
894 1 23.209 15.2391 5.52553 0 0 0 0 0 0
895 1 24.8148 14.6655 10.8802 -1.87844 -2.63226 -0.208726 -6.40391 -16.4875 12.8486
896 1 21.421 16.0511 8.08547 -4.87047 -0.436497 1.10961 17.7943 -6.64233 -15.4985
897 3 25.151 13.9711 7.15495 0 0 0 0 0 0
898 1 23.4673 13.6584 17.0065 1.91105 0.897171 2.47795 -12.4466 10.3022 8.09217
899 2 24.8749 16.3353 13.0869 -0.409063 -0.0127119 -0.659537 -11.9843 -8.30734 2.66472
900 3 22.5553 15.5612 16.1017 -1.94669 -6.47271 1.89312 -4.51719 -3.06344 -3.60632
901 2 21.5637 15.9125 3.75459 0 0 0 0 0 0
902 1 21.6124 17.6901 2.00183 0 0 0 0 0 0
903 3 23.252 16.9105 0.524327 0 0 0 0 0 0
904 1 21.7561 17.8201 5.35412 0 0 0 0 0 0
905 1 22.8022 17.1771 11.7572 1.02484 1.44087 -0.839594 -10.7088 11.8355 6.52192
906 1 20.5551 18.8278 8.41646 0.759071 -2.32824 5.508 -16.8977 -2.12297 10.1748
907 3 22.0524 17.3707 9.44973 4.98018 7.90662 5.30777 0.712495 -6.8791 4.26987
908 1 21.8346 16.2036 17.8883 2.32239 -1.03914 3.60612 12.3507 4.97033 -1.25704
909 2 23.4328 19.2151 13.0036 -1.2851 0.949987 -0.0300208 -5.62816 2.23088 -9.18507
910 1 23.6925 17.3353 15.1224 -0.948625 -3.20025 1.60247 14.8636 14.706 2.08041
911 3 22.0627 17.8634 16.3462 0.613174 -0.878188 -3.31177 2.56298 7.94633 -8.07796
912 2 20.0185 18.7907 3.84652 0 0 0 0 0 0
913 1 20.6629 20.4596 1.97377 0 0 0 0 0 0
914 3 22.0052 19.5286 0.701105 0 0 0 0 0 0
915 1 20.0465 20.5661 5.90389 0 0 0 0 0 0
916 1 18.9252 21.3818 8.22183 -1.02459 -1.4848 1.66482 -9.88578 6.75439 5.19529
917 3 20.5941 20.7303 9.54048 -0.498595 5.64189 2.01622 -7.94489 -5.95493 1.53905
918 3 21.7427 20.0335 6.96577 0 0 0 0 0 0
919 1 20.6177 18.7409 17.3104 0.730513 -2.46783 -2.60148 8.43548 -4.64409 -6.52039
920 1 21.6259 19.6693 14.73 0.0248485 -2.7255 3.28891 -0.437235 14.8158 -12.508
921 3 20.1511 20.4478 16.0272 1.23283 -2.26856 7.72402 -0.944866 -6.23074 -8.4637
922 2 18.6583 21.4076 3.96957 0 0 0 0 0 0
923 1 18.7945 22.9549 2.01468 0 0 0 0 0 0
924 3 20.2988 22.3709 0.716897 0 0 0 0 0 0
925 1 18.5663 23.3373 5.7419 0 0 0 0 0 0
926 3 20.4322 22.6257 6.91042 0 0 0 0 0 0
927 1 18.7972 21.3077 17.2996 2.03844 -2.4815 -0.619193 4.10014 -12.9613 -1.94078
928 1 20.1839 22.315 14.955 1.46179 1.21134 -0.541948 7.34924 -7.91218 17.6342
929 3 18.6424 23.1417 16.0913 7.85056 -2.62418 3.0049 -2.69249 -1.19794 -4.44981
930 2 17.1718 24.0125 3.76092 0 0 0 0 0 0
931 1 16.9989 26.207 1.68022 0 0 0 0 0 0
932 3 18.4865 25.1659 0.445911 0 0 0 0 0 0
933 1 16.7099 26.0706 5.09692 0 0 0 0 0 0
934 1 15.4615 26.8059 8.17099 -0.136533 -3.87936 2.18966 12.3393 14.8987 -1.57583
935 1 17.4357 24.3579 17.0555 3.75033 11.4066 11.3125 -3.02376 1.91096 -3.81667
936 2 18.3033 26.065 12.5899 4.80468 0.679883 -0.49943 -1.07446 -9.45736 -11.0144
937 1 18.9341 25.2356 15.0552 -1.24075 1.1595 -2.37329 -9.72204 -14.1083 9.57096
938 3 16.5993 25.473 15.7042 -14.8635 -6.53001 0.358204 0.619054 1.62163 -0.711776
939 2 15.4371 27.4477 3.44826 0 0 0 0 0 0
940 1 16.6856 27.7641 11.0569 0.147977 4.13498 -4.20246 13.7601 -5.65032 -12.5152
941 1 14.16 29.9408 8.14711 1.39563 0.663973 3.45902 -12.7668 -15.4 -8.00359
942 3 15.1197 28.7157 9.60411 0.733413 -3.09236 -0.447646 -7.05473 -1.74372 5.66703
943 3 16.757 27.9959 7.2737 0 0 0 0 0 0
944 2 16.1975 29.7906 12.9184 -1.03088 1.92054 1.35554 -4.00256 4.56269 7.4937
945 1 17.1317 27.4523 14.5804 -10.2185 -8.57526 -1.34575 -1.68979 1.49463 -0.890121
946 1 13.9217 31.3239 2.13783 0 0 0 0 0 0
947 1 13.765 31.4104 5.42202 0 0 0 0 0 0
948 1 15.4115 30.7307 10.7388 -3.26873 3.42891 -2.37005 11.4713 -0.580084 15.4017
949 1 31.3134 0.215061 7.90694 0 0 0 0 0 0
950 3 13.9784 31.6758 9.28609 -0.861105 -2.36127 -7.91969 -0.410367 -1.4261 8.53362
951 3 15.3055 30.4689 6.43629 0 0 0 0 0 0
952 2 33.6514 0.572443 3.7762 0 0 0 0 0 0
953 1 34.2573 2.07473 1.87611 0 0 0 0 0 0
954 1 33.744 2.61573 5.26886 0 0 0 0 0 0
955 1 32.7923 2.84263 8.44054 -2.29843 1.86072 1.16816 -4.48453 1.14143 2.27619
956 3 34.0861 1.70727 9.85358 -5.5643 -0.966066 3.11365 -5.6545 -4.73289 7.93544
957 1 33.6557 3.31643 11.4073 0.705904 -5.00542 -1.15846 1.89068 5.80422 -4.59384
958 1 31.063 5.49909 8.61475 -0.548234 -0.302199 0.636337 -10.7611 4.11839 3.00786
959 3 32.7072 4.5545 9.68006 -0.0746867 -4.49571 1.06194 1.51126 3.03578 -6.999
960 3 34.2065 3.87992 7.33207 0 0 0 0 0 0
961 1 32.5765 3.43225 17.5919 0.904396 -0.760137 1.26991 -15.3522 -16.7343 -4.25256
962 2 -2.46353 5.32527 12.4554 -2.64428 5.6648 -2.68901 1.04777 -3.56886 -12.0969
963 1 31.2483 7.16678 2.15053 0 0 0 0 0 0
964 3 32.6414 6.28262 0.899177 0 0 0 0 0 0
965 1 31.021 7.3002 6.00445 0 0 0 0 0 0
966 1 33.0005 6.32097 11.2829 -0.666837 2.79046 2.68782 4.4213 7.63632 -18.7895
967 3 31.7233 7.13349 9.95739 -3.87538 -2.15636 -2.56532 -6.23786 4.74557 2.035
968 2 32.5693 8.12954 12.9697 1.27983 -2.67429 -2.60856 -7.10076 -0.816483 -6.09389
969 1 33.1061 6.12043 14.5033 3.29725 -2.34377 2.86815 -2.41 4.32384 7.58496
970 2 29.4748 8.13649 4.23039 0 0 0 0 0 0
971 1 29.0773 10.0126 1.93424 0 0 0 0 0 0
972 3 31.0535 8.8983 0.819899 0 0 0 0 0 0
973 1 30.9332 8.86863 11.0697 -1.60661 1.73751 -0.713965 -0.465158 11.4953 -12.1104
974 3 31.0742 8.91225 7.30319 0 0 0 0 0 0
975 2 -5.87706 10.7648 12.6482 -3.88194 -2.7166 -3.4147 14.4588 -4.16587 0.930531
976 1 30.9328 8.96819 14.5993 0.168496 1.44968 -2.51323 -11.3328 8.43485 4.3195
977 3 29.6459 9.93743 15.9367 7.15801 -2.78117 2.2459 0.863836 -6.47084 9.45677
978 1 29.6766 11.8696 11.2863 0.27836 0.26115 -0.495192 11.3422 14.8179 14.0317
979 1 26.5304 13.1562 8.43787 -2.98283 -1.72675 -1.56403 9.06513 7.71266 12.3601
980 3 28.118 12.1127 9.63351 -1.01589 -2.08201 -2.65117 8.6869 3.29506 7.04802
981 1 27.9914 10.65 17.2738 0.900872 -1.93051 -0.343662 2.38048 -4.08013 -2.73274
982 2 -7.43563 13.6054 13.0528 0.119278 3.41137 -3.04128 0.338344 7.11161 3.75258
983 1 29.6736 11.6745 14.6489 1.63766 -2.81069 -1.46361 -1.9498 14.1402 12.777
984 2 26.5548 13.1625 4.01552 0 0 0 0 0 0
985 1 26.3247 15.2595 2.18053 0 0 0 0 0 0
986 3 27.9576 14.25 0.769481 0 0 0 0 0 0
987 1 26.5826 15.0376 5.67171 0 0 0 0 0 0
988 1 28.0389 14.2687 10.9277 6.36131 -0.0926291 0.387137 -16.2414 14.3066 -12.7476
989 3 28.0531 13.8678 7.07135 0 0 0 0 0 0
990 2 -8.68315 16.401 12.3037 -0.20802 4.78059 4.58822 -10.3399 10.4681 2.54831
991 3 26.3709 17.0225 0.927972 0 0 0 0 0 0
992 1 26.3822 17.1699 11.3366 2.19502 -1.75281 1.09471 -5.9496 -14.651 -11.6756
993 2 26.0388 19.1447 12.9079 1.68342 3.41515 -6.33313 -5.35028 11.8735 -0.95261
994 1 24.7352 19.423 10.6202 -0.249094 4.02724 -0.791347 16.2411 -14.5265 12.1356
995 1 21.7539 21.625 8.04602 4.38886 -0.040097 -0.80691 -12.9905 16.831 12.8179
996 1 23.4592 19.0928 17.4757 -3.82349 1.3355 -0.770552 -7.53829 -9.68641 -17.001
997 1 24.6306 20.1989 14.9809 -0.475458 1.85862 -0.613143 8.3175 12.9689 0.115856
998 3 22.871 20.6408 15.8371 1.52253 -5.54736 1.22744 -7.28054 5.84373 5.53786
999 2 21.8182 21.6337 3.88126 0 0 0 0 0 0
1000 1 21.8131 23.151 1.89448 0 0 0 0 0 0
1001 3 23.4331 22.3663 0.870733 0 0 0 0 0 0
1002 1 22.1208 23.3496 5.95497 0 0 0 0 0 0
1003 1 22.9277 22.1852 11.0912 -0.185663 0.449841 -0.872175 -3.63698 -15.4585 2.41651
1004 3 23.4761 22.3563 7.16539 0 0 0 0 0 0
1005 1 21.7675 21.4651 17.3555 2.67429 -2.05513 3.27129 -0.0302329 12.6273 -14.7765
1006 2 22.9191 23.956 12.9837 -2.45752 0.863342 -3.82836 -8.53706 2.35944 -4.39022
1007 1 23.3978 22.6106 15.222 -1.19842 0.818431 0.426885 10.4977 -13.9052 2.16802
1008 3 21.7357 23.2355 16.2732 -6.43072 5.25064 -0.583247 6.64283 1.55034 -7.75242
1009 1 21.6418 25.077 11.0544 0.782394 2.16751 -1.28051 8.39223 10.2819 -9.20013
1010 1 18.7374 27.5845 8.4478 1.36151 0.105607 -4.1118 -1.01163 3.96378 6.58485
1011 1 20.2571 24.2398 17.4524 -2.94298 -4.01556 -0.0267677 -1.29003 7.79246 -7.1947
1012 2 -15.2948 26.6159 12.9919 -0.369725 -1.57288 1.15685 0.597353 7.9786 -2.82177
1013 1 22.0868 25.1292 15.2074 0.329214 -1.03563 -2.28153 -2.1697 4.49092 -15.3052
1014 3 20.4749 26.0772 16.3611 -2.73982 -3.31854 -1.66062 -6.5519 -1.89469 -6.97515
1015 2 18.3984 27.0759 3.55659 0 0 0 0 0 0
1016 1 18.9004 28.4974 6.01058 0 0 0 0 0 0
1017 1 19.9177 27.7145 11.3821 0.256985 -2.17229 2.98445 -16.1667 10.101 -9.06671
1018 1 17.0086 29.4732 8.68894 5.36965 4.41033 -2.51313 -7.60389 -14.9626 -2.89764
1019 3 18.1875 28.7159 10.2299 5.81793 -2.41822 1.48472 7.90707 6.04582 -3.30421
1020 3 20.5479 27.2691 7.11085 0 0 0 0 0 0
1021 2 -16.8642 31.3313 13.2743 3.72737 0.302772 -1.65513 1.2084 0.195009 13.4242
1022 3 18.0445 28.6707 16.3419 -2.41817 -6.07331 3.14236 -1.90275 0.117541 -0.315495
1023 1 18.3499 30.5419 11.6637 1.14065 -1.96866 0.265323 16.6732 -12.8139 -1.89252
1024 1 15.5467 32.2774 8.19109 -0.216278 0.26039 2.74103 5.65749 -8.14013 -5.82799
1025 3 19.071 29.7042 7.68477 0 0 0 0 0 0
1026 2 36.9569 0.48598 13.1765 -1.06241 -6.44258 -6.70051 7.65943 -4.52947 -7.06296
1027 1 18.348 30.7661 15.0328 -1.45083 -4.28206 0.266285 3.8473 -9.09573 -12.5679
1028 3 16.5048 31.5371 16.337 6.56852 -3.0194 2.1167 -5.94142 -7.84129 -9.56582
1029 3 1.45086 0.772538 19.1667 1.13512 -3.49696 4.00102 1.24209 -0.491777 0.9252
1030 1 35.8425 2.17856 26.5021 0.735525 1.47059 0.490146 -0.159566 -0.28109 0.0787382
1031 3 1.02589 1.08044 25.3506 -3.67148 0.129221 -2.05101 0.270729 -0.154616 0.111166
1032 2 35.0121 3.3776 21.6707 -0.712983 -0.16178 0.358024 -0.0710451 0.0179674 0.0416359
1033 1 -0.838911 4.15945 19.5736 -1.88573 -1.60011 2.15687 0.159689 0.140413 -0.257662
1034 3 0.423518 3.7807 17.9789 1.30408 5.74643 -0.346669 0.447572 -5.06316 -0.289251
1035 1 -0.750047 4.07264 23.8307 -0.277913 0.727906 -0.278276 -0.0865634 0.0520483 -0.0255387
1036 1 0.0743968 3.45375 28.7969 0.623681 0.255489 -0.0692517 0.0157681 0.223871 -0.154044
1037 1 34.2715 4.45012 26.0651 0.000936094 -0.203476 -1.4372 0.181366 0.172088 0.140106
1038 3 -1.68147 3.70095 27.5357 -3.00964 0.488067 4.37543 0.0459914 0.497513 0.151147
1039 3 -0.154756 3.21224 25.553 0.601544 0.452695 -0.31005 -0.0435376 -0.0985558 -0.116934
1040 2 0.78503 4.51819 30.9975 0.796849 1.24246 0.442404 0.14921 -0.0861623 0.056673
1041 3 -0.993522 6.24349 18.4594 0.373107 0.0556275 -2.75921 0.132279 0.016192 0.259648
1042 3 -1.34286 5.51427 25.0402 -0.182248 -0.837801 0.172236 -0.0277415 -0.00471975 -0.0143518
1043 1 -3.07863 5.42569 34.9889 1.14288 -0.722315 -0.630724 -0.0734766 0.189545 0.0192491
1044 1 -1.40772 6.16319 32.2554 -1.48031 0.119048 0.880705 0.194981 -0.0140879 -0.160153
1045 3 -2.97452 6.92155 33.7644 0.628989 0.214109 -0.171398 0.0288365 -0.0413869 -0.123869
1046 1 -4.91193 10.3258 19.8681 1.32706 -0.633457 0.478933 -0.00822241 0.18103 -0.115636
1047 1 30.7646 11.2661 26.3102 0.349439 -0.23114 0.316018 -0.13536 0.1476 0.0635011
1048 3 -4.60133 10.1514 27.4585 0.0115457 -0.00850344 0.482035 0.0356976 0.078305 0.0318643
1049 1 32.7427 7.79147 35.2351 -0.746113 -0.257855 -0.480162 0.063589 0.102074 -0.0185899
1050 3 -4.78045 9.69277 34.9136 -0.631966 -0.581995 -0.849609 0.0868325 0.0816398 -0.19247
1051 2 30.8736 11.0282 21.8524 -0.305056 0.285046 0.235952 -0.115946 -0.0420462 -0.0274444
1052 1 -6.41503 12.8658 19.8653 -0.402238 1.53918 0.687586 0.214284 0.131797 -0.819445
1053 3 -4.87501 12.1664 18.7676 -2.37366 -2.63845 6.66737 -0.66128 0.0362342 -0.510789
1054 1 -5.93367 13.587 23.0095 0.176595 -0.416211 0.549501 -0.0651475 0.164088 0.130023
1055 1 -4.29764 11.8275 28.4302 0.182924 0.61862 1.26513 0.227722 0.339168 -0.0214883
1056 3 -5.88641 12.6975 27.6188 -0.39261 0.0606132 0.165697 -0.00188371 0.0136332 0.00299694
1057 3 -5.38534 12.3663 24.572 0.986815 -3.42756 -0.618008 -0.101809 0.369505 0.00674295
1058 1 -6.21898 10.7777 35.7226 -0.234006 -0.0425603 -0.15453 -0.00482928 -0.00759198 -0.0385229
1059 2 -4.90385 13.186 30.6203 -0.101237 0.841173 -0.210257 0.0643804 0.00511568 -0.00363159
1060 3 -6.55631 12.4226 34.625 0.953522 0.867744 0.50992 0.0790758 0.0638664 0.0416722
1061 2 29.1253 13.5977 21.8048 -0.404533 0.637319 0.199822 -0.0773988 0.0137231 -0.0244154
1062 1 -7.66096 15.3773 19.9017 -0.0484179 -0.915435 -0.67143 0.199145 -0.309157 -0.37855
1063 3 -6.70641 14.3622 18.2079 1.69203 -1.25792 0.46835 -0.0605064 0.0492391 0.998568
1064 1 28.7514 14.53 24.3324 0.712065 -1.47704 0.442109 -0.182034 -0.0138156 0.0408779
1065 1 -6.1315 14.5452 28.7151 0.113499 0.837976 -0.926633 -0.088939 0.13193 -0.120566
1066 3 -7.66058 15.6223 27.9817 0.426445 -0.501767 -1.57161 -0.00968742 -0.0193781 0.287994
1067 3 -6.46625 14.5352 24.7327 0.457694 -1.36858 0.614246 -0.122346 0.0413466 -0.0323914
1068 1 29.2563 13.2682 35.5089 -0.00594951 0.0185315 -0.39668 0.0403995 -0.0127231 0.0483697
1069 2 -9.10201 16.111 21.953 -1.24234 -0.151085 -2.28741 -0.0954004 -0.0184796 -0.136882
1070 1 -9.01299 18.239 20.3715 -0.441567 0.0983376 0.157726 -0.0046529 0.184672 -0.136289
1071 1 -9.02661 17.8024 23.7807 0.155044 0.953548 1.32892 0.0288928 0.346937 -0.392245
1072 1 -7.60488 17.4182 28.9397 0.115327 -0.711775 -0.373112 0.0191695 -0.0653082 0.0180955
1073 3 -9.22876 18.241 28.0325 -0.68301 0.227108 -0.71695 -0.337409 0.216979 -0.213006
1074 3 -8.10572 16.4514 24.9799 0.990058 -4.72335 -0.772841 -0.278841 0.335674 -0.0146057
1075 2 -7.94305 19.2337 30.7817 0.393818 0.730815 -0.0807473 0.0432856 0.131799 0.0343196
1076 2 -10.7768 18.6797 22.1305 0.0349994 0.927349 0.142803 -0.0712787 0.0493193 -0.140981
1077 3 -9.12769 19.496 18.6795 -0.222407 1.57581 -0.956447 1.05857 -0.148696 -0.102749
1078 1 -10.2164 20.3665 24.1004 -0.797199 -0.341892 -0.248709 -0.554963 -0.223794 0.0124649
1079 1 -9.45701 20.0626 28.7973 0.477723 -0.191182 -0.25502 -0.117938 0.0784098 0.0878734
1080 1 -12.1515 21.4447 26.3111 0.888408 1.31219 1.77148 0.0662668 -0.648348 -0.630125
1081 3 -11.2763 20.2538 27.6954 -0.0637729 -0.198566 -0.00115816 -0.0575616 0.0648084 0.0944666
1082 3 -8.41207 19.6579 24.7586 0.121363 0.10542 0.212689 -0.0568918 0.0150813 0.0109025
1083 2 -9.42933 21.1232 31.5596 -0.157773 1.88208 -0.572887 0.14392 0.12187 0.139391
1084 1 -12.0104 23.1498 23.7696 1.09114 -0.127724 0.114173 0.198347 -0.18943 -0.270805
1085 1 23.4616 23.8807 25.8396 -0.300232 -0.0293688 2.39747 0.0324492 0.308837 -0.170635
1086 3 -12.2689 23.2049 27.1568 0.2681 -0.262528 0.150811 0.162138 -0.0347793 0.200505
1087 3 -10.4771 22.3682 25.1967 0.268838 0.993016 -1.86141 -0.128398 -0.505161 0.419316
1088 1 -12.1388 21.3967 35.3047 -0.406318 1.06553 0.201671 0.256253 -0.770991 0.304076
1089 3 -12.616 23.1594 34.164 0.220845 0.124298 -0.933181 0.20524 -0.049327 -0.011713
1090 2 -13.6366 24.5995 22.0306 0.423794 0.766672 -0.129304 0.163711 0.0590553 0.105343
1091 1 -13.5871 26.3923 20.0174 0.331651 0.128744 0.152418 0.212342 -0.00123392 -0.322281
1092 1 -13.6262 26.0691 24.1045 -0.261532 1.16863 -0.60953 0.396093 -0.390974 -0.195607
1093 3 -12.1696 24.7467 24.8771 0.0878618 0.0828978 0.299419 0.071677 -0.103911 0.0889272
1094 1 -14.035 24.3229 35.1297 3.49036 -1.47745 -1.98599 0.22767 -0.156366 0.0925139
1095 1 -12.1604 24.6729 32.755 -0.642247 0.844684 0.464534 -0.00704237 -0.053947 -0.442286
1096 3 -13.6448 25.6785 33.7465 -1.41647 2.39745 -0.0276241 0.0921822 0.0718381 -0.0377514
1097 2 -14.9953 27.1646 22.0534 1.86071 -1.39656 1.80439 -0.349646 -0.261923 0.286852
1098 1 -15.0243 29.0615 20.0828 0.0178217 -0.0410546 -0.221814 -0.232813 -0.179118 0.102015
1099 3 -13.6142 27.9853 18.615 0.343262 0.0195738 0.38316 0.0712141 0.00917314 -0.105919
1100 1 -15.2918 28.516 24.41 0.67317 1.61629 0.0443904 -0.358697 0.0566096 -0.0446012
1101 2 -14.2544 29.2149 31.0945 0.462988 1.00895 -0.249728 -0.405438 0.0128672 0.410085
1102 1 -14.3777 27.974 33.3263 -0.618845 -0.055678 0.434495 -0.170107 -0.0124546 -0.37033
1103 3 -15.4771 29.0618 34.6238 2.35029 -1.06927 -0.116844 0.27119 -0.0575714 -0.010565
1104 2 -15.8443 29.9167 22.3001 0.0854593 0.194697 -0.0791128 0.161094 -0.051618 0.0632614
1105 1 -16.5001 31.7268 20.2714 -0.397597 0.0593035 0.0312778 0.0677423 -0.0452385 0.0497237
1106 1 -14.922 31.0144 29.4525 0.538987 0.137317 -0.148307 -0.0711628 0.0510653 0.060596
1107 3 -16.3165 30.5487 27.7458 0.0392419 -1.32005 0.0366262 0.381785 0.503098 -0.00833802
1108 2 2.61906 0.633815 30.958 0.39714 -0.252699 0.297901 -0.840322 -0.568654 0.569395
1109 1 -15.605 30.7611 32.7032 -1.59354 -1.94126 0.649614 0.339707 -0.0209235 -0.12968
1110 3 5.33667 0.92547 18.4408 -3.60055 2.29125 2.29993 0.0620256 -0.212967 -0.198353
1111 1 4.7789 1.19408 28.4102 -0.0878672 -1.09883 -0.01685 0.0961531 -0.256904 -0.318909
1112 1 1.76699 2.90309 25.8994 -0.528237 0.920975 -0.32841 -0.0851486 -0.0899278 0.0204002
1113 3 2.97154 1.91056 27.2605 0.787532 -0.771686 -0.609678 0.0327716 -0.0422046 0.00717473
1114 3 4.83461 0.82381 25.0142 4.07683 -0.0809003 -0.57004 0.699788 -0.02231 -0.202045
1115 2 4.34239 2.62059 30.4515 0.742989 0.0131784 -0.347471 -0.393446 -0.384029 0.150301
1116 1 4.54887 1.2215 32.6012 -0.107131 0.160515 -0.141806 0.0920866 -0.00361276 0.0639931
1117 1 1.78278 4.80416 19.4205 1.9292 0.294097 -0.270733 -0.30633 -0.573544 0.0976296
1118 3 3.21299 3.54288 18.7757 -2.69641 0.718404 1.06257 0.270234 0.0961955 -0.0784968
1119 1 3.49728 3.72842 28.2377 -0.349493 -0.112868 0.672211 -0.403198 -0.0339449 0.192801
1120 1 -0.172318 5.25768 26.76 0.511981 1.26175 0.702447 -0.0393839 -0.0165603 -0.0565917
1121 3 1.61576 4.36363 27.5148 -0.6909 -0.00383352 0.300708 -0.0931481 0.0941489 -0.105573
1122 3 3.07161 3.71717 24.6761 0.0462159 -0.526215 -0.128964 -0.166077 -0.0784222 -0.0844217
1123 2 3.21916 4.97154 30.5607 -0.315483 -0.104374 0.168419 -0.0292849 -0.0572476 0.000458084
1124 2 0.109342 5.4516 21.7005 -4.02147 1.90302 1.72803 -0.457331 0.163308 0.144937
1125 1 0.223404 7.3007 19.7063 0.195515 1.37994 0.631307 0.112842 -0.340589 0.131005
1126 3 1.64425 6.27679 18.3123 0.321384 1.33035 -0.793178 0.27714 0.335635 0.189473
1127 1 0.171967 6.8988 23.9532 -1.20056 -1.56833 1.63231 0.438441 0.206793 -0.152694
1128 1 1.68821 6.30692 29.0001 0.360237 -0.337927 0.0113279 -0.182944 -0.213498 -0.308576
1129 3 -0.0110193 7.20494 28.1819 0.565824 0.253656 -0.398772 0.0857612 0.0680945 -0.0467412
1130 3 1.25255 6.70511 25.6653 -0.425879 0.0977625 0.784871 -0.0458921 -0.115919 -0.114976
1131 2 2.36669 8.04983 30.8308 0.719949 -0.819514 -0.684962 0.0771975 -0.148476 -0.0184281
1132 1 1.78752 6.34647 32.374 -1.47751 -0.854479 -0.980343 -0.104462 0.0447207 0.110662
1133 3 0.114684 7.0818 33.4754 -0.0816581 0.215301 0.110494 -0.00516376 0.0363738 -0.0833587
1134 2 -1.33986 8.09484 21.646 -0.99885 -0.679736 -0.430757 -0.205778 -0.0993603 -0.0668255
1135 1 -1.78368 9.78436 19.8241 -0.322541 0.0908697 -0.04978 -0.268311 -0.145448 0.106921
1136 3 -0.218362 9.24754 18.6669 5.96075 -0.721377 0.0962566 -0.17697 0.299651 0.0859936
1137 1 -1.43438 7.9151 34.791 0.0344512 -0.640867 1.18444 0.0502142 -0.0271581 0.0383644
1138 2 -3.13059 10.9095 21.6637 -0.342942 0.0419743 -0.0694191 -0.0723632 -0.0293385 -0.0185783
1139 1 -3.05442 12.7218 19.7737 0.494408 -0.392008 1.55131 0.175229 0.131775 1.02602
1140 1 -3.16184 12.4239 24.1582 0.072633 -0.0952794 0.0395166 -0.0298217 0.161266 -0.0368231
1141 1 -4.8225 13.779 25.9968 -0.272836 -0.0574265 -0.179277 -0.0495767 0.0924215 0.00573806
1142 3 -3.22066 12.9304 27.08 0.709188 0.554908 -0.0893027 -0.0309369 0.0107954 -0.0914437
1143 1 -3.12983 10.7844 34.9016 0.16314 -0.10969 -8.94028e-05 0.0670819 -0.0347131 0.0408272
1144 3 -2.96972 14.4823 18.6153 3.69839 6.17804 -0.338409 0.338341 -0.183979 -1.15127
1145 1 -3.35767 14.4617 28.3517 -0.41128 -0.210319 -0.304319 -0.170952 -0.14576 0.275742
1146 1 -6.42601 16.2971 26.203 -0.261176 0.265849 -0.507959 -0.192216 0.0508452 -0.277056
1147 3 -4.80077 15.493 27.2605 -3.4013 0.023503 5.65697 -0.316791 -0.231463 0.0436525
1148 3 -2.9481 14.5063 25.0125 -0.510448 -0.018975 -0.386966 0.062312 0.141153 -0.0798532
1149 1 -4.92218 13.5483 34.7586 0.0828797 0.273398 1.32007 0.0222328 -0.130192 -0.151541
1150 3 -4.72783 17.0119 18.4225 -0.379278 -1.92381 5.42568 -0.37242 -0.637088 0.515642
1151 1 -4.81724 17.1551 28.61 -1.69791 -0.757068 -0.610952 -0.781424 -0.655963 -1.09859
1152 1 -7.82165 18.6439 26.336 0.132906 0.100572 0.00317389 -0.151156 -0.0346653 -0.0515757
1153 3 -6.23205 18.1508 27.5221 -0.113164 -1.61116 -1.21147 -0.0976995 0.0761046 -0.0106826
1154 3 -4.85957 17.7463 25.1692 2.57604 -6.15418 -2.11303 -0.433842 0.684114 0.310663
1155 2 -7.18183 18.1355 22.1288 0.152879 0.207156 -0.0903656 0.183706 0.054483 -0.0686098
1156 1 -7.97871 20.8895 19.3105 0.0219339 -0.948292 -0.692391 -0.307781 -0.473465 0.261008
1157 3 -6.26054 19.8475 18.492 -2.36464 1.46996 -0.177468 -0.132062 0.301588 0.177654
1158 1 -6.84563 20.0943 23.6387 -0.0282926 0.383253 0.11511 -0.191777 0.372078 0.149364
1159 1 -6.60775 20.2297 28.2761 -0.0538314 0.0381794 0.169726 -0.0491624 0.0970585 -0.0779718
1160 3 -8.35657 20.7429 27.2612 -0.396647 -0.397439 -0.255777 -0.00607643 0.0648632 0.0367032
1161 3 -5.45812 19.0501 25.5196 -4.52565 9.1321 0.973739 0.455598 -0.996117 -0.210259
1162 2 -5.96148 21.0639 30.5224 -1.40809 -0.521551 -0.897973 -0.643802 -0.183441 -0.0673046
1163 1 -6.56258 19.8304 32.9516 0.0626612 0.264748 0.0207325 -0.27896 -0.0987532 0.0486828
1164 2 -8.84367 20.5158 21.7298 1.19351 0.0596974 -0.144079 0.0298154 -0.0923887 0.0241405
1165 3 -7.99038 22.512 17.9729 -1.23969 -0.951995 -5.03424 -3.47288 7.10712 -7.63154
1166 1 -10.9071 24.3038 26.3479 0.311989 -1.37685 0.723543 0.19546 -0.347207 0.0877545
1167 2 -10.9004 24.5864 21.8418 5.93286 -2.5687 0.421553 0.428685 -0.153521 -0.00902951
1168 1 -10.4962 26.9539 20.4446 -1.25864 1.50647 0.798801 0.062495 -0.0365724 -0.0613388
1169 1 -10.6087 26.2689 23.6763 0.0427208 -1.3477 0.488592 0.0374012 -0.173401 0.0274467
1170 1 -9.1816 25.6009 28.7908 -0.552323 0.50788 -0.112339 0.134989 0.0254138 -0.160243
1171 3 -10.8558 26.1216 27.6367 0.237775 -0.156722 -1.03739 0.0389412 0.162455 0.00844638
1172 1 -11.1171 24.107 35.2294 1.09715 -1.46955 0.0586272 0.7292 -0.814996 -0.163274
1173 3 -11.1585 25.9771 33.9095 -0.266333 -0.394857 0.686304 0.180599 -0.0531158 -0.0859758
1174 2 -12.3335 27.2693 22.051 0.43657 -0.28417 0.00277858 0.423285 0.045634 0.0077023
1175 1 -12.138 29.0502 19.6612 0.366039 -0.457081 0.150217 0.0524161 0.00595403 -0.0440998
1176 1 -12.1176 28.7616 24.0845 -0.392137 -0.348484 -0.37249 -0.0833678 0.0485584 0.0324985
1177 1 -10.5838 27.8721 29.0136 0.0353597 -0.208984 -0.451944 -0.202009 0.223828 0.0135947
1178 3 -10.3258 28.1184 24.9603 -0.550609 -0.164882 -0.563999 0.113572 -0.0448602 0.100935
1179 1 -12.5161 26.7427 34.939 0.720896 -0.390692 0.0719325 0.106402 -0.171869 -0.15892
1180 2 -11.0617 29.7807 30.5161 -3.05687 -1.31362 -1.46166 -0.775657 -0.198526 0.0315469
1181 1 -11.2304 27.7434 32.3987 -1.09465 -2.20831 -0.248658 0.398628 -0.363391 -0.358702
1182 3 -12.4767 28.6501 33.6882 -0.324466 3.73777 0.93714 0.601653 -1.06737 -0.643177
1183 2 -13.1315 30.1466 21.7654 1.17667 1.06689 -0.649135 0.154477 0.162016 -0.0147205
1184 1 -13.5954 31.8218 19.8509 -0.903635 2.0204 -1.4936 -0.159534 0.0731086 -0.146296
1185 1 -13.9293 31.4996 23.736 2.55687 1.16343 1.47026 0.577212 0.0924226 0.557019
1186 1 -12.056 30.6271 28.2583 -0.462071 0.218224 0.052033 0.0673157 0.121641 -0.0245826
1187 1 -15.518 32.2817 26.2916 -0.192218 1.13424 0.100277 -0.427095 0.215928 0.217981
1188 3 -13.7648 31.6436 27.4457 -0.768857 0.222931 -0.485838 0.190269 -0.0073602 0.18129
1189 1 -14.3644 30.5253 35.1959 0.704777 0.0132904 -0.90962 -0.380953 0.21339 0.65969
1190 2 -12.8495 32.1722 30.4681 -0.109755 0.16815 -0.298262 -0.157574 0.390501 0.111575
1191 1 -12.8977 30.7142 32.678 1.72043 -0.0693581 -0.0983748 0.427597 -0.530013 0.284384
1192 3 -14.5859 31.8924 33.8588 -1.80338 1.3194 1.50013 0.00686252 -0.0657902 0.185857
1193 2 6.0646 0.509539 21.9149 0.193533 -0.159132 -0.309213 0.0490582 -0.0450738 -0.0320629
1194 1 5.74469 2.32132 20.0595 0.105565 -0.783421 -1.42112 -0.145592 0.170362 0.377213
1195 1 6.59057 1.73762 23.9805 0.290531 -0.380787 -0.120121 0.0734533 -0.075291 -0.109766
1196 1 7.64462 0.864753 28.8843 0.0256674 0.651289 -0.248198 0.0340341 -0.599567 -0.0615934
1197 1 4.4763 2.58604 25.9208 -0.520884 0.136439 -0.459815 0.133912 -0.0659177 -0.128186
1198 3 6.45799 2.06605 27.1444 0.293196 -0.0250377 0.0348113 0.00068699 0.0187128 -0.11836
1199 3 8.15918 0.542542 25.099 -0.160919 -0.0331762 0.0527143 -0.0146774 -0.0922361 -0.0442344
1200 2 7.50821 2.70564 30.5883 -0.396398 1.78185 1.20795 -0.181294 -0.110622 -0.669454
1201 3 6.65189 3.80412 18.4116 0.3556 1.48342 -1.57174 0.544561 -0.276102 -0.0352717
1202 1 2.79559 5.55609 26.2048 -0.435573 0.411733 0.2773 0.154811 -0.36546 -0.069489
1203 1 4.1752 2.61833 34.9653 0.195247 -0.433169 0.428081 -0.0719366 0.0542454 -0.105068
1204 1 5.38114 4.11424 32.1495 0.558512 -0.496274 -0.77643 0.235021 -0.188244 0.0391519
1205 3 4.47666 4.32188 33.9742 -1.07136 -0.487506 1.12916 -0.161109 -0.072564 0.143509
1206 3 4.75384 6.71102 18.3676 -0.356995 1.83906 -0.12667 -0.377804 -0.343726 0.440036
1207 1 1.2913 8.42377 26.7121 0.13477 -0.287905 0.64463 0.145237 -0.0957063 0.112332
1208 3 2.81032 7.55385 27.4616 -0.561389 -0.0489259 -0.0224788 0.00299963 0.0137509 0.0741022
1209 1 2.71123 4.97065 34.3072 -0.859989 2.45869 0.853359 0.109904 0.03162 0.36812
1210 3 3.07977 7.01108 33.9751 0.0796018 1.28651 -0.8382 -0.0581322 -0.318787 0.170024
1211 2 1.24302 8.20695 22.0146 -2.74809 1.81421 0.831142 -0.388536 0.399018 0.0761595
1212 1 1.10668 10.1541 23.8613 1.08735 0.86159 2.54723 0.0603617 -0.0538238 0.328471
1213 1 3.19234 9.28413 28.8503 0.429389 0.293657 -0.377097 0.13346 0.171552 -0.100991
1214 3 1.97796 10.2565 27.7166 -1.18026 2.66164 1.03869 -0.128612 0.278445 0.0894801
1215 3 2.69497 9.66553 25.2858 -0.617447 0.574576 -2.2399 -0.153916 0.0537317 -0.0422671
1216 1 1.62218 7.88198 34.9264 -0.00856274 -0.110513 0.737047 0.0488183 -0.084032 0.0458219
1217 2 3.06678 10.7935 31.0662 -0.797289 -1.49849 2.18309 0.0056773 -0.160957 0.13979
1218 1 3.72566 8.80804 32.9941 0.634262 -1.24947 -0.119158 0.0143825 0.315064 -0.055784
1219 3 2.167 9.7593 34.3544 0.527614 0.277638 -0.459485 -0.00981463 -0.0061677 -0.0940837
1220 2 -0.271641 11.0762 21.7752 -0.0144146 2.25027 -1.63755 -0.261758 0.129 -0.0367206
1221 1 -0.154552 13.1701 23.4096 0.0292201 0.881542 -0.559601 -0.106607 -0.420731 0.133946
1222 1 1.23838 11.5003 29.0917 -1.44928 -0.747944 6.85601 -0.1298 -0.0830751 0.65118
1223 1 -1.48434 13.7463 26.3962 -0.479359 0.978295 -1.1105 0.0274219 0.0161454 0.088721
1224 3 -0.551943 11.8929 27.4575 -0.354443 -0.143892 -0.0922872 -0.164185 0.253676 0.178418
1225 3 1.21767 12.1432 24.9987 -0.247665 0.0850329 -0.146271 -0.0933724 0.374641 0.161815
1226 1 0.33221 10.6487 35.5216 0.231926 0.120839 0.0738781 0.128894 0.137862 -0.320567
1227 2 1.54388 13.675 30.7443 1.47138 0.000169998 -0.605464 -0.0197318 -0.145129 -0.104596
1228 1 1.34467 11.1211 33.1233 -0.723784 1.381 0.346125 0.138795 0.381774 -0.497482
1229 3 0.204913 12.5232 34.3907 3.15441 -3.53545 -2.71006 -0.555937 -1.04868 -0.481802
1230 3 -0.167303 13.6009 18.9229 0.730772 2.4629 2.78489 0.33467 -0.371848 -0.610208
1231 1 -0.285035 13.9741 28.9003 0.692887 -0.985998 0.0138643 0.0283333 -0.0236147 -0.139362
1232 1 -3.15604 16.4643 26.3203 0.164233 0.920754 1.5512 0.12318 -0.124157 -0.264834
1233 3 -1.59986 15.4085 27.6482 0.267125 0.415455 -0.417679 -0.0141164 -0.0884019 0.198346
1234 3 0.502222 14.0367 25.7172 -0.576618 -0.702724 -0.232485 0.242611 -0.220213 -0.0753729
1235 1 -1.37596 13.4824 35.3547 0.361696 0.0684159 -0.212595 -0.0212918 -0.0421851 0.0781915
1236 2 -0.534449 15.6635 31.1104 -0.677443 -0.382856 0.17727 0.17577 0.256891 -0.284812
1237 1 0.191343 14.3341 33.0691 0.487236 0.338958 -0.515642 0.159748 -0.272878 0.277362
1238 3 -2.11124 14.8236 33.7566 0.343705 -0.709054 -0.943218 -0.15182 -0.0676653 0.0716569
1239 3 -2.08515 17.999 18.4611 -0.0703135 -0.564931 -0.0596759 0.228216 0.265882 0.145586
1240 1 -2.05839 16.7296 29.4186 -0.191122 0.0299989 2.83688 0.218127 0.203023 -0.447849
1241 3 -3.22574 17.9416 28.1598 0.446437 0.141315 1.22017 -0.00816499 0.00884759 0.200819
1242 3 -1.43717 17.1819 25.4684 1.34446 1.21281 -0.611381 -0.0115122 -0.0487232 -0.0438462
1243 1 -2.89458 16.2672 35.2104 0.702603 0.298412 -0.656224 0.0183025 0.0999707 -0.0268505
1244 2 -1.84102 18.9632 30.8676 0.458964 -0.35445 0.496223 0.207864 0.735767 -0.185227
1245 3 -3.05002 17.9768 34.1351 1.65508 0.43371 -2.23904 0.179845 0.0761533 -0.138825
1246 1 -4.9015 20.9427 19.6561 -0.463889 -1.23443 0.239541 -0.38237 0.320689 -0.327287
1247 1 -3.80285 19.6628 29.4733 0.279125 -0.561237 0.0700527 -0.294152 -0.353188 0.00144668
1248 1 -4.55071 18.7015 35.2108 -0.371149 0.344537 0.587084 -0.327899 0.133859 0.131063
1249 2 -3.55963 21.7771 30.8038 -0.284953 -1.12256 0.180248 0.656947 0.237612 -0.158568
1250 1 -3.26167 19.6692 32.7583 0.361033 0.0306637 1.1132 0.260919 0.392021 0.408891
1251 3 -4.63717 20.5414 34.0816 -0.087571 0.33622 -0.497962 -0.131868 0.163756 0.123339
1252 2 -6.58615 21.791 21.5902 0.0803356 1.62227 1.13621 0.0542118 -0.00668192 0.0262217
1253 1 -6.54427 23.4519 19.7519 -2.18286 2.26717 -1.24034 0.220822 -0.537146 0.250715
1254 3 -4.69896 22.6341 18.5192 0.0257006 2.65897 -2.46597 -0.0363902 -0.19279 -0.207075
1255 1 -4.73445 22.6252 28.4857 0.164006 -0.101914 0.317784 -0.13283 -0.138383 -0.168691
1256 3 -6.18451 23.2478 26.9772 -0.342032 -0.0847047 0.971955 -0.247526 -0.000398764 0.0885913
1257 1 -5.86137 21.7515 35.2792 0.545028 -0.215912 -0.217868 -0.0820231 -0.11863 0.242403
1258 2 -5.36325 24.0173 30.6003 -0.202918 0.11743 0.165329 -0.225379 0.00729999 -0.0652885
1259 1 -5.26969 22.3194 32.5985 -1.38526 -0.0436982 -0.235497 0.295505 -0.276291 0.751197
1260 3 -5.69186 23.5624 34.0845 -0.166594 0.124311 -0.223288 -0.0905202 -0.0296004 0.0485301
1261 2 -8.00225 24.337 21.7241 2.60504 -1.45378 1.7859 -0.0223691 0.0192427 -0.0998489
1262 1 -8.21729 25.7426 19.3912 -0.747674 -1.1411 -0.746846 0.158923 0.116968 -0.161097
1263 3 -6.3246 25.2571 18.8689 -1.52397 -4.25864 2.11412 0.0491456 0.383274 0.161678
1264 1 -6.64178 24.8261 28.0955 1.48332 0.400835 -0.948202 -0.347185 -0.0633558 0.0202324
1265 1 -9.5546 27.0195 26.505 0.431135 -0.448702 -0.490901 -0.114802 -0.228471 -0.043971
1266 3 -7.77371 26.4428 27.3861 0.826822 0.167222 0.679586 -0.104217 0.0540576 -0.00234357
1267 1 -7.6534 23.7569 34.6884 -0.00895941 0.248356 -0.363397 0.00657913 0.0983101 0.079558
1268 1 -5.76307 25.2336 32.7243 1.16257 0.994292 0.59358 0.619192 0.166934 0.296449
1269 3 -7.74318 25.4702 33.4472 -0.328263 0.513143 0.38655 -0.0955709 0.1362 0.0636911
1270 2 -8.66778 26.7735 22.1775 -0.155296 -0.992411 -0.275963 0.0198346 0.0439662 0.0204248
1271 1 -8.27806 28.5754 20.5545 0.120994 -0.262139 0.630112 -0.0586272 -0.151858 -0.0581015
1272 3 -7.07412 27.5876 19.0394 2.17566 0.391141 3.40117 -0.882543 0.0887588 0.422535
1273 1 -8.87616 29.0324 23.8725 0.165669 0.446086 -0.456662 0.0488777 0.0118089 -0.0348682
1274 1 -7.6717 28.0921 28.3122 -0.743324 -0.896766 1.64317 -0.277149 0.11853 0.206565
1275 1 -10.3749 29.7966 26.1026 0.854756 -0.268059 0.427269 0.188354 -0.0378071 0.0384911
1276 3 -9.3453 28.7702 27.5024 0.232001 -0.651088 -0.143423 -0.0654757 0.076716 -0.046495
1277 1 -9.33548 26.6826 34.7116 0.395633 0.290101 0.145286 0.0580895 0.044277 0.0174877
1278 3 -9.57187 28.4852 33.7654 -1.92211 0.0578698 0.638169 -0.030084 -0.000853327 -0.105664
1279 2 -10.4286 29.3988 21.7409 -0.0290289 0.127691 -0.0346585 0.0780817 0.034026 -0.0297728
1280 1 -10.9959 31.302 23.5931 0.430805 0.598566 -0.193613 0.194552 0.23838 -0.249219
1281 1 -9.08433 30.4518 28.6538 0.522176 -0.607915 -0.0604962 -0.308328 0.417365 -0.0225847
1282 1 6.40214 0.401801 26.278 0.393657 0.471148 0.110117 0.211284 0.0304954 -0.0515875
1283 3 -9.12677 30.7732 25.2559 0.126867 0.0554461 0.0536371 0.0390132 0.0119511 0.00412836
1284 1 -11.1107 29.3813 34.8982 0.425956 0.322725 0.200902 -0.0351332 -0.275777 -0.236884
1285 2 8.83528 0.300996 21.5335 0.307518 0.141823 -0.217697 0.0437883 0.0573526 0.014558
1286 1 9.13894 2.17388 19.7909 0.0879088 -0.0594085 0.150299 -0.0580047 0.0100516 -0.00481804
1287 3 10.669 0.995512 18.1029 0.283433 0.0198303 -1.1216 -0.0103218 0.204975 0.0230342
1288 1 9.36344 1.75915 23.8703 -0.263821 0.213237 -0.117072 -0.125134 0.00413046 -0.126756
1289 1 11.0068 0.937709 28.059 0.0831278 -0.199814 0.0156316 -0.186049 0.187173 -0.104391
1290 2 10.8529 2.50891 30.2225 0.411533 -0.218761 -0.607404 0.174642 0.0997446 -0.105861
1291 2 7.71749 2.77003 21.8498 -0.0304124 -0.102994 -0.217324 0.011255 0.10223 -0.046174
1292 1 6.92114 4.73647 20.4045 0.325743 0.513855 1.14026 0.0331253 -0.121916 0.106576
1293 1 7.93297 4.47994 23.7139 -0.632777 -0.566509 0.074074 0.322901 0.175119 -0.133417
1294 1 9.2165 3.71684 28.8277 -0.0276456 0.464829 -0.188958 0.0065694 -0.153958 0.288722
1295 3 9.53335 3.83186 24.7873 -0.26028 0.338543 -0.00736694 0.0748966 -0.00134725 -0.0719036
1296 2 9.30635 5.18069 30.7732 0.395096 -0.182682 0.11597 0.17664 -0.0750419 -0.0753527
1297 1 9.36055 3.21304 32.2269 -0.116515 0.178313 -0.154498 0.0971564 -0.0918982 0.050064
1298 3 7.5103 4.33696 33.3289 -0.46358 0.494025 0.221176 0.015168 -0.242269 -0.0150628
1299 1 6.05907 7.19612 19.4491 2.06888 -0.711728 1.97553 0.538933 -0.62594 0.108166
1300 3 7.47386 6.05068 18.7497 -0.980165 -1.4185 0.944394 0.115349 0.604346 -0.426516
1301 1 4.22006 8.54398 26.3137 0.281863 -0.0737603 -0.336127 -0.0652068 -0.294187 0.152567
1302 1 6.05736 5.2751 34.7025 -0.0335407 -0.188496 -0.214197 -0.088027 -0.242571 0.352512
1303 3 6.44762 8.90961 18.2348 3.27098 -1.42782 3.80326 -0.0259117 0.501745 -0.316435
1304 1 4.50079 10.1487 24.1631 3.18957 -2.19281 -0.612968 -0.704556 0.268356 0.168871
1305 1 6.15356 9.26153 28.9282 -0.371372 -0.110186 0.0671141 0.0312596 -0.0116109 0.0897712
1306 1 2.96748 11.2982 26.2823 -0.371054 -0.00469683 1.01538 -0.101109 -0.0365458 0.245525
1307 3 4.56819 10.029 27.4896 0.263575 -0.398325 -0.204765 0.00528408 -0.0330041 0.0267872
1308 3 5.24608 11.5756 17.9834 4.32051 0.809781 1.90935 2.24559 -5.72851 -0.731604
1309 3 4.56043 11.9317 25.0535 0.47688 -0.657758 -1.33102 0.0473185 -0.011115 0.00290151
1310 1 3.34022 10.8621 35.4589 -0.609609 -0.627007 -0.238946 -0.0486426 0.399221 0.0863831
1311 2 5.025 12.9536 30.2949 -0.81328 3.14375 -0.572559 0.020012 0.100218 0.229399
1312 1 5.66791 10.8026 31.4233 0.835575 0.72692 0.0443835 0.0264175 -0.131341 -0.00279196
1313 3 2.73068 12.1316 34.1345 -4.45089 -1.6943 -3.60987 -0.648701 -0.408369 -0.526136
1314 1 1.00378 14.9355 19.662 2.70856 2.81922 1.85233 -0.0576136 -0.5457 -0.589441
1315 3 2.79828 14.1607 18.5836 4.7915 -1.87149 2.20055 -0.0976572 0.0834799 -0.326347
1316 1 1.44913 14.9185 24.109 0.633868 0.540168 0.431759 0.28486 -0.1773 0.25102
1317 1 3.04008 13.9486 28.368 0.589727 0.387516 0.148058 -0.212538 -0.2658 -0.0136197
1318 1 0.133166 16.1488 26.5599 0.222723 0.27826 -0.270572 -0.0750939 0.0443973 -0.0441307
1319 3 1.04096 14.6385 27.7557 -0.0861914 -0.144846 -0.384711 0.00559236 0.172682 0.0810587
1320 1 1.57831 13.3801 35.1936 0.268181 -0.588686 0.766654 0.126091 0.140765 -0.00164514
1321 2 3.708 15.3767 30.867 -0.735966 -2.8864 2.82661 -0.0368471 -0.78515 -0.459368
1322 1 3.42127 12.9719 32.3907 -0.0862205 0.120851 -0.141125 -0.346755 -0.409344 -0.108156
1323 2 0.289244 15.3805 22.0181 1.10243 2.82961 -0.291007 -0.708779 1.45897 -0.0376694
1324 1 -0.919077 16.9614 20.1295 -2.53877 1.2661 2.48922 0.00731196 -0.174697 0.0864617
1325 3 0.845334 16.5601 18.4603 -3.21484 -5.47125 -0.873956 -0.374155 -0.221768 -0.441947
1326 1 -0.601739 17.2262 23.4819 0.519375 1.00678 0.0379733 -0.0229614 -0.245184 -0.286319
1327 1 1.38101 16.0244 29.5936 0.76412 -0.137786 -0.736806 0.124323 -0.131278 0.194735
1328 3 1.15058 16.6842 24.8521 -0.609976 -1.05692 -1.22283 -0.0206719 -0.183147 0.137097
1329 2 0.362376 18.0768 31.4859 2.33772 2.96064 0.603879 -0.211459 0.140736 0.326819
1330 2 -2.43397 18.2859 21.7836 -2.21129 -0.287902 -0.739415 -0.380164 -0.118074 -0.08747
1331 1 -1.94145 19.6365 19.6806 -1.81402 -0.529225 2.80781 -0.451816 0.076903 0.114438
1332 1 -2.33086 19.9618 23.7401 -1.64741 -0.187533 -0.141552 -0.393295 0.026719 0.132326
1333 1 -1.73434 18.6725 35.4975 1.32849 0.909637 0.769856 -0.458312 -0.341191 -0.423959
1334 2 -1.10218 22.1917 30.4657 1.69844 1.82468 1.07675 -2.09852 -0.241174 -0.202112
1335 1 -0.196167 20.585 32.2178 -1.08663 -2.64634 2.1078 -1.64231 -1.16442 -0.121188
1336 3 -1.824 20.6147 34.0534 2.39263 -0.964567 -0.127543 0.187401 -0.0541563 0.0206567
1337 2 -3.70885 20.8127 21.8083 -0.989171 1.61305 0.929984 -0.151203 0.0156296 0.0337904
1338 1 -3.76651 22.9695 23.6758 1.16008 0.207067 -0.16056 0.245457 0.0559528 -0.0346607
1339 1 -5.09448 24.6591 25.8734 -1.0054 2.05098 1.31263 -0.0809024 -0.0863271 0.0262867
1340 1 -3.04258 21.005 35.78 -0.543684 0.504102 -0.0842156 -0.210212 -0.171838 -0.316984
1341 2 -2.22331 24.646 30.8185 0.460802 0.731215 -1.37448 -0.257387 -0.0955822 -0.00868218
1342 1 -2.33418 22.4609 32.9093 0.502839 1.37754 -1.54603 -0.452712 0.00230481 -1.41647
1343 2 -5.41324 24.3227 22.2383 0.684381 0.865949 -0.296338 0.0486465 -0.0315559 -0.0944095
1344 1 -4.11812 26.1797 23.4173 0.932394 -0.0807328 -0.125223 -0.186887 0.230025 -0.0173486
1345 1 -4.00277 25.3562 29.0131 0.183974 0.216671 0.519355 0.220156 0.264097 0.0905819
1346 1 -6.26352 27.1934 26.1083 2.55771 3.79886 3.04376 -0.151224 -0.0293367 0.324856
1347 3 -4.87632 26.1716 27.3019 0.620946 0.456519 -0.584643 -0.155887 0.289839 -0.157285
1348 3 -3.27026 25.0042 24.9363 0.444047 -1.39092 1.42289 -0.406942 0.225772 -0.13737
1349 1 -5.81607 29.0526 19.6271 -0.250739 0.480981 1.19241 0.2939 -0.053252 -0.299105
1350 3 -4.58121 28.3698 18.1592 0.201695 1.3654 1.42568 0.134921 -0.289258 0.149926
1351 1 -4.46434 28.1704 28.4103 0.951003 -1.11213 -0.351757 0.319883 -0.165721 0.226036
1352 3 -5.99067 28.7059 27.4479 0.114537 -0.603846 -0.438692 0.0757961 0.667867 0.185875
1353 3 -4.41618 27.5377 25.0602 -1.45765 0.273076 1.89452 -0.0748409 0.216266 0.000503462
1354 1 -6.48399 26.7439 34.6317 0.115698 0.295384 0.313995 0.066047 0.0826276 -0.034818
1355 3 -6.36164 28.7651 33.4644 -0.525933 1.17473 -0.345467 0.155674 -0.114694 -0.0451063
1356 1 -8.05058 31.7106 19.6175 -0.090162 0.285703 -0.903778 -0.117501 0.208496 0.418851
1357 3 -6.72786 30.7599 18.5411 -0.724816 -4.14266 -0.467686 -0.175294 0.517237 0.487689
1358 1 -6.18286 30.6541 28.1765 -0.436175 0.984774 1.22048 0.0550486 -0.163959 0.0368345
1359 3 -7.91389 31.3693 27.1953 -0.83402 2.29007 0.489294 -0.293377 0.704349 0.0709551
1360 1 -7.73541 29.4568 34.6776 1.05776 0.0605533 -1.94704 -0.0327033 0.031322 0.146451
1361 2 -5.81325 32.2133 30.1922 1.32292 0.239726 -0.252492 0.0446227 -0.0240814 0.0127242
1362 1 -6.36394 30.7722 32.2475 -1.51365 1.36496 -0.22604 -0.500393 0.0104265 -0.348243
1363 1 12.2063 1.83759 19.1472 -0.278085 0.55358 0.67924 0.221768 -0.118987 -0.462455
1364 3 13.7125 0.861742 18.0142 -1.91884 -2.54039 2.17555 -0.417346 0.17403 0.150627
1365 1 10.4732 3.0897 26.3127 -0.0705889 0.435978 0.230135 -0.0252408 0.0302218 -0.033865
1366 3 12.0003 1.80689 26.3579 0.467969 -0.652532 0.0409564 0.0379464 -0.103676 -0.00352212
1367 1 12.59 0.186762 34.5965 -0.251364 1.88039 0.637636 -0.0175811 -0.154134 -0.0727039
1368 1 14.0944 1.07577 32.3301 -0.738845 0.757876 0.875301 0.137029 -0.178422 -0.0958648
1369 3 13.7118 1.8356 34.0972 -0.741752 -0.000942752 -0.432332 0.215597 0.391732 -1.00723
1370 1 11.0581 4.77611 24.0658 -1.36369 1.4735 0.824593 0.0902194 -0.0634549 -0.0833312
1371 1 9.36214 5.83449 26.3001 -0.709672 0.491762 0.640988 0.219916 -0.162695 0.00548494
1372 3 10.4879 4.84287 27.547 0.484699 0.520243 -0.593664 0.393313 0.368775 -0.482305
1373 3 12.3718 3.93447 25.7097 0.616842 0.0472129 -0.493973 0.0487496 -0.0410394 -0.0782265
1374 1 12.82 3.64562 34.0587 1.91935 -0.280819 0.182237 0.106535 -0.0249632 -0.132786
1375 2 12.6322 5.20448 30.6741 0.553246 -0.114733 0.241545 0.219443 0.15949 0.034099
1376 3 10.6368 3.76678 33.7764 0.907656 1.40579 0.449301 0.357752 -0.0737839 -0.182536
1377 2 9.33164 5.51274 21.9093 -0.0484358 0.601425 -0.0646985 0.057017 -0.0912228 -0.114959
1378 1 9.06825 7.02679 20.0741 -0.934511 0.124388 -0.611704 0.192779 0.169909 -0.207706
1379 1 9.75557 7.313 23.5766 0.699729 1.20936 0.34773 -0.179613 -0.525399 -0.138391
1380 1 10.9458 6.21731 29.1999 -0.167253 -0.292378 0.932813 0.486636 0.405678 -0.596982
1381 3 10.3457 7.56468 27.6894 -0.42216 0.202562 1.19273 0.204454 -0.253208 0.0421229
1382 3 10.9891 6.45592 25.1681 0.268816 -0.288144 0.708776 0.125559 -0.00900202 -0.0923809
1383 1 9.20611 5.27748 34.543 -0.335034 -0.237907 0.664315 -0.0031132 -0.303234 0.0458117
1384 2 11.6641 8.22976 30.6263 2.08498 -2.26042 -0.104805 0.302748 -0.36676 -0.0367273
1385 1 11.0819 5.95042 32.4946 -0.437618 -0.139655 0.149215 -0.467475 0.081102 -0.0797281
1386 3 9.5213 7.1523 33.6367 -0.015399 0.850703 1.86281 -0.150387 -0.051148 -0.195411
1387 2 8.29374 8.61034 21.7762 0.207848 -0.961466 -1.88438 -0.0663395 -0.183388 -0.14204
1388 1 7.74628 9.7575 19.4492 -0.272609 0.282704 1.0688 -0.0105187 -0.0583096 0.19584
1389 3 9.47514 8.44101 18.8172 4.31607 0.22374 0.383755 -0.696579 -0.361361 0.025813
1390 1 7.60139 9.79831 23.8059 0.284738 0.12723 0.177882 -0.15765 -0.019529 0.000982476
1391 1 9.18342 8.48269 29.3761 1.47075 0.864154 -1.484 -0.161202 -0.221793 0.169011
1392 1 6.17147 10.975 26.5141 -0.27601 -0.234756 0.0595889 -0.152339 0.0687141 0.249613
1393 3 7.86172 9.53531 27.763 -0.0427056 -0.21319 -0.378659 -0.0594902 0.0209342 0.176244
1394 3 9.33077 8.95381 24.7349 -6.42674 -2.4083 2.38309 -0.210905 -0.444376 0.134051
1395 1 7.78772 7.98203 34.8028 -1.49709 -0.182442 -1.36796 0.169518 -0.150264 0.0585224
1396 2 10.1004 10.698 30.7654 -0.796317 -0.511843 -1.4162 0.0199157 -0.180259 -0.0381158
1397 1 9.42698 9.07935 32.6627 0.319909 -0.337367 -0.7244 0.020375 -0.0180471 0.169711
1398 3 8.14241 9.93337 34.0951 0.401489 -0.456566 -0.223279 0.0192932 -0.0772217 0.071573
1399 2 6.74729 10.9994 21.6503 2.22633 0.600182 -0.143586 0.833056 0.0213212 -0.64791
1400 1 6.73507 12.442 19.3358 -1.29472 -0.310356 0.307611 0.0909111 0.379618 0.256918
1401 3 8.06808 11.6208 18.1755 -0.48075 0.151194 -0.51875 0.689011 0.0139123 0.226792
1402 1 6.27096 12.4056 23.7629 0.294786 0.429165 0.0781599 0.0844232 0.388953 -0.112653
1403 1 8.54436 11.0591 28.757 0.546508 2.70276 0.0437371 0.0777078 -0.11595 -0.0685188
1404 3 7.66389 11.52 25.0548 -0.105626 0.593743 0.308988 -0.087232 0.1507 -0.0268807
1405 1 6.18158 10.3593 34.7808 -0.321058 -0.155049 -0.203222 0.040726 -0.0179694 0.000664191
1406 2 8.00536 12.4537 30.6382 -0.471718 1.49098 0.97012 0.129258 -0.000254826 -0.0958218
1407 1 8.14918 11.2631 32.6623 -0.0813025 -1.29791 -0.197814 -0.0868289 0.164602 0.215921
1408 3 6.36875 11.3609 33.12 -0.586539 -0.566687 -0.0308691 0.208845 -0.176655 0.0919259
1409 1 4.24512 14.7776 20.0389 0.337736 2.21066 0.334255 0.766842 0.233159 -1.17505
1410 3 5.85604 14.324 18.7406 -2.00931 3.05328 1.33392 0.508915 0.294621 0.507697
1411 2 6.39476 15.1751 31.2452 -5.4834 -2.80189 4.92231 0.81354 0.431139 0.837468
1412 1 5.98082 13.2068 33.0377 0.421521 -0.830657 -1.13261 0.162484 -0.325119 -0.260852
1413 2 3.229 15.5865 22.2949 -0.0211844 1.31653 -1.65836 -0.205877 -0.087446 0.0105582
1414 1 1.80083 17.6167 19.6102 -3.777 -1.90116 2.38417 0.715433 -0.0885391 -0.49997
1415 3 3.81271 16.7386 18.7232 3.74581 2.27467 -1.82113 -0.0495463 0.619283 -1.67323
1416 1 2.49567 17.797 23.8437 -5.13083 1.35092 -4.64542 -4.46437 -3.70005 -1.63877
1417 2 3.11323 17.6522 31.2835 4.08643 0.384367 5.78748 -0.380374 -0.807882 0.78422
1418 1 3.33663 15.2913 33.3802 -1.63066 -1.13769 0.685144 -0.693938 0.370316 -0.312198
1419 2 0.330821 18.6405 21.3776 -3.87772 3.20105 -2.3015 -0.500927 0.557488 -0.779652
1420 1 0.255476 20.0584 23.4486 1.90785 2.40491 0.0326567 0.360685 -0.201019 0.879435
1421 3 1.82021 19.6495 24.8238 -1.35095 3.36288 2.66962 -0.395589 -1.28266 -0.47587
1422 2 2.09409 19.9076 31.1913 -3.08117 5.26565 -1.8277 -4.28438 -1.19283 -1.69347
1423 1 1.79636 18.6244 33.4376 0.756573 -4.57675 -4.62187 0.0854485 -0.909889 0.22736
1424 3 0.915279 20.899 34.0507 -5.39335 4.94147 -5.8025 0.795434 -1.0781 0.40266
1425 2 -1.15536 21.0492 21.5288 0.640335 0.276202 2.07646 -0.632856 0.0848868 -0.590587
1426 1 -0.728755 22.7017 19.5642 -1.25374 -0.190819 7.63193 1.01761 -0.280678 -0.972386
1427 3 0.867277 21.8534 18.1758 7.92009 -5.04307 -4.20305 0.835989 1.42821 -0.474
1428 1 -0.427242 22.793 23.2115 3.5718 2.40329 -0.151134 -2.05243 -0.303249 -0.543673
1429 1 0.441967 22.1246 28.5066 -0.722782 1.59141 1.86311 0.637956 0.233461 -0.193031
1430 1 -0.655282 22.0325 35.1776 -0.0647435 1.45806 -0.570355 -0.0612231 0.675115 -0.232731
1431 2 0.2154 24.2602 30.028 -4.3062 2.71412 2.18281 -1.06879 0.0775952 -1.68902
1432 1 -0.0133232 23.4905 32.3169 -0.72194 -0.436851 3.4237 -0.362404 0.883961 -0.181163
1433 3 -1.13097 23.7209 33.9488 19.3434 -14.1762 -5.27279 1.73375 0.769171 -0.237117
1434 2 -2.32097 23.4494 21.5522 -0.128701 1.02231 0.0108651 -0.412981 -0.0116026 -0.156769
1435 1 -1.89047 25.0639 23.4115 -1.88664 -1.77636 -3.81715 -0.224144 0.321606 -0.143265
1436 1 -3.0327 26.9136 26.2463 0.0904478 -1.01848 1.34813 -0.0376611 0.0701934 -0.107448
1437 1 -1.77247 25.6287 33.1033 3.51327 1.1356 -3.64268 -0.525997 -0.497599 -0.107061
1438 2 -4.19734 27.9296 21.5311 -1.45908 0.892192 0.232945 0.143618 0.0313772 -0.116676
1439 1 -2.91493 28.4396 23.7505 0.45708 -1.21875 -1.43487 0.02892 -0.332311 -0.126091
1440 1 -4.87064 29.6045 25.8096 2.61933 -0.930124 1.18394 -0.194551 -0.0393889 0.0294749
1441 3 -3.40305 28.982 26.8596 -0.843517 -1.93478 0.221029 -0.0186184 0.273087 -0.13456
1442 3 -1.25794 28.0547 25.0942 0.458156 1.35714 -4.75932 -0.53924 0.866351 -0.305844
1443 3 -2.98067 29.2369 33.6373 0.259085 -0.495766 0.08537 -0.0590909 0.0215372 0.0052468
1444 1 -4.87826 31.6563 19.4236 0.858349 -0.517719 0.703373 0.125122 0.0930048 -0.097699
1445 3 -3.345 30.9786 18.3379 2.45797 0.857396 -1.27376 -0.118041 -0.857107 0.284308
1446 1 -2.60622 30.3447 28.1997 -0.368403 -0.719732 -0.0856871 -0.101907 0.141925 -0.274148
1447 3 -4.34196 30.8952 27.3753 -0.424015 -0.661502 1.39275 -0.056216 0.214263 -0.106108
1448 3 -3.31376 30.3839 24.4638 -0.184821 -0.174581 -0.442828 -0.485479 0.951097 0.629306
1449 1 -4.7389 29.5198 34.5727 0.32406 0.863766 -0.43717 -0.0648503 0.124114 -0.0344137
1450 2 -2.88937 32.145 30.3415 -1.81173 0.964169 -0.227862 -0.340717 0.00320249 0.0274222
1451 1 -3.1948 30.8557 32.4524 -0.163743 1.00124 1.18863 -0.0284843 0.0831553 -0.00860474
1452 3 -4.87587 31.3768 33.3558 -0.802767 -0.899575 0.699753 -0.390958 -0.0677957 -0.207664
1453 2 15.2428 0.377138 21.5403 0.2395 -0.615322 0.117373 -0.0575729 -0.0494096 0.00320982
1454 1 15.4189 1.9024 19.5643 0.767072 -0.769411 0.486136 -0.509933 0.338225 0.837467
1455 3 16.8614 1.03661 18.565 -6.38856 -0.209916 1.88492 0.280386 0.0480173 -0.0897303
1456 1 15.8031 2.10654 23.8113 -0.566424 -0.741247 -0.0449006 0.34373 -0.354645 0.242139
1457 1 17.1221 0.826431 28.3499 0.677363 -0.296677 -1.01838 -0.212313 0.039286 -0.698088
1458 3 16.5025 0.538401 24.6408 1.33423 1.28427 0.966805 0.237549 0.0594634 0.015493
1459 1 16.9823 0.892119 32.5094 0.00820766 -0.90023 1.22594 0.0365367 0.179522 0.0276513
1460 2 13.5991 2.49841 22.8093 0.328444 0.372008 -0.285905 -0.00604921 0.0311262 -0.0194457
1461 3 15.4795 3.7289 18.5885 -1.06444 -0.462459 1.34696 0.206118 -0.206468 0.286096
1462 1 13.9449 4.59363 24.3098 1.16583 -0.316799 0.203958 -0.0946239 0.0987135 -0.0134384
1463 1 12.3073 5.67638 26.6337 1.52255 -0.211296 1.92302 -0.152966 -1.02484 -0.0246479
1464 3 15.6512 3.78666 25.1236 -3.0103 4.89179 3.894 -0.366173 0.366348 0.371071
1465 2 12.5592 4.89649 22.0852 -0.241921 -0.181342 0.186978 0.0600618 -0.0540357 -0.061745
1466 1 12.5698 7.35416 23.8163 0.554556 1.32514 -0.908706 0.311583 0.228871 -0.206905
1467 3 13.891 6.53787 25.4429 0.0531943 -0.0795473 -0.184112 -0.353703 0.0348046 -0.35796
1468 2 14.3444 7.84787 30.1243 2.45911 0.0599518 1.23186 0.324808 -0.0821698 0.142211
1469 1 13.6103 6.93425 32.3267 0.0426802 -0.0570494 -0.185323 0.0899871 -0.0872795 0.194957
1470 3 12.4363 7.15354 34.0247 -0.737211 0.278741 -0.0385703 0.0255138 -0.156868 0.0485118
1471 2 11.1525 8.20846 21.6275 -1.02718 0.298213 -0.350623 -0.0326047 -0.0209897 -0.0970967
1472 1 10.8446 9.7968 19.5047 -1.35841 0.869945 0.237071 0.0267962 0.0905239 0.307401
1473 1 10.8769 9.80756 23.7576 -1.56573 1.30656 0.845708 -0.223794 -0.189488 0.0416892
1474 1 8.96167 10.3247 26.1356 -0.510234 -0.760491 1.09332 -0.00866124 -0.120898 -0.0694791
1475 3 12.6053 9.32533 24.5141 0.0590754 1.03712 -0.598911 -0.0776739 0.0188296 -0.036203
1476 1 10.6852 7.73775 35.0558 -0.693415 -0.0568886 0.0760443 0.101922 -0.462304 0.174755
1477 1 12.1954 8.92591 33.0143 -1.21602 -0.0853015 -0.151662 -0.647886 -0.0744965 -0.138853
1478 3 10.726 9.52046 34.2156 -1.2925 -0.278935 -1.0855 -0.0228618 -0.15006 0.138221
1479 3 10.3263 11.5361 18.3348 -4.31157 0.303642 3.0961 0.0964169 0.0380394 -0.330919
1480 1 9.41767 12.0694 23.9376 1.40441 0.646374 -1.38563 0.191253 -0.0961215 -0.0260793
1481 1 8.04842 13.1499 26.1948 0.775244 -0.525244 -0.925885 -0.381584 -0.697438 0.584949
1482 3 9.29848 12.0267 27.1596 2.62067 -4.80253 0.765982 -0.12378 0.123899 0.102012
1483 3 10.8586 10.7734 25.6199 -0.84676 3.07375 1.37098 -0.0970767 -0.386725 0.0951732
1484 1 9.43444 10.4786 35.5179 -0.299272 -0.186745 -0.241397 -0.083906 -0.381104 -0.0576922
1485 2 8.20148 12.903 21.5434 2.54155 0.911972 -0.633571 -0.077416 0.263617 0.0512542
1486 1 7.50581 14.9686 19.9959 -0.835985 1.22348 -0.0688695 -1.17939 -1.86523 -0.310486
1487 1 7.85657 14.7138 23.2249 -1.25164 -2.26037 -0.371093 0.0131676 -1.36206 0.792616
1488 1 9.28244 13.5237 28.5846 2.43488 -0.789981 1.45167 0.887235 0.992436 -0.0410047
1489 3 9.50325 13.8186 24.9891 0.855436 1.41356 0.670312 0.816662 0.287086 -0.334182
1490 2 9.00997 14.9446 31.0209 -1.60536 2.98256 2.02259 -1.10338 0.202785 0.50329
1491 2 6.18979 16.0576 21.7279 2.4348 -2.60953 2.38935 0.34126 0.0709633 0.332324
1492 1 4.22501 17.5229 20.8064 3.24224 -4.02937 3.44931 3.54788 3.28711 1.3844
1493 3 11.8973 18.3965 15.3422 7.48223 4.56247 -2.90407 -0.454319 1.64928 3.05867
1494 1 8.933 16.8434 22.5101 -7.41708 1.83816 8.33885 -2.23948 5.11022 -2.20906
1495 2 9.71606 22.5459 22.9277 -15.3652 22.8678 -22.4845 2.23998 -0.610713 -2.29767
1496 1 7.88335 15.5376 33.3994 2.76156 5.58024 -4.23229 1.64222 -0.929815 -1.51376
1497 3 3.92198 15.9577 35.2032 1.25359 -2.13906 0.780951 -1.45495 -0.747251 0.0349487
1498 2 3.96816 20.1143 21.1171 1.73292 8.73034 -10.0842 -0.403773 -2.57469 2.90362
1499 1 1.48846 21.0038 21.2564 -0.715839 -2.40822 0.648784 0.476017 0.648266 1.83475
1500 1 15.0397 24.0666 16.4685 -4.38451 -8.90745 2.13217 1.81932 0.381969 1.40878
1501 1 2.53229 21.3161 24.4892 5.49552 3.24424 2.63898 0.477633 -2.38373 2.47126
1502 3 10.5071 19.7294 30.1355 -4.40352 18.1692 -21.85 -0.595512 4.49812 1.00212
1503 3 5.43896 19.8587 19.786 11.7691 -15.7902 -15.4915 -0.0935263 -1.15833 -1.5985
1504 2 4.65627 17.406 25.6764 -3.08131 0.280473 1.88696 1.55347 -0.934026 1.473
1505 1 3.67487 17.0096 28.3279 -2.51651 0.61288 1.79946 -1.09667 1.06943 1.61626
1506 1 3.69671 26.927 30.0137 -9.03578 24.5959 -2.26077 -1.24247 6.35987 -3.63142
1507 1 0.0601868 24.2977 26.0407 4.76723 3.27022 -0.658933 -0.117657 -0.395192 0.995151
1508 3 1.27366 24.1323 28.2952 -2.29531 -2.16789 0.143436 -0.892244 0.0282057 0.423601
1509 3 1.37655 21.9398 23.1477 3.7793 -1.87073 1.59215 -1.5778 -0.152192 -0.407707
1510 2 0.0579701 25.0876 21.0988 -2.14763 0.729553 1.14141 1.49221 1.03258 0.219653
1511 1 1.65192 26.0876 18.916 -7.16251 -6.36888 16.7169 0.747753 -2.16762 0.305211
1512 3 3.27886 27.1385 18.4826 -7.31866 -15.7259 8.03923 0.132983 0.214023 -0.493743
1513 1 0.133848 27.0592 23.9495 2.97678 0.290183 -2.34561 0.439088 0.0159912 -0.921649
1514 1 2.69089 22.9738 26.8608 -3.35211 -20.2235 1.71389 0.469767 -0.0742057 -0.312544
1515 3 0.761113 25.9991 25.3603 5.82958 4.46806 -3.34953 -0.797294 0.159442 0.974513
1516 1 0.109967 25.069 35.0313 -13.5545 -5.0475 -7.39862 -3.47037 -0.38739 -2.09548
1517 2 1.39892 27.6246 30.4283 3.40899 7.05652 4.68107 -0.211697 0.134073 1.45103
1518 1 1.33097 25.5577 32.1524 -4.8616 4.10935 -2.40256 -0.0749149 1.52046 -1.31771
1519 3 0.293512 26.6493 33.5005 -2.48854 1.00186 0.00519677 -0.835119 -0.107475 -0.360579
1520 2 0.378005 27.8418 21.5217 1.92492 -5.67115 -1.5453 -1.20707 -1.06974 -0.77621
1521 1 0.2038 29.0348 19.133 0.520845 1.73523 -0.988404 0.0772988 -0.0701316 -0.0788089
1522 1 -0.557802 29.4272 23.0876 1.31156 -0.244819 -0.632267 -0.772934 -0.41611 -0.118182
1523 1 -1.72232 29.9642 25.7277 0.527311 0.0170806 -1.75429 -0.5705 -0.519586 -0.418387
1524 3 1.34183 28.508 23.116 9.15745 -3.04131 -3.71254 -0.668066 1.67635 2.55078
1525 1 0.734398 28.5794 32.5134 1.03933 -1.50409 0.203081 -0.612501 0.513341 -0.184149
1526 3 -0.297573 29.6637 33.4512 5.86053 4.36264 1.60024 0.451124 0.778691 0.306985
1527 2 -1.85478 28.763 20.9006 -2.97428 0.711796 -0.977915 0.709533 -0.169308 0.0252011
1528 1 -1.93051 31.2181 19.8104 -1.71764 -1.48231 -0.871653 -1.02082 0.523319 -0.495972
1529 3 -0.35026 30.8679 18.5338 0.283478 0.651854 0.462734 -0.273545 0.247819 -0.154265
1530 1 -1.94065 31.5449 23.247 0.404104 -1.34487 0.87071 -0.310112 0.293902 -0.204969
1531 1 -3.60748 32.1221 25.9316 0.666232 0.286699 -0.49402 0.0962406 -0.167343 -0.341403
1532 3 -1.89049 31.7464 26.8005 2.6273 -1.15907 4.1689 0.11915 0.491766 0.0465245
1533 3 -0.473567 31.1138 24.4901 -1.34491 2.62782 0.259022 -0.401195 -0.416918 0.155421
1534 2 -0.274636 32.0782 30.1753 -1.90569 -0.438744 1.89909 0.134751 -0.303227 0.434748
1535 1 0.00603254 31.2782 32.5086 1.66837 -1.79035 1.17914 0.00717614 0.00754114 0.182662
1536 3 -1.75254 31.4164 33.4984 -0.252105 -0.988113 1.30922 0.00506168 -0.0246066 0.034301
1537 1 16.9388 3.7631 26.5026 -0.928396 1.91622 0.918053 0.268731 -1.91764 -0.660004
1538 3 18.0614 2.37617 27.0411 -1.16696 -2.07418 -3.28806 -0.00581532 -0.0867823 -0.436045
1539 3 19.9809 1.42336 24.6025 1.92155 -0.271869 5.0011 -0.119513 0.152115 -0.253272
1540 2 18.2529 2.32855 30.6347 0.0874152 0.703809 0.253008 0.0140791 0.0344799 -0.0150489
1541 1 19.6387 1.67244 33 0.885766 -0.719828 0.377108 -0.346994 -0.235434 -0.0230735
1542 3 18.0277 2.23284 34.0738 0.102085 -0.76202 0.972491 -0.090763 0.144871 -0.149468
1543 2 16.5995 2.99854 21.6519 0.544933 1.05063 0.305285 0.193076 0.174931 0.0793022
1544 1 16.6646 4.97866 20.0195 0.694038 0.347032 1.20744 0.092024 0.127858 0.000361202
1545 1 17.0132 4.77621 23.702 -0.2033 0.279086 0.0195261 0.0390525 -0.0295258 -0.046241
1546 1 18.5026 3.78914 28.5972 -0.802627 -0.0856926 0.322073 0.0159647 -0.073957 -0.0913229
1547 1 15.6849 6.01247 26.3555 0.616606 -0.629624 -0.159155 -0.229499 0.452088 -0.110383
1548 3 16.3509 4.8258 28.0518 -0.178996 -1.10526 0.0422695 -0.37631 0.108582 0.637838
1549 3 18.4506 4.58721 25.2127 1.14523 -1.99525 2.53622 -0.115759 0.0534337 -0.226168
1550 2 18.961 5.42446 30.6526 0.595402 0.362638 0.349997 0.0252043 0.155406 -0.0490976
1551 1 17.6566 3.75062 32.7261 0.558395 0.817528 -0.675129 0.144045 0.166956 -0.0228293
1552 3 16.3637 4.97102 33.7687 0.582263 -0.37624 0.546948 -0.0807061 0.231995 -0.182929
1553 2 15.274 5.71458 22.0137 -0.959858 0.421968 -0.00491182 -0.144986 0.059183 0.0351654
1554 3 16.5522 6.63498 18.5989 1.81588 -1.65934 -0.756455 0.0576413 -0.129208 0.283326
1555 1 15.3694 7.55041 24.0114 -1.00091 0.165713 -0.741856 -0.288311 -0.0237161 -0.152254
1556 1 17.4036 6.31748 28.8941 0.726372 -1.16819 0.253879 -0.138379 0.0822268 -0.087251
1557 3 16.9596 7.59746 27.167 1.29914 -0.179512 -0.123691 0.0365445 -0.00809784 -0.00710921
1558 3 16.9964 6.62889 24.9704 0.0218017 -0.164538 -0.179058 0.0647663 0.0959264 -0.114187
1559 2 17.5041 8.28653 30.4148 -4.85984 0.250827 0.917909 -0.636564 0.0849111 0.0667465
1560 1 17.041 6.36278 32.2046 0.89289 -0.572583 -0.122139 -0.121739 0.0214284 -0.0706504
1561 3 15.4657 6.98134 33.6339 -0.415804 -0.247214 -0.0818225 -0.00433488 -0.0256795 0.0568645
1562 2 14.4176 8.50773 21.7353 -0.629006 -0.219687 0.0959909 -0.0577464 -0.0447895 -0.128785
1563 1 13.5174 10.1723 19.9848 1.83783 0.0974513 -0.493355 -0.122458 -0.176636 -0.00324078
1564 1 13.7591 10.4351 23.3069 1.19594 -0.632329 -1.18648 0.0876799 -0.0738302 0.157145
1565 1 15.9527 8.67513 28.3536 1.18293 0.0410858 0.68397 0.166568 0.00723356 -0.0843674
1566 3 14.9982 9.59713 24.6878 1.10236 -1.59811 1.17099 0.0693295 0.175152 0.251308
1567 1 14.1548 7.6266 35.1727 -0.164108 1.62575 -1.23816 -0.0918911 0.0975082 0.153627
1568 2 15.6767 10.3665 30.476 -2.49584 3.04456 -0.233976 -0.367536 0.284564 -0.0769578
1569 1 15.5828 8.79408 32.5967 0.895027 -0.199413 0.962086 -0.315677 0.232418 -0.249605
1570 3 13.9039 9.73164 33.8875 -0.59448 0.103857 0.461371 -0.0342627 -0.0530258 0.0539875
1571 3 13.8897 10.9983 18.1405 -1.56827 4.90259 1.233 0.123068 0.182793 -0.0721173
1572 1 11.0111 12.7005 26.3279 -2.25785 3.21695 -2.04592 0.387589 -0.0838998 0.059962
1573 1 12.0941 11.046 34.5515 0.408573 0.797342 -0.277607 -0.593761 -1.70072 -0.400338
1574 1 14.4325 11.4218 32.5918 0.293648 -0.472307 -0.603346 -0.841606 -0.353403 -0.207862
1575 3 12.9555 13.7717 18.586 0.625674 3.11378 2.09374 0.536877 -0.415111 -0.0810324
1576 1 11.4023 14.1394 23.9116 2.67572 -0.981467 2.55331 -0.773981 -0.116033 1.17705
1577 1 12.4029 13.3964 29.3575 2.71943 -1.41742 1.12544 -0.00375819 -0.492438 -0.330198
1578 3 11.1694 14.2619 27.6611 -1.26022 -0.588768 -3.04319 -0.794535 -0.0731178 0.538093
1579 3 12.7223 13.1004 25.3672 -0.844358 -0.793285 -0.963797 0.117163 0.162811 0.128667
1580 2 12.5791 14.2435 31.6127 7.0923 -2.14126 0.191263 -1.53605 0.708611 0.528837
1581 2 9.63202 14.8422 21.2234 -2.99432 -0.665196 -0.369917 -2.42558 -2.91782 -1.46544
1582 1 9.98256 16.0368 18.9682 -7.57172 -2.9971 -2.5487 3.34195 0.357691 0.440384
1583 1 11.851 22.8035 19.6443 -2.37134 -5.3345 0.488917 0.261441 -0.317156 0.302158
1584 3 11.799 15.7836 24.939 2.04531 -2.00949 -5.96087 0.0872502 -1.53326 2.38726
1585 2 4.99568 15.5224 26.8198 0.276323 0.850037 1.0273 -0.362358 -2.83384 2.34608
1586 1 10.6192 13.5276 32.6735 1.10842 1.60356 -2.79074 0.0722307 0.0689136 -0.378851
1587 3 5.04908 19.2367 22.5968 5.04966 -5.01686 -19.6706 0.851673 2 -0.933694
1588 2 10.8014 17.2844 16.7962 6.56966 4.76138 -0.0705595 1.09902 -0.219123 -5.7088
1589 1 11.1387 17.3629 13.9366 0.526836 -7.9212 -2.93393 -4.77565 0.308437 0.651958
1590 1 5.7144 24.3524 20.3124 4.52594 -0.558079 -3.76935 -1.24309 -2.83014 2.26133
1591 1 2.01378 23.9522 22.6773 -13.8067 -12.0015 -3.53641 4.8537 -1.24394 -5.64032
1592 1 5.67887 14.9657 35.6252 1.34132 2.13499 -0.390875 -0.140823 0.0143625 -0.174026
1593 2 8.74983 18.0254 18.1346 14.1154 -4.19505 0.619453 3.70387 5.99116 5.65509
1594 1 9.90387 15.4832 26.2579 3.37585 1.44857 0.313189 -0.211909 -0.0903772 0.416001
1595 3 3.50606 19.2885 32.397 -4.87892 5.96924 1.78935 -2.43044 2.02755 1.48756
1596 2 6.48853 22.4805 15.387 -8.14624 -4.46101 16.7041 2.91122 -4.51504 0.789768
1597 1 2.03601 29.6172 21.5223 2.50166 -2.24856 7.85088 -1.86739 0.750211 -0.910676
1598 1 4.89338 30.7566 22.3799 0.603635 -9.99646 -13.1426 -0.774287 -1.31913 1.71495
1599 1 2.23868 25.4445 24.6509 0.178474 12.7703 -1.11016 1.77158 2.85607 1.79281
1600 3 2.15701 25.0974 20.9136 12.9197 13.5718 1.74666 -1.0357 -2.31451 -1.55886
1601 3 4.20894 23.619 21.6765 24.533 12.5121 -9.1367 -0.557212 1.87741 1.71151
1602 1 3.90816 18.9272 40.839 1.23294 0.954318 -5.02421 2.22785 1.79942 1.46092
1603 1 5.08023 26.5515 18.8413 6.71837 -0.580892 -2.27552 1.24898 0.503731 -3.81034
1604 3 4.67325 25.7853 16.9841 11.1437 -9.97056 -8.08965 1.99424 2.40434 -1.9802
1605 1 3.35716 27.7376 23.3626 6.67149 9.36253 13.7896 1.31391 -3.78384 0.732893
1606 1 0.368251 27.464 26.6855 0.192794 4.19677 1.97737 0.079979 0.780088 -0.974846
1607 3 1.78432 27.0726 28.569 -4.86044 1.52568 14.3452 1.45159 0.0873722 0.0499644
1608 2 10.7309 26.9352 16.5685 -17.6544 0.692061 -8.59809 -1.44434 -4.08973 12.5349
1609 1 2.91404 29.1032 18.4111 8.86806 2.71731 2.1904 -0.520398 3.04849 -0.149589
1610 3 6.4956 27.87 18.9467 25.7148 12.4065 -5.12743 -2.37149 2.83332 1.21502
1611 1 2.40513 29.2598 28.9903 0.716921 -2.52699 -6.73989 0.378278 -1.55088 -0.119506
1612 3 1.64085 29.0431 27.0108 -3.02766 0.950876 1.44774 0.447552 0.0642894 -0.143587
1613 1 1.74413 27.4664 34.9066 -0.225521 0.318378 5.52695 1.45825 -1.71664 0.516938
1614 2 3.21607 31.3301 30.1139 -1.08915 -0.988239 0.875815 0.608 -0.825382 0.2536
1615 1 3.39906 27.1965 27.0729 2.80679 14.1534 1.19906 2.62602 4.63388 -2.36935
1616 3 2.47057 29.1284 33.6324 -3.08938 4.99368 1.9522 -0.0801931 0.320954 1.73446
1617 3 4.50584 30.3346 18.3103 2.11121 1.38925 -1.11013 -2.97951 -0.479731 -1.56791
1618 1 18.2072 0.625311 25.671 0.572695 -1.00078 -0.840488 -4.59537 5.21498 1.40265
1619 3 1.76148 31.2621 25.06 -10.1764 12.889 -3.5615 -0.0475543 0.389165 -0.823117
1620 1 1.19967 30.2834 34.7488 0.831822 -1.49782 0.112191 -0.0604604 0.0132925 0.0392942
1621 1 2.74364 31.0087 32.5714 1.41112 0.859322 0.116844 -0.0901253 0.514135 0.0513981
1622 3 1.51287 32.0294 33.6711 -0.0814327 1.73905 -1.13756 -0.212529 0.398716 -0.301403
1623 2 2.35323 31.9712 21.3088 -3.77129 -1.80121 -1.69715 -1.38218 0.148794 0.0112786
1624 3 21.8706 1.20465 17.6127 7.67646 0.0581731 -3.69257 -2.05307 -8.40944 -5.11791
1625 1 21.7472 2.6309 24.1601 0.693966 -0.46787 -0.977885 0.316609 0.128201 0.165673
1626 1 19.7141 3.14574 25.8612 1.0921 2.29602 0.24108 -0.455715 0.0351101 -0.0841564
1627 3 22.8891 1.60337 25.2175 -0.903493 3.1413 0.572765 -0.874033 0.495657 -0.00714262
1628 1 20.4199 0.657906 35.5036 0.679355 0.397792 -1.42441 -0.548831 -0.109659 0.385111
1629 3 20.9528 2.21908 34.2759 1.76897 0.422104 -1.64546 -0.0675559 0.168188 0.284767
1630 3 22.0404 3.72972 18.8284 2.57604 3.79377 2.9551 -0.436868 0.66 -0.0106074
1631 1 19.9289 4.79019 23.8063 -0.0826909 -0.376188 -0.111783 -0.0785 0.2665 0.163027
1632 3 21.6264 4.28581 25.2158 0.244382 -0.332747 -0.253312 -0.134998 0.252082 -0.119756
1633 1 19.7286 3.37046 35.2242 -1.46717 -0.305311 0.533722 -0.067625 -0.0266611 -0.293731
1634 2 21.5818 5.01895 30.9218 0.510686 2.25998 0.31026 0.0503063 -0.144032 0.02748
1635 1 21.5656 4.30569 33.4899 -0.645421 0.208441 2.11012 -0.186163 0.066019 -0.211736
1636 3 19.3355 4.55433 33.7509 2.06465 4.97361 -0.9017 -0.0557855 0.432906 -0.336798
1637 2 18.525 5.88413 21.7919 -1.12112 -2.81563 -0.545739 -0.135293 -0.308843 -0.0786768
1638 1 18.717 7.14691 19.3209 -0.418174 0.677675 0.203938 -0.0376755 -0.138678 0.0505016
1639 3 19.4762 5.22586 18.4953 -1.30184 2.54121 -2.47372 0.428696 -0.552203 0.97189
1640 1 18.5328 7.54621 23.9272 0.0735239 -0.0826412 -0.111378 0.05509 0.149202 0.119855
1641 1 18.2132 5.82604 34.801 -0.168579 1.342 -0.0765031 0.0593905 0.401747 -0.0641237
1642 2 20.948 7.1938 29.8173 -0.321414 -0.0440328 -3.20889 0.243388 -0.0718943 0.0548703
1643 1 20.1534 6.22959 32.6324 -0.83898 0.19882 -0.18344 0.159741 0.0974921 -0.0146003
1644 2 18.6382 8.56293 21.5444 2.02519 -1.5905 -0.442099 0.235016 -0.208924 -0.0640787
1645 1 16.6522 9.94661 23.1738 -0.441524 0.385562 -0.590799 0.0241055 0.0189166 0.0415022
1646 1 15.5779 11.2165 25.8053 0.0889395 0.00390058 0.0893829 -0.0721894 0.183676 -0.0346328
1647 3 16.6263 10.0972 26.9038 0.299231 -0.620913 -0.664484 -0.00109942 -0.015544 -0.156665
1648 1 16.8888 7.997 34.9888 -3.94862 0.789843 2.72718 -0.618372 0.275949 0.167401
1649 2 18.362 11.0964 30.5256 -0.895882 1.62966 0.745013 -0.103313 0.0464433 0.548066
1650 3 16.7989 9.85252 34.0535 -0.142962 1.40693 0.734065 -0.147733 -0.29647 -0.343844
1651 2 15.3414 11.153 21.3579 0.85587 -0.356669 -0.587561 -0.136964 0.0594199 0.115535
1652 1 15.9307 12.9245 23.3265 0.0662878 0.203529 0.0451398 -0.294765 -0.245073 -0.163497
1653 1 16.8518 11.415 28.4346 -0.303638 0.609743 2.45883 0.0359057 0.116901 0.400888
1654 3 15.2536 12.3205 27.4765 2.56962 1.61682 6.60678 0.040175 0.0204002 0.216131
1655 3 17.2408 11.6734 24.5334 -0.512249 0.139451 -2.1751 -0.0919178 0.0883671 -0.00917547
1656 1 15.2627 10.5494 35.2823 0.462346 -0.693433 0.335725 -0.111776 0.133075 -0.027978
1657 2 16.8468 13.2636 30.5522 4.27895 8.17896 -0.0263202 -0.514562 -0.0381246 -0.112273
1658 1 17.0931 11.3617 32.6687 0.260378 0.339279 -0.0258808 0.233115 -0.507246 -0.280234
1659 3 15.8122 12.2789 34.0212 -0.34306 -0.76581 -0.150821 0.190246 -0.0175782 0.163347
1660 1 14.2515 14.5608 19.7692 -0.8668 2.27045 -2.82828 -0.182283 0.413408 0.303765
1661 3 15.6619 13.716 18.6544 -0.0541074 -2.32131 2.68204 0.145604 0.0365837 -0.0305406
1662 1 16.2338 13.8566 28.0185 -0.093459 -0.283852 -0.870377 -0.154529 -0.0776033 0.869645
1663 1 12.8675 14.795 26.3617 0.925556 3.15126 1.2113 0.494762 -0.0561161 0.318015
1664 3 14.225 14.4838 27.8961 -1.36188 1.04613 -1.28826 -0.0599498 0.0768442 0.0850741
1665 1 14.5038 13.3731 35.1523 0.954218 2.41621 0.603494 -0.0669321 0.513861 -0.13533
1666 2 16.7908 16.3232 31.1948 -0.125274 -0.543897 -0.329503 -0.361702 0.208018 0.113009
1667 1 16.0861 14.1333 32.8299 -0.238897 -0.0843893 -0.00924085 0.364381 0.356831 0.926919
1668 3 14.6421 15.1082 34.044 -6.92795 -0.904716 -2.84803 0.425832 -0.244459 -0.180785
1669 2 12.5074 14.6383 21.8487 -0.0539983 0.353873 -2.65031 -0.149225 -0.829861 -1.76122
1670 1 13.1031 16.7304 20.633 -3.73981 1.75864 8.52413 -2.03228 -1.7629 -1.91433
1671 3 14.3055 16.43 18.9696 -2.24848 0.268993 -0.760219 0.412864 -0.191086 -0.0355617
1672 1 14.0885 28.8835 25.3315 -11.1187 10.771 18.3246 1.67397 0.155256 0.966177
1673 1 14.6935 15.9628 29.1755 3.34436 -0.204242 0.578991 2.08669 -1.16044 -2.1443
1674 3 14.4054 15.7984 24.9637 7.24627 -3.19137 -4.63212 1.6632 -2.66421 -0.17141
1675 1 13.1659 15.8712 35.7399 -5.72464 9.46922 8.7606 3.07063 -1.31389 1.2345
1676 2 6.68316 16.9286 24.0928 -2.90703 7.34203 2.4347 1.74918 -1.18435 2.73108
1677 1 14.863 16.899 32.8924 0.475029 -5.42667 2.78196 -0.0844581 0.647128 -1.13791
1678 3 11.0541 15.1325 30.654 -2.92912 2.30082 -5.14173 1.3976 1.31514 2.55932
1679 1 9.56922 21.9633 16.2475 4.64987 -1.48192 2.05182 3.28416 3.80225 -4.0045
1680 2 10.8569 18.638 19.5527 11.6494 -11.8815 15.6378 3.62322 -3.60507 -0.115465
1681 3 8.99665 18.901 20.0868 -21.0065 -4.82015 -5.59797 -4.15523 0.25957 -1.93207
1682 2 10.4025 19.6935 15.5617 -7.44774 -13.2985 0.0888763 3.88636 3.59273 -4.80392
1683 1 9.19751 19.6184 13.3367 3.61814 -3.40826 -0.187996 -2.7426 -2.73614 2.95634
1684 3 7.35037 19.4073 15.1957 -9.91441 0.434516 -20.4512 6.32934 2.5625 1.65391
1685 1 5.81375 27.5456 21.2994 3.31457 3.953 -6.14441 9.64838 4.21948 0.921074
1686 1 11.3251 25.7196 14.7192 9.11973 -7.12155 -3.93065 3.60105 -4.65319 2.52143
1687 1 14.8677 19.2019 24.646 -2.49384 -0.0627758 14.9652 6.24049 4.9172 0.685303
1688 3 7.68631 28.6414 22.8164 -6.43202 28.6024 -47.7013 -5.3548 -0.2092 -3.02357
1689 1 14.3335 20.7547 16.0536 -3.54746 -3.40784 -11.0308 -2.8793 0.484988 -3.37645
1690 2 29.7281 0.293899 26.4736 -2.68942 0.279041 0.17961 1.75168 -2.09664 1.66517
1691 2 2.88917 23.2011 20.2898 -10.474 -8.97397 -6.7995 2.52344 5.11501 5.28642
1692 1 6.31277 24.8937 15.7546 -5.83258 0.70864 -0.832175 3.72478 2.41226 -2.03062
1693 1 9.48672 25.5154 20.4248 8.41387 5.24827 15.6263 0.637298 -1.19732 -0.432039
1694 3 3.93608 29.0194 21.8594 -23.7766 -0.901328 16.6734 5.46811 -6.59463 -0.745297
1695 3 6.88119 29.8673 22.9223 -3.21854 -17.4933 15.5976 3.78981 1.40932 0.668226
1696 2 13.3707 25.7455 26.4257 -11.107 -7.48865 -0.751523 -3.40796 0.793606 -2.15612
1697 1 6.10786 29.923 18.8938 4.05092 1.19124 2.41119 5.73709 -0.391317 0.470755
1698 1 7.42589 32.0238 28.8071 -2.95269 -1.88778 -0.717066 -0.109957 0.594322 -0.132642
1699 1 2.69546 29.8646 25.6271 -10.4116 9.56144 15.5511 2.70731 -3.08155 2.65277
1700 3 12.3021 29.2788 20.8686 -20.7644 1.91414 -3.63066 -6.36903 -7.61213 1.55016
1701 2 22.8299 0.491711 31.6487 -0.470318 -1.45939 -1.15504 -0.0146701 -0.363969 0.325884
1702 2 25.5903 0.413229 18.7313 -0.437592 1.82511 0.495917 0.278187 -0.636832 0.756418
1703 1 4.07502 32.1866 19.0877 -0.533573 -4.70831 0.390945 -0.267213 -0.691397 -0.0793805
1704 3 6.72703 31.2641 17.3538 -14.3117 6.68077 -0.121284 -1.34056 0.746421 -1.28474
1705 1 2.94897 32.1496 23.7504 -6.23416 3.53344 -0.599784 -0.583918 0.897761 -0.976668
1706 1 4.68915 31.419 28.1344 -0.91198 0.320686 -1.98471 0.315848 -2.34531 0.0731551
1707 1 21.0319 0.650573 26.2803 3.08858 -2.02497 -2.09167 0.406247 -0.409462 -0.375696
1708 3 3.81828 31.4179 26.4897 5.92897 -4.77646 2.14072 2.3539 -2.34424 -0.896038
1709 3 4.08661 28.3337 25.3484 14.1797 -17.2235 9.58559 -0.868348 2.481 -0.476251
1710 1 4.06018 31.1402 35.6415 -2.16772 0.862201 -1.49728 0.039759 1.02159 -0.407379
1711 2 23.0827 0.63667 21.4694 -3.43782 -4.88054 -1.09658 -0.850601 0.602625 -1.39262
1712 1 24.8288 2.38529 23.7419 -1.69551 -2.48539 -0.634757 0.852893 -1.45794 0.71092
1713 1 23.0726 3.37766 26.3415 -1.18218 2.09433 -4.7724 -0.633189 -0.145656 -0.10807
1714 3 25.8435 0.809074 24.5869 1.46559 -3.6916 -5.71889 0.464298 1.84751 -0.0756591
1715 1 24.9519 0.999582 35.6328 0.386989 -1.92357 1.3701 -0.0548185 0.673155 -0.56052
1716 2 26.9771 3.01709 30.6637 0.63356 -1.60842 -0.240518 0.0175965 0.267682 0.175318
1717 1 26.9934 1.51139 32.5867 -1.78993 0.861272 -0.23151 0.0603271 -0.665794 -0.738698
1718 3 25.2723 1.92445 33.8798 2.7245 2.11604 -0.759636 -1.22879 -0.209812 0.0456013
1719 2 22.8405 2.91827 21.9703 2.86093 -6.68405 0.691634 0.564538 -0.336872 0.0784341
1720 1 23.4076 4.55705 20.1345 0.295427 -1.64584 1.64604 0.0197418 -0.288356 0.951583
1721 3 24.7226 3.52577 19.1109 -0.885556 -3.02318 -1.81999 -0.0545547 -1.30179 -0.153175
1722 1 23.2593 5.0231 23.5046 -2.14614 -3.38309 -0.195694 -0.101639 0.135745 0.00427376
1723 3 24.642 4.10254 24.827 0.98812 -0.165063 2.35386 0.00623082 0.452384 -0.0707085
1724 1 23.0519 2.40868 34.6268 0.111228 0.391419 0.679073 -0.146096 0.213533 -0.121953
1725 2 25.2796 4.89199 30.5331 0.74777 0.351243 -0.407828 -0.0417141 0.157961 -0.10346
1726 1 25.4807 3.76579 32.9164 -2.54904 0.809859 -0.227845 -0.305328 0.624631 -0.788009
1727 3 23.7335 4.36043 33.8375 0.0360507 0.784109 -0.603996 0.0105414 0.0288608 -0.0156569
1728 2 21.2327 4.945 21.7733 2.32667 -5.80942 -0.0757826 0.246221 -0.453722 -0.0025237
1729 3 23.3528 6.23317 19.1595 -4.65902 3.49139 -1.72439 -0.550343 -0.126802 -0.601866
1730 1 23.4296 5.96035 29.3085 -0.534961 1.12319 -0.169669 0.0244772 -0.0404763 0.0275103
1731 3 23.0126 6.24348 25.2929 -1.00802 -1.20383 -0.855138 0.49039 0.47918 -0.0790945
1732 2 22.9666 8.30379 30.6692 -1.02636 -0.848116 0.0738798 0.170842 0.262787 -0.0388741
1733 1 23.4923 6.23135 32.3412 0.490404 -0.661462 0.750006 -0.0932475 0.0108734 0.0053974
1734 1 19.9337 9.92623 19.8421 -1.05601 0.522194 0.148748 0.0567488 0.0651942 0.484484
1735 1 21.6914 9.49763 28.8122 -0.257435 -0.409379 -0.272202 0.0428304 -0.11835 0.195564
1736 1 18.4757 10.4457 25.8492 0.280468 -0.194281 -0.490925 0.0208749 0.18847 -0.0949867
1737 2 21.5933 11.0346 30.867 -0.86126 -0.0538486 0.0276143 -0.0578497 -0.00941152 -0.0435259
1738 2 17.917 11.0142 21.1195 0.30759 -0.500071 0.367525 -0.00740954 -0.0940368 -0.0605325
1739 1 18.8462 13.0141 19.9734 -0.730502 -0.439373 -0.367971 0.0652709 0.0561843 -0.283345
1740 3 20.2658 11.6288 18.7928 1.69537 0.664044 1.71489 -0.0470599 -0.106493 -0.00722835
1741 1 18.9287 12.1458 23.1801 -0.317776 -0.108316 0.479007 -0.18323 -0.0912792 -0.104795
1742 1 20.0201 11.4461 28.7825 0.479255 -0.304911 -0.0100427 0.219745 -0.257542 0.0710699
1743 3 18.7591 11.5598 27.4046 -1.5428 -0.114539 -6.68947 -0.234675 -0.0391279 -1.77912
1744 3 20.1073 11.7151 25.0889 -1.93627 -0.840609 -0.401321 -0.505883 0.0963328 -0.176139
1745 1 15.846 15.487 26.2567 -0.772627 0.381457 -3.28926 -0.370356 0.688133 0.543074
1746 1 17.2262 12.8932 35.486 0.15862 0.126885 -0.06359 -0.250927 -0.267171 -0.265457
1747 3 17.5765 14.4907 34.3938 0.00583389 -0.219542 1.15273 0.289742 -0.294256 -0.0444979
1748 2 17.0239 15.3456 22.0785 -0.970099 -0.247715 1.20535 0.934737 -0.000518168 -0.372425
1749 1 15.8736 17.3694 20.1809 0.168872 1.3652 -0.408479 -1.85634 0.124931 2.84667
1750 1 15.6781 17.0725 23.2699 -1.09514 0.95057 1.90558 -1.01998 -0.391822 -0.834859
1751 1 17.6501 16.8971 28.8598 -0.279735 0.865818 -1.41261 -0.571787 -0.294271 -0.589845
1752 1 13.348 17.0857 25.0757 -2.12243 4.62912 -14.1463 -1.17275 0.84164 1.43864
1753 3 16.1337 16.9119 27.5828 1.28328 4.35296 -3.33675 0.157505 -0.163009 -0.786399
1754 1 16.1869 15.5076 35.4586 2.7972 -2.18896 0.235422 0.378171 0.577302 -0.646283
1755 2 18.8891 18.8711 32.5055 2.03434 -0.46895 -0.181979 -0.840538 -0.441838 -1.11139
1756 2 14.8868 20.7529 22.3341 -8.46746 -28.9369 2.04798 4.70879 -5.99867 -1.98304
1757 1 15.401 20.3051 19.4417 -18.2 -7.41208 11.5046 -5.83196 -1.5469 -6.27199
1758 3 17.8657 17.2315 19.6329 -0.229145 -0.709093 0.283618 0.219715 -0.471446 0.271645
1759 1 16.374 20.2871 28.8391 -8.32122 2.00036 -4.56564 -1.80822 3.22745 2.59107
1760 3 10.6236 19.1687 17.5124 13.3275 6.1726 3.24085 -3.34442 0.168653 5.33059
1761 3 18.1908 22.7815 23.6708 -4.09229 -0.184253 5.12843 -1.16625 -1.14016 1.26997
1762 2 11.9364 23.2098 14.9895 -7.47235 20.1669 8.51723 2.05546 8.13212 -4.24573
1763 1 11.6384 23.8998 12.7434 10.3192 -6.33757 0.828581 -0.484478 0.424654 0.864515
1764 3 14.6186 19.7203 17.6289 12.872 5.55676 14.059 2.69963 0.704845 3.95087
1765 1 17.9507 26.6722 25.7461 3.99443 -4.96894 4.59838 2.13566 0.291281 -0.763582
1766 1 14.8385 28.2396 18.7116 1.6282 8.78042 11.1674 0.373439 0.341556 -1.41421
1767 3 12.737 21.8821 13.6597 8.68062 0.94747 0.5893 -1.50615 3.94226 -1.75607
1768 2 10.6492 21.8915 13.6924 6.80451 -6.66105 6.65479 -5.18602 -0.475494 -0.810805
1769 1 11.1229 28.7673 13.4384 0.144338 -1.10069 -3.03927 -3.90423 1.17811 -5.41538
1770 3 13.465 20.6612 14.0244 5.53668 2.0432 14.9246 10.0921 -6.56219 3.708
1771 1 8.25788 27.6438 18.0711 -1.95774 11.7712 -14.9889 2.94056 1.78256 3.48725
1772 1 11.1251 30.6446 28.3989 -3.80068 12.9595 -2.43343 0.317439 -0.768828 -2.20993
1773 3 5.78791 19.8725 29.3568 -10.4313 8.89139 28.0401 2.77853 7.19317 1.18178
1774 3 17.9232 26.4739 21.6001 5.77296 -0.706281 2.78387 -0.817156 2.12477 3.10115
1775 1 10.7029 18.6518 26.208 10.2682 1.02624 2.54176 -6.48879 -1.57898 2.82366
1776 2 33.6099 0.0633469 30.1479 -1.29931 2.31332 -0.473187 0.874804 2.34112 -2.7821
1777 1 18.3179 20.8697 26.9851 1.34919 -3.08235 -0.92263 -1.2592 1.21321 -0.230207
1778 3 31.6122 0.0921124 30.6094 -0.721481 0.549658 2.19872 -0.476399 2.37684 0.888528
1779 2 8.62732 25.8733 16.0106 -1.59461 5.52196 -6.33827 0.730629 2.52651 0.158606
1780 1 6.22552 27.5666 15.7044 3.26899 7.01203 -1.7763 -1.64121 -1.07686 -3.87128
1781 3 8.6691 27.9186 16.169 -8.71617 -7.76229 8.80862 0.978078 -2.84633 -1.16828
1782 1 27.8447 1.19699 22.9885 1.44803 2.88142 -1.63067 -1.14322 -0.728279 1.49401
1783 2 30.6437 1.91118 30.6505 0.367222 0.544078 -0.194612 -0.283514 -0.106767 -0.156612
1784 1 32.3807 1.26289 32.3103 0.592134 1.98037 0.424273 -0.260385 0.55534 -0.141001
1785 2 27.3908 0.847564 20.6207 0.287743 -2.04239 -0.084413 -0.982878 -1.37398 -0.243714
1786 1 12.7559 20.5499 18.7658 -6.19233 0.703997 -6.86 -0.0668209 -1.53452 1.32412
1787 1 9.55275 28.8879 21.981 -3.45234 -2.18812 0.422171 5.02922 2.99707 1.97365
1788 1 24.0583 0.300803 25.8069 -4.54469 3.78336 4.06793 -2.26278 1.11358 1.02331
1789 3 24.907 0.96297 27.6308 -7.00637 3.29237 8.33851 -0.649005 -0.91975 -0.105873
1790 2 28.0381 0.729585 30.3315 -3.91803 -0.324152 0.202453 -0.791469 -0.838062 -1.36727
1791 1 8.86448 27.5974 24.5659 -2.99167 9.95741 6.35045 -3.59326 4.29487 -3.21852
1792 3 30.0777 1.56351 18.4291 -0.65556 -6.52201 2.88831 -0.375661 -0.265229 0.147695
1793 1 28.8654 2.28521 28.5097 -2.82879 3.33634 -0.854675 0.833461 -1.75426 0.501267
1794 3 27.4621 2.95378 26.9986 -0.437746 -1.31721 -0.102807 0.387825 0.975321 1.28578
1795 1 28.9171 0.79321 35.0789 1.90895 -0.392986 0.190673 -0.751746 1.55359 -0.658878
1796 2 29.3836 4.04283 30.0585 -0.18653 0.273959 0.431581 -0.157085 0.708039 0.21017
1797 3 28.584 2.49815 34.0061 -0.376024 -0.169195 -1.34868 -0.321785 0.274729 0.143079
1798 1 26.3608 4.87867 23.7475 1.98239 -0.26719 -0.454621 -0.0610258 0.195014 0.339703
1799 1 26.8565 4.30862 28.4973 -0.793635 0.829069 1.0375 0.366101 -0.717224 -0.353013
1800 1 24.7032 5.63819 26.2259 2.12549 1.35198 -1.68848 0.0755666 0.0262916 0.342654
1801 3 28.2657 4.08196 24.8609 0.588742 -2.23383 -0.734093 0.42471 0.178091 0.139666
1802 1 27.1537 3.10392 35.1037 0.620443 -0.0608042 -1.78609 -0.0394449 -0.247223 -0.142871
1803 1 28.3916 4.07752 32.4351 0.562589 0.348489 0.24674 0.181553 -0.121498 0.475296
1804 3 26.8771 4.83219 34.0679 0.216639 -1.17937 0.700978 0.0657077 -0.174299 0.0548142
1805 2 25.363 6.14251 21.646 -0.24306 -0.338729 0.843712 -0.0348993 -0.028541 0.251023
1806 3 27.1245 6.21113 18.1073 1.76263 0.880787 1.44446 0.0502412 0.164369 -0.0880748
1807 1 23.3681 8.13685 26.2067 -1.40816 -1.51271 1.38839 0.275405 0.389832 -0.231101
1808 3 24.6797 7.26859 27.5088 1.3157 0.50066 0.81285 -0.0683709 -0.0221363 -0.153125
1809 3 26.4537 6.37981 25.1295 2.87092 -0.848848 0.223836 1.27093 -0.40187 0.758852
1810 1 25.052 5.61836 34.9396 0.222034 -0.65978 -0.355158 0.119985 -0.0698446 0.184654
1811 1 26.4541 6.22363 32.5037 -0.0513906 -0.405098 0.0553557 -0.118158 0.39755 0.189768
1812 3 24.8577 7.25328 33.657 -0.196396 -1.50433 1.75948 0.0611558 0.677161 -0.989519
1813 1 24.749 8.8131 29.0034 0.549023 0.0921383 0.257892 0.355732 -0.328051 -0.73771
1814 1 21.9608 11.009 26.1188 0.947384 -0.588272 -0.183773 0.05827 -0.200666 0.0194243
1815 3 23.4056 9.87256 27.5157 -0.744955 1.19897 0.669382 -0.489163 0.12866 -0.185406
1816 3 24.7731 8.86886 25.059 -2.07799 0.555948 0.0524754 -0.221068 -0.181507 -0.200708
1817 1 23.512 8.19933 35.0517 0.728978 0.242459 0.775461 0.296752 -0.57801 0.50872
1818 2 24.2322 10.7336 30.6751 -0.511363 -0.44031 0.11523 0.0216801 0.104832 -0.0357766
1819 1 24.7315 9.07314 32.4516 0.00115605 -0.266183 0.465765 -0.122054 0.0292665 -0.17856
1820 3 23.6176 9.92751 34.0181 0.181065 -2.56474 1.01892 -0.078495 1.10939 -0.390873
1821 2 20.8264 10.9591 21.9003 -0.00406436 0.537434 0.0611565 -0.0249999 -0.0780186 0.027734
1822 1 21.9243 12.5848 20.1727 -0.929409 -0.322567 0.508875 -0.0815169 -0.434659 0.0152758
1823 1 21.6343 12.7969 23.7421 1.37586 -0.472361 0.980888 0.0495441 0.0590254 -0.0149337
1824 1 23.0579 11.709 28.7083 0.91344 0.318381 0.18442 -0.0534502 -0.119967 0.180168
1825 1 19.7607 13.2016 26.2681 0.151468 -0.255551 0.458243 -0.0646514 0.120012 0.0808199
1826 3 21.5106 12.4965 27.4173 -0.457825 1.35888 0.366768 -0.0316927 0.0927404 0.0300982
1827 3 23.3152 11.9958 24.965 0.0459939 -1.29037 0.721695 0.032152 0.412467 -0.170895
1828 2 23.4326 13.2757 30.8306 -2.35238 -0.173708 0.9736 -0.3518 0.0335317 0.117314
1829 1 23.3434 11.7985 32.8347 -0.282919 -0.0295932 0.0294099 -0.0957992 -0.0891102 0.0867243
1830 2 20.365 13.7471 21.7982 -0.0405218 -0.0162633 0.198156 0.0427472 -0.0142885 -0.0708433
1831 3 22.5185 14.066 18.5952 -1.54773 -0.496448 -0.586676 0.458739 0.0503254 -0.667966
1832 1 20.0927 15.4137 23.6386 -0.0448541 -0.207718 -0.246818 -0.00662969 0.23892 -0.410256
1833 3 21.3501 14.4764 25.0832 -0.0735344 0.155792 -0.35928 -0.113905 0.135463 -0.0364748
1834 1 20.6652 12.9306 34.6328 -0.309453 -0.705191 0.487361 -0.000884729 -0.0275544 0.0414943
1835 3 20.8267 14.8726 33.8107 1.04044 2.09973 -2.91451 -0.277036 0.168627 -0.0787472
1836 1 19.3798 16.8974 31.0239 -0.539559 1.84792 -1.44555 -0.354459 0.316494 0.00313111
1837 1 17.8102 17.7649 26.3614 -2.71934 2.11674 5.83301 -0.841314 0.389487 0.344268
1838 3 19.3422 17.2881 27.4863 -0.258738 1.04099 2.80409 0.189125 -0.301643 -0.923802
1839 3 20.0782 17.4477 24.2302 -1.37452 1.10705 -2.34813 0.0648794 0.0400842 -0.503835
1840 1 19.3523 15.4171 35.1085 2.64483 0.0930033 -0.324193 -0.300535 -0.110383 -0.06622
1841 2 21.3093 18.7102 31.4323 0.895694 -0.856203 0.624953 0.0552582 -0.207064 0.217642
1842 1 20.7838 17.0754 33.2817 -1.08956 0.638225 -1.70525 0.379645 -0.12795 0.344475
1843 2 17.8331 17.6659 21.5754 -0.224316 0.190239 0.404081 0.533824 -1.08221 -0.41682
1844 1 18.6988 19.0033 19.5085 -0.538147 1.01899 -0.447368 1.29137 0.488093 -1.21574
1845 1 18.0457 20.7463 24.1165 4.96073 2.02155 -4.26151 2.51761 1.13353 -0.962333
1846 1 19.7 18.9108 28.7765 -1.55709 0.943054 -1.07322 0.469066 0.459677 -0.43681
1847 1 19.0221 23.0307 21.909 -2.19557 5.18429 -2.0163 -1.779 -0.195389 0.351649
1848 3 17.4833 18.9803 28.0947 -0.546217 -0.541109 -1.40216 1.66974 -2.14381 -1.65695
1849 3 18.6321 19.467 25.5399 0.134369 2.60491 -1.58914 -0.959468 -0.636203 0.805493
1850 2 19.4831 20.7152 31.0844 -1.80453 -1.24896 -1.67399 -1.47137 -0.00860705 0.108157
1851 2 18.9456 20.1307 21.7906 0.0371739 -0.127769 0.810295 -0.817691 1.07042 -0.411436
1852 1 17.1416 24.9336 20.0967 -3.30494 16.9277 -6.52327 -0.000521598 2.22561 0.985897
1853 3 17.3199 20.234 18.4041 -3.30048 5.36926 -3.33882 -0.585036 -0.104167 -0.413786
1854 1 19.0864 23.4904 25.1771 -3.48604 0.0148146 1.29373 0.887333 -5.55896 2.7237
1855 1 16.22 23.297 23.8394 1.37993 4.13274 8.3985 -1.80304 -2.42905 -0.509956
1856 3 12.6918 26.4977 19.4026 17.5692 0.144381 18.1318 -0.787795 -4.86251 6.1028
1857 3 16.9074 28.3301 18.3437 8.89247 -3.44884 -0.906615 0.873333 -1.63561 0.943205
1858 1 18.2248 22.957 29.5501 2.37771 2.08005 0.0491862 3.72755 0.672545 4.06361
1859 3 17.8932 23.1806 20.3781 -5.75351 2.03986 0.611201 -1.97819 0.833879 -0.602149
1860 1 18.0749 22.0107 32.5928 -1.54362 0.424148 -1.04439 -3.02968 1.55628 -0.247847
1861 1 11.0869 24.2326 26.3925 27.9682 -17.58 3.26534 2.26195 1.99695 -1.83021
1862 3 13.217 32.0899 24.197 9.03627 -5.5591 2.31536 -1.66382 0.806684 -1.22413
1863 2 16.1177 29.7633 17.1968 4.73832 0.620836 1.39022 0.756284 0.898286 -4.39664
1864 1 10.6829 31.7469 15.035 5.90228 1.32446 -3.65197 2.00926 -2.0206 -2.11783
1865 1 11.9701 28.6032 15.7515 4.9392 -4.66626 -7.2336 1.98883 2.38125 0.711995
1866 3 16.0588 30.7572 26.0556 5.15982 5.51394 4.90692 -2.87317 -1.9192 1.01699
1867 1 7.22643 21.9462 17.5783 5.77167 2.21162 8.80349 -2.68214 1.44919 -0.120195
1868 1 12.1084 18.2369 22.0246 -17.9763 2.27687 0.172346 -1.74948 1.11004 -0.225312
1869 3 12.5733 26.5712 22.5971 1.31624 13.1503 8.71235 5.25822 -5.11305 0.221957
1870 2 14.081 29.9901 20.7228 12.5308 1.88223 -3.46582 2.43342 3.17411 -3.0309
1871 1 14.3658 23.9715 13.4419 1.85037 2.22784 -2.72349 -0.176855 -0.98402 0.954541
1872 3 14.6854 30.3086 18.6306 -0.710185 5.54358 -9.50233 -3.07559 -1.52095 1.85924
1873 1 11.5287 30.7992 20.5464 -7.2965 -8.14987 -3.01393 -0.632495 1.05473 -2.00442
1874 1 13.4678 31.9868 28.3418 -0.607856 2.47446 -0.515847 1.41919 4.33706 0.306857
1875 1 26.7614 1.33084 26.3408 1.96981 -3.92324 2.42981 -2.4287 2.26094 -1.74525
1876 3 29.5413 1.32999 24.739 2.24936 1.87723 11.9102 0.218355 4.79875 0.345883
1877 3 13.2408 31.9442 21.0304 4.24772 7.73724 1.46859 -0.876227 -1.76765 2.70787
1878 1 13.0865 31.8929 35.1189 -0.607515 1.58965 -2.87029 -0.630758 0.337562 -0.956504
1879 2 32.7217 1.48151 21.6044 -1.09452 -0.996197 -1.02862 0.691219 0.0566803 -0.393581
1880 1 31.4253 2.2663 19.7079 4.51031 0.211821 2.9125 -1.47945 -1.9258 0.540008
1881 3 32.8679 1.40608 18.4374 -1.58088 -4.04017 0.384405 -0.0281631 0.55678 -0.469118
1882 3 31.051 1.50873 27.371 -0.557006 -2.11845 -4.42207 -0.371408 0.332974 -0.952943
1883 2 32.648 3.31084 30.9219 -0.787702 -1.04443 -0.487785 -0.260576 0.427763 -0.214732
1884 2 29.6707 2.79541 21.7523 -1.02079 0.332707 -0.421163 -0.210617 -0.123903 -0.467092
1885 1 30.3611 5.06784 20.9524 -0.616663 -1.50221 0.745151 0.0433608 0.396191 -0.152039
1886 3 31.0928 4.02759 18.9705 -2.74394 0.646965 -0.948186 0.0131521 1.25066 -0.138702
1887 1 28.9821 4.91703 23.2388 -0.68176 -0.496644 0.185639 -0.139231 0.632463 -0.0988609
1888 1 31.0284 3.65741 27.6193 0.183436 0.197109 2.95329 0.576622 0.278989 -0.439403
1889 1 28.2364 5.6522 26.1011 0.109548 0.20219 0.147411 0.168265 0.00200711 0.0202149
1890 3 30.1028 4.51499 25.8925 0.217569 -0.688231 0.475748 -0.379804 0.375403 -0.0960285
1891 2 27.8789 5.828 21.1996 0.141246 0.217965 0.0722423 0.0633988 -0.0679788 0.121527
1892 1 28.9802 7.15249 19.1022 -0.519466 1.16945 -0.529292 -0.0041258 -0.319047 0.112948
1893 1 27.9156 7.3106 23.6223 0.515104 0.0498342 -0.0734619 -0.158684 0.172118 0.0533936
1894 1 29.7047 6.16572 28.8381 -0.184683 0.437671 -0.571527 0.0899731 0.0677905 0.239813
1895 1 26.4019 8.06452 26.1524 0.649069 1.463 -0.179799 0.293198 0.0213405 -0.162589
1896 3 28.2199 7.25427 27.3797 -1.66555 1.34311 2.44101 -0.15305 0.263134 0.208462
1897 3 29.4696 6.41815 24.9695 -1.095 0.490716 -0.611328 -0.0990406 -0.0996486 -0.125906
1898 3 27.9856 8.84435 18.4734 2.77608 1.33363 2.77646 0.182574 0.706037 0.345061
1899 1 24.866 10.7396 26.1036 1.66918 -0.542987 0.518269 -0.166464 -0.197762 -0.141232
1900 3 28.217 8.60642 24.9517 -1.26635 0.592763 -0.859898 -0.216852 0.13552 -0.0616875
1901 1 26.1216 8.15152 35.0721 -0.218506 0.665945 0.140487 0.195637 0.149964 0.116468
1902 3 26.2014 11.9 18.2638 2.0112 -1.34994 -0.613614 0.206341 0.188874 0.263575
1903 1 24.7999 12.843 23.6722 -0.181175 -0.329694 -0.0624205 -0.182732 -0.25319 0.0228567
1904 1 23.0672 13.5888 26.1107 -0.52577 2.90827 0.409133 -0.00604366 0.0928176 0.0786509
1905 3 26.1832 11.6766 24.6613 -0.0963921 -0.166053 0.0980643 0.0121704 0.0642075 -0.00735232
1906 2 26.7563 14.5711 30.9818 0.168702 -1.13947 0.271552 0.310578 0.4548 -0.162723
1907 2 23.1927 14.0557 21.7311 0.559392 0.0648409 0.000529599 0.0949983 -0.0182357 0.109458
1908 1 23.5555 15.5649 19.7656 -0.726025 -1.07893 -0.946772 0.0261763 0.0502784 -0.355136
1909 1 23.2304 15.4817 23.7723 0.0632964 0.0439895 1.27888 -0.0899996 -0.0655576 -0.242954
1910 3 24.7414 14.6018 24.8454 -0.815641 0.0500112 -0.189867 -0.087763 -0.0661284 -0.113926
1911 2 24.3733 15.7156 30.7443 -0.158057 -1.93823 0.660802 0.0576307 -0.289553 0.103973
1912 1 24.6982 14.3741 32.917 0.169588 0.809876 -0.0464343 -0.0782632 -0.548548 -0.0563415
1913 3 23.5727 15.6396 33.9875 -1.27683 -0.339084 0.00383737 -0.213008 -0.110259 -0.142187
1914 2 21.7747 16.3763 21.7675 -0.104396 0.771478 -0.112692 -0.105561 -0.0106725 -0.0716788
1915 1 21.8144 18.4592 20.2827 -0.512949 0.908271 -0.444445 -0.257802 -0.259229 0.532282
1916 3 23.0401 17.6027 19.0681 -1.15574 0.628461 0.787299 0.335146 -0.437223 -0.712165
1917 1 21.8046 18.3519 23.431 -1.76476 1.22436 0.0711338 -0.360667 -0.571187 0.263858
1918 1 20.503 18.9242 25.9583 -0.617148 1.70339 0.388936 -0.350228 0.305605 -0.0712189
1919 1 22.0814 15.5871 35.1952 -0.175154 -0.232999 0.0190839 0.548897 0.0320118 -0.160206
1920 2 23.8913 18.7337 30.3901 2.57334 -1.44016 0.108628 0.225207 -0.0834877 -0.0999184
1921 1 23.3341 17.1683 32.4734 0.0314742 -0.0120447 0.139421 -0.0826039 0.284871 -0.277883
1922 1 21.0842 21.1696 20.0203 -3.26423 1.9427 3.16045 0.477595 -0.416437 -1.06418
1923 3 21.6994 19.7312 18.5467 -0.141482 0.49603 1.27168 -0.0713924 -0.123835 -0.416029
1924 1 22.4898 19.9952 28.4008 0.648261 -0.502751 0.671218 0.0539999 0.187045 0.0121147
1925 3 20.398 20.6025 27.6206 1.49203 -2.36798 -2.28947 0.0984391 -0.31591 -0.657767
1926 3 21.4806 20.5046 24.4074 0.61956 1.36022 1.87124 -0.231975 -0.0145252 0.0101216
1927 2 22.8788 21.502 30.7424 1.46241 -0.948143 0.208415 0.37477 -0.267583 -0.154543
1928 1 19.6976 23.4598 19.7155 -1.15774 -1.4714 -2.36454 1.06097 0.978657 3.8168
1929 3 20.1661 22.114 18.3251 1.7369 3.75086 1.44052 0.399122 -0.136419 0.266104
1930 1 20.7052 22.0644 29.3623 -3.49686 1.43109 0.351713 1.58747 -0.528873 -0.623984
1931 2 21.6806 24.2497 30.517 0.0246803 -1.11133 0.207659 0.265759 -0.349033 -0.0490909
1932 1 21.1746 22.4323 32.4633 0.305996 -0.211855 0.388709 -0.0485321 -0.316032 0.490616
1933 3 19.566 23.0478 33.5548 4.5321 2.653 0.288018 -0.728088 1.19207 -0.192401
1934 3 18.6392 25.26 18.6713 2.77567 1.4212 2.56488 -0.188977 -1.27642 -0.353832
1935 1 19.9135 24.7388 28.6708 -0.598897 5.14864 -0.570935 -0.99346 0.2085 0.735922
1936 1 12.6151 23.3278 17.1174 6.90795 8.21687 -0.937166 -1.50678 -4.98086 4.90669
1937 3 18.871 26.5323 28.0321 5.76538 -2.84744 2.14068 6.87054 -2.777 0.369436
1938 1 18.4319 24.0849 34.9573 3.78397 -4.12313 1.22865 -0.718701 -0.0139944 2.1445
1939 2 20.81 27.2467 31.2333 -0.124275 -0.922171 0.822257 0.165721 0.0446822 0.0310752
1940 1 19.5465 25.0534 31.9787 -2.06617 -1.63764 2.03081 -0.92133 0.487362 -0.36396
1941 3 18.6764 26.1956 33.5119 1.55109 -4.77099 8.14711 6.5312 1.67609 9.04237
1942 1 16.7178 29.9025 24.2661 2.6651 0.695727 2.72997 -0.275549 1.77129 0.219382
1943 1 18.9949 28.5386 29.4071 -6.15469 -1.27219 -3.57272 3.0631 0.902642 1.46489
1944 1 34.075 0.27985 25.6127 -2.50195 -4.45876 5.01499 1.38541 0.586134 -0.0492995
1945 3 17.2536 29.3841 28.6777 7.70224 10.1972 10.7242 -1.68066 -0.620477 -0.852046
1946 3 18.028 28.7375 25.2442 3.52406 -1.60321 -0.241553 0.870723 -0.398447 0.245745
1947 1 9.08113 20.3713 22.9936 -6.15371 -9.16178 -7.55611 5.16462 -2.97909 -0.126763
1948 1 18.6684 28.4044 32.4454 -4.45698 -6.90339 -9.64653 -1.19391 0.715393 -1.72461
1949 3 14.6524 31.4017 31.7863 2.58005 -2.1462 -3.39099 -1.19668 0.231765 1.38746
1950 2 16.3905 29.72 19.6948 0.98653 1.65073 0.079007 2.57798 1.06038 2.09198
1951 1 14.6856 32.0961 19.8282 0.305445 -4.11584 4.52507 0.781584 1.40043 -1.71216
1952 1 14.7847 31.5295 22.5242 2.33427 -5.26574 4.88869 -1.34608 2.13938 -1.11725
1953 1 31.4179 1.69995 25.0944 -1.55665 1.12136 3.71674 -0.196738 -0.00976012 -0.312844
1954 3 16.223 32.0827 23.8966 1.1708 -4.61046 2.04167 0.269899 0.178448 -0.585436
1955 1 15.7077 29.9778 30.2928 -1.33428 -1.2225 5.98994 -1.82454 -1.5288 0.455197
1956 1 16.5063 31.9038 32.0379 -0.706382 -1.22121 1.57564 -0.883496 -0.486861 0.170478
1957 1 34.7339 1.75353 19.2921 0.821169 -5.57934 1.80995 0.292196 0.281071 -0.0141001
1958 3 35.5364 0.976589 17.5337 -0.777382 -1.93485 4.8883 -0.599481 7.69821 -2.36059
1959 1 34.8718 0.996035 35.1822 -0.0251452 1.01922 -0.179171 -0.123739 -0.414976 0.20987
1960 2 -1.28169 3.09879 30.7965 -1.37282 0.441264 0.787063 0.562196 0.170024 0.122889
1961 1 36.251 1.72271 33.0468 -0.757262 2.73012 1.05348 -0.145193 0.316509 -0.00150796
1962 3 34.0449 2.0659 33.566 -0.156966 0.550926 -1.02391 0.072789 -0.130984 -0.867192
1963 2 32.1355 3.93486 22.5514 -2.12121 -2.53281 0.50774 -0.116775 -0.142744 0.139474
1964 1 33.2317 4.58352 20.1682 -0.872949 2.12521 1.228 0.26643 -0.188954 -0.278352
1965 3 34.5991 3.57197 18.4292 0.922799 -7.59649 -2.34965 0.722803 -0.335563 0.431353
1966 1 34.0275 3.53259 28.9186 0.283229 -0.908623 0.329797 0.236877 0.0841053 0.296155
1967 1 31.4283 5.97002 26.0414 0.77016 -0.730242 0.446968 -0.0485193 0.179336 -0.225399
1968 3 32.7422 4.62599 27.4533 -0.291241 -0.0999011 -0.461998 0.00181875 -0.0608399 -0.174451
1969 1 32.8421 2.95533 34.873 2.18075 -1.20098 0.674613 0.410836 0.275914 0.398436
1970 2 33.9135 5.52409 30.549 -0.201849 -0.00679518 0.150192 -0.0866098 -0.0718861 0.0147497
1971 1 34.356 3.81118 32.5431 1.32356 -1.94034 2.38765 -0.00310288 0.533908 0.195974
1972 3 32.8445 4.64819 33.8176 1.23925 0.864052 -0.124774 -0.117511 0.0600209 0.00257588
1973 1 32.8375 6.46315 28.3956 -0.116513 1.33943 -0.196543 0.0213657 -0.140713 -0.0123322
1974 1 29.6035 8.19657 26.2514 0.299708 0.0808373 -0.262191 0.0552509 0.0662837 0.000984567
1975 3 30.8962 7.14019 27.5713 0.875147 1.5388 0.51265 0.0635405 0.427161 -0.00304952
1976 1 31.188 5.3967 34.9181 -0.223839 0.185163 -0.458183 0.0591826 0.0260738 0.241292
1977 2 31.4301 7.33213 30.6887 1.0106 0.156412 -0.220346 0.0820534 -0.0259423 -0.0759312
1978 1 32.6975 6.27288 32.6485 0.0897783 0.235125 0.260136 -0.108654 0.0386491 -0.243265
1979 3 31.3731 7.25819 33.8723 0.328086 -0.193673 -0.738397 -0.00756123 0.0798922 -0.0419174
1980 2 29.8008 7.92521 21.608 -1.33523 -0.207376 -0.188847 -0.331412 0.0926639 0.0306589
1981 1 29.0763 10.0913 20.2233 -0.892728 -0.314926 -0.0468365 -0.175492 -0.0610374 -0.11006
1982 1 29.1323 10.0804 23.6177 0.584756 -1.98453 0.326471 -0.171531 -0.0613377 0.057679
1983 1 31.4399 9.08499 28.674 0.477861 -0.766262 -0.243897 0.0706254 0.0167141 -0.108952
1984 3 29.9528 9.78096 27.5016 -0.804243 -0.441132 -0.542249 -0.00404593 0.199118 -0.00577024
1985 3 30.5714 9.78687 25.0294 -1.37507 0.850344 -0.672022 -0.146158 0.152468 -0.0424504
1986 1 29.8001 8.02324 34.8765 -1.80526 -1.27316 -1.29836 0.402738 0.245137 0.223209
1987 2 31.0457 10.2663 31.063 3.91792 1.59768 -0.342193 -0.795939 -0.459316 -0.187378
1988 1 31.9348 9.14578 33.0457 -0.128613 0.709939 -0.356508 0.00270778 0.201394 -0.122862
1989 3 30.0486 10.0427 34.19 -0.0776805 -0.0791252 0.112739 0.00130415 -0.00819518 -0.00749774
1990 1 27.7012 12.7901 19.6116 -1.0417 -0.641981 1.11151 0.607451 0.617974 -0.572474
1991 3 29.4955 11.6828 18.5984 -0.517686 0.341052 -2.1577 -0.0863682 -0.323017 -0.0916257
1992 1 -6.87279 12.095 29.5317 -0.306063 0.275937 0.401486 0.174654 0.0613517 0.258562
1993 1 28.0788 10.8234 35.3127 -0.309081 -0.252568 -0.00427574 -0.0453945 0.0421651 -0.0592492
1994 2 -7.49744 14.1302 31.0307 -0.382274 -0.268767 0.0189865 -0.0404885 0.0503338 0.00834397
1995 1 29.9901 11.7902 32.896 -0.588587 0.436427 -0.214415 -0.189015 0.127875 -0.164952
1996 3 28.2478 12.4533 33.8541 0.0141619 -1.71695 0.102105 0.0223093 -0.318378 -0.00589671
1997 2 25.8965 13.4933 21.2395 0.114748 0.0431978 0.18539 -0.0551629 0.00636631 0.00108811
1998 1 26.6042 15.6524 20.0137 -0.255843 0.229891 0.267416 0.0291014 -0.0983211 -0.125754
1999 1 26.3057 15.0232 23.1915 -0.580053 1.3326 -0.823443 0.0220127 -0.227367 0.0815962
2000 2 -8.82261 16.7377 31.4306 -0.0038957 0.0532822 0.286626 0.0788474 0.203219 0.154718
2001 1 28.1983 14.6048 33.0186 0.221067 -0.339332 -0.160291 0.0788934 0.0186652 0.0756478
2002 3 26.1801 15.2955 34.0216 0.419507 0.204755 0.446576 0.0154025 0.110563 0.256946
2003 2 24.8398 16.4326 21.7892 0.446406 0.354148 -0.815605 0.0844115 -0.0590378 -0.117799
2004 1 25.0591 18.2238 19.7875 0.957852 -0.10215 0.324024 -0.197488 -0.106448 -0.0337524
2005 1 24.9315 17.9809 23.9278 0.514786 -0.445829 0.158826 -0.0108689 0.1638 -0.0993421
2006 1 24.7801 16.4684 35.241 -0.0985635 -0.0110897 -0.136758 -0.0439658 0.0246796 0.0347607
2007 2 -10.7428 18.8662 30.9447 1.42024 0.333825 -0.669535 0.196971 -0.0233613 0.0650568
2008 1 26.134 16.7511 32.383 -0.207952 -0.193985 -0.13516 0.236813 0.0107604 -0.0256419
2009 3 24.7239 17.7324 33.7348 -0.333715 0.0683785 -0.0507453 0.041913 0.0300494 0.0828056
2010 2 23.7286 19.025 21.8898 -0.270104 -0.610222 0.151811 0.023773 -0.0804176 -0.0517748
2011 3 25.1652 19.98 18.608 -2.76543 -0.872871 -2.98588 0.0409908 0.194193 -0.322703
2012 1 23.3007 20.9696 23.5755 -1.08903 -0.653061 -0.376999 0.0359474 -0.312315 -0.59296
2013 1 25.04 20.7465 29.3613 -0.533233 -0.0402722 -0.152688 -0.0769432 0.138028 0.00276769
2014 1 21.7927 21.7656 26.3716 0.697131 -3.06089 -0.0988836 -0.559885 0.599187 -0.698712
2015 3 23.5113 21.5255 27.6142 -2.40245 -3.34926 -0.538975 0.412316 0.569875 0.139455
2016 2 -11.9121 20.9231 31.8961 0.17913 -0.395994 -0.342456 0.0902182 -0.0812729 0.0132383
2017 1 25.6549 19.3425 33.7141 -0.961926 0.283127 -1.00732 0.783313 0.0193048 0.670405
2018 3 23.6978 20.1652 34.7047 0.376071 -0.334743 0.529721 0.0519222 0.0174365 0.0213713
2019 3 23.2273 22.0599 19.1263 -0.513406 -1.26221 -1.80538 -0.282544 0.110185 -0.074919
2020 1 -13.3592 23.1498 28.8111 0.0917879 -0.0169793 -0.523527 -0.1022 -0.132616 0.475752
2021 1 20.9546 24.0337 26.0291 -1.29837 3.36823 1.53156 1.12819 -0.00544314 1.79559
2022 3 23.7315 22.0912 25.1515 0.524811 0.21019 -0.643379 0.0443624 -0.0728402 -0.131355
2023 1 23.4804 21.7398 33.2628 -0.848329 -0.242824 -0.0485106 -0.251995 -0.41652 0.494718
2024 3 21.7407 23.3697 34.1825 1.13852 0.505221 0.400663 -0.087735 -0.283091 -0.115046
2025 2 21.5399 22.8802 21.7685 -0.266011 0.305874 0.59467 1.22883 -0.791783 0.257152
2026 1 21.5314 25.0988 20.5728 -1.53569 -0.0910414 -0.0882754 -0.0594161 -0.389242 -0.219086
2027 3 22.3477 25.2905 18.4971 0.511845 -3.68384 -1.17169 0.728281 -0.574504 0.0193262
2028 1 20.5584 26.2047 23.6257 -3.89296 -1.652 -0.692189 0.798248 0.624123 -0.228925
2029 1 20.4629 27.367 26.9071 -2.28857 10.3686 1.43515 0.593444 0.722112 0.625636
2030 3 21.1527 25.4075 27.3022 -0.30004 2.86623 0.316649 0.805897 -0.306101 0.181793
2031 3 21.8634 24.8418 24.6245 1.51163 0.427259 -0.249343 0.421357 -0.146272 -0.517522
2032 1 21.9155 25.5397 32.8221 1.43061 -0.0694855 -0.353975 -0.0100733 0.196858 0.227213
2033 2 19.7028 27.4677 21.4856 -4.19789 -1.18666 0.599475 1.19742 0.0868327 0.0419404
2034 1 18.9523 29.7974 20.7903 0.146011 0.984933 -0.750918 0.160735 0.869433 -0.0717806
2035 1 19.2565 29.2668 23.6189 -2.26227 -0.0520048 0.261502 1.16729 -0.568354 0.858188
2036 1 17.9185 30.2184 26.7472 0.857188 7.12494 9.30855 2.86551 0.264446 -0.0258408
2037 3 20.0452 29.4576 27.7666 -0.174319 -1.17946 -3.20891 0.271596 0.844889 -0.375846
2038 3 20.0575 27.6104 24.906 1.28035 0.333448 -1.92587 -0.620213 0.297284 0.317063
2039 2 -17.1932 30.3692 30.9045 -0.153753 1.07702 1.06744 -0.216392 -0.543993 -0.511395
2040 3 19.1217 29.8978 33.8832 4.66008 1.25733 -0.203241 0.244788 -0.311578 0.00704019
2041 2 17.397 28.4254 22.0969 1.66309 2.31909 0.792539 -0.542108 -0.61565 -0.43799
2042 3 -17.5839 30.6761 18.9808 3.15167 4.07044 -0.632677 0.0119984 -0.374563 -0.146657
2043 1 36.529 0.00658094 23.3151 3.34643 -3.74728 3.80222 0.993935 0.652887 -0.0349752
2044 3 18.7222 30.8886 24.6696 -2.73444 1.92324 -4.93223 0.0890042 -0.380068 0.462684
2045 1 17.5727 30.3374 35.0664 2.32845 6.06889 -2.17276 -0.652837 -0.189013 5.44606
2046 2 -0.200027 0.541851 30.6433 -0.444372 -0.0273374 0.659333 -0.426097 -0.0571611 0.0222363
2047 1 -18.1666 31.6984 32.9396 2.62819 2.64201 2.95976 -1.1842 -1.37695 -0.688956
2048 3 17.0814 31.9914 33.8256 2.93201 -2.85078 -3.74715 -0.395325 0.107363 0.126667
2049 2 0.961606 0.789798 38.8843 -0.245371 -0.566654 0.398033 0.667164 0.0697018 0.274705
2050 1 0.391193 2.00653 36.6766 1.23005 -0.212514 0.694844 -0.261644 -0.0190648 -0.344238
2051 1 0.168837 2.40077 41.047 0.017555 -0.891927 -0.222087 0.21687 1.03623 -0.112789
2052 1 35.323 3.06758 43.2968 -0.153301 -0.839629 4.3502 0.469613 0.470869 -1.67414
2053 1 -1.05778 4.46943 36.5406 -0.882985 0.162548 0.319827 0.519236 0.003845 -0.168322
2054 1 0.176526 3.33983 46.2217 0.729022 -0.26239 -0.101915 -0.130908 -0.0555348 -0.235922
2055 1 -2.75392 5.43229 43.1533 -0.239862 -1.47762 0.905018 0.153214 0.363025 -0.551076
2056 3 -1.1831 4.53585 44.6087 0.767238 2.28003 2.4633 -0.101366 -0.00359464 -0.259714
2057 1 -2.89097 6.66592 37.5124 0.0968403 -0.0683277 0.000123919 -0.0530477 -0.163567 -0.11457
2058 3 -1.65512 6.31849 36.1175 0.0410424 -0.982886 1.26934 0.0167683 0.0498324 -0.133456
2059 1 -0.751244 6.14727 45.9646 0.0374628 1.87834 -0.0160471 0.621884 0.0336824 -0.484579
2060 2 -1.90187 8.294 46.6207 2.70166 0.0720513 -1.2655 0.482461 -0.298117 -0.503098
2061 3 -2.97702 8.72742 35.9993 3.16088 2.24348 2.58016 0.0966605 0.0237386 0.0646598
2062 1 30.9235 10.6998 43.1375 0.45187 0.482627 1.0209 0.0669316 0.110501 -0.20645
2063 3 -2.9328 8.29406 43.0146 0.187575 -1.16176 -1.44497 -0.080585 0.0952792 0.00574282
2064 1 -3.67846 9.1166 47.9804 -0.769822 -2.53988 2.76033 -0.0819299 -0.435736 0.0770928
2065 3 -4.52775 11.963 35.6875 -0.248101 0.0179695 0.167104 0.00365153 -0.00345974 -0.00207137
2066 1 29.4341 13.1076 42.7939 -0.100242 -0.339489 0.200248 -0.108784 -0.00711319 -0.155633
2067 3 -6.45099 12.5066 43.9892 -0.811048 -0.195072 -3.7519 0.14652 0.579667 -1.27568
2068 3 -4.75623 11.017 41.9018 -0.644201 -3.51163 0.976088 0.187478 0.10558 -0.144113
2069 2 -3.71611 12.6326 46.6845 0.237354 0.00432313 -0.00778497 -0.0430706 -0.0972324 -0.0690788
2070 1 -4.98892 12.262 48.6337 0.00292321 0.0782468 0.136572 -0.142656 0.0347565 -0.129655
2071 2 -6.85948 13.3332 39.2814 -0.132385 -2.92491 -0.406168 0.781706 0.168356 -0.179225
2072 1 -7.63102 15.0592 37.54 -0.507426 0.132516 -0.118647 0.169817 -0.143288 0.0124918
2073 3 -6.39473 14.7429 35.5173 -0.528515 0.539827 0.097349 -0.0360439 -0.0460847 -0.0876874
2074 1 -7.31367 15.3565 41.1552 -0.436558 -0.723064 -0.351684 0.321405 0.278118 -0.313908
2075 1 -9.08811 16.0758 43.9133 -2.33174 -0.998375 2.25695 0.124074 -0.161771 0.0760971
2076 3 -6.02549 14.2329 42.7824 0.93887 1.27442 -1.82128 0.0426225 -0.354801 -0.487325
2077 2 28.0402 15.5387 39.3944 1.01667 -1.95518 0.268827 -0.112196 -0.143297 0.00431582
2078 1 -9.36534 17.6919 37.6603 -0.00548248 0.152736 -0.105392 0.0314505 -0.131373 -0.00870182
2079 1 -9.30161 17.6042 41.0944 1.62045 0.519717 0.093146 0.452761 -0.00354507 0.00769433
2080 1 -7.4972 17.4379 45.1185 -0.875255 0.247127 1.56301 -0.0544432 -0.124022 0.148163
2081 1 26.4081 18.5099 43.1919 0.195295 -0.237836 -0.155399 -0.182213 -0.089018 -0.290647
2082 3 -9.46315 18.0096 44.564 0.979103 2.35483 -3.61866 0.376602 0.203495 -0.885247
2083 2 -8.3491 18.3625 47.4663 -6.41255 3.11059 -9.94317 -1.07748 0.658302 -1.7062
2084 2 26.4612 18.5545 39.4265 -0.147729 0.169138 0.3646 0.0883464 0.0456972 0.027246
2085 1 -11.1773 20.4892 37.9316 0.464799 -0.631025 1.02429 -0.0699521 0.362188 -1.8144
2086 1 -10.9146 20.5347 41.0696 -0.39748 0.0302983 0.568532 0.130407 -1.01121 -0.416865
2087 1 -9.33692 20.1339 45.5651 -0.12107 -1.80984 -0.116394 -0.521867 -0.187861 -1.1152
2088 1 -12.0059 21.5768 43.789 -0.357075 -0.102764 -0.232301 0.0373901 0.06565 -0.296999
2089 3 -11.0231 19.9988 44.4207 -4.88842 -1.20368 1.99862 -0.401296 -0.072488 -0.00869608
2090 3 -9.35908 19.4304 42.2769 0.364151 0.329347 0.0941623 0.140106 -0.289448 -0.16608
2091 2 -9.47575 22.645 46.7968 -0.258929 -0.916745 0.728238 0.0390774 -0.00734515 -0.265271
2092 1 -8.59549 20.8059 48.0982 3.0847 -1.49724 0.674456 0.703292 -0.107484 0.0942452
2093 2 24.295 21.6188 39.2629 -2.23247 -0.110118 0.0238357 -0.125626 0.649677 -0.0196387
2094 1 -12.4979 23.1884 37.3471 -0.343801 -0.230216 0.650343 -0.0772667 0.20441 0.165908
2095 3 -10.8948 22.2568 36.5314 0.339589 -0.254577 0.168106 0.0275108 -0.0867103 -0.0726425
2096 1 -12.0956 23.1831 41.0429 -1.09653 0.965264 -0.045958 -0.387155 0.320064 -0.538314
2097 1 -13.5857 23.8866 43.2723 0.428859 0.324196 0.109579 0.113287 -0.0781057 -0.177495
2098 3 -11.6678 23.2716 44.5724 -4.0943 -1.30097 3.92876 -0.287837 0.00667511 -0.017375
2099 3 -11.0199 22.1726 42.2729 1.02796 -0.45765 -0.839958 0.243109 0.197739 0.0079619
2100 2 -13.7373 24.1202 39.4711 0.152201 -0.610985 1.38208 0.623579 -0.598722 1.42965
2101 3 -12.5249 25.0349 36.2969 -0.225814 -2.80988 -1.46028 0.492569 0.128078 0.440261
2102 1 -13.9285 25.6617 41.3665 1.07474 -1.93863 -2.19869 0.233541 0.0669687 -0.400368
2103 3 -12.1262 25.0208 42.4749 0.508172 -0.528312 0.231493 0.123118 -0.066388 -0.202152
2104 1 -11.6472 24.8824 48.9833 -0.355383 1.28494 0.108913 -0.384646 0.221774 -0.24694
2105 2 -14.0842 26.6997 39.024 -4.66941 2.55356 -5.46692 -0.277383 0.635792 -0.529193
2106 1 -14.7511 28.8908 37.7326 0.523129 0.0373461 0.589254 0.0147629 -0.206582 -0.194729
2107 1 -15.3429 28.097 40.9077 0.0539096 1.97616 0.606625 -0.0640247 -0.332724 -0.529816
2108 1 -13.0841 27.1736 48.892 -0.27224 2.08197 0.301915 0.177473 -0.225006 -0.25839
2109 2 -16.2355 29.9079 39.4533 -0.776783 0.362202 1.43246 0.413283 0.234021 -0.168354
2110 1 -16.8995 31.3141 36.9858 -0.780221 0.60599 -1.05716 0.157713 0.452819 0.18224
2111 1 -16.6543 31.9683 41.0616 -2.35031 -1.25241 -0.722076 0.472152 -0.741917 0.202685
2112 1 0.257533 0.591541 43.1109 -0.620145 0.00482689 0.488293 0.10581 0.199376 -0.435975
2113 2 -15.8152 31.9197 46.8139 0.565298 -0.404283 0.125176 0.198651 -0.0279388 -0.266614
2114 1 -14.2479 30.2387 48.7024 -0.133781 -2.2864 0.184952 0.171805 0.00860662 -0.149075
2115 2 -15.1461 32.0111 38.7813 0.658283 4.46819 3.52825 0.103849 1.27173 0.926119
2116 1 3.06039 1.80935 37.5007 -0.617753 -0.67089 0.325582 0.138268 0.0415534 0.114314
2117 1 2.8951 1.94761 40.3646 -0.470737 -0.124848 -0.444606 0.0865864 0.335906 -0.241662
2118 1 4.35746 1.54248 46.2284 0.910018 0.874035 -1.288 0.0496328 -0.19273 0.620328
2119 2 4.91858 3.23587 48.0707 0.0792103 0.153605 -0.0805175 -0.0390738 -0.0554012 -0.128114
2120 1 3.8582 0.966955 48.6869 2.95977 0.493024 -0.292202 -1.19755 0.336451 0.00854411
2121 2 1.45201 3.33804 38.6931 -0.216296 0.808671 0.463201 0.024918 0.175432 -0.08447
2122 1 1.40111 5.47799 37.3507 0.188523 -1.26073 1.42694 -0.0857942 -0.296657 0.0553785
2123 1 1.36784 4.93471 40.5941 0.542403 -1.05956 2.46974 -0.290867 0.150841 -0.0233782
2124 1 3.29298 4.144 46.3721 0.760102 0.228196 0.25282 0.0569318 -0.556081 -0.33309
2125 1 0.392313 4.80415 43.5152 -0.458508 0.475069 -0.627475 -0.16433 -0.0236025 -0.927854
2126 3 1.72413 3.99948 44.8979 -0.00553527 -0.197128 0.995368 -0.0714042 0.0853877 -0.00409592
2127 2 3.45467 6.41719 47.4134 -1.33989 0.809887 0.0277397 -0.224175 0.0701484 -0.336378
2128 1 4.66125 5.484 49.3191 0.0581419 -0.41141 0.310847 0.096888 -0.0440574 0.327376
2129 2 -0.720731 5.62092 39.1372 -8.54188 1.74168 6.59788 -0.156842 0.229282 0.0623367
2130 1 -0.39361 7.48271 37.4948 1.04764 -0.923029 1.72381 0.0921327 0.242764 -0.199352
2131 1 -0.171893 7.83871 40.3278 0.97667 -0.76215 1.80581 -0.0769285 0.170965 -0.226932
2132 1 1.99333 6.1417 45.3231 -0.162332 0.440018 0.524124 -0.390749 -0.68031 -1.02968
2133 1 -1.14378 7.4622 43.1584 -0.189268 -0.161795 0.247543 -0.0756641 -0.0629478 0.0245611
2134 3 0.329842 6.74221 44.2499 2.05567 1.9445 -1.42719 0.571797 0.324916 -0.132388
2135 3 2.66412 5.8405 42.0107 0.01735 -1.12891 -0.598699 -0.111548 -0.40167 -0.492492
2136 2 1.29015 7.673 47.1367 0.514206 -1.04115 -0.293924 0.115852 -0.106888 -0.218315
2137 1 1.53077 6.25184 49.0163 0.171608 -1.32141 1.04929 0.184529 0.0991396 -0.33758
2138 2 -2.48671 8.30456 39.3802 0.117975 0.169542 0.15104 -0.0825756 0.0282094 -0.117884
2139 1 -1.88529 9.69397 37.2229 0.874213 0.795807 0.125269 0.00493952 0.0438345 0.0780329
2140 3 -0.00760943 8.71629 35.9917 -0.672582 0.774804 1.21694 -0.0261351 -0.200119 -0.240337
2141 1 -2.03741 9.89102 41.8309 -1.68361 -1.20842 -2.01629 -0.69596 -0.609436 -0.763113
2142 1 0.142295 8.61083 45.3935 3.47266 0.761965 -1.98566 0.621096 0.383327 -0.343793
2143 3 -0.154124 8.91663 42.2815 -2.9829 3.55892 9.34617 0.204913 -0.0554556 -1.59334
2144 1 -0.286909 9.08716 48.2728 -0.559338 2.33603 1.21687 -0.393902 0.574072 0.00499779
2145 3 -1.65823 11.4148 36.1057 0.771673 -0.220349 1.43707 0.102818 -0.0448109 -0.161348
2146 1 -4.51777 12.5559 43.2268 1.40112 -0.793989 0.547614 -0.24804 0.0443208 -0.209434
2147 3 -1.92291 11.1528 43.2696 -0.214971 3.22653 0.370693 0.418532 0.661468 0.202724
2148 2 -1.11784 12.6148 47.0759 0.158185 0.0317164 -0.638459 0.0375018 0.016384 -0.0329925
2149 1 -2.21545 11.3137 48.7001 0.328796 0.452427 0.0638114 -0.213426 0.195025 -0.353672
2150 2 -4.54682 12.8725 38.7374 1.28638 0.3747 0.202673 -0.162485 -0.594211 0.499315
2151 1 -4.82878 14.8907 37.033 -0.25759 1.45782 1.84503 0.186221 -0.220212 -0.304495
2152 3 -3.21593 14.4564 35.7598 -4.77293 1.33286 3.12873 -0.410515 -0.0606439 0.244672
2153 1 -4.92967 14.2397 40.8294 -0.348777 -0.0934176 0.533839 0.394324 0.134417 -0.0754468
2154 3 -3.48954 14.1105 42.3372 -2.4799 0.906054 -0.544333 -0.139821 0.0913781 -0.388286
2155 1 -2.65207 14.12 48.4043 0.0311028 0.00678286 -0.26445 -0.0529973 0.0848269 0.280668
2156 2 -5.85121 16.0753 39.1874 0.506162 -0.371217 0.739944 0.534921 0.53663 0.15919
2157 1 -6.25121 17.8376 37.5354 -0.696819 -0.853259 1.03982 -0.226432 0.208128 -0.508182
2158 3 -4.82028 16.8048 36.0892 0.179303 -0.383833 -0.964179 -0.137505 -0.0918401 -0.208481
2159 2 -7.74234 18.7417 39.4049 -0.367775 0.0568357 -0.091554 -0.0974948 0.0821468 -0.0944422
2160 1 -7.86745 20.4343 37.3075 0.077836 0.151376 -0.301672 0.213606 0.132446 -0.417336
2161 1 -8.06113 20.6882 41.4161 1.24955 2.55466 -1.94236 1.07461 0.546605 0.393513
2162 1 -6.54893 19.4914 46.0185 -0.191533 -0.210696 0.545849 -0.180805 -0.206093 -0.416821
2163 2 -6.17428 21.431 47.9723 0.587837 0.313031 0.170491 0.184623 -0.078023 0.0623015
2164 1 -6.30782 19.0198 48.6907 0.509721 0.817069 0.417136 0.0520504 -0.0262176 0.0580222
2165 2 -9.21867 21.0534 39.2329 -0.030094 0.0641741 -0.03349 -0.0306447 -0.0849279 -0.0676968
2166 1 -9.32161 23.2589 37.2304 1.26346 1.07118 -1.25144 0.293329 -0.428622 1.12519
2167 3 -7.55769 22.3999 36.4235 0.124966 -0.436052 0.304999 0.200685 -0.0597372 -0.168621
2168 1 -10.3448 23.9416 42.8254 -0.0747847 -0.222992 -0.145319 0.254221 0.0367102 -0.373108
2169 1 -7.50584 23.4899 48.1395 0.518672 -0.00193556 0.528358 -0.223343 -0.257672 -0.293191
2170 3 -9.13444 24.7073 35.6776 -0.492117 1.00436 -0.382148 -0.0437514 -0.216609 0.047154
2171 1 -9.4842 25.5351 46.6834 -0.0155105 -0.251003 -0.012592 0.193067 0.0613065 -0.194327
2172 1 -12.1892 26.6524 43.7962 -0.448417 0.469843 0.0316773 0.0803537 -0.139653 -0.265231
2173 3 -11.0949 26.2876 45.5086 -0.0838692 0.0256906 -0.151912 -0.0319926 0.023607 -0.0631659
2174 2 -9.62515 28.5902 47.7411 -1.26256 1.50446 -0.144554 0.0182225 0.546197 -0.168838
2175 1 -8.79213 26.4375 48.8874 0.133415 -0.632925 0.482526 0.12695 0.646773 -0.401578
2176 1 -12.1927 29.1647 37.2902 -0.181651 -0.527057 0.295048 -0.209437 0.00749861 -0.272779
2177 3 -11.2685 27.8324 35.9465 0.734534 0.197607 4.58696 0.156169 0.0195981 0.0398512
2178 1 -13.145 28.5686 42.178 1.8575 0.341087 -0.172166 0.311738 0.239247 -0.242211
2179 1 -11.0195 28.195 45.8088 0.577557 0.357384 -0.442097 0.0849459 -0.676732 0.547725
2180 3 -11.0974 27.8813 42.8147 -0.982522 0.109456 0.415737 0.297219 0.119815 -0.334505
2181 1 -10.8157 28.0053 49.7204 -1.29853 -0.816141 0.557525 0.5282 -0.271701 -0.407935
2182 2 -12.8333 28.6199 39.6854 -2.77496 -1.61637 0.0228011 -0.201915 -0.41838 -0.107859
2183 1 -13.21 31.7974 37.1988 0.890508 -0.220014 -0.152676 0.020214 -0.309378 -0.286642
2184 3 -12.5259 30.5633 35.7632 -0.591415 -0.673642 -0.384022 -0.373236 -0.0302878 -0.144829
2185 1 -13.581 30.8333 40.4015 0.0689839 1.68755 -0.451584 -0.0576002 -0.175151 -0.236674
2186 1 -12.1656 30.3847 46.0851 0.461588 -0.135611 -0.270594 0.0597462 -0.0422167 -0.145497
2187 3 -12.5651 30.54 42.4291 -0.203882 0.445528 0.0402911 -0.0779238 0.0586481 -0.12903
2188 2 -12.8941 32.088 47.6445 0.380803 -0.152965 0.107703 0.0667457 0.236141 -0.138368
2189 2 -11.9311 32.2689 39.1929 0.126335 0.62862 0.496279 0.10377 0.17917 -0.178386
2190 1 6.35349 2.0625 37.3532 0.284891 0.177146 0.038517 0.0048977 0.125689 -0.0941045
2191 1 6.10312 1.79317 40.7479 0.557963 1.83061 -0.0515318 0.100129 -0.0171249 -0.178528
2192 1 7.08345 0.938354 45.7658 0.163586 0.693727 1.91419 -0.115175 -0.0481695 0.0146886
2193 3 5.72142 1.8569 44.6609 0.0277499 -0.0431146 -0.366273 -0.00748034 0.0366441 -0.18385
2194 3 7.19576 0.915589 42.4391 0.217881 -0.113148 0.0536058 -0.0785121 -0.00547769 -0.104397
2195 2 7.88527 2.29177 47.6146 -0.427207 0.204524 1.03779 -0.0769513 -0.0608991 0.208918
2196 2 4.69552 3.09082 38.9621 -0.0833453 0.256121 -0.0024357 0.114849 0.136245 0.0191225
2197 1 4.50818 4.70997 36.9166 -0.239665 -0.350051 0.0672344 -0.400562 -0.243148 0.128215
2198 3 5.85736 3.61692 35.9507 1.26044 -0.677213 1.38949 -0.264837 0.0822853 -0.183878
2199 1 4.12622 4.22437 41.1119 2.02376 1.25429 0.00753048 0.157952 1.02673 0.476467
2200 1 6.2928 3.66835 45.9391 -0.410634 -1.15893 0.916258 -0.300457 0.422289 -0.344829
2201 1 3.20059 4.57378 43.5082 -0.959178 0.062814 0.580739 -0.266157 -0.0906063 -0.0929124
2202 3 4.70764 4.24409 44.8183 -1.3064 -2.25672 0.777535 -0.078117 -0.113774 -0.170492
2203 2 6.05216 6.27374 47.4946 0.222585 0.938146 -1.30621 0.392692 0.532604 -1.59184
2204 1 7.15882 4.35945 48.6326 -1.60818 2.34256 1.39431 -0.016326 -0.382567 -0.214348
2205 2 3.36569 5.52969 38.9307 -0.408157 0.731579 0.135207 -0.0455599 0.152997 0.0478112
2206 3 5.09919 6.38622 36.2563 -0.132041 0.0409794 2.70159 -0.0742787 -0.0207206 -0.417596
2207 1 2.85254 7.31109 40.6414 0.556419 1.05272 2.28715 -0.591977 -0.0549285 -0.35052
2208 1 4.83259 6.12446 45.2749 -1.77936 0.881326 -0.568204 0.952225 -0.775666 0.0692715
2209 1 1.70179 7.8244 43.0838 1.35188 -1.29536 -0.263001 0.225912 -0.202503 -0.217217
2210 3 3.39632 6.42714 43.9447 -1.95677 0.892131 -0.47605 -0.217938 0.167818 -0.123024
2211 2 1.82992 7.7263 38.4232 2.705 0.825676 -1.40011 0.0377173 -0.0721613 -0.208195
2212 1 1.22928 10.0509 41.127 -0.569249 -0.361496 0.825545 -0.324572 -0.206868 0.021651
2213 1 0.0773209 10.5672 43.4514 -0.748732 -1.6314 -1.27858 -0.126832 -0.209062 -0.173879
2214 3 1.44016 9.70934 44.5087 -2.13873 -0.223259 -2.19177 -0.0633984 0.120907 -0.258622
2215 3 3.03478 8.92023 41.912 -0.501755 -0.756857 1.08714 -0.222014 -0.13276 -0.0252225
2216 1 3.16453 8.87394 47.8372 -0.597943 -0.209567 -0.739392 -0.0252569 -0.271281 0.130538
2217 3 1.81036 11.426 36.5564 -0.755408 0.929976 0.840454 0.477369 1.21575 0.0363058
2218 1 -1.74867 13.16 42.8642 -0.88881 -1.26453 -0.941579 0.00823608 -0.413576 -0.0354903
2219 3 -0.330437 12.3556 44.0699 -2.89352 4.94531 4.4704 -0.703247 0.863747 -0.542244
2220 3 1.56507 11.6432 42.5673 2.1011 -0.36851 -0.596932 -0.108823 -0.0089961 -0.242883
2221 1 1.20755 11.3768 47.5703 -0.763083 0.401108 -0.251669 0.0791163 0.0062012 -0.127128
2222 1 -1.57091 14.9942 37.5803 1.92471 -0.058904 -0.468475 -0.160859 -0.0540066 -0.0872749
2223 3 0.172203 14.6104 36.3724 -0.50574 -0.420683 0.113043 -0.204698 -0.025442 -0.0766354
2224 1 -2.21688 14.9646 40.7865 0.155409 0.870759 -1.45466 -0.518583 -0.240855 0.190203
2225 1 -0.382516 14.0695 45.2222 -4.38989 -0.303069 -0.0352805 -0.508997 -0.724765 -0.0602703
2226 1 -3.63807 15.9014 43.2559 -0.61974 -0.331602 0.686103 0.31634 0.18094 -0.774422
2227 3 -2.14484 14.7382 44.2538 -0.0615426 -0.015362 1.16533 -0.107411 -0.0279721 0.0469844
2228 3 -0.754232 14.1903 41.6437 0.295698 0.342209 -1.58553 0.0264979 -0.0182822 -0.232951
2229 2 -0.541092 15.2746 47.4051 -0.973084 0.331473 -0.815087 -0.0522678 0.0328906 -0.110211
2230 1 0.127653 13.5495 48.9902 0.086098 -0.31876 0.179749 0.134452 0.00766213 -0.0949915
2231 1 -3.60246 17.3715 37.7867 3.49655 0.758605 -0.943188 -0.14459 -0.241346 0.102384
2232 3 -1.95003 16.8792 36.8335 0.228038 0.827232 -0.646116 -0.0741492 -0.0333821 0.128748
2233 1 -1.80945 16.6158 45.7582 -1.2482 0.415004 -0.751103 -0.539734 -0.085317 -0.575899
2234 3 -3.18814 17.4308 44.5139 0.246903 0.118068 0.954937 -0.0863618 0.128313 -0.0914048
2235 3 -2.09205 16.8015 41.9016 -0.350411 -1.22228 0.212021 0.00807694 0.0521184 -0.194963
2236 2 -2.40099 19.1705 47.5842 -0.836836 2.77045 0.68729 -0.307846 0.743063 0.189457
2237 1 -4.87733 20.4289 37.7579 -0.169907 1.19546 -0.0781405 0.125463 0.26466 -0.422394
2238 3 -3.46482 19.1849 36.6671 -0.54861 -0.471905 -0.284601 -0.00247207 0.0669672 0.107727
2239 1 -3.54199 19.2307 45.312 -1.40002 0.506218 -1.12435 -0.356102 0.476033 -0.421544
2240 1 -6.75682 21.2967 43.7443 1.4968 0.220086 0.675353 -0.0194635 -0.0856614 -0.128759
2241 3 -5.2023 20.1043 44.2851 -0.120859 -0.00346467 -0.175808 -0.853239 -0.273587 0.120796
2242 2 -3.63124 21.823 47.7007 0.146639 0.188044 -0.0717593 -0.188538 -0.010459 -0.157931
2243 2 -6.51596 21.1823 39.4915 0.254504 0.0617817 -0.0771326 -0.0579408 -0.1447 -0.0285067
2244 1 -6.10107 23.3285 37.6496 -0.109627 -0.310415 -0.410967 -0.0735086 0.00438673 -0.33006
2245 3 -4.51493 22.2781 36.6823 -1.25144 1.1649 0.929804 0.0517363 -0.0170364 0.0546217
2246 1 -5.875 23.012 41.0238 0.667083 0.545867 0.563979 -0.00254786 -0.111421 -0.0917747
2247 1 -5.08703 21.6533 45.6996 0.0882732 0.54362 0.759824 -0.914014 -0.220888 -0.27481
2248 3 -5.092 22.5951 42.761 -0.112917 0.184773 -0.156344 0.50149 -0.0687413 0.899004
2249 1 -4.7052 23.6944 48.8408 -0.309951 -0.034859 -0.216487 -0.0431878 0.136491 -0.186224
2250 1 -8.00592 25.7222 36.9656 1.21093 0.568233 0.38932 0.786193 0.41262 0.0478365
2251 3 -6.52034 24.7817 35.9736 -0.462334 -0.290855 -0.220053 0.101594 -0.00622903 -0.132554
2252 1 -9.52078 26.8073 43.9995 -0.419715 0.0284454 -0.0309184 -0.0150669 0.135225 -0.0137284
2253 3 -7.9384 26.0142 45.255 0.416734 0.380168 0.318149 0.051113 -0.039335 -0.158339
2254 3 -5.98567 24.5641 42.65 0.0752481 0.0543043 -0.801483 -0.164512 0.0602974 0.00735561
2255 2 -5.72946 28.2465 47.7587 0.423097 0.976408 -0.508635 0.078699 0.190762 -0.167497
2256 1 -6.49321 25.597 46.7911 -0.405186 -0.230378 0.00465308 -0.151229 -0.107694 -0.136482
2257 3 -7.62168 27.5176 35.8563 0.784661 1.24598 0.852989 0.012141 -0.0662543 -0.0789853
2258 1 -7.67648 27.836 46.0047 0.0503418 -0.406908 -0.20042 0.161034 0.218803 0.0113592
2259 1 -10.7981 29.7648 43.514 0.132426 0.145917 -0.0198462 -0.038011 0.0567114 0.0896119
2260 3 -9.30479 28.7356 44.5838 -3.00029 -0.844202 1.96235 -0.522809 -0.184647 0.291578
2261 3 -7.78672 27.4499 42.809 0.385815 0.285453 0.545934 -0.0524979 -0.125324 0.0501711
2262 2 -7.0788 30.1449 46.385 0.448142 0.188789 -0.183975 0.123751 0.143687 -0.102599
2263 1 -7.64972 29.1151 48.9643 0.554778 0.333769 0.109521 -0.310413 -0.155469 -0.0937807
2264 1 -10.9444 31.6031 41.4109 1.16475 -0.421703 1.1724 0.267726 -0.70223 -0.632206
2265 1 -9.44301 30.3991 45.9626 0.641746 0.00694971 -0.412867 0.0644344 -0.0661988 -0.148546
2266 1 5.80642 0.0720235 43.3807 -0.0715419 0.820478 0.322635 -0.371684 0.133998 -0.313822
2267 3 -11.1446 31.4333 44.7709 0.306392 0.139904 -0.0394128 -0.0265044 0.128068 -0.148621
2268 3 -9.39063 30.7092 42.8261 0.147605 -0.223778 0.0053253 0.114338 0.393832 -0.16098
2269 1 7.32871 2.64322 43.4151 -1.04947 1.1973 -1.83293 -0.109917 0.0837061 -0.364831
2270 3 8.73256 2.00929 44.5698 1.40072 0.163966 1.17015 -0.162186 0.0333684 -0.14083
2271 3 10.8897 0.708851 43.0714 -0.649865 -0.961276 0.865492 -0.199386 0.279672 -0.243074
2272 2 7.68808 3.0756 39.2996 -0.282827 0.0133517 0.116409 -0.137799 0.165503 -0.0896042
2273 1 7.3716 4.7664 37.2846 0.936814 -1.30683 0.58666 -0.3483 0.030227 -0.0123996
2274 1 7.36988 4.77834 41.2468 -1.87283 -1.1469 -0.244464 0.0131279 0.216436 0.0363779
2275 1 9.02317 3.72944 45.8362 0.256824 1.98069 3.17853 0.171847 0.128802 -0.459776
2276 3 8.84137 3.89111 42.4725 -1.30612 1.27782 -0.210158 0.28471 -0.378214 -0.0870368
2277 2 9.17592 5.31852 47.7751 1.40101 0.28399 0.401752 0.575793 -0.00312806 -0.23049
2278 1 10.2646 2.92676 48.1118 -0.412578 -0.0341979 -0.456039 0.078289 0.0960863 -0.121628
2279 3 7.74001 6.02503 35.6526 3.31384 -4.04271 -4.23194 0.29 -0.424545 -0.421717
2280 1 7.77101 6.22115 45.829 -0.443287 0.181804 -0.177354 -0.311869 0.0512236 0.0756367
2281 1 4.5211 7.94627 43.3234 1.98995 -0.0181494 0.895434 -0.15661 0.259623 -0.588476
2282 3 6.07757 8.66344 35.6784 -0.173079 0.618659 0.550467 -0.203005 -0.190885 0.1049
2283 1 4.92353 9.50595 41.2595 0.598599 1.13205 -2.1041 0.102042 0.167031 -0.508062
2284 1 6.33299 8.86474 44.9352 2.8027 -2.15866 2.27095 0.28896 -0.436501 0.0763285
2285 1 2.99595 10.2576 43.3368 0.797434 -0.185951 -0.680073 -0.152185 0.28494 -0.252663
2286 3 4.47654 9.65758 44.7107 -0.412925 -0.362224 -0.14998 -0.0167395 -0.0538924 -0.208139
2287 3 6.23676 8.85623 42.8634 1.43663 0.747847 3.11391 0.215415 -0.19678 -0.0817486
2288 3 5.06855 11.901 35.443 -0.899563 0.17155 0.199065 0.0725858 -0.0627188 -0.0189031
2289 1 4.94221 10.94 46.2822 1.25942 3.3949 1.10364 -0.412919 -0.552773 -0.441461
2290 3 4.66552 11.2406 42.367 0.219696 0.521226 0.0577125 -0.0362036 0.0372353 -0.0884852
2291 2 4.99159 13.0519 48.154 -1.55279 -1.8415 1.55338 -0.0568097 -0.524464 -0.0278125
2292 1 4.27404 10.848 48.6789 0.851235 0.814564 0.0786082 -0.248189 0.195181 -0.164577
2293 1 1.41347 14.0215 37.975 0.0224061 0.475092 -0.876846 -0.597321 -0.270872 -0.0112783
2294 3 2.60713 13.42 36.6672 1.77045 1.55136 -0.642936 -0.787824 -1.32041 -0.160435
2295 1 -0.830305 15.7682 43.1977 -0.427838 0.137505 0.47193 0.268284 -0.39424 0.0961055
2296 1 2.74755 13.6825 48.6007 -0.182858 0.682307 0.238714 -0.316346 -0.0952551 0.0414799
2297 2 0.709113 16.0295 39.1844 -0.701923 -0.505631 0.0795993 -0.119327 -0.0238329 -0.122912
2298 1 -0.0757284 17.1396 41.1703 -0.285136 -2.6216 0.253374 0.0885877 -0.0615533 -0.15024
2299 1 1.21664 16.9866 46.5001 -0.380862 0.842914 0.737177 0.0259965 -0.700983 0.334591
2300 1 -1.68527 18.3655 43.3143 -0.592743 1.94021 -0.568643 -0.0225508 -0.153461 -0.33017
2301 3 -0.359423 17.4485 44.7947 -0.0764908 -1.0409 0.224481 0.0411483 -0.138389 -0.0166532
2302 3 1.07941 15.8695 42.5358 -1.60607 -1.2727 0.622023 -0.185058 -0.104421 0.0819678
2303 1 -0.771922 19.3655 45.716 -2.01864 0.993893 2.33737 0.175211 -0.0333862 -0.556859
2304 1 -3.63517 21.1587 42.9893 -1.12533 -0.143335 0.288177 0.0363675 0.244854 0.0573491
2305 3 -2.24612 20.1594 44.2491 0.0495574 0.747042 0.174116 -0.00386687 -0.0904483 -0.118957
2306 3 0.139435 18.7985 42.4415 0.368563 0.080674 -0.0561291 0.00577238 -0.00399525 -0.322634
2307 2 -0.898404 21.3531 47.5084 0.0354156 0.365873 -0.549978 0.119037 0.0175514 -0.307712
2308 2 -4.01419 21.197 40.1018 0.237923 -0.54956 0.452202 -0.114893 -0.102127 -0.0178185
2309 1 -3.04707 22.6646 38.166 0.603036 -1.75175 0.28701 0.189706 -1.11408 1.04935
2310 3 -2.46746 23.0334 36.1617 -0.426318 1.46256 1.82166 0.391586 -0.101646 -0.572601
2311 1 -3.12767 23.2213 41.319 1.13865 -1.39767 1.38821 -0.146342 0.0772758 -0.235108
2312 1 -2.352 21.9191 45.5897 -0.60755 -0.647445 -2.07156 -0.277788 0.0514715 -0.201912
2313 1 -4.28527 24.202 43.7733 -0.0237898 -1.22591 -0.274449 -0.171933 -0.0651443 -0.0906603
2314 3 -3.90283 22.4329 44.545 -0.912621 0.866135 -0.0527022 -0.663884 -0.0538499 -1.1508
2315 3 -1.71528 22.2065 42.3573 0.612141 -0.172375 0.133183 -0.368624 -0.261974 -0.293839
2316 2 -0.675147 23.7123 46.0367 -0.179725 -0.615074 -0.69359 -0.370581 -0.0516421 -0.123886
2317 1 -2.13939 23.6889 48.0024 0.0406134 -0.269502 0.604102 0.232606 0.0967707 -0.134523
2318 1 -4.69015 25.622 41.4277 0.681835 0.157881 0.50561 0.0559824 0.206677 -0.0154777
2319 1 -6.2689 26.3245 43.8666 0.0775019 -0.0279353 -0.0919747 -0.102344 -0.14161 -0.0210925
2320 3 -5.17275 25.0971 45.3391 0.06096 -0.038225 0.374958 0.0438259 -0.243589 -0.181516
2321 3 -2.99177 24.7685 42.4405 0.0211327 0.125193 -0.194191 0.158116 0.224714 -0.247828
2322 1 -6.00714 28.6319 36.8847 0.072971 2.75021 -0.240232 -0.0778379 -0.334247 0.0306788
2323 3 -4.87848 27.5057 35.5473 -0.0206419 -0.240345 0.00157957 0.0799916 0.11047 0.152358
2324 1 -6.57945 28.4365 41.1788 -0.0978053 -0.389326 -1.63751 -0.355274 -0.040455 -0.0521251
2325 1 -7.51556 29.3932 43.6827 0.196464 -0.129575 -0.444482 0.132542 0.0139077 -0.107776
2326 3 -5.79069 28.2207 44.3239 -0.215858 -0.0797735 -0.267359 0.00221547 -0.259255 -0.222955
2327 3 -5.23623 27.4367 42.3932 -0.297406 -0.166701 -0.176588 -0.155889 -0.0303035 0.0774063
2328 2 -4.04699 29.8326 46.4895 0.855943 1.26895 0.738097 0.0256203 0.0189117 -0.389064
2329 3 -6.03793 30.5342 35.7404 -0.00710397 1.4988 0.807527 -0.0859452 0.242775 -0.0523916
2330 1 8.90879 0.211926 43.6586 -0.270061 0.636105 0.481772 -0.222281 -0.0456863 -0.335227
2331 3 -6.99931 30.6474 41.973 0.00281043 -0.11937 0.0346911 -0.162602 -0.0843458 0.0467368
2332 1 -5.57098 30.9972 48.0827 -0.0145155 0.0656572 0.33134 -0.0397462 0.173691 -0.364491
2333 2 12.8558 0.352209 39.1096 -7.10691 -7.65141 0.104786 0.0594631 0.373391 -0.15931
2334 1 12.7832 2.26666 37.1704 0.225134 4.14005 -0.828923 0.110981 -0.214102 -0.00365343
2335 3 13.9447 0.962001 36.0459 1.03802 -0.318227 -0.80836 0.35975 -0.561881 0.940214
2336 1 14.08 1.14775 44.7435 0.00801529 -0.392883 0.767314 -0.274833 1.27979 -0.552287
2337 1 10.4306 2.60074 43.6009 -0.551215 -0.0908963 1.33394 -0.224241 -0.110813 -0.221586
2338 3 11.8823 0.960555 44.9607 0.654763 -0.00926439 0.0525067 -0.036535 0.119038 -0.307052
2339 2 15.185 2.61107 47.0638 -0.2965 0.372114 0.14219 0.235043 0.0532659 0.121734
2340 1 13.9163 1.28701 48.6597 -0.183156 -0.188062 0.575501 0.0594709 0.238048 -0.0450498
2341 2 10.9351 2.83613 38.992 0.841125 3.09544 -0.318997 -0.0607892 0.00298712 -0.106865
2342 1 10.9722 4.5143 36.8863 0.303964 -0.687431 0.309549 0.228992 -0.00660858 -0.224304
2343 3 12.6368 4.17504 35.911 0.012944 0.121209 0.341621 0.202672 0.100342 -0.0928462
2344 1 10.7079 4.39391 41.1492 0.022358 -0.882767 0.5319 -0.197985 -0.359198 0.20326
2345 1 12.6568 2.98423 45.9649 1.41756 0.60747 -0.310902 -0.271238 0.196766 -0.0318028
2346 3 11.205 3.92645 44.8287 5.85207 -3.10051 -1.45421 0.0710358 0.0379388 -0.250758
2347 2 12.842 5.93726 46.6582 1.52096 1.38617 -1.50423 1.37401 0.645226 -1.47897
2348 2 9.37267 5.10726 39.1194 -0.201035 0.475838 0.183025 -0.0210759 0.112299 -0.0523281
2349 1 8.96195 6.90343 37.4134 -0.169414 0.191292 0.441155 0.0630841 0.338718 -0.565578
2350 3 10.2804 6.23141 36.2227 -0.556629 0.580042 0.497934 -0.0914169 -0.207517 -0.0690442
2351 1 10.4794 6.10845 45.4684 0.929272 2.09877 -0.420523 -0.0400407 -0.101718 -0.181203
2352 3 8.8316 6.73731 44.2973 1.45304 -2.63071 1.41724 -0.0555431 0.0887786 -0.200334
2353 2 10.8329 7.59994 47.4707 0.114005 -0.499896 -0.0211225 -0.146635 -0.147956 -0.15575
2354 1 11.5672 5.54653 48.7075 -0.0127759 0.609006 4.48109 -0.104173 -0.0134205 -0.00541023
2355 1 7.04539 9.39543 37.3284 0.104809 -0.798729 0.263894 -0.0818972 -0.261206 -0.122921
2356 3 8.93184 8.56824 36.2175 1.49148 -0.439393 -0.469895 -0.172927 -0.206268 -0.0740342
2357 1 8.99746 8.79569 45.7547 -0.0722026 0.869513 -1.52284 0.177349 -0.155022 0.0216653
2358 1 6.0998 10.9641 43.564 -1.11521 -2.16568 0.818672 -0.249847 -0.158221 0.233223
2359 3 7.5982 10.279 44.7258 -0.384178 -0.308344 0.0520136 0.0899661 -0.0565123 -0.134381
2360 2 9.20076 10.809 47.4202 -1.00101 -0.00331821 -0.742412 0.117813 -0.103899 -0.163451
2361 2 4.87783 10.5439 38.9589 -0.52289 -0.35104 -0.309222 -0.25426 -0.0709433 -0.0865657
2362 1 5.99116 12.1128 37.2908 0.576126 0.781892 1.19438 0.818031 0.54494 0.0569924
2363 3 7.60383 10.9779 36.5054 -0.173689 0.755842 0.597636 -0.17248 -0.165354 -0.0485268
2364 1 5.81938 12.0735 40.6722 0.769238 0.465617 -0.681205 -0.131928 -0.443961 0.141008
2365 1 7.37493 11.6695 46.0496 -2.31962 0.406017 0.444215 0.575819 -0.331171 -0.256387
2366 3 5.68836 12.4005 45.0929 0.67661 0.952787 -0.614661 -0.036428 -0.255598 0.0635669
2367 3 7.57297 12.4036 42.4973 -1.30186 2.7315 -0.439838 -0.270124 -0.5788 0.0302071
2368 2 7.72362 13.5365 47.7543 -0.0366119 0.898421 0.313176 0.165649 -0.285706 -0.0406629
2369 2 3.53915 12.9427 39.6653 -0.201304 0.600482 -0.901204 -0.0399775 -0.0280024 0.256628
2370 1 4.11071 14.3553 37.1818 3.88541 -1.28542 -1.04493 -0.809845 -0.392058 0.288401
2371 1 5.94673 14.0622 46.2262 -2.63371 2.04247 0.275546 -0.103328 -0.988174 -0.490852
2372 2 5.87436 16.1532 47.5655 -0.447897 -6.56895 -4.75567 0.480292 -0.0817732 -2.16225
2373 1 6.16775 14.6616 49.3746 1.53618 1.42354 2.65153 -0.260742 0.786934 0.718331
2374 2 3.1585 15.423 39.1026 1.30675 0.965056 0.853553 -0.187763 -0.503148 -0.715762
2375 1 2.19767 17.2179 37.4897 -0.697704 -1.54093 0.314221 -0.503125 -0.0403998 0.319313
2376 1 2.47294 16.3226 41.1677 -1.41257 -0.86429 -1.89131 0.476336 0.720653 -0.0423714
2377 1 4.3404 16.4592 45.4922 0.0262637 -0.377421 1.06024 -0.121672 -0.231648 -0.157683
2378 1 1.27358 17.7985 43.6087 -0.262343 1.21389 -0.7604 -0.0344326 -0.159506 -0.126246
2379 3 2.66031 17.4658 44.9501 0.304516 -0.611895 -0.430353 -0.402631 -0.609855 -0.254993
2380 1 3.63633 16.3495 48.7467 0.898754 -0.253821 0.720618 0.335881 0.0423931 0.292098
2381 2 0.235027 18.4356 38.965 -0.0556108 -0.119042 0.12658 0.0474993 -0.0393927 -0.258746
2382 1 0.0197862 19.9276 36.9963 -5.36875 -2.05555 2.608 0.290188 -0.309461 0.308224
2383 1 2.56262 19.2231 45.5535 0.869344 0.131801 -0.653107 -5.43496 -7.13654 3.36287
2384 3 0.951447 19.8614 44.624 -0.556459 -3.33106 1.518 0.796798 -0.0702413 -0.24626
2385 3 2.57313 18.0569 41.9747 -1.46092 0.389494 -1.31233 0.083248 -1.02491 -0.320274
2386 1 -1.07762 24.2553 37.152 0.270925 0.992944 3.67935 -0.0646505 0.0140533 1.12429
2387 3 0.701748 23.2264 36.2203 -1.83849 -0.595 1.37635 0.0388458 -0.739313 -1.29768
2388 1 1.00163 21.4765 46.1046 0.512079 -0.48211 0.946417 0.623032 -0.294494 0.248567
2389 2 1.29898 25.4426 46.2855 -0.623339 0.2507 -0.608717 0.05723 0.140102 -0.331372
2390 1 0.575718 23.2557 48.2026 0.394213 -0.387773 -0.0552017 0.484626 -0.0840062 -0.693601
2391 2 -2.3697 24.9675 39.0854 -0.312032 0.387123 1.0973 -0.00683619 -0.121649 -0.0689772
2392 1 -2.22274 26.4206 41.7273 1.11494 0.916009 -0.0223908 -0.345326 0.0325264 -0.0665325
2393 1 -0.361392 25.6649 48.0841 0.033818 -0.287486 -0.0727767 -0.0260906 0.19914 0.00600415
2394 2 -3.63578 27.0725 39.5541 -1.51785 0.0853715 -0.0720727 -0.00600107 -0.0254652 -0.0215746
2395 1 -3.7667 28.5408 41.5255 -1.51531 0.101427 0.726813 -0.426981 0.0574061 0.206423
2396 3 -2.28618 28.1328 43.1179 2.93988 -0.679616 4.14984 -0.504034 0.227044 -0.739615
2397 2 -4.75009 29.7323 39.2359 -2.56708 -0.916172 -0.59297 -0.0675497 -0.0703505 0.00782718
2398 1 -4.50762 31.4566 37.0916 -1.15767 -0.414376 -0.74163 0.0290824 0.00942348 0.0568881
2399 3 -3.32266 30.5652 35.7259 -2.18158 -0.229225 0.281306 0.118409 0.348341 -0.13901
2400 1 -4.89269 31.2978 41.2336 -0.237955 -0.185477 0.28485 -0.178002 -0.197463 -0.0670562
2401 2 15.0317 0.0561692 46.8593 0.137152 -0.471741 0.371277 -0.131659 0.284127 -0.117872
2402 1 -2.83824 30.706 48.5019 -0.107441 -0.470969 0.542971 0.0344829 -0.184526 -0.113203
2403 2 15.5253 0.106289 39.1487 -4.07093 -2.5827 2.25529 -0.00676076 -0.140758 -0.0941034
2404 1 15.9364 1.67822 36.8099 -3.79167e-05 0.185356 0.246148 0.116312 -0.283299 -0.141617
2405 1 17.0127 0.990705 45.5292 -0.577827 -0.313593 -2.08311 -0.0627562 -0.104036 -0.231317
2406 3 15.8417 1.62151 43.7955 0.0318671 -0.827195 -0.973294 0.0727609 -0.136895 -0.0582376
2407 2 17.7066 2.97375 46.6339 0.619859 -0.0249804 -0.792624 -0.0487198 -0.0730988 -0.24521
2408 1 16.9201 1.32909 48.4258 -0.292149 0.410518 0.751759 -0.291135 0.0459407 0.0195639
2409 2 14.603 2.94313 38.6823 2.74238 -3.32994 0.573061 0.700185 0.491593 -0.651905
2410 1 14.1959 5.01003 36.8144 0.675482 -0.216567 0.740199 -0.197191 0.358291 -0.0227432
2411 1 13.974 4.42708 40.7674 0.516832 0.21044 0.00138725 0.0471302 0.0760591 -0.248391
2412 1 15.7229 3.33323 44.7167 0.469079 0.815425 -1.49241 0.206207 0.118599 -0.186993
2413 1 12.639 4.83434 43.3963 1.04496 0.285525 0.60359 0.223292 -0.0300061 -0.156779
2414 3 13.853 3.82831 44.5191 0.609629 1.97828 -1.21389 -0.0275216 -1.39807 -0.0603577
2415 2 12.3942 5.44392 38.9237 -1.99572 5.42385 -0.146929 -0.0270097 0.0707688 -0.172126
2416 1 12.9969 6.85296 41.1342 0.571181 0.568512 0.255295 0.114575 -0.404099 -0.569945
2417 3 12.359 6.49456 44.8048 0.549001 1.44303 -0.336343 -0.0394052 -0.209785 -0.314065
2418 3 14.4892 5.87028 42.534 2.57127 1.64548 -1.30928 0.0571937 -0.116431 -0.215642
2419 1 12.2779 8.37364 45.5253 -0.23252 -0.585997 -0.909562 -0.24659 0.0496593 0.242147
2420 3 12.5808 8.61367 42.189 -0.0730413 -0.070436 -0.88556 0.0942989 -0.191 -0.216888
2421 2 12.1878 9.86887 47.5494 0.094793 -0.275087 0.345399 -0.258367 0.285159 0.0392594
2422 1 13.6956 7.90156 47.7832 -0.13762 -0.458921 0.160909 0.00368784 -0.0887499 -0.353523
2423 2 10.3473 10.2725 39.8836 3.46361 0.169142 -1.92542 0.372057 -0.0396984 -0.449875
2424 1 9.68321 11.5781 37.8541 -0.596253 -1.58735 0.841911 -0.369169 0.231564 -0.435581
2425 3 11.3665 10.3238 36.5888 -0.310753 -1.98106 -0.554485 -0.0521131 -0.288402 0.0438394
2426 1 9.4392 12.0707 41.33 0.657973 0.399995 0.42052 0.316415 0.0534227 -0.0890273
2427 1 10.9154 10.7259 45.501 -2.09078 -2.44053 1.93084 0.0240629 0.0602281 0.177402
2428 2 11.3591 12.3217 47.2478 -0.738172 -1.5965 0.38156 -0.056608 -1.54024 -0.556181
2429 2 7.98005 12.5923 39.3229 -0.839109 -0.299993 -0.881389 -0.317327 0.159383 -0.228876
2430 1 7.84536 14.1611 37.1874 4.04386 4.80879 0.30474 0.672654 -0.20012 -0.571954
2431 1 7.21524 14.1657 41.3318 -0.986745 -0.0298268 -0.182704 0.0676453 0.167697 -0.00521355
2432 1 9.45121 13.3723 45.9681 -0.329182 1.36733 0.452166 0.271912 -0.0151921 -0.157546
2433 2 8.89282 15.4429 44.4996 5.36069 5.84877 -1.27105 -3.50987 0.500896 2.0341
2434 2 5.78627 14.2363 39.123 -1.49579 0.956102 0.00834483 -0.32819 -0.421102 -0.00381451
2435 1 15.683 26.8684 22.2065 15.2165 10.4806 -13.2589 -5.62304 -1.45988 5.40443
2436 1 4.5932 14.7451 41.3767 0.221879 -1.17761 0.109308 0.0399412 0.141013 -0.0389641
2437 1 8.42795 15.7536 47.0951 -1.55661 1.75188 0.479666 1.21654 1.9055 -2.17587
2438 1 4.17507 18.1075 43.4213 2.12169 -2.13219 -1.62993 -0.228429 2.0263 -0.810891
2439 3 3.96702 30.4826 37.5158 1.81895 0.920968 -3.1827 -0.202375 1.12623 -2.65892
2440 2 14.1923 24.8538 23.1081 11.2665 33.1121 8.10557 3.43567 0.0343115 -4.74145
2441 2 3.31356 25.3049 33.9782 -12.3226 -13.763 -9.1654 1.06703 0.562064 -2.74701
2442 1 12.0931 16.5567 32.5015 0.264556 -0.104053 -3.57476 -0.209656 0.084385 -1.82775
2443 3 11.1244 15.4813 35.4854 -0.092717 -4.08163 -4.95776 -2.95529 0.775062 -0.660458
2444 1 1.34119 19.4992 41.0354 -0.415888 1.62646 -0.718788 0.816324 0.487343 -1.02789
2445 1 13.3276 18.6231 35.4862 -13.0637 -5.24704 -6.80966 -4.69325 -0.629955 -0.085371
2446 3 10.3498 15.7179 43.2083 -2.53971 0.719328 -2.24148 0.0446052 0.564353 0.353109
2447 3 4.4907 16.9483 41.534 -2.19033 3.74542 -6.31629 0.73237 0.854612 0.112235
2448 2 15.7002 25.5145 25.647 -23.1476 -10.0138 8.18704 1.29919 -1.48923 -1.40464
2449 1 7.72104 22.5492 21.7943 5.08831 -8.55547 -12.2321 -4.34768 5.51402 1.85985
2450 1 2.28863 19.8319 38.2387 -0.03184 -4.6003 -1.34314 0.31787 -0.202216 -0.822556
2451 3 3.19941 17.1569 35.6045 -1.86539 -0.644994 0.839898 0.0413807 0.000660145 -0.0878089
2452 1 1.4628 21.6666 43.6128 -3.20546 -2.02574 0.0255198 0.278211 1.5172 0.454435
2453 2 6.35334 17.3702 33.2427 11.719 2.09357 6.42662 1.35921 0.447601 -0.291988
2454 2 0.444518 24.8128 39.3434 1.24108 0.515514 1.04276 -0.496188 -0.6724 0.883579
2455 1 0.560114 27.1615 37.624 1.19625 -1.72278 1.24629 0.147204 -1.74136 -0.491398
2456 3 4.70597 30.808 40.7306 -0.56461 -2.09536 -0.743744 1.98966 0.483239 -2.03103
2457 1 0.109108 25.6943 42.1857 0.286957 0.246424 0.119789 -0.0270891 0.764369 0.414671
2458 1 -0.716196 27.5623 44.3317 -1.81979 0.51557 0.411578 0.014271 0.429264 0.262707
2459 2 15.7308 21.629 26.5938 -3.90721 11.2301 6.56416 0.776699 -0.851575 -6.58569
2460 1 16.8775 21.9562 19.226 -8.20333 0.319488 9.64198 -0.886097 1.8291 3.06232
2461 2 -0.547325 27.1538 40.0498 -0.695719 -0.114891 3.69274 -0.211779 -0.394903 -2.027
2462 3 0.558324 28.9921 36.3189 6.91881 0.9207 1.26095 -0.150958 -0.187563 0.122034
2463 1 -0.940642 28.8758 41.915 -2.70831 1.15014 -0.0415912 -0.392704 -0.191861 0.129579
2464 1 1.6368 28.0713 46.6605 1.44025 -0.418888 0.034555 -0.520017 0.179714 0.427759
2465 3 0.367803 28.9888 45.3789 -0.898143 3.89493 0.0900482 -0.405337 0.410744 -0.0774046
2466 3 0.479783 27.7749 42.9067 0.23606 -0.946969 1.58298 0.347954 -0.509342 -0.341278
2467 2 1.99797 30.2561 47.8275 3.48962 0.0548664 -2.06304 -1.59929 0.590707 1.34653
2468 1 0.247398 28.1021 48.8161 0.000956513 0.497384 -0.482928 -0.0517793 1.12753 -1.48126
2469 2 -2.06348 29.4956 39.8004 -0.66108 -0.327958 -0.883365 0.0491987 -0.0889511 -0.116488
2470 1 -1.59197 31.6794 40.9839 0.471478 -1.04554 1.26603 -0.221405 0.127045 -0.67492
2471 1 0.475412 31.0732 46.0167 0.244388 -0.270528 -0.54442 0.0971716 0.216584 0.156199
2472 3 -0.101903 30.7378 42.2398 1.76928 0.325992 -0.637431 0.284047 0.100062 -0.195919
2473 2 19.1626 0.893449 47.5074 -0.354231 -0.240442 -0.440544 0.371752 -0.25848 -0.363097
2474 1 0.0406198 31.1919 48.9362 -0.432844 0.280835 0.798815 0.151962 -0.0677176 -0.322058
2475 2 -0.325463 31.5575 38.806 -1.6101 -0.82838 -0.457654 0.156033 -0.0859966 -0.0621268
2476 1 19.6273 1.25005 39.8128 -2.59477 -3.2243 -1.3313 0.717266 0.413402 -0.141483
2477 3 19.8058 1.33655 43.2969 -4.91399 2.46562 -1.04301 0.0663696 0.0206488 -0.123131
2478 2 17.7732 2.20113 38.5466 1.35349 3.00988 -1.19734 0.353784 -0.0521919 -0.395702
2479 1 17.2509 4.57833 37.4132 -0.124151 0.0580992 1.14 0.0639208 0.0248935 -0.200013
2480 3 18.9461 4.70782 36.3741 -1.64058 -0.128057 0.0355275 -0.0511968 0.203894 -0.0802512
2481 1 18.252 4.69115 44.7287 0.167314 -0.0319754 0.520223 0.198604 0.0404148 0.035962
2482 2 18.3506 5.37144 47.4273 0.274191 0.416113 -0.197655 0.00261671 0.0835998 -0.260637
2483 1 19.5746 3.36711 48.472 -0.284744 -0.181482 1.59131 0.184084 0.311137 -0.339697
2484 2 15.3072 5.63814 38.9558 -1.82704 0.0881187 0.70881 -0.0544868 0.212345 -0.0392777
2485 1 16.277 7.4982 37.7562 1.13428 -2.42166 -1.47609 0.180466 0.150949 -0.0684757
2486 3 17.6066 6.61856 36.5697 0.523753 -1.60727 0.0328309 0.353058 -0.490553 -0.0412303
2487 1 15.6584 7.12891 41.0347 -0.60553 0.24599 -0.720721 0.109716 -0.122652 0.038353
2488 1 13.8671 7.74475 43.5162 0.425091 0.337586 0.817671 -0.0623812 -0.120907 0.216353
2489 2 14.5171 8.64666 39.4301 0.594978 -0.0213067 -0.361178 0.269773 0.011223 -0.0470196
2490 3 15.6133 8.7425 36.2885 -0.507252 -0.235815 0.54484 0.0400928 0.0276964 0.109524
2491 1 13.9997 9.85805 41.6153 1.24297 0.315839 -0.500973 0.206259 -0.216743 -0.11007
2492 3 15.0707 9.55436 43.4013 -0.59798 0.0380397 -0.961256 0.0472225 -0.0825012 0.108793
2493 2 15.6725 11.1874 46.0572 -1.70364 -3.51288 0.299877 0.740305 1.22641 -0.36341
2494 1 16.6475 9.15658 46.8852 0.67188 0.207125 0.364686 0.0350031 -0.224845 -0.277882
2495 2 12.8818 10.6745 39.3822 1.45502 0.0403746 -2.03427 0.424917 -0.653754 0.103214
2496 1 12.7574 12.1797 37.521 -0.709396 -0.333297 0.0337323 0.0246675 1.15658 -1.15276
2497 3 13.5418 11.6934 35.6677 -5.58245 1.24785 -1.94582 -0.356753 -0.434179 0.254717
2498 1 12.7766 12.4712 40.9152 0.059025 0.154989 0.279947 -0.515233 0.357718 -0.632871
2499 3 13.5072 11.6733 42.606 0.626217 -0.190127 0.237082 0.00375143 -0.0323747 0.0416675
2500 2 13.8232 12.6104 48.0652 0.001359 -0.363589 1.26423 0.0871436 -0.853325 -0.494832
2501 1 14.6101 10.3234 47.9936 0.0579989 0.552139 -0.0316022 -0.266373 0.00118042 0.16858
2502 2 10.8777 13.055 39.4647 1.22807 0.36007 2.87231 0.0715458 -0.0201342 -0.326269
2503 1 11.1708 14.3966 37.1597 -1.03066 -8.48599 -0.534839 1.31533 -2.96873 -0.476338
2504 3 12.428 13.7364 35.5896 -4.76934 -2.25455 -4.36173 0.365412 0.287554 0.956487
2505 1 10.2417 14.8162 41.1872 -5.43255 1.85327 -2.39152 0.0398338 -0.345075 0.177308
2506 1 12.6836 13.8196 46.0738 1.34554 -0.958169 0.204261 -0.0680126 0.164721 0.0515659
2507 2 12.7982 15.4912 48.1452 -0.0493846 -0.434298 -0.238031 -0.259364 0.164236 0.184057
2508 1 11.926 13.5131 49.3126 -0.158345 0.255025 1.02214 0.125269 -0.338362 -0.127714
2509 2 8.50584 15.3588 39.4747 2.22367 2.75011 -4.77042 -0.162527 0.646394 0.642071
2510 1 2.48512 23.4328 29.9784 -10.541 -10.4276 15.697 3.96965 -2.33119 -0.364884
2511 2 11.4738 16.7627 36.9374 -27.206 -10.6613 1.21758 -3.14721 4.64068 -0.205218
2512 1 10.6005 15.4693 49.5742 -0.930765 -0.239392 1.21943 -0.0850746 -1.08084 0.959416
2513 1 4.91736 17.0987 39.2296 1.16996 0.824596 -1.16097 -0.0992246 0.595864 0.158828
2514 1 17.3709 25.7995 42.2772 15.5823 -20.3107 -8.52688 0.284512 -5.95172 2.12796
2515 3 10.1479 15.7971 45.9104 2.39176 4.94517 3.53905 0.732264 0.98507 1.19741
2516 1 1.88965 21.4136 35.7842 0.808803 -6.72238 3.47618 -1.00408 1.02749 -2.50939
2517 3 16.9958 20.472 38.9678 -6.96314 3.46122 -35.5403 1.31602 -1.56015 2.65843
2518 1 0.846122 22.7238 40.8448 0.319348 -0.0943909 0.191378 1.91269 0.404714 0.325748
2519 1 6.36242 20.1892 21.5212 -2.12422 -4.72412 0.937908 -0.863861 -3.59418 3.15525
2520 3 1.85666 21.3205 41.7578 1.55925 -0.135058 3.1792 -6.93922 -0.0811155 -0.456654
2521 3 9.05422 21.5273 24.6262 -13.3562 43.4579 8.46318 2.5881 4.95981 -1.79429
2522 2 11.5739 25.2417 18.3717 3.64163 -22.2974 -6.43173 2.61645 1.63455 1.6341
2523 1 15.0102 17.5777 41.6481 1.41719 0.34082 -0.939855 -0.203923 0.526653 -0.110241
2524 1 7.31384 15.4655 27.7301 1.16039 0.370245 -0.932681 1.11516 0.139857 -0.0644075
2525 1 14.7616 29.367 28.2124 -17.025 15.9004 -9.49345 7.66533 -3.39367 -0.409646
2526 3 8.37486 15.8665 41.3808 -1.31162 3.41346 -2.62999 0.510338 1.41673 -0.49194
2527 2 1.98821 27.9314 39.5018 2.61572 0.315943 0.668613 -2.92612 -1.57289 -0.0869674
2528 1 1.80104 30.1152 37.7834 2.71197 0.292865 0.751093 -0.0621261 1.22529 -0.234998
2529 3 4.5187 30.8308 31.5779 1.34932 6.18694 3.60468 1.39335 -1.33917 -0.724474
2530 1 2.45848 27.5949 42.3004 5.92735 -0.39328 -3.2214 0.243001 0.694052 1.28947
2531 1 1.14161 29.6222 43.4919 2.78482 -1.74954 -0.717255 -1.34079 0.70944 -0.192701
2532 2 8.34433 19.8297 25.1073 -39.3167 0.231195 -13.0462 2.22456 -6.61359 8.89459
2533 1 4.61237 31.6683 47.718 -0.916806 -0.626076 -0.226007 0.263681 0.236192 -0.360815
2534 3 2.3693 31.3595 36.3421 -3.48813 3.30995 -0.999835 0.909605 -0.24178 0.816367
2535 1 1.22089 31.1565 40.7164 0.626754 1.2519 -0.985538 -0.0839605 -0.238936 -0.0260813
2536 1 3.36406 30.2242 45.8957 -0.110502 -1.54968 -4.02293 0.21127 0.169226 -0.69216
2537 1 -0.122 32.1133 43.6595 -0.555164 -1.23407 0.263823 0.510157 0.76657 0.0141666
2538 3 1.63422 31.1924 44.6481 -2.87893 0.362032 -0.597879 0.685776 0.0293773 -0.118463
2539 3 2.77096 29.8248 41.9255 4.82084 -4.8348 9.39243 -0.738341 1.5827 -0.940914
2540 3 22.6472 0.77196 35.991 -2.08433 -0.828414 2.20763 0.270874 0.081641 0.135927
2541 1 21.0187 1.68425 41.9583 3.26409 1.61434 -0.614106 -0.496234 -0.445725 -0.358398
2542 1 23.1266 1.66443 46.4589 1.96026 1.46227 1.33864 -0.820928 -0.039756 -0.419373
2543 1 20.0944 2.99721 44.1494 0.445757 -0.28567 0.274276 0.0958624 -0.056024 -0.0752758
2544 3 21.4371 2.15727 45.3512 1.0476 -0.390173 0.677802 0.0810025 0.00207131 0.212483
2545 3 22.7043 0.971298 42.855 -1.20984 0.87871 0.673449 -1.08928 1.03339 0.465124
2546 2 21.0547 2.69082 38.6172 2.61944 -0.425993 0.0573766 0.358671 0.183024 -0.056911
2547 1 20.6956 4.86097 37.4436 -0.668304 -0.469337 -1.86885 -0.0644167 -0.397021 -0.412466
2548 3 22.0877 4.24259 35.5427 0.141225 -0.780605 -0.793452 -0.300626 0.00515923 0.215301
2549 1 20.5582 4.45007 40.4509 2.06297 0.32791 0.369311 -0.167538 -0.0266365 -0.0832678
2550 1 21.9273 3.98492 46.03 -0.251461 -0.120938 0.0342285 0.0366967 -0.0752716 0.20447
2551 3 20.5851 4.76657 44.6244 0.219967 -0.750407 -0.378683 -0.257601 -0.746415 -0.172556
2552 3 21.4963 3.73776 42.5433 -1.54004 -2.23626 2.35152 -0.187549 0.0721464 -0.0283491
2553 2 21.2645 5.46622 47.7926 -0.800453 1.10571 -1.14515 0.00563532 0.08352 -0.314768
2554 2 18.5591 5.56436 39.441 -2.27327 -2.84154 0.278558 -0.0846449 0.0303856 -0.0725618
2555 1 18.9706 7.37507 37.849 2.77248 -0.259289 2.89311 0.403131 0.0170632 0.326427
2556 1 18.7716 7.18711 41.3558 0.140406 -0.101075 0.541763 0.192999 -0.0105629 0.0182105
2557 1 19.9893 6.23483 45.7932 0.340739 0.400987 -0.596267 0.115017 0.0932578 -0.192759
2558 2 20.178 8.09934 47.2814 0.633184 -2.2318 1.38089 0.0550549 -0.124334 -0.0906433
2559 1 19.624 6.62835 49.1721 0.10363 0.24985 0.26112 -0.045754 -0.140321 -0.233838
2560 2 17.3543 8.52853 39.7983 0.404802 -0.990933 -0.151834 0.0728697 -0.086324 0.133979
2561 1 17.9438 9.7579 36.6795 0.39855 -2.48971 -3.75592 0.114323 0.305715 -0.491065
2562 1 16.6599 9.44562 42.2272 -0.803358 1.15302 0.784876 0.204728 -0.257497 -0.219013
2563 1 18.9378 9.32515 45.6484 1.99825 -1.59857 0.343695 -0.0440694 0.340915 -0.184029
2564 2 18.2174 11.1902 47.0771 0.5091 0.559275 0.300767 -0.00109607 -0.0750995 -0.318701
2565 1 19.2574 9.74683 48.7892 -0.637157 0.227831 0.219195 0.0771399 0.0419405 -0.12382
2566 3 16.8254 11.2446 36.4876 1.71556 -2.60993 -0.941646 -0.369146 0.132144 -0.377953
2567 1 15.409 12.1559 41.6404 -0.298654 0.894929 0.753709 -0.804744 0.410887 0.0354014
2568 1 13.5925 13.515 43.5555 1.38634 0.465469 -0.123339 0.591159 -0.321817 -0.311753
2569 3 17.1459 11.3566 42.5233 -0.402674 -0.191843 -0.525256 -0.0534662 -0.358663 -0.0955121
2570 3 16.0074 13.9073 36.7541 -0.782914 0.193351 1.55983 -1.42462 -1.00533 0.046263
2571 1 15.1881 14.5928 40.8824 2.74958 -1.0587 -2.14659 0.428518 0.0911967 -0.893374
2572 1 15.5963 13.6042 45.2735 1.35984 0.529471 -0.345963 -0.0984207 -0.184873 -0.420935
2573 1 12.5442 15.8157 43.5475 -4.03298 2.56407 2.42429 0.5111 -1.37707 0.947823
2574 3 14.0822 15.0731 44.9198 -4.18214 -2.65696 0.839998 0.0396807 0.0788284 0.3584
2575 3 15.4039 13.8824 42.9861 -5.03279 -0.965432 2.81949 0.314419 0.0446425 -0.279247
2576 2 13.2322 14.1912 39.1277 1.96504 0.972419 -0.803828 0.0824382 0.0121688 0.883924
2577 1 9.3561 16.7865 35.1748 -2.4477 -12.3377 17.358 4.30625 -1.56096 3.46711
2578 3 15.2694 16.1403 37.0138 -4.79721 5.18772 -0.526546 -0.543362 0.430058 -0.319815
2579 1 5.18247 22.9539 31.3319 -3.76755 9.22794 8.60995 -3.32531 -1.00721 -1.77452
2580 1 14.3669 16.5952 46.3728 1.88981 -1.56666 -1.95612 0.338171 0.56044 -0.483797
2581 3 15.7733 17.5495 45.3079 -0.194591 3.75656 -3.85598 1.33921 0.130364 2.43687
2582 3 14.2689 16.0384 42.2728 -1.35843 1.79294 0.275477 0.104125 0.0882946 0.0627671
2583 2 16.7772 17.4269 47.0773 -0.247905 6.47031 -1.20965 0.11566 3.20775 -1.803
2584 1 15.3582 15.9789 48.7385 -0.424292 0.116145 -0.28526 0.23506 -0.0257853 -0.127402
2585 3 5.28169 15.6652 24.8682 5.76512 5.90164 -1.12982 1.06948 -0.368819 -2.21291
2586 1 17.0178 19.1093 45.1433 -7.53616 2.44259 1.34667 1.134 -3.25584 0.692315
2587 1 6.58518 20.5452 31.2947 6.23168 5.87787 11.0537 -2.72086 -0.574403 0.309133
2588 3 16.3755 28.0342 34.8733 -0.506956 -7.01277 -2.33848 2.8398 4.06371 -0.978654
2589 3 7.70518 16.0924 29.8321 1.84464 -5.33519 6.18655 0.184485 -0.52679 -1.23977
2590 1 7.92148 30.5281 20.8665 5.81414 0.382926 -2.18529 2.88007 4.9133 0.0293867
2591 3 5.76542 25.7007 21.8251 -18.6779 -10.2897 0.429046 -0.345644 -3.27372 1.42946
2592 1 1.68623 19.456 80.5567 7.55872 0.344985 -14.0967 0 0 0
2593 1 4.15166 17.703 50.8938 -2.33142 2.85848 2.54641 -1.08614 -0.56188 1.59944
2594 3 1.90377 25.2414 35.2661 -4.44842 3.10921 -4.46823 2.86716 0.590433 3.3808
2595 3 6.52125 16.8741 26.199 -0.159208 -5.05921 -1.33234 0.333602 1.05052 -1.65322
2596 2 14.6595 27.1692 29.6308 28.4557 1.15304 -13.3856 2.75158 3.02487 -0.384516
2597 1 8.65105 24.9597 23.9209 5.39303 12.2715 -9.43419 1.32879 6.71188 -1.13062
2598 2 6.81631 21.842 29.3735 19.2196 23.6942 -12.0493 -4.19505 -4.42596 -1.61302
2599 1 1.10906 22.6056 38.0915 0.696714 -1.4958 1.47043 0.317363 0.146257 0.702959
2600 3 12.9859 20.3397 22.4115 13.1121 -11.5458 -0.330053 -2.36557 2.37191 -0.550416
2601 1 3.9937 18.841 36.0435 -1.62808 -2.32869 0.343496 -0.0165116 0.807203 -0.500573
2602 3 3.69252 18.4768 37.9458 -2.74375 -2.85262 -0.295001 1.0402 1.04906 0.135719
2603 3 16.3384 28.0005 38.5019 -9.7929 10.3853 -1.36619 3.96991 -0.489569 0.192964
2604 2 9.64497 23.4293 18.2746 4.42528 0.239949 -6.89327 -0.338064 -0.366813 0.173917
2605 1 4.59819 21.1904 28.6596 -11.23 17.7247 -4.41901 -2.20372 -1.81507 0.754845
2606 3 2.07059 26.0178 38.7365 2.74857 -1.14043 1.82044 -0.533528 0.472448 0.082583
2607 1 22.3811 0.50717 38.0813 0.580033 0.42416 -0.378369 -1.32588 0.717826 -0.758517
2608 3 4.93365 30.6384 38.5942 -16.1415 4.47944 -4.03165 -10.6161 1.02822 -0.295467
2609 1 11.7599 20.2393 28.8417 13.5856 -12.4746 9.58308 6.91604 2.95465 -4.82909
2610 1 21.4531 0.432942 44.4035 -0.598439 0.0515426 0.0279116 0.0482646 -0.0364884 -0.248156
2611 3 4.41078 32.1008 45.5982 -0.56985 2.6987 -1.2241 0.260501 0.956539 1.31988
2612 2 25.4476 0.640909 48.432 -0.603729 -0.82041 -0.824104 0.494336 -0.360081 0.0848543
2613 1 6.70736 31.259 24.2751 1.73476 -2.52701 0.628144 1.34108 0.533283 2.12473
2614 2 5.58444 32.2586 39.5858 9.91085 -3.227 -1.58338 0.381167 -0.713559 1.09024
2615 3 27.2001 1.62176 36.3247 -0.855814 -2.53195 6.10232 -0.0284956 -0.483394 -0.224775
2616 1 24.0327 2.09673 41.5114 1.10883 3.81442 1.5111 1.36052 -0.826182 0.72076
2617 1 26.2964 2.2901 46.4815 -0.252889 -0.284749 -0.198979 0.160272 -0.202751 0.184899
2618 1 22.7462 2.65447 43.9032 -0.733736 -0.0903369 1.02952 -0.0556315 0.0637328 -0.136459
2619 3 24.4558 2.20195 45.1451 0.38153 0.641211 -0.759697 0.144545 0.288457 -0.0844298
2620 3 26.1409 1.77216 42.5028 0.411939 -1.0145 0.903138 0.0819841 0.579006 0.00902581
2621 2 27.9176 3.55864 47.8726 -0.0320089 0.2747 0.14656 -0.0237246 0.0668024 0.178941
2622 1 27.1646 1.8244 49.6493 -1.86479 -1.3346 -0.0192427 -0.106247 0.0620592 -0.148765
2623 1 23.5727 4.5542 41.6871 0.496645 2.29578 0.00190264 -0.205894 0.341992 0.286205
2624 1 21.0045 5.85087 43.0182 0.881555 -0.20667 -0.177213 0.395446 -0.110777 -0.156432
2625 1 25.105 3.14634 48.6161 -0.681187 -1.5633 -0.874875 0.289828 0.0726746 0.285835
2626 2 22.7334 5.08153 39.2899 0.238378 0.89229 -0.0432597 -0.087828 0.123829 -0.00529387
2627 1 22.007 6.98173 40.8084 -0.8056 -0.793748 0.605658 -0.12763 0.203152 0.135019
2628 1 23.2783 6.12417 45.7127 -0.133068 0.202245 -0.75049 0.222505 -0.0461631 -0.293673
2629 3 21.6088 6.64529 44.8321 0.211608 -1.00964 -0.229273 0.46873 0.574915 -0.0561649
2630 3 23.2518 6.34251 42.4607 0.342919 -0.112348 -0.365064 0.136434 0.0372339 -0.0834793
2631 2 23.017 7.84123 47.4319 -0.0528364 -0.0248992 -0.493218 0.0142642 -0.136301 -0.129581
2632 1 23.7765 5.5469 48.2287 -0.03059 0.153266 0.244611 -0.000317325 -0.0450561 0.0626114
2633 2 20.1848 8.51775 39.8025 2.69291 2.08282 0.965546 0.128434 0.0959204 -0.0101829
2634 1 21.8445 8.98396 45.6291 1.03019 -0.577397 -1.20984 -0.176992 -0.00147336 -0.370502
2635 1 18.899 10.8406 43.4729 -0.946371 -0.159639 1.28076 -0.0637359 0.114356 -0.0653669
2636 3 20.4257 10.2193 44.6757 0.362373 0.00333911 -0.261828 0.278563 0.0437252 -0.183728
2637 2 18.6885 10.491 38.9646 -1.65869 0.73116 -4.00814 -0.161451 0.0310662 -0.251108
2638 1 18.5578 11.9954 40.9528 0.46124 0.0918438 0.249752 -0.210694 0.188175 0.473518
2639 1 20.1713 11.9981 45.6134 -0.526379 0.102207 -0.0943624 -0.117455 -0.545529 -0.485792
2640 1 17.3482 13.2176 43.1343 -0.869272 -0.590948 0.112604 -0.272006 0.150514 0.172953
2641 3 19.0821 12.7643 44.1542 -0.239395 0.644395 -0.797449 0.0790768 -0.0664825 -0.0035016
2642 3 20.2012 11.4384 42.001 0.731184 -0.717179 2.44626 -0.21787 0.24338 -0.85306
2643 2 20.7462 13.2809 47.6476 1.82308 -1.36868 -3.34789 0.281414 -0.0616446 -0.27084
2644 3 19.174 13.2919 35.7519 -2.0658 0.601914 0.206462 1.08153 -0.133956 -0.174481
2645 1 18.7909 14.3921 45.6349 -0.151621 0.463063 0.846931 -0.230747 -0.0243215 -0.248744
2646 1 15.7919 15.9836 43.7757 -1.3677 0.480578 -0.513827 0.0924969 0.480769 0.052107
2647 3 17.3467 14.7578 44.3081 0.378425 -0.431276 1.00511 0.0633555 -0.355263 -0.300238
2648 3 18.7028 14.0134 41.9145 -0.440942 -1.34573 0.876235 0.017902 -0.314046 -0.156866
2649 1 17.4366 16.4653 37.7014 -1.04957 -3.10912 -1.36087 -1.13615 0.0138334 0.341369
2650 3 17.9629 16.6388 35.8566 -1.91615 12.8716 -4.03419 -1.42883 -1.37303 -0.670325
2651 1 17.2079 16.4484 40.3204 0.39779 2.64748 -1.99439 0.716992 -0.101052 -0.0851659
2652 1 5.71251 17.2537 30.3268 -2.20136 -6.16503 -2.84602 1.83634 0.845638 -0.97019
2653 3 17.1555 17.1718 42.3798 0.364554 3.35811 -3.75441 0.662247 -0.614289 -0.219929
2654 2 17.3592 26.4384 32.2405 13.5478 -6.39496 -0.508849 -7.39525 -7.03894 -10.9979
2655 1 17.5897 19.491 34.4809 1.41819 -2.54144 0.984663 2.51532 -4.27989 -0.477789
2656 3 16.4215 17.8564 34.7617 -4.05174 -7.03846 11.1186 1.40246 -1.51604 -1.94334
2657 1 7.08387 19.7349 27.961 4.16301 5.19377 11.5699 -0.493954 -0.430877 1.44414
2658 1 9.46969 20.7182 19.2381 5.06744 -11.2832 11.3263 -1.76113 -0.688511 -1.65783
2659 3 16.4341 19.5046 46.8957 2.17524 1.89182 0.294485 -2.70801 -1.49225 3.16486
2660 3 16.6159 20.6543 44.3427 -0.54328 13.3438 17.8081 0.715229 -0.148844 3.30606
2661 2 20.2182 20.6801 47.3648 -2.023 -0.551995 0.503672 0.202736 -0.157434 0.2005
2662 1 17.8693 21.2638 47.9976 -3.80073 -1.30297 2.06325 2.39377 1.85423 -0.0859393
2663 1 1.8391 25.2109 43.8271 1.68722 0.699718 -0.642938 0.681172 -1.37309 0.140027
2664 3 17.6146 20.1527 31.602 3.50148 1.67276 0.279526 3.72512 0.0712015 -0.352859
2665 1 18.1721 24.7821 47.9311 -1.17301 -1.10822 -1.36944 0.233203 0.621387 -0.0362936
2666 1 14.4138 25.8394 18.0996 5.6888 -6.70515 -7.16928 2.07031 -0.571177 2.1966
2667 3 16.5655 27.2157 36.0496 -1.59498 -25.6642 -6.71646 2.50247 2.61973 0.0273906
2668 3 15.1678 16.5421 40.1104 2.10005 1.4689 1.18457 -0.421862 -0.561731 -0.521251
2669 2 4.96592 20.9744 23.609 -22.8876 -17.1848 10.397 0.955725 -1.03236 -1.72821
2670 1 15.1685 18.6235 27.3576 5.16365 -3.83259 9.6359 -1.7524 -1.47768 1.21153
2671 1 17.2008 27.137 28.2598 27.2142 9.46245 -5.41099 -9.91892 0.555675 3.40789
2672 3 18.0886 24.2514 41.4489 10.7973 -1.19643 -1.64378 0.122368 -2.4065 -6.33976
2673 1 12.4651 25.1311 21.4318 1.02109 29.7768 3.45978 -1.16656 1.24064 -6.20425
2674 1 16.8937 30.4285 38.923 4.37395 -2.11663 2.26739 -0.603353 -0.347088 -1.65336
2675 2 15.0218 19.0072 33.9265 7.53341 -0.134012 14.516 4.3332 2.90119 6.71793
2676 1 5.6789 29.5668 26.2191 -4.06929 -9.49412 -14.4615 -1.86824 0.408001 -1.09902
2677 2 11.1467 31.9297 23.8484 13.6648 -15.3138 2.22439 3.28873 -3.32967 2.42099
2678 3 15.9855 28.5769 39.7593 4.57277 9.80302 0.596854 -1.81703 4.1462 -4.87315
2679 1 12.0235 25.208 23.8459 19.6998 7.8526 -7.6933 -1.9987 -1.24025 2.61583
2680 1 13.0798 16.2724 40.3302 -12.9974 2.50612 3.7635 2.19586 1.5647 -0.921948
2681 3 3.0632 22.4507 34.4298 -8.00538 14.0239 -8.13597 0.559092 -2.36904 -0.72913
2682 2 30.6265 0.774075 47.7996 -0.738313 -1.35373 -1.79285 -0.193411 0.844763 0.417329
2683 1 3.37191 21.582 42.2115 -3.96356 -2.10674 -0.649294 7.05321 0.329807 0.400183
2684 1 25.6964 1.00901 37.8005 -2.27756 -1.41245 2.63786 0.264958 0.280683 -0.901083
2685 1 26.3949 0.103945 41.5174 -13.563 -2.7247 0.399456 -0.490893 -0.511867 0.0174167
2686 1 12.3421 28.1522 23.5596 -7.95399 9.39801 18.7247 -1.42428 2.63497 -5.41254
2687 1 24.5637 0.67659 43.9931 1.58343 -1.43206 1.14614 0.074588 0.355476 0.835834
2688 3 3.61329 30.9306 41.6907 2.86419 -5.85462 -7.22187 -0.727007 0.393619 0.325785
2689 3 2.36468 28.2025 37.6074 10.3244 10.1057 8.71456 -7.78635 -2.20426 -3.49261
2690 2 28.22 0.829724 47.6672 -0.528397 3.53053 -4.67002 -0.774253 -0.193937 -0.53678
2691 1 1.66268 3.04375 55.6581 6.05151 6.16627 2.33493 -0.0650124 -0.0135807 -0.0140402
2692 2 27.1225 1.25212 39.5461 -0.0956907 -0.416564 0.00198169 -0.251235 0.759921 -0.291506
2693 1 28.4819 2.33218 37.9422 -3.03889 -0.752369 -0.141104 -0.928953 -0.250877 -0.333993
2694 3 30.042 0.73863 36.6672 -5.20025 -3.7747 -2.46165 -0.334329 -1.28749 0.61956
2695 1 28.0744 2.79936 41.1708 -0.542833 -3.03105 2.07112 -0.0817102 0.0839736 -0.128045
2696 3 28.2221 2.27035 44.9854 0.120629 -0.0721448 0.574297 0.243087 0.462877 -0.468926
2697 3 29.6559 1.80337 42.0012 4.9324 7.86871 -5.04919 -1.278 -0.994594 0.767085
2698 1 28.0246 4.1739 50.1677 0.285374 0.957139 0.860794 0.232919 0.0408817 -0.0612927
2699 2 25.1713 4.87471 39.1724 -0.666396 -3.48764 0.193951 -0.429219 -0.9135 -0.132057
2700 1 24.9178 7.22751 37.5365 -0.906397 0.251758 0.957109 -0.0447887 0.227173 0.22898
2701 3 26.2888 6.63024 36.1924 -0.136823 0.22348 0.49162 0.049102 0.000545033 -0.173489
2702 1 24.8031 6.84001 40.7702 -0.379974 -1.34479 -3.7112 0.330434 -0.221971 -1.6136
2703 3 24.655 6.81228 44.2655 -0.0607741 0.259648 -0.0452432 -0.0443839 -0.156764 -0.305564
2704 2 23.2428 8.29449 39.0796 -0.62005 1.24833 0.620029 -0.026877 0.11495 -0.121579
2705 1 23.9437 10.4404 37.4864 -0.0364915 -0.0463229 0.298453 0.192066 0.0891127 -0.0513986
2706 3 24.8972 9.06829 36.3328 -0.113054 0.373718 0.359324 0.0114865 0.00409428 -0.0413906
2707 1 24.6833 8.43752 45.3162 -0.219031 -1.34741 -0.54718 0.250742 -0.707872 -0.442809
2708 2 24.8121 10.4405 46.5811 -0.339931 -0.0882852 0.19895 -0.242535 -0.153004 -0.422848
2709 1 24.9385 8.70623 48.4751 0.0969128 -0.0515429 0.108606 -0.169573 -0.105011 0.0454236
2710 2 21.6939 10.6909 38.5464 -0.0847134 0.294908 -0.259008 0.107124 0.00817486 -0.077468
2711 1 22.6249 12.8184 37.4058 0.382849 0.386382 0.345532 -0.145638 -0.344368 -0.0372933
2712 3 23.1296 11.8783 35.7837 -0.428599 0.0741065 -0.211795 0.210206 -0.0748612 -0.0855109
2713 1 21.9281 12.4228 40.6412 -0.16031 0.0201404 0.4544 0.443304 0.0397835 -0.459868
2714 1 22.7657 11.9741 46.7395 -2.36 -0.973312 -1.42124 0.887798 0.46634 -0.333055
2715 1 20.4657 13.281 42.9879 -0.334435 -0.2062 -0.116177 -0.127874 0.0726569 -0.400311
2716 3 21.8907 12.7593 44.7266 -0.0584078 -0.199961 -0.871758 0.344392 0.0580201 -0.00508995
2717 2 23.7382 14.3617 47.0052 0.10836 0.00751762 -0.182921 0.0723905 0.500671 0.0316351
2718 2 20.0714 12.6761 39.0418 0.0948898 -0.0122478 -0.193521 -0.0200831 -0.202715 0.333501
2719 1 19.9081 14.2605 37.3343 -0.444375 -0.387424 0.257453 -0.269183 -0.038347 -0.0059898
2720 3 21.6443 14.0726 36.3116 0.124117 0.37093 0.437738 0.0263569 -0.227457 0.11785
2721 1 19.8483 14.7567 40.5321 0.364568 1.40783 -1.59018 0.234448 0.490222 -0.740661
2722 1 21.8217 14.6378 45.6048 -0.0956249 0.288418 0.502462 0.0944406 0.127599 -0.041275
2723 1 18.7533 15.7818 42.9996 -0.261106 -1.30046 -0.0492261 -0.0712152 0.188084 -0.00416154
2724 3 20.2275 14.893 44.1404 0.25694 -1.19298 1.5912 0.04061 -0.0572048 0.0152448
2725 3 21.9352 14.1516 41.8807 0.0967707 -0.648496 -0.880767 0.0169946 -0.299373 -0.350713
2726 2 22.424 16.9527 46.9893 -0.0915842 -0.110295 -0.704276 0.0544191 0.0502988 -0.193476
2727 1 19.6147 17.727 36.6414 -0.243096 2.89382 1.1251 0.402351 0.515481 0.657172
2728 3 20.8229 17.1132 35.205 -0.00947573 0.967429 -0.0826171 0.227767 -0.119811 0.208646
2729 2 19.5093 17.9595 48.0967 1.17061 -0.5775 -0.3259 0.221888 -0.0480834 -0.192627
2730 1 20.5778 15.7752 48.0089 -0.223574 -0.493231 -0.115721 -0.110178 0.15593 -0.187725
2731 2 18.2057 18.8099 39.0402 -1.78584 4.72704 -0.583683 -0.161244 1.20645 -0.498987
2732 1 17.9987 20.5471 36.8594 -2.03818 2.15006 0.473883 -1.23656 -2.51027 -0.876418
2733 3 19.4719 19.5741 35.5628 -4.19628 1.56877 -1.16527 0.144218 0.0979803 0.351592
2734 1 17.7298 20.8007 41.0826 0.757592 5.86299 -1.1788 1.25411 -0.720359 0.343988
2735 1 13.5378 22.3256 23.1519 -4.61455 -7.4999 3.27217 4.02185 -1.6474 4.00763
2736 1 19.3413 19.9264 49.6348 -1.14541 0.218136 -1.04559 0.202555 -0.100668 -0.0755507
2737 1 15.4294 18.0249 36.6058 -3.19628 1.90197 -6.4692 1.3701 4.35703 1.30186
2738 3 18.0674 23.5876 38.955 3.82842 -1.70169 3.17806 -1.4939 -1.87024 -0.751636
2739 1 18.4317 21.3994 45.5597 8.3401 -2.37932 -1.01996 2.67316 -1.65256 0.637508
2740 1 7.69807 24.8643 18.218 1.44622 3.83355 -6.60119 5.36199 0.175604 2.28393
2741 3 17.5962 27.6555 41.4023 12.8316 -5.26489 6.90594 3.53198 2.08337 2.98686
2742 3 18.1266 22.9246 42.0214 -1.56395 -2.66184 15.5474 -2.68915 -1.34126 0.214537
2743 1 10.5233 21.4154 26.2398 -4.91004 5.97011 2.35261 0.440309 2.91417 -8.69305
2744 3 4.88542 16.6737 32.0585 0.66889 -3.04245 4.0923 -3.21861 -3.01181 -0.888758
2745 3 18.3549 24.5332 40.0484 1.11786 -6.69414 -7.23482 -2.84763 0.114481 0.973063
2746 2 10.6737 18.3462 28.9123 9.74253 -9.69125 -20.4738 -1.9005 -13.1755 -5.7601
2747 1 5.82743 32.1119 33.2279 0.498369 0.357641 0.281806 -0.188078 -0.322087 0.0831524
2748 3 8.10583 23.4276 23.5777 -30.7982 22.787 -45.7705 -6.68314 -6.73656 -2.41342
2749 1 18.6804 26.8026 36.5129 -0.673113 3.36087 -4.92875 -1.18103 1.26724 0.42089
2750 3 16.5785 27.8103 33.2735 16.78 0.422787 -8.23234 -2.56406 6.85937 6.84648
2751 1 32.0924 0.617391 45.5507 -0.705592 3.18425 -2.86631 0.391256 -1.57869 0.827612
2752 2 16.1467 21.3395 46.1516 -3.63107 11.6397 -1.8437 -0.995725 1.25047 -3.82655
2753 1 14.3728 23.5562 26.4274 47.9717 -6.45957 6.48176 4.40607 -1.53491 7.18094
2754 3 15.8329 30.9155 37.34 1.32043 -1.9707 -0.383166 1.52478 -1.84355 0.545745
2755 1 29.078 0.348756 40.5699 -3.00728 0.351611 2.67444 -0.66785 -0.727192 -0.652527
2756 1 28.153 0.825814 43.2583 -1.92701 3.76858 2.02258 0.140777 1.80028 0.926743
2757 2 32.5445 0.612294 39.2205 -0.124723 -0.517604 -0.111163 -0.258257 -0.412679 -0.091709
2758 1 31.5532 1.80071 37.0207 -1.26542 0.360886 -0.933111 -0.147611 -0.260488 -0.68005
2759 3 32.8647 1.0946 35.4034 -0.922603 -1.10678 0.451585 -0.279335 0.358946 -0.153595
2760 1 31.438 2.62554 41.1 -0.679275 -0.29651 -0.0736318 0.940513 -0.270721 -0.390104
2761 1 29.8517 2.56598 43.8788 -1.18596 6.10681 1.0298 0.302485 -0.0813395 -0.00134501
2762 3 31.2683 2.25086 45.0887 -2.55007 0.246112 0.666403 0.249619 0.782705 -0.4219
2763 3 33.094 1.52015 42.2338 0.779647 0.523091 -1.34141 -0.0111644 0.342436 -0.132859
2764 3 31.2137 3.49261 35.8522 0.822851 -0.5469 -0.375914 0.3821 0.115777 -0.143958
2765 1 31.3889 4.07073 45.7292 0.687681 -0.170515 1.34508 0.0781951 0.19182 -1.01919
2766 1 28.4036 5.29909 43.4839 1.28779 0.274784 -0.106991 0.0646038 -0.224094 -0.152158
2767 3 29.8605 4.30311 44.4291 0.638463 -4.32897 -4.21568 0.0125086 0.382676 -0.367744
2768 3 31.3957 3.21831 42.8681 -1.8372 0.401903 -1.21552 0.463781 -0.146139 0.000535448
2769 2 30.9634 5.94453 47.1259 0.436953 1.46099 1.19905 0.0872136 -0.181948 -0.215429
2770 1 30.6007 3.79005 48.3011 -1.07529 0.940056 -0.571163 0.692594 -0.337949 0.180464
2771 1 27.9779 7.53126 36.9078 0.107995 0.04452 -0.39269 0.192542 0.190157 0.11877
2772 3 29.4175 6.23812 35.9037 -0.210736 -0.247063 0.00319794 0.121242 0.00828432 -0.0246168
2773 1 28.1325 7.04289 41.1346 0.265089 -0.231437 -0.00797627 -0.0409134 0.1462 -0.115559
2774 1 26.6761 7.32287 43.6238 0.0509821 0.781198 0.946288 -0.0123635 -0.510133 0.142541
2775 3 28.3593 6.93409 44.7481 -1.22252 -1.54785 -1.64857 0.0297639 0.0715517 0.011402
2776 3 29.736 6.12997 42.4673 0.0301292 0.657254 0.572199 0.240734 -0.0549633 -0.140208
2777 2 26.5118 8.31484 39.3291 -0.728566 1.73533 0.232724 -0.0863558 0.531822 -0.0523084
2778 1 26.5766 9.97456 37.4168 -0.0102337 -0.427435 0.371117 0.126137 0.139342 -0.241983
2779 3 27.9569 8.85558 34.7371 0.649057 -0.704872 -0.193498 0.13935 0.0766479 -0.105214
2780 1 26.3774 9.61689 41.5019 -0.0524135 -0.214634 -0.0815765 -0.047607 0.269674 -0.0534783
2781 1 27.9487 8.91786 45.5304 -1.41292 -0.747321 1.76902 -0.390272 -0.306944 0.200087
2782 3 27.9122 8.67592 42.6059 1.24178 -3.64381 -3.71266 0.189006 -0.258178 -0.22955
2783 2 27.7481 11.484 47.1074 0.175755 -0.0330829 0.414273 -0.158431 -0.000812793 -0.145799
2784 1 23.2529 13.6463 43.4425 -0.0682501 -0.247091 0.356627 -0.00691401 -0.113945 -0.115867
2785 2 25.6336 12.915 46.6997 -0.907039 0.390465 0.223967 -0.223594 0.0705289 -0.0850371
2786 1 25.5278 11.4251 48.6418 0.803905 0.0774702 2.39129 -0.366353 0.127667 -0.0619588
2787 2 24.2984 13.4992 39.1742 0.31243 -0.313006 0.0202741 0.080187 -0.0524874 -0.0756119
2788 1 22.9035 15.3712 38.1009 0.196446 0.14196 -0.550694 0.194298 0.0604312 0.0673467
2789 1 23.8425 15.0397 41.2935 0.0473056 0.213175 0.62818 0.188017 0.00155007 -0.105783
2790 1 21.5745 15.9241 42.8754 -0.261945 -0.0596695 0.507305 0.166202 0.0667922 -0.454565
2791 3 23.1293 15.6206 44.1675 0.892092 -0.196155 -0.276257 -0.29963 0.00522545 -0.135599
2792 3 25.1262 14.1522 42.7047 0.55526 -0.19431 -1.22513 -0.0692296 -0.00407598 0.055229
2793 1 25.1407 14.2748 48.9262 -0.0663859 -0.0366061 -0.256242 -0.015507 0.0586628 0.110204
2794 3 23.0781 16.8443 36.578 1.66947 0.226655 0.0813782 0.778354 0.128846 -0.272486
2795 1 22.8218 17.7281 44.6784 0.936688 0.0498713 1.05795 0.0331268 0.190286 -0.144432
2796 2 20.6505 18.4063 38.8916 -2.72124 -2.00664 0.969844 -1.15716 -0.797213 0.0669413
2797 1 20.5066 20.5698 37.08 2.63761 0.379687 1.28404 0.991878 -0.187624 0.583021
2798 1 20.1503 20.5842 40.6753 -5.53336 5.23356 2.30102 0.55301 -1.32631 -0.454324
2799 1 22.4368 20.229 46.0974 0.148955 -0.194536 -0.96942 0.0239564 0.166809 -0.248072
2800 1 19.5032 21.9832 43.1322 0.302241 0.425608 -0.308023 0.419562 -0.828717 0.518715
2801 2 22.3751 21.7133 48.1775 0.140803 0.453573 0.162079 -0.11691 0.0862215 -0.28118
2802 1 21.8604 18.9202 48.3808 0.593664 0.0245601 0.84173 -0.11234 0.154814 0.225833
2803 2 18.6365 21.5435 38.9527 -3.38411 -8.00608 -1.59807 1.83146 2.74787 0.232218
2804 1 19.241 23.3774 37.3517 3.5782 1.02416 0.660051 0.237368 -0.522898 -0.155307
2805 1 21.2663 22.8456 46.1082 0.518953 0.843148 0.977755 0.841755 -0.0900769 -0.118477
2806 1 6.28207 21.6083 25.5011 -15.2473 12.4118 -9.62777 2.13922 0.200903 1.41188
2807 3 19.4593 22.8808 44.8517 -6.67218 -5.06222 -9.69634 -0.1318 -0.241827 -0.154401
2808 3 20.914 22.4766 42.2029 2.25807 0.222792 -2.47243 1.52243 -0.600003 0.71606
2809 2 20.5653 24.9141 47.5692 0.177521 1.0774 -0.460138 -0.00745781 0.352654 -0.653021
2810 1 20.1672 22.7237 49.1541 -0.858732 -0.54186 -1.97798 0.38175 0.265585 0.646235
2811 3 19.5908 25.0505 36.2906 8.77031 1.15752 -5.89117 1.10248 0.250168 -1.03865
2812 1 19.3778 24.6272 45.3368 0.459277 -1.51671 2.79673 1.33275 0.0601958 0.664885
2813 1 18.9942 26.8441 39.7004 2.78068 -3.35583 2.25101 1.02273 0.313113 -0.456017
2814 3 16.3049 28.0657 40.9689 4.01205 2.69679 3.28328 -0.700341 1.55041 4.14519
2815 3 17.7233 27.4007 38.2074 17.6875 -10.9158 -2.1192 -2.5801 -1.21541 -0.519936
2816 1 15.2215 28.8789 36.8681 0.410201 3.25878 -8.22017 -1.64146 0.399053 1.33255
2817 1 17.2514 28.3969 45.6997 1.03894 -0.59366 -2.01745 0.604195 -0.161072 -0.792597
2818 1 2.07061 21.7385 32.796 -2.56086 -0.247681 12.615 5.54279 0.0644965 2.19787
2819 3 15.9618 29.588 44.4302 2.3854 3.48479 -5.715 -0.97792 -1.15588 1.03902
2820 3 18.5583 28.4269 42.197 -8.73812 -1.37434 -5.33756 -0.861735 0.744365 -2.67026
2821 2 17.5098 30.6683 47.6473 -0.600712 -4.38695 -3.55569 0.0532021 -0.32095 -0.0929743
2822 3 16.4063 31.6669 36.3204 -0.185884 0.0589612 4.94723 0.826275 -0.389266 0.445255
2823 1 14.1096 31.9024 42.005 1.22682 0.992104 -0.742822 -0.317663 0.375797 0.719094
2824 1 16.1725 30.974 45.6918 -1.52755 0.695197 -1.40509 1.0971 1.22666 0.105209
2825 3 16.0547 31.2828 42.3081 2.15796 1.15572 0.0052724 0.305788 -0.0162613 -0.154493
2826 1 16.8007 30.5083 49.9088 -3.05976 0.701143 0.996276 1.59608 -0.700743 0.351035
2827 3 35.8089 1.31348 36.9257 -0.00737692 1.87549 -1.81777 -0.236025 -0.285272 -1.18603
2828 1 36.1 1.37066 45.6924 1.76203 -1.1249 -5.04819 0.441806 -0.500723 -2.1263
2829 1 32.8167 2.5752 43.9342 0.163319 2.49649 0.0828678 -0.1452 -0.0342689 0.0815143
2830 3 34.5265 2.12026 44.7825 0.375428 0.258892 -1.92685 -0.178529 0.229311 0.300262
2831 3 36.0646 1.47219 42.2089 -0.641423 -2.41211 0.35191 -0.145722 0.194482 0.25293
2832 2 35.4211 2.43464 47.8482 -0.0639684 -0.247989 -0.407051 -1.52247 0.0122095 -0.386295
2833 1 32.5727 4.38097 37.3711 -0.495056 -0.262065 0.426965 0.194161 0.0886458 -0.306471
2834 3 34.1338 3.99142 36.2279 -2.06681 0.148225 -1.75643 -0.162425 0.0698109 -0.234624
2835 1 34.5312 4.10559 45.6643 0.18231 0.285059 1.20709 0.181982 0.183236 -0.390555
2836 1 31.4649 5.14401 43.1 0.0210285 0.25037 1.10894 -0.0633974 0.23408 -0.249789
2837 3 32.9884 4.61404 44.3776 0.0816625 -0.0674184 -0.161883 -0.127163 0.108712 -0.134764
2838 2 -3.47651 6.36751 46.9308 -0.260938 0.108713 -0.0206247 -0.0367321 0.125686 0.212676
2839 1 33.2814 4.22938 47.9582 0.12977 0.279458 -0.766335 -0.142994 -0.336768 0.469561
2840 1 30.8345 6.97325 37.3712 0.269921 -0.274669 0.144062 -0.164278 -0.0443276 -0.0692649
2841 3 32.6289 6.13358 36.3699 -0.212006 -0.0918901 -0.404464 0.0256105 0.0571815 0.0114744
2842 1 29.7751 7.94585 43.5386 0.793552 0.46263 0.857339 -0.538372 0.159345 0.0249305
2843 3 33.0445 5.98193 41.7126 3.33887 0.743891 -3.02726 0.29168 0.173672 -0.368938
2844 1 32.23 6.64506 49.0121 1.19081 0.709549 0.588293 -0.111381 -0.122022 -0.0171114
2845 2 29.5753 8.45015 39.0844 -3.22712 1.18943 -1.53528 -0.976134 0.281398 -0.496538
2846 3 31.1797 8.78606 36.3424 0.332488 -0.683679 0.0300168 -0.0348858 -0.109938 0.147257
2847 1 29.2343 9.40148 41.2979 -0.12532 0.100416 0.963976 0.0254394 -0.148748 -0.080672
2848 1 28.1726 10.6174 43.4043 -0.89101 0.198169 1.53082 -0.0238503 0.00086277 -0.463774
2849 3 29.5226 9.87807 44.511 0.324409 3.00995 -2.75776 -0.193151 -0.150496 -0.0440062
2850 3 31.377 8.89971 42.5755 -1.51293 -2.23595 4.97506 -0.135349 0.31413 -0.261219
2851 2 -5.58916 10.3795 47.1132 0.604445 -0.53666 0.511619 -0.0722592 -0.0136418 -0.14485
2852 1 31.5114 9.54905 49.4617 0.360978 0.0608393 -0.0852035 -0.0091666 -0.0508431 -0.207444
2853 3 29.4439 11.5406 36.6833 0.329664 0.105978 0.0569301 -0.179747 -0.0602987 -0.01406
2854 1 29.7323 11.7689 45.4706 0.129051 -1.35562 0.482897 -0.286481 -0.752583 -0.301958
2855 3 28.1956 12.5526 44.1564 -1.47278 2.33318 1.23902 -0.0992189 0.097498 -0.0647499
2856 3 29.338 11.3107 41.8335 0.652723 1.49322 0.0977796 0.0588835 0.134528 -0.239127
2857 2 -6.90187 13.413 47.1445 -0.0722783 -0.115059 -0.491335 -0.118957 -0.0769093 -0.335091
2858 1 29.7941 11.3612 48.4708 0.26327 0.0964079 0.579139 -0.199027 0.0551091 -0.195346
2859 2 26.7239 12.9505 39.5221 0.307771 -1.0033 0.463485 0.00979435 -0.137984 0.0398836
2860 1 26.1799 14.9269 37.7166 -0.715921 0.391077 0.553654 0.0375401 0.0745063 -0.217234
2861 3 27.8543 14.5019 36.3767 -0.799455 -0.0115178 0.127513 0.0148623 -0.198521 -0.0938541
2862 1 26.7882 14.6745 41.4082 1.09584 -0.246251 0.39142 -0.188909 0.075127 -0.358984
2863 1 27.8354 13.9289 45.7293 -0.208541 2.55186 0.522209 -0.335121 0.142013 -0.111289
2864 1 25.2159 15.93 43.651 -0.237425 -0.0158992 -0.324226 -0.0537348 -0.0706849 -0.0998061
2865 3 26.5832 15.5624 45.1117 -0.0403573 0.950326 1.77504 -0.362986 -0.12946 -0.13811
2866 3 28.6427 14.8143 42.4593 -2.41581 0.219321 -1.29619 -0.17066 0.105106 -0.202239
2867 1 27.8039 13.7449 48.2365 0.000769164 0.33516 -0.0225117 -0.0778902 0.108047 -0.163522
2868 2 24.8674 16.2121 39.508 0.930074 -0.643957 -0.111102 0.254223 -0.232802 -0.038883
2869 1 24.7089 17.7299 37.6653 -1.22348 -0.198976 -0.459518 0.315793 -0.198373 0.0257584
2870 3 26.1582 17.2071 36.5345 4.39422 -0.975476 -0.565582 0.382724 -0.674003 0.0450897
2871 1 26.5447 17.3428 45.9311 -0.763604 0.33137 1.28631 -0.103383 0.031507 -0.31387
2872 3 24.9016 17.8349 44.3065 -0.100443 0.465621 0.188246 0.102036 -0.0203132 -0.289661
2873 3 26.9023 16.4875 42.6362 -0.836778 -0.193212 0.70562 0.257164 -0.00513251 -0.210585
2874 2 -10.7423 19.5886 47.5573 3.56752 0.660616 6.15073 0.634345 0.162281 0.996567
2875 1 27.05 16.9499 48.4058 -0.167424 -0.0986781 -0.641112 -0.0374282 0.0756881 -0.0230929
2876 1 23.3442 20.1309 36.9381 -2.28664 0.887269 1.62317 1.03382 0.0337608 -0.800147
2877 1 24.9602 19.3252 45.7248 -1.40339 0.0619667 -0.624095 -0.17681 0.0668783 -0.304739
2878 1 22.4524 21.7056 43.9237 -0.348449 0.728033 -0.113306 -0.00242361 -0.178969 -0.256416
2879 3 24.0328 21.1139 45.3056 -1.01087 -0.451964 -1.39003 -0.451276 0.303261 -0.582909
2880 2 22.0528 20.3244 39.0866 0.792067 -0.82345 0.678637 0.738627 0.094227 -0.138859
2881 1 22.4418 22.4213 37.6037 -1.37742 0.0984403 -1.18468 0.00767782 -0.602131 0.539644
2882 1 22.3081 22.317 40.8188 -1.22982 0.0309933 2.03555 0.164035 -0.372959 -0.294968
2883 1 -13.0991 22.7923 46.335 0.263956 -0.0148925 -0.606114 0.567095 0.0732425 -0.212112
2884 3 22.9001 23.3907 45.0521 -2.39769 0.414957 -1.35867 0.0317521 -0.0661924 -0.554336
2885 3 23.7646 22.0429 42.4355 1.14628 -0.173214 1.6131 -0.00447971 -0.068436 0.137338
2886 2 -13.4713 25.3044 47.413 0.761407 -0.223747 -0.105344 0.0921166 0.049039 -0.041475
2887 1 22.4663 24.0498 49.0039 0.591482 1.59882 -0.771681 -0.368811 -0.100059 0.146012
2888 2 21.1975 23.8395 38.9373 -0.528676 -2.06917 1.21668 0.233216 -0.252155 -0.679531
2889 1 21.2615 26.0502 37.1938 0.7768 0.474599 -0.599934 -0.614927 -0.944727 0.800338
2890 1 18.9802 27.0438 43.9002 -2.38698 -0.36283 -0.113681 -1.01062 -0.426521 -1.37684
2891 2 -14.8413 27.6964 47.2287 -0.253024 0.0583119 0.0504346 -0.276306 -0.226721 0.0638089
2892 1 21.8806 26.3816 49.1701 0.704432 0.327814 -1.4221 -0.284113 0.204157 0.394152
2893 2 21.2013 25.9354 40.0983 0.241083 -2.59006 2.08087 -1.04853 -0.319087 -0.0129169
2894 1 19.2009 29.1457 37.873 -0.476689 -1.25393 4.01355 0.430607 -0.179551 1.28065
2895 1 19.7642 29.6113 41.4774 -3.93166 -2.32416 1.47822 -1.5064 0.362788 -0.975605
2896 1 20.6299 27.825 45.6168 0.514997 -1.07688 1.44744 -0.511431 -0.325867 -0.305502
2897 1 17.6204 30.186 43.3829 1.14232 -0.677899 1.90808 -0.171548 1.69204 -0.748934
2898 3 19.0242 28.9797 44.6369 -0.481489 0.834575 1.2024 -0.352743 0.93556 -0.158548
2899 2 -16.3405 29.5044 47.7083 -0.517053 -0.0718233 -0.537988 -0.118889 0.0454413 -0.257265
2900 1 19.6413 27.3495 48.1519 -0.811019 -1.59787 1.84175 -0.0212034 0.500452 0.648241
2901 3 19.1949 29.836 36.1264 -2.31434 0.0612397 2.14021 0.289028 0.731872 -1.92452
2902 1 17.2611 32.1989 40.8436 0.0650574 6.71463 -1.17024 -1.42764 0.664523 0.161967
2903 1 19.1705 31.0309 45.8495 -0.814142 -0.616781 -1.07816 0.320063 0.0597506 -0.208284
2904 1 34.7393 0.580721 43.4643 -1.07343 0.575204 -0.161425 0.149407 0.366432 -0.768686
2905 3 17.7462 31.9299 44.5118 -2.03814 -1.67119 2.80846 0.152001 0.719525 1.0717
2906 3 18.6571 31.3773 41.8486 -0.710895 -2.84742 3.97701 2.09553 -0.142017 0.257107
2907 2 0.369233 0.932754 47.3965 -0.967995 0.407229 -0.54491 -0.141727 0.365583 -0.172991
2908 1 -17.4831 31.3694 48.6719 -1.72778 0.553418 0.720877 -0.416954 0.564314 0.445184
2909 4 3.64282 3.094 2.18196 0 0 0 0 0 0
2910 4 1.74018 5.04005 2.3127 0 0 0 0 0 0
2911 4 -4.29901 17.3011 2.34779 0 0 0 0 0 0
2912 4 -8.04026 22.5941 2.46133 0 0 0 0 0 0
2913 4 -9.38221 24.9649 2.4081 0 0 0 0 0 0
2914 4 6.29471 2.49211 2.35346 0 0 0 0 0 0
2915 4 4.92399 5.4973 2.26592 0 0 0 0 0 0
2916 4 2.94256 10.6357 2.7064 0 0 0 0 0 0
2917 4 0.529642 12.4517 2.45853 0 0 0 0 0 0
2918 4 -3.65828 19.9655 2.27585 0 0 0 0 0 0
2919 4 -9.71335 30.3927 2.6464 0 0 0 0 0 0
2920 4 -3.40048 24.9598 2.15546 0 0 0 0 0 0
2921 4 10.8215 0.0620446 2.13113 0 0 0 0 0 0
2922 4 -0.686096 24.9467 2.39251 0 0 0 0 0 0
2923 4 -1.74637 27.3008 1.52153 0 0 0 0 0 0
2924 4 13.55 1.02051 2.83841 0 0 0 0 0 0
2925 4 11.2486 7.95313 2.58037 0 0 0 0 0 0
2926 4 10.3042 10.4548 2.05685 0 0 0 0 0 0
2927 4 8.98622 12.7999 2.4901 0 0 0 0 0 0
2928 4 7.59524 15.1428 2.47179 0 0 0 0 0 0
2929 4 6.1871 17.4736 2.3801 0 0 0 0 0 0
2930 4 4.82806 19.9263 2.48908 0 0 0 0 0 0
2931 4 3.43051 22.5266 2.27659 0 0 0 0 0 0
2932 4 2.06437 24.937 2.37391 0 0 0 0 0 0
2933 4 16.2043 0.693966 2.3167 0 0 0 0 0 0
2934 4 17.8184 2.83865 2.7847 0 0 0 0 0 0
2935 4 13.5228 9.91095 2.35561 0 0 0 0 0 0
2936 4 11.9399 12.6219 2.28557 0 0 0 0 0 0
2937 4 10.5665 15.0189 2.43537 0 0 0 0 0 0
2938 4 9.14774 17.5598 2.28778 0 0 0 0 0 0
2939 4 18.8906 0.340223 2.60433 0 0 0 0 0 0
2940 4 6.4314 27.5316 2.01572 0 0 0 0 0 0
2941 4 20.7018 7.53347 2.24048 0 0 0 0 0 0
2942 4 19.247 9.99535 2.49893 0 0 0 0 0 0
2943 4 17.6578 12.3985 2.53443 0 0 0 0 0 0
2944 4 13.1524 19.6502 2.64646 0 0 0 0 0 0
2945 4 10.6346 24.983 2.50376 0 0 0 0 0 0
2946 4 9.1897 27.6045 1.43198 0 0 0 0 0 0
2947 4 7.67147 29.9537 1.87393 0 0 0 0 0 0
2948 4 26.555 2.70214 2.63569 0 0 0 0 0 0
2949 4 23.4189 7.67881 2.09677 0 0 0 0 0 0
2950 4 20.3792 12.5323 2.52863 0 0 0 0 0 0
2951 4 15.8499 19.8989 2.35304 0 0 0 0 0 0
2952 4 14.25 22.09 2.10085 0 0 0 0 0 0
2953 4 27.5948 0.143749 1.88993 0 0 0 0 0 0
2954 4 29.276 2.62458 2.51531 0 0 0 0 0 0
2955 4 27.795 4.98489 1.81356 0 0 0 0 0 0
2956 4 23.0459 12.1562 2.11453 0 0 0 0 0 0
2957 4 18.5705 19.7695 2.42957 0 0 0 0 0 0
2958 4 30.6211 5.03079 2.54004 0 0 0 0 0 0
2959 4 23.7693 17.5345 2.62327 0 0 0 0 0 0
2960 4 18.9878 25.108 2.6386 0 0 0 0 0 0
2961 4 17.8709 28.2806 1.73097 0 0 0 0 0 0
2962 4 15.9717 30.137 2.34018 0 0 0 0 0 0
2963 4 33.5257 4.99748 2.52058 0 0 0 0 0 0
2964 4 30.9353 9.96641 3.20245 0 0 0 0 0 0
2965 4 29.2073 12.2559 2.23272 0 0 0 0 0 0
2966 4 24.9456 19.9869 2.46148 0 0 0 0 0 0
2967 4 21.966 25.3594 2.29715 0 0 0 0 0 0
2968 4 20.361 27.5454 2.56153 0 0 0 0 0 0
2969 4 -1.06262 4.71874 2.25786 0 0 0 0 0 0
2970 4 -5.3049 12.4465 2.30204 0 0 0 0 0 0
2971 4 -6.89287 14.7065 2.11966 0 0 0 0 0 0
2972 4 -9.60745 19.8654 2.8465 0 0 0 0 0 0
2973 4 -10.7492 22.3244 2.57496 0 0 0 0 0 0
2974 4 -13.6739 27.5236 2.12233 0 0 0 0 0 0
2975 4 3.37284 4.00662 4.73509 0 0 0 0 0 0
2976 4 -1.10228 11.6965 4.62401 0 0 0 0 0 0
2977 4 -3.664 16.7724 4.94423 0 0 0 0 0 0
2978 4 -4.92437 19.8056 4.68328 0 0 0 0 0 0
2979 4 -7.74459 24.2355 4.61601 0 0 0 0 0 0
2980 4 -9.13169 26.8225 4.38563 0 0 0 0 0 0
2981 4 -11.0281 28.7353 4.79696 0 0 0 0 0 0
2982 4 -12.168 31.6589 4.35641 0 0 0 0 0 0
2983 4 3.41734 9.0434 4.8659 0 0 0 0 0 0
2984 4 2.09092 12.1429 4.8105 0 0 0 0 0 0
2985 4 0.196998 14.0914 4.60909 0 0 0 0 0 0
2986 4 -1.0247 16.5098 4.32023 0 0 0 0 0 0
2987 4 -2.28973 19.1236 4.81679 0 0 0 0 0 0
2988 4 -9.71871 31.0516 5.38413 0 0 0 0 0 0
2989 4 6.13563 8.85625 4.87347 0 0 0 0 0 0
2990 4 -2.11282 24.0549 4.55157 0 0 0 0 0 0
2991 4 -4.45422 26.4812 4.15526 0 0 0 0 0 0
2992 4 12.0282 4.16084 4.71571 0 0 0 0 0 0
2993 4 10.3133 6.84191 4.88572 0 0 0 0 0 0
2994 4 8.8338 9.11445 5.15181 0 0 0 0 0 0
2995 4 0.693678 23.7764 4.45059 0 0 0 0 0 0
2996 4 -1.19748 26.4508 5.47158 0 0 0 0 0 0
2997 4 -3.57235 31.4231 4.37362 0 0 0 0 0 0
2998 4 14.8547 4.08702 4.85861 0 0 0 0 0 0
2999 4 13.5669 6.47961 4.65555 0 0 0 0 0 0
3000 4 12.1972 8.80523 5.02927 0 0 0 0 0 0
3001 4 1.82759 26.2113 4.9085 0 0 0 0 0 0
3002 4 -0.886061 31.5204 4.8193 0 0 0 0 0 0
3003 4 16.2511 1.74748 4.82909 0 0 0 0 0 0
3004 4 16.2676 6.43225 5.01331 0 0 0 0 0 0
3005 4 1.98208 31.6236 4.88928 0 0 0 0 0 0
3006 4 19.1779 1.75411 4.91663 0 0 0 0 0 0
3007 4 15.4733 14.1817 4.52781 0 0 0 0 0 0
3008 4 10.3956 21.6673 4.11048 0 0 0 0 0 0
3009 4 9.3775 24.109 4.85666 0 0 0 0 0 0
3010 4 22.037 1.71113 4.85045 0 0 0 0 0 0
3011 4 19.1958 11.515 4.76393 0 0 0 0 0 0
3012 4 18.1924 14.0452 4.63848 0 0 0 0 0 0
3013 4 16.3225 16.7697 4.45735 0 0 0 0 0 0
3014 4 14.8094 19.0591 4.72713 0 0 0 0 0 0
3015 4 13.0888 21.626 4.5217 0 0 0 0 0 0
3016 4 12.1477 24.1648 4.82733 0 0 0 0 0 0
3017 4 10.7672 26.489 5.16851 0 0 0 0 0 0
3018 4 24.761 1.97516 4.91998 0 0 0 0 0 0
3019 4 26.4131 4.14144 4.96627 0 0 0 0 0 0
3020 4 20.9063 14.0777 4.87873 0 0 0 0 0 0
3021 4 17.8346 19.1573 4.98515 0 0 0 0 0 0
3022 4 29.3876 3.975 4.93623 0 0 0 0 0 0
3023 4 14.656 29.0685 4.79935 0 0 0 0 0 0
3024 4 32.1025 4.17173 4.81555 0 0 0 0 0 0
3025 4 27.7693 11.3905 4.70386 0 0 0 0 0 0
3026 4 25.005 16.3431 4.73937 0 0 0 0 0 0
3027 4 23.5012 19.1627 4.89116 0 0 0 0 0 0
3028 4 20.4196 23.8013 4.55346 0 0 0 0 0 0
3029 4 19.7422 26.3571 5.21187 0 0 0 0 0 0
3030 4 17.3711 28.888 4.40705 0 0 0 0 0 0
3031 4 16.5584 31.4785 4.63813 0 0 0 0 0 0
3032 4 -2.21691 4.40833 4.96347 0 0 0 0 0 0
3033 4 -3.56019 6.77252 4.78901 0 0 0 0 0 0
3034 4 -6.6088 11.8713 5.1335 0 0 0 0 0 0
3035 4 28.9297 13.8408 4.43224 0 0 0 0 0 0
3036 4 -15.0153 27.0158 4.43901 0 0 0 0 0 0
3037 4 -13.6636 29.3793 4.54448 0 0 0 0 0 0
3038 4 1.98845 8.56781 7.52062 0 0 0 0 0 0
3039 4 0.565178 10.6622 6.51453 0 0 0 0 0 0
3040 4 -2.28413 15.9507 7.14536 0 0 0 0 0 0
3041 4 -3.72051 18.2971 7.20172 0 0 0 0 0 0
3042 4 -8.19475 25.864 6.75788 0 0 0 0 0 0
3043 4 -9.43324 28.3288 7.04256 0 0 0 0 0 0
3044 4 8.30496 3.05674 7.38644 0 0 0 0 0 0
3045 4 6.55715 5.80986 7.33182 0 0 0 0 0 0
3046 4 4.70106 8.62994 7.27135 0 0 0 0 0 0
3047 4 3.77837 11.1278 6.69364 0 0 0 0 0 0
3048 4 -0.550297 17.9722 6.56975 0 0 0 0 0 0
3049 4 11.0034 3.28264 7.08344 0 0 0 0 0 0
3050 4 9.27868 5.86342 7.21086 0 0 0 0 0 0
3051 4 7.41418 8.39611 7.3638 0 0 0 0 0 0
3052 4 12.0001 5.90448 6.80931 0 0 0 0 0 0
3053 4 7.54782 13.3997 7.31045 0 0 0 0 0 0
3054 4 6.15448 15.7409 7.26981 0 0 0 0 0 0
3055 4 4.7571 18.0749 7.11504 0 0 0 0 0 0
3056 4 1.19038 25.7211 7.51195 0 0 0 0 0 0
3057 4 -2.42309 30.7263 7.04691 0 0 0 0 0 0
3058 4 7.48138 18.1235 7.12859 0 0 0 0 0 0
3059 4 5.94653 20.5257 7.05833 0 0 0 0 0 0
3060 4 3.72131 26.6794 7.19525 0 0 0 0 0 0
3061 4 1.58547 28.3406 6.87418 0 0 0 0 0 0
3062 4 0.469461 30.8325 7.0806 0 0 0 0 0 0
3063 4 17.6501 1.05933 7.06368 0 0 0 0 0 0
3064 4 13.6346 13.3205 7.37585 0 0 0 0 0 0
3065 4 12.3772 15.7206 7.66369 0 0 0 0 0 0
3066 4 9.08433 21.5123 6.49395 0 0 0 0 0 0
3067 4 4.98123 28.9946 7.88562 0 0 0 0 0 0
3068 4 20.4262 6.11184 6.94877 0 0 0 0 0 0
3069 4 19.1251 8.49048 7.21969 0 0 0 0 0 0
3070 4 16.4303 13.4705 7.53891 0 0 0 0 0 0
3071 4 14.9524 15.629 6.77684 0 0 0 0 0 0
3072 4 11.7421 20.9996 6.80607 0 0 0 0 0 0
3073 4 10.7987 23.5384 7.11031 0 0 0 0 0 0
3074 4 23.4909 0.889121 7.12929 0 0 0 0 0 0
3075 4 24.6618 3.7197 7.01067 0 0 0 0 0 0
3076 4 22.0398 8.33906 7.2119 0 0 0 0 0 0
3077 4 17.9292 15.9889 6.52976 0 0 0 0 0 0
3078 4 16.1856 18.0574 6.85474 0 0 0 0 0 0
3079 4 12.3373 25.7742 7.35743 0 0 0 0 0 0
3080 4 10.8781 28.0752 7.38119 0 0 0 0 0 0
3081 4 9.16031 30.6364 7.15835 0 0 0 0 0 0
3082 4 26.3526 0.924789 7.2144 0 0 0 0 0 0
3083 4 24.7724 8.83708 7.12943 0 0 0 0 0 0
3084 4 14.5883 25.905 5.82761 0 0 0 0 0 0
3085 4 13.7267 28.111 7.175 0 0 0 0 0 0
3086 4 12.2414 30.4245 7.16705 0 0 0 0 0 0
3087 4 27.5544 8.67373 7.35299 0 0 0 0 0 0
3088 4 26.4047 11.125 7.04724 0 0 0 0 0 0
3089 4 23.6 15.4978 7.72614 0 0 0 0 0 0
3090 4 22.4888 17.973 7.47599 0 0 0 0 0 0
3091 4 18.7307 23.6211 7.99497 0 0 0 0 0 0
3092 4 17.7837 26.0039 7.07297 0 0 0 0 0 0
3093 4 32.4184 5.80369 6.97451 0 0 0 0 0 0
3094 4 29.1186 10.9041 7.14832 0 0 0 0 0 0
3095 4 26.3062 15.8127 7.76583 0 0 0 0 0 0
3096 4 25.1332 18.0867 6.82927 0 0 0 0 0 0
3097 4 20.9753 25.1188 7.61652 0 0 0 0 0 0
3098 4 17.3299 31.0533 7.22541 0 0 0 0 0 0
3099 4 35.0157 1.19856 6.46756 0 0 0 0 0 0
3100 4 -2.15205 5.92708 7.22476 0 0 0 0 0 0
3101 4 -3.78476 8.30049 7.10794 0 0 0 0 0 0
3102 4 -8.26184 15.7079 7.9277 0 0 0 0 0 0
3103 4 -9.65914 19.1157 7.21295 0 0 0 0 0 0
3104 4 -16.2027 30.7107 7.6676 0 0 0 0 0 0
3105 4 0.56493 0.722377 7.46403 0 0 0 0 0 0
3106 4 -1.02532 8.39311 7.49565 0 0 0 0 0 0
3107 4 -6.32882 17.5911 7.55171 0 0 0 0 0 0
3108 4 -10.6713 26.0501 7.87864 0 0 0 0 0 0
3109 4 -13.8061 31.2722 6.49921 0 0 0 0 0 0
3110 4 3.27278 1.01982 7.40651 0 0 0 0 0 0
3111 4 3.20463 3.00459 9.78992 -0.454551 1.47475 0.740984 26.4539 -15.9164 22.642
3112 4 0.888394 7.30144 9.25413 -1.03251 -1.6677 0.404206 21.813 8.92222 -25.4521
3113 4 -1.63858 11.2754 9.72451 0.329987 2.22602 -0.372635 -15.3405 -3.76151 5.63664
3114 4 -3.32294 14.6901 9.2848 -2.61896 -0.921409 -1.23967 -0.643989 21.9293 3.81651
3115 4 -5.40619 18.3689 9.87431 3.38306 0.375948 1.88159 -19.4279 -10.718 -14.5296
3116 4 -11.6643 23.6743 8.58049 -0.327172 -0.316558 0.571833 -8.18751 -6.92071 14.8333
3117 4 -13.5276 32.009 9.6165 -1.55423 -4.55172 0.750008 12.9662 -13.6985 -7.00545
3118 4 -2.16411 17.1835 9.62319 0.540436 0.951219 -1.10939 5.97742 5.24214 -17.9568
3119 4 -6.93709 23.6362 8.76332 2.02532 -1.60403 1.3876 18.2135 -22.823 3.50223
3120 4 -8.27043 27.4736 9.03824 -0.710688 0.99851 3.56325 -17.3431 -24.9258 -5.07495
3121 4 10.6236 1.73934 9.2313 -0.932251 0.12825 -2.49353 9.70958 -7.77898 -0.378969
3122 4 6.71904 4.22477 9.09253 -2.16333 2.94476 -2.69749 -15.4205 -9.1967 -19.322
3123 4 10.874 5.11927 9.15804 2.04988 3.20036 1.67255 -12.9828 1.99412 -0.620049
3124 4 -4.89341 29.3865 8.78845 -0.834033 1.14894 1.36685 -22.4344 -6.80758 -18.125
3125 4 7.92825 15.3111 10.0336 -1.26846 -1.46195 -2.73105 -10.9625 11.5517 11.1209
3126 4 6.16097 17.1388 9.54009 -3.18104 -1.06332 1.22497 -20.3765 -7.18012 -12.4367
3127 4 3.67644 19.469 9.18479 0.330561 -2.89784 -0.430385 -20.5896 13.9927 -2.99694
3128 4 3.65921 22.824 9.52448 -0.720906 -1.99895 0.913567 -20.7634 21.5448 -13.7796
3129 4 1.35797 23.4974 8.6582 0.230001 -1.32214 -1.4801 -8.12299 15.1121 20.4814
3130 4 -0.890756 29.414 8.85391 1.49953 0.195362 -4.18244 -4.21296 20.3198 -2.07276
3131 4 11.1787 13.0817 8.77147 0.593837 0.124821 0.626164 20.6353 -14.5151 -4.70771
3132 4 10.4464 15.5253 8.95331 3.66465 1.36041 0.344889 14.7512 -14.388 13.1656
3133 4 8.62897 18.9136 9.43303 0.698162 1.27382 1.35925 18.9401 -6.08048 4.0369
3134 4 6.19232 22.5843 9.1927 -1.46291 -0.382056 2.65643 -20.4147 19.2887 -24.3231
3135 4 5.08745 24.9405 8.91212 2.08607 0.747497 0.638965 -2.50126 -0.000680629 -14.3414
3136 4 3.2705 28.7483 9.76454 2.46411 1.68593 -2.29955 2.40771 -7.85461 -22.5981
3137 4 19.7441 4.38517 9.01408 -0.798417 0.16109 2.2197 24.6956 3.30587 -21.9029
3138 4 14.5909 15.057 11.1548 0.463554 -0.114022 0.106924 -10.8041 12.1693 -14.5189
3139 4 10.8387 20.4288 9.2648 2.77702 -0.628674 -0.878711 -7.10956 -15.6509 18.7415
3140 4 9.01086 22.5023 8.85283 -0.870794 -0.400585 0.448957 -20.4967 -20.2714 10.3162
3141 4 21.0436 7.32338 9.56225 3.24876 -0.0150987 -0.192288 -10.0189 -23.0644 -6.85307
3142 4 17.685 14.4237 9.49026 2.73438 0.742405 -0.26278 -5.97219 -1.49443 -23.5353
3143 4 13.9585 17.4212 8.50211 0.855273 -0.0232072 1.47031 -10.8915 -23.2894 18.1394
3144 4 7.14171 29.263 8.75372 -1.70038 -0.228125 0.993477 -6.23159 11.866 -6.19806
3145 4 5.62812 32.0108 9.06148 0.746639 1.48782 -1.9601 6.56276 18.3139 21.4649
3146 4 26.2514 2.23448 10.5376 0.568191 0.803883 0.877884 2.62493 -24.1269 20.4361
3147 4 20.709 11.7471 9.32234 0.259393 -1.13637 -2.32653 -6.65949 14.4518 1.30633
3148 4 11.1859 26.8003 9.58774 1.36879 3.05661 2.2645 20.6824 9.48502 9.21772
3149 4 9.24775 28.5037 9.63174 -1.85612 1.01712 4.0357 -12.4793 21.3857 5.75782
3150 4 28.1511 1.31172 8.95211 -0.548897 -1.3855 -0.377283 4.58547 6.83337 -15.6805
3151 4 26.068 7.17378 9.10922 -1.89327 -0.458759 -2.01296 -22.2902 0.355857 11.9429
3152 4 22.2562 15.201 9.96535 0.300628 0.207887 -0.280099 -3.65097 -25.0204 0.229211
3153 4 16.6467 25.1304 9.25387 -0.505533 -1.22048 -2.08036 20.8853 -13.797 12.5687
3154 4 13.3669 30.02 10.4154 0.976437 1.85935 -0.267189 -13.3757 -0.779291 -11.5903
3155 4 11.7192 32.1104 9.93429 0.366483 -0.212618 -0.102194 15.3911 25.7485 -17.6795
3156 4 30.11 7.82958 8.85391 1.70833 -3.9416 -1.64762 1.09063 -19.359 2.80316
3157 4 29.5632 10.2181 9.82939 0.588855 1.6355 0.199488 20.3664 23.1 -23.541
3158 4 24.2479 17.1461 9.88199 0.113009 -0.57213 -2.51101 -19.4384 24.8448 17.6272
3159 4 21.2856 18.9498 10.5858 -1.66114 -1.02892 1.92106 15.4398 -10.7083 -22.7082
3160 4 21.4325 23.2413 9.5304 2.89749 -0.0768444 -0.828053 -8.44392 12.7076 -3.53246
3161 4 20.3222 26.3722 9.57094 -1.1725 3.13912 -0.326961 3.60941 -18.8655 -8.90061
3162 4 34.6879 3.81837 9.4327 1.33417 -0.259076 -1.4883 -11.4645 9.96927 24.8704
3163 4 -10.406 18.9292 9.65343 -1.75514 0.844138 -0.119679 24.9301 -3.37967 5.31713
3164 4 22.9255 20.0191 9.00684 0.361021 -0.810286 0.521698 -23.3317 -23.0476 -14.9457
3165 4 17.2461 31.5931 9.7285 -0.0386981 -0.903004 -0.586453 12.335 7.97437 -10.8283
3166 4 0.103036 3.02504 9.34978 0.102153 -1.91173 2.29258 17.047 -11.0733 6.67517
3167 4 -3.65501 6.4002 9.17917 -1.02415 0.78348 0.7644 21.1204 3.06856 19.2489
3168 4 -7.98905 18.3831 10.8646 0.415856 -0.201748 -1.31501 14.1035 24.2958 9.86595
3169 4 -13.2724 29.6095 8.59709 -1.92414 -0.0532796 -1.83686 26.1636 -6.01795 23.7548
3170 4 2.24674 0.577744 9.82304 0.665879 1.81058 2.89999 -18.0209 -1.06982 10.7833
3171 4 3.58008 5.22926 10.619 2.15303 -2.36057 -0.214318 24.6988 16.4713 -17.7759
3172 4 -0.00966061 12.1939 11.9989 -0.515592 -0.836592 1.915 3.28317 -12.9664 3.80099
3173 4 -1.74025 13.4981 10.8515 0.747674 0.652421 -2.7323 -14.1691 4.98264 10.9818
3174 4 -3.34025 17.5088 13.3028 0.903756 -0.312016 -0.298004 -20.4835 -12.1075 8.4133
3175 4 -6.5752 21.8937 10.7392 0.210021 0.190641 -0.79723 -4.56485 6.97667 0.0921297
3176 4 -7.96211 24.8585 13.4608 -1.41843 -1.43346 -0.307029 -21.3786 -13.8556 -2.93193
3177 4 5.63967 6.81257 11.3841 -0.65129 0.681291 -4.29613 8.97993 24.9367 16.6689
3178 4 -3.73132 21.2218 11.3216 -0.698958 0.423291 3.08599 19.3143 -4.12766 -22.0683
3179 4 -4.52476 23.4867 10.3324 1.67236 -0.34695 1.17713 12.6989 24.4207 3.91375
3180 4 5.21474 9.43402 12.684 -0.500478 -1.59951 1.60517 21.7049 20.3989 -20.5043
3181 4 3.82382 12.3033 12.486 3.45674 0.934446 -0.546535 7.60365 -12.2669 -20.8266
3182 4 1.38071 16.7055 10.0674 -1.09962 -1.20011 1.01074 -17.3926 -9.73233 14.1746
3183 4 -1.99275 23.3997 10.7536 0.497644 -0.219343 -1.73616 -13.247 -12.945 -16.4878
3184 4 -6.04532 28.867 11.9322 0.398815 -1.20541 2.38585 -14.4999 23.5152 -3.50888
3185 4 -7.27501 30.9316 11.4858 -1.72394 -0.510673 2.03515 26.3447 -6.87869 21.5039
3186 4 11.1876 3.17496 12.7729 1.38688 -1.50884 -0.178804 9.59239 -2.45978 -17.6228
3187 4 7.70204 9.86282 11.5321 0.978915 -0.103321 -0.82995 -0.407185 7.5558 -7.57645
3188 4 5.03014 13.5582 10.5687 -1.15605 0.575061 -0.291695 -13.9493 3.09639 5.03677
3189 4 4.81303 16.0533 11.4672 -1.1469 -0.282365 -0.472605 -17.2869 -4.84513 19.4639
3190 4 1.59777 18.8899 10.9386 -0.362761 -0.0590011 -0.239393 7.13079 -10.1208 -22.9778
3191 4 -4.74387 27.3104 10.4829 2.3193 -0.299235 -0.121489 5.80478 7.33429 -11.2867
3192 4 -2.70885 31.9941 10.852 -0.0263148 -2.55637 -2.49374 6.0133 24.0264 -25.0217
3193 4 13.3065 6.17944 10.8953 0.380924 0.745333 -0.615384 -19.9308 3.34289 20.1062
3194 4 10.856 9.75651 11.7802 0.781444 -0.348361 0.814761 18.4538 -22.8824 4.66969
3195 4 9.67971 13.72 10.9958 -0.527445 0.457479 0.519407 -10.4234 10.4432 19.3258
3196 4 3.10694 20.9472 11.277 -2.28362 -3.39117 0.170463 -23.3649 5.3314 -18.8892
3197 4 2.33719 24.789 10.571 2.10173 -1.475 -0.382284 -20.1994 -9.8053 4.99414
3198 4 2.03162 26.61 13.9611 -1.06493 -0.296185 -0.249345 -6.51815 -9.29045 10.836
3199 4 17.4089 3.47939 10.4139 0.951812 -0.430227 1.95965 -2.41485 -8.53339 -18.2934
3200 4 15.7759 5.67006 10.9912 0.658937 0.779846 -2.16156 -23.369 4.85981 -4.89243
3201 4 13.9013 9.38783 12.0622 2.41563 1.13265 2.93937 -3.84318 15.8286 -5.48829
3202 4 12.696 10.8475 10.4589 -0.96872 -0.774812 0.861819 -2.9886 -21.5576 -24.4074
3203 4 11.9236 14.6207 11.8243 0.886725 -1.76589 1.52534 3.10057 -19.1553 -15.4475
3204 4 7.34899 19.679 11.849 -0.66741 4.50112 -1.00649 -3.02588 -6.89127 -13.7313
3205 4 5.67021 23.8575 11.6552 0.000397735 -0.598888 2.90726 -20.506 18.6881 -22.7205
3206 4 5.91117 26.3967 10.6997 -1.28841 -1.01909 1.92734 -8.77116 22.1965 -2.60335
3207 4 4.71413 29.0846 11.9573 1.00916 -0.673218 2.03572 -24.4315 0.868978 -17.2612
3208 4 19.5738 2.58863 11.4227 -0.907107 -1.25989 -0.76733 16.0968 -20.1427 6.8235
3209 4 21.7955 5.21504 12.9961 0.13304 -0.965921 -0.461749 -15.7436 3.46553 -24.6047
3210 4 17.6278 7.56162 10.5955 -0.144952 -1.42494 -0.698895 4.63405 18.4551 25.3173
3211 4 9.18048 24.2338 11.9738 -0.417491 -0.313969 1.43169 9.20294 -7.96129 4.92744
3212 4 27.1237 4.13729 11.8636 -3.10718 -1.77754 0.640985 11.526 19.8611 24.5277
3213 4 20.6987 10.7592 11.531 0.965378 -0.148102 -1.77127 -25.4162 11.9464 14.7689
3214 4 19.7582 13.6682 10.6691 -2.05532 1.8301 -1.80747 5.84367 -23.7051 24.8077
3215 4 18.8633 17.3573 11.9265 -1.19849 -1.40771 -1.36191 -16.6736 23.062 13.9758
3216 4 13.6379 27.5029 10.7862 -1.02265 1.19869 1.41304 5.15175 8.07537 17.4162
3217 4 11.2419 30.667 12.0086 -0.835597 0.782548 2.35078 2.50906 0.0384916 3.71012
3218 4 9.18731 31.9099 13.1642 -8.23316 5.18211 1.03988 -0.523972 0.838075 1.11041
3219 4 29.3474 2.57688 10.7384 2.98355 -2.23167 -1.52169 11.8108 20.0107 24.9558
3220 4 27.9552 6.07998 10.4923 -2.10596 -0.096227 -1.33161 -6.25342 6.09566 -4.03546
3221 4 26.5212 9.85735 13.102 0.522652 0.319429 -0.304065 -17.8866 -12.9149 7.14641
3222 4 18.9916 21.908 10.5443 -1.44748 -0.760691 -0.489707 -23.6007 -4.49127 6.70485
3223 4 16.0365 21.9137 10.7907 0.646436 -0.621245 -2.19115 -1.74916 2.39861 0.853983
3224 4 29.2733 9.94069 12.9874 0.774211 -1.58979 -3.41563 17.8677 3.2675 5.69591
3225 4 22.5428 21.4376 13.5626 -1.09756 -0.152518 1.7376 10.9854 -15.4591 0.401095
3226 4 20.595 24.3872 13.6818 -1.91903 -1.07892 -0.627201 -19.884 -18.1466 -17.2661
3227 4 34.2221 0.538005 11.7074 -0.0971724 -0.00875115 -1.6254 3.70099 12.8457 -23.2192
3228 4 24.7351 21.1569 11.8929 1.69819 1.36074 0.660526 -23.967 8.9485 -16.6236
3229 4 20.1116 29.123 9.45478 -1.3997 0.629151 -0.486464 25.45 23.88 16.5918
3230 4 35.8152 2.52996 11.5279 0.85055 0.856968 0.276604 -3.06079 12.8296 -0.830484
3231 4 1.28777 3.97697 11.6143 1.72564 0.2776 -1.69339 -5.66819 15.8771 -24.2901
3232 4 -3.96241 8.58631 10.681 -0.0782343 2.19485 -3.0447 -4.9732 -1.34375 5.12325
3233 4 -3.48596 11.5616 12.0062 -0.84535 -0.945541 1.30449 16.9859 4.83532 -7.52424
3234 4 -5.23355 13.0498 10.9106 -3.21807 -2.46727 -2.44528 -24.5586 -14.4249 17.1852
3235 4 -5.93514 18.0132 13.5362 0.195691 3.1818 -0.204376 -8.3725 2.70019 0.538353
3236 4 -10.6366 25.1094 11.99 -1.33028 -4.06956 2.51591 -10.5044 -22.1692 21.7292
3237 4 -12.8724 28.7462 12.3906 0.935762 -2.12695 -0.0872158 -12.8649 -11.5661 -8.71238
3238 4 -14.5033 31.1792 12.1152 0.11028 -1.3831 1.81858 3.54844 3.02464 -1.12315
3239 4 1.80197 1.33479 12.4624 -1.26858 2.48973 -0.325664 3.65798 6.49602 -6.46689
3240 4 4.20231 2.48498 15.1733 -0.897617 2.42475 0.698403 12.5596 1.12948 8.10203
3241 4 3.20658 4.72275 14.3249 1.74676 -0.755971 -1.60828 -24.4359 22.5725 -7.41864
3242 4 -4.32254 21.7406 14.971 0.686779 -0.859064 3.11677 12.7715 -1.23095 -2.37855
3243 4 -7.06791 22.5352 15.3255 -2.62046 2.80271 0.724684 -16.7923 22.0848 -4.75211
3244 4 9.79223 4.67109 15.0762 0.840088 0.880697 -2.48216 -6.21935 -8.3991 -26.0274
3245 4 4.85316 6.73929 15.1146 -3.0669 1.82998 -0.89014 1.98499 -25.4244 -7.70638
3246 4 0.574015 15.8236 14.7242 -1.59226 0.964065 -2.21615 18.7036 -6.02178 27.99
3247 4 -2.38938 20.8991 13.6212 -2.54704 1.914 -1.5213 -13.8787 -13.2908 -10.2185
3248 4 -4.01529 24.1844 14.4097 -1.2843 -1.56682 0.122671 7.50111 1.83426 15.6205
3249 4 -7.38053 30.1986 15.6074 -0.444153 1.58268 0.555157 -7.73187 10.2398 -19.7948
3250 4 10.3694 0.863451 15.4996 2.12888 0.15796 2.42481 -22.2875 -7.37054 17.0455
3251 4 6.69824 10.6853 14.6392 0.536262 1.49214 -1.0727 10.6158 4.85126 14.6363
3252 4 4.18764 13.3116 14.9795 -3.37001 1.72807 0.161071 15.0986 16.2285 2.29218
3253 4 2.58376 15.6735 12.9531 0.767666 1.09833 0.0100294 2.4557 -25.8505 -22.8005
3254 4 0.541266 18.2841 14.162 -0.26716 -2.07058 -0.025782 -12.989 14.4935 9.4945
3255 4 -4.57593 31.6336 15.6337 1.62014 1.07983 0.461312 21.2124 -15.1087 -8.96833
3256 4 12.3921 0.908831 12.9841 -0.900522 1.00463 2.28158 10.9524 24.3677 19.5967
3257 4 9.06207 11.1459 15.4988 0.37016 -0.699923 0.251069 -20.4547 11.9957 13.5222
3258 4 8.17025 14.1113 14.0268 -1.21103 0.070381 -4.05899 -17.5543 17.3455 -12.6366
3259 4 -2.35881 31.6895 13.4757 4.12556 -1.08154 -1.16225 -18.5845 -20.9347 -20.0665
3260 4 15.7117 1.75248 12.8873 -2.33161 -1.02753 -2.49832 2.44145 -20.4942 22.6358
3261 4 13.9434 5.75582 15.1997 1.04567 1.91755 1.10158 12.96 -11.2195 -7.69849
3262 4 11.8847 8.40362 15.2747 -2.88574 2.16685 0.0457189 -17.4274 14.7475 22.5507
3263 4 11.9545 10.7141 14.78 0.743255 -2.1189 -2.49072 -25.6255 -15.8698 -21.3674
3264 4 10.9382 12.9981 14.3935 0.0931157 -0.38938 -2.18004 22.0203 23.8965 22.9488
3265 4 19.9425 3.61639 13.9009 -1.61692 2.08286 3.4099 22.8802 -15.1416 -18.5375
3266 4 18.0326 5.4808 14.6518 1.42956 -1.22309 -0.533225 -12.6685 11.9466 15.0011
3267 4 16.4876 7.73216 13.0405 -0.385136 0.490962 0.624937 19.4527 5.11704 13.1936
3268 4 10.283 15.4947 15.0296 0.935318 4.23184 2.60481 3.63714 17.7378 -22.4601
3269 4 4.7133 23.788 15.3634 1.59291 5.80033 -2.35012 -5.17632 -4.81377 -0.656416
3270 4 3.27439 29.0037 14.4256 0.584325 -0.0108588 -0.236654 -0.666921 6.69206 7.01287
3271 4 21.3055 1.05378 15.3777 0.614208 -0.315033 2.18699 -11.8283 -14.1134 -6.26355
3272 4 11.3574 24.8267 10.8674 1.49154 2.49956 1.3958 -14.0651 1.52765 11.8053
3273 4 12.4868 30.2967 14.5173 4.23253 -2.49049 -2.80009 0.374201 -0.24146 -3.57088
3274 4 20.1184 8.58889 15.205 2.04232 -1.75092 2.92845 11.5356 0.543516 20.9215
3275 4 18.889 12.8537 14.5549 -2.20118 -0.527358 2.31849 -14.8159 -3.18269 10.6426
3276 4 16.5575 15.3781 15.579 -0.341629 1.5106 3.41621 5.97095 -7.89767 26.0696
3277 4 9.18688 17.9691 15.2856 -0.771676 -4.21412 6.65457 -1.65468 0.510441 0.0462043
3278 4 16.883 17.9009 14.5917 2.82254 1.29098 -1.67229 -20.2256 8.09082 -11.6483
3279 4 27.188 3.32726 14.5321 0.50569 -1.32242 -0.420851 -2.80791 15.4845 -23.6034
3280 4 25.8624 5.85184 15.8275 -1.09622 -0.899411 -0.204713 -19.7615 -4.33879 -18.5212
3281 4 22.6229 10.0029 13.078 -0.743192 -0.364045 2.75215 -16.628 -4.44322 16.3179
3282 4 21.2246 12.244 14.0117 -0.276406 0.15048 1.94022 6.55685 19.9213 -9.42207
3283 4 20.9714 15.8693 12.5215 1.10743 -2.13068 -0.678603 15.3966 20.3617 -17.0385
3284 4 19.7051 18.6225 14.9336 -2.52887 -1.60159 -0.963549 -1.795 13.5785 -19.2799
3285 4 18.1513 21.0145 15.1677 1.05131 -2.67344 -2.17812 5.40238 13.4984 -17.5474
3286 4 16.4733 23.3092 14.9666 -1.20167 7.01128 -7.31446 0.125666 0.452374 2.71868
3287 4 29.3832 4.12524 15.2736 -0.146198 0.156468 1.62458 -2.79922 -3.70965 -2.00365
3288 4 25.9762 7.90827 14.6473 -1.09777 1.03701 -1.45343 14.9848 -16.7212 -4.45631
3289 4 19.914 20.7151 13.3212 -1.98981 -2.16361 0.722447 -8.85192 13.3644 6.51241
3290 4 18.4527 23.4101 13.8648 -0.158868 -0.842839 -1.64211 -2.40787 17.3769 -17.879
3291 4 16.3565 31.9524 14.1388 -1.94946 -0.831504 -1.12691 -3.44249 -26.0567 19.9258
3292 4 31.3273 1.37572 14.6137 0.488605 -2.80484 1.6236 -19.771 2.91133 21.166
3293 4 33.5048 3.76358 13.6064 1.7726 2.13146 -0.0530322 20.8574 23.4596 -16.7259
3294 4 27.0134 17.2487 13.8366 -0.210221 -0.6168 -0.538489 25.7827 -14.9936 22.9632
3295 4 36.7463 0.620007 15.824 1.01564 0.123067 -0.322817 -17.4361 1.1296 4.85056
3296 4 0.27273 3.70551 15.6439 -2.00493 1.88397 0.918779 20.1625 20.3443 -24.1547
3297 4 -7.63787 14.4581 15.4204 -0.828403 1.11611 -2.23316 26.5212 -13.0173 10.1382
3298 4 -10.9359 21.2466 14.0093 1.36245 2.76389 -2.4871 10.0379 8.66518 2.74433
3299 4 -12.1884 23.4737 12.8769 -2.67422 -1.26333 1.83794 -11.0091 -21.0254 26.2265
3300 4 -15.291 29.2959 13.8658 0.341709 3.19023 2.39449 -5.53389 15.8217 -21.8354
3301 4 2.41128 3.71638 16.7963 -2.84123 -0.441919 -1.09067 -0.562977 13.9667 9.8277
3302 4 -1.95274 12.5481 15.4701 -0.643575 -2.05286 0.651957 1.48785 -14.4728 12.5907
3303 4 -5.40102 12.2464 14.3826 -1.42313 -0.84178 2.61159 -6.10949 14.2682 23.5466
3304 4 -5.27261 14.6402 15.1781 -0.213745 -2.24194 0.150567 23.9135 12.9049 4.70853
3305 4 -9.83365 23.5075 14.5186 -0.548657 0.490338 -1.6531 5.11563 -21.395 7.44387
3306 4 -0.0979509 10.0703 16.6418 0.549315 -1.62709 0.158805 18.3169 14.4761 4.39992
3307 4 -3.14493 12.3416 17.5986 1.14654 2.05473 0.960838 21.5721 -9.5418 -2.72233
3308 4 -9.07129 24.1993 17.3086 0.757335 -0.886476 1.01838 21.2673 -14.2375 2.284
3309 4 -10.7706 26.7025 16.4728 -1.18174 1.14588 0.468415 -3.4566 21.0009 -25.1493
3310 4 -11.6589 29.5803 16.1321 1.81082 -0.575301 -1.86989 -14.2514 -16.8007 -1.62347
3311 4 3.33446 6.02764 17.1193 1.26143 2.32382 -0.493046 -14.6422 -24.9731 15.296
3312 4 -8.64704 31.281 17.4893 0.882907 2.64167 -2.70584 -11.4412 -19.3527 24.0772
3313 4 -11.5895 31.8265 14.894 -1.77333 1.85279 0.244854 -8.74528 -25.8774 20.7394
3314 4 7.26761 1.78186 18.4858 0.2519 -0.504638 0.128225 0.101029 0.152561 0.112946
3315 4 8.03467 5.3752 16.8601 1.98743 0.222045 -0.608583 15.5322 -2.74603 -19.355
3316 4 -0.963092 15.549 18.3823 0.844902 -0.310935 0.361881 -0.524647 -0.0394762 -0.106962
3317 4 -1.24724 18.723 16.3024 -0.746446 -0.718627 -0.723918 4.14343 -8.01601 -12.1431
3318 4 -1.91543 22.7143 17.3441 -2.52026 -1.48508 0.344533 7.07367 17.0815 0.00920448
3319 4 -4.76491 24.7805 17.498 0.58757 -0.83703 0.57702 -18.1427 -23.3568 20.1813
3320 4 12.1924 2.16519 16.9085 0.358419 -0.871299 -1.46939 0.449892 -10.685 7.80326
3321 4 11.8493 4.96994 16.6916 -1.01012 1.5031 0.152529 3.57968 -21.8745 16.7841
3322 4 3.52946 16.7702 15.558 -2.20691 1.94367 -0.859979 -10.9082 5.07794 7.58266
3323 4 2.18596 17.8996 17.3351 3.23421 -1.45181 1.57007 -7.26879 11.2459 -6.83726
3324 4 -0.388201 25.1041 17.053 1.65933 -0.201491 -2.54224 -20.8014 -5.75868 17.4463
3325 4 -4.05732 27.8184 16.2239 0.523375 0.59087 -0.132357 -17.2175 24.3878 12.2941
3326 4 -5.11855 30.2375 17.4951 2.89019 0.307132 1.8994 10.4505 14.9608 -20.5374
3327 4 12.721 9.19496 17.9798 -0.496579 -0.917631 -0.777619 13.012 4.33209 -11.4423
3328 4 9.00319 9.85755 17.5068 -2.16089 4.03038 -0.594584 17.8297 -6.15223 19.0653
3329 4 6.91667 13.3137 17.2065 0.817326 0.0108339 0.46346 -16.5015 3.73719 22.3673
3330 4 1.50649 27.6778 17.3773 -1.50002 1.47687 -1.2554 -25.8538 -23.8705 -22.5019
3331 4 -1.87809 30.1219 17.1599 0.758528 -0.139536 -0.697117 25.8894 2.10601 -16.7592
3332 4 17.7361 3.20812 15.4413 -1.32414 -0.973002 2.10387 24.7858 18.1799 9.38296
3333 4 14.5612 7.69302 16.8122 -1.56232 -0.247095 2.88964 9.63259 -23.7334 19.8077
3334 4 11.5623 13.4178 17.0996 2.44763 -0.921476 -2.21984 -25.8507 -13.9633 -25.1376
3335 4 8.00807 15.7693 17.8716 -0.674517 -1.68277 -2.69849 20.8274 4.39588 -0.321457
3336 4 6.07272 16.457 15.1987 -0.630609 1.86977 -0.901663 -14.6624 15.451 8.00937
3337 4 0.799096 30.0374 16.7836 -1.18777 -0.117304 0.344782 -7.90107 -17.0666 19.8128
3338 4 17.6958 0.192085 16.791 -0.887591 -1.55732 -0.12288 -7.98454 -14.7302 -8.23226
3339 4 21.2225 3.20648 16.924 -3.20104 2.83558 0.127635 13.7119 24.1115 -0.654908
3340 4 17.3326 7.98311 17.214 -0.311909 1.55487 -3.02195 15.5222 6.94187 -4.71054
3341 4 16.349 9.32687 15.3046 -0.972709 -0.540815 0.462212 -13.3715 -5.00089 -25.9024
3342 4 12.8967 16.6358 15.5103 -0.953041 -5.58577 0.193067 16.8473 -18.843 -2.44616
3343 4 3.07764 21.8134 14.0416 0.663454 2.18484 4.70419 2.34753 -0.206515 -2.40772
3344 4 6.04598 20.6593 13.997 -1.05564 -5.08489 -4.40246 -0.940348 -1.69705 -2.39336
3345 4 4.6525 26.1612 14.7495 4.57156 2.0413 6.54359 -0.612555 1.88509 1.34582
3346 4 4.73873 28.1241 17.3178 4.23527 -2.4695 -0.753953 2.56582 3.71298 0.543819
3347 4 3.00807 31.2741 17.2177 -2.23586 1.86 0.480756 -18.8634 -16.2953 -8.43562
3348 4 19.9146 6.83002 17.1798 0.855534 -3.44702 0.315741 -6.34595 4.32736 6.88993
3349 4 16.3326 18.2498 18.2297 0.382994 -1.21668 2.63239 -0.89747 2.81315 1.45735
3350 4 14.6047 18.6725 15.4843 4.50851 -1.0973 5.61178 -3.06623 0.944733 0.624071
3351 4 7.44294 26.1558 14.0427 -6.55787 0.35818 -0.371627 1.40263 0.118722 3.48755
3352 4 26.8211 0.391814 16.6827 -3.51184 0.245353 -2.19743 -22.6511 -17.0975 2.29122
3353 4 23.8173 0.403472 17.2036 0.362492 3.02748 -4.65594 -4.77497 15.4696 12.1637
3354 4 25.637 2.65301 17.4423 1.38549 -2.44737 0.208121 -5.17989 20.8626 -24.5297
3355 4 23.237 6.65524 17.1865 1.17635 -1.4271 -1.02539 -13.8102 -4.88133 24.2803
3356 4 22.3163 9.70393 15.7722 -2.06091 1.24224 1.37875 26.4774 16.1859 -13.3381
3357 4 19.0831 14.4009 16.5491 1.56107 -0.506052 1.91678 13.9765 6.98497 11.4526
3358 4 17.7339 16.368 17.6468 -0.545292 0.146568 -0.0933943 5.31893 4.25097 14.9924
3359 4 29.4444 0.901568 16.5921 1.2256 0.0227791 -3.97237 21.8437 -12.0267 2.25511
3360 4 20.2433 16.6021 16.5313 -2.6377 -0.503699 0.980166 -19.9318 2.67161 9.25457
3361 4 18.4966 19.0954 17.1395 1.99373 0.914746 -0.510433 -6.33428 0.466808 17.5392
3362 4 16.0966 27.4069 16.6244 -6.63762 0.205981 2.1457 -3.13022 3.62529 -3.39043
3363 4 14.5099 31.9172 17.1855 0.328111 -0.055463 0.770289 4.46401 -10.1234 -3.38567
3364 4 30.9691 4.80345 16.9546 -2.15174 -0.865954 -0.860875 8.47156 -3.12909 -19.7764
3365 4 29.0116 7.89038 16.8283 0.925539 0.433796 0.395449 10.5886 9.33955 -12.3624
3366 4 24.6787 15.1757 15.6386 0.431523 0.898785 -0.762117 -16.0709 10.8335 -12.7441
3367 4 18.5127 26.4488 16.8634 0.57719 0.84483 0.604981 21.8587 -4.51817 -11.1251
3368 4 16.5709 29.615 15.1186 0.98462 1.34018 -1.42772 1.85931 7.45181 7.07874
3369 4 33.9255 1.96461 16.6562 0.939958 -0.67854 2.9856 -3.79839 -18.651 -10.3578
3370 4 33.734 4.59773 15.959 -0.280452 2.665 1.62008 9.45029 19.8274 -1.85164
3371 4 32.0993 7.0852 16.4135 0.915711 0.875642 -0.346787 6.16893 4.05924 8.13776
3372 4 28.084 14.7458 18.3639 -0.0200591 0.869567 0.738833 0.253528 -0.0627413 0.332049
3373 4 25.658 18.4352 15.7451 1.70495 -0.908348 1.42612 -6.67959 -5.72251 3.12142
3374 4 20.22 28.4234 16.9591 -1.17196 -0.0393705 1.91091 13.9413 15.3419 -26.2904
3375 4 -7.99985 18.2956 15.2157 0.390357 -0.492238 0.383321 24.4429 -3.87499 3.71821
3376 4 -11.7446 22.9395 16.2568 1.05038 0.145586 0.61577 -14.7686 -17.8851 11.1457
3377 4 -12.734 25.8954 18.0695 0.386508 1.17571 -0.742795 0.0200894 0.558463 -0.000718898
3378 4 -13.5846 27.7337 16.3745 0.245617 1.09882 -1.80813 15.3106 -5.80226 -14.8988
3379 4 -15.4772 31.6153 15.3005 0.577625 -1.03449 1.4403 -20.72 -18.018 4.28981
3380 4 -0.808672 11.6161 18.6268 -0.864178 -0.0459217 -0.321584 0.0312367 -0.0725831 -0.344132
3381 4 -3.04552 16.4528 19.7186 0.303963 0.331503 0.614671 -0.271771 -0.00482685 0.262091
3382 4 -8.2886 27.0227 17.4023 2.56315 -3.64563 -1.01918 -2.39751 9.05146 -18.9189
3383 4 -9.78011 28.7852 18.7609 -0.301861 -0.084874 -0.0164894 0.0420208 -0.42093 -0.0854787
3384 4 -12.1449 31.9149 17.4127 -0.376374 2.28485 1.52817 0.488634 -3.63988 8.38004
3385 4 4.36258 8.88442 18.7708 -0.392397 0.36146 0.874845 0.0385716 0.239903 0.141107
3386 4 1.17334 8.12482 17.5257 1.51979 0.110037 1.64157 -22.8497 -6.82764 6.49585
3387 4 3.29315 12.1582 18.6545 1.24901 -1.14074 0.433571 0.594825 -0.290885 -0.202943
3388 4 -2.95745 20.0544 17.5685 -1.85785 -0.536654 0.871184 -12.4875 11.7497 -1.98709
3389 4 -2.83004 21.8378 19.7298 0.353198 -0.0844766 0.483811 -0.0344352 -0.0867392 0.106231
3390 4 -4.45127 24.1616 20.0288 0.461206 -0.246428 0.308967 0.0297223 -0.0768568 0.176851
3391 4 8.92826 4.58061 19.5801 0.269141 0.273439 -0.846306 0.0726817 -0.0221683 -0.115998
3392 4 -0.0415451 18.4999 18.5017 0.659649 -0.16584 0.328556 -0.111566 -0.274288 -0.19217
3393 4 -1.82039 24.6429 19.5223 0.610371 0.602961 0.238849 -0.0855515 0.156687 -0.190907
3394 4 -4.94291 26.8215 19.4323 0.129317 0.265343 -0.337638 0.0247532 -0.0529907 0.276059
3395 4 13.3908 3.8843 18.4827 -0.440874 1.14766 0.448607 -0.200525 0.109746 0.393775
3396 4 9.87935 6.44492 18.0559 -0.504983 -1.69477 0.875465 0.163463 0.184042 -0.0501426
3397 4 3.48361 18.9042 19.1922 0.125619 -2.00807 -2.41256 2.71986 1.72575 -0.699067
3398 4 0.0966494 20.5879 19.5932 0.0460666 -0.0632984 0.571343 -1.12719 -0.419336 0.429227
3399 4 -0.489977 26.8904 19.5974 1.50245 -0.255741 -0.613153 0.412294 0.0405996 -0.0604275
3400 4 -3.64617 29.5249 19.7278 -0.0682588 0.0190121 0.799715 -0.365938 0.265603 -0.125577
3401 4 14.7034 6.00577 19.5432 -0.299977 0.404442 0.376907 -0.228132 0.11417 0.262035
3402 4 9.16485 11.1994 20.1943 -0.29516 0.302764 -0.256804 -0.136552 0.0873938 0.110508
3403 4 8.96355 13.4251 19.0963 0.0980185 0.505338 -0.316909 -0.047216 0.209744 0.0660013
3404 4 4.80942 18.8392 15.0533 7.77576 -4.68208 8.66776 0.290013 1.62253 0.629943
3405 4 1.40861 21.2108 16.0496 -1.36489 0.192943 -1.33788 -11.9509 -10.0043 -6.63671
3406 4 16.7593 7.21343 20.7636 -0.103193 0.0162109 0.174473 -0.034828 0.07997 0.0576171
3407 4 15.212 8.83811 19.1999 -0.0892549 1.09556 0.982972 -0.125602 0.343192 -0.133332
3408 4 11.8175 14.978 19.7065 1.20014 2.23246 1.38247 0.0317243 -0.1189 -0.424349
3409 4 10.1127 18.2722 11.704 2.62949 1.6377 -3.23559 -15.19 -0.452972 2.27894
3410 4 5.862 24.1495 17.7515 -0.951176 -7.77041 -5.56181 -1.64509 -1.85658 -0.906259
3411 4 2.66702 25.0927 16.9738 2.32841 -0.889274 -0.284957 3.44871 4.02836 2.19913
3412 4 1.64594 30.8757 19.2906 -0.271184 1.52452 0.394545 0.512594 -0.372715 0.221809
3413 4 17.8565 3.21883 19.3985 5.1602 3.87606 -0.955089 -1.33173 -0.814997 0.148521
3414 4 17.7781 9.35457 19.3675 0.328842 -0.851423 -0.872722 0.135006 0.211809 -0.0854735
3415 4 16.0548 11.669 18.3348 -0.286348 -0.567667 -0.438783 0.262474 -0.223705 -0.063676
3416 4 13.7297 18.5406 19.6606 -6.9556 -3.54702 2.48883 1.62106 4.47255 -3.28593
3417 4 7.13592 29.3076 16.7405 -8.46699 9.02995 -7.1201 0.541012 -0.0856183 0.91958
3418 4 21.2748 5.78333 19.5906 -0.0061474 -0.132246 -0.476318 -0.0548622 0.0431481 0.208196
3419 4 20.023 9.7115 17.5733 -0.537962 -2.34832 -0.844796 -18.9299 -14.9169 -12.6176
3420 4 16.6342 15.325 19.6747 -1.1215 -0.512807 -0.124412 -0.417835 -0.206549 -0.115352
3421 4 16.2546 24.1992 11.6734 -1.03843 -0.282743 -0.227593 -4.18697 -16.1774 -9.91564
3422 4 5.82115 29.2098 14.3997 3.63782 0.896108 -5.89212 1.1419 -0.0920249 -1.4957
3423 4 23.1892 2.09509 19.5603 -1.91053 0.99811 -0.257297 -0.241413 -0.147518 -0.111024
3424 4 26.2338 4.89372 19.6417 -0.164926 -0.0200455 0.00371475 -0.118088 0.198984 -0.137586
3425 4 25.3952 7.25888 18.782 0.607058 -0.152295 1.12945 -0.0929528 0.0828752 0.0418571
3426 4 23.7259 9.15615 17.798 -2.08137 -1.43376 0.115866 -3.67149 6.16351 6.73422
3427 4 20.2424 17.3841 19.1037 0.635025 -0.583136 -0.441887 0.0498917 -0.343614 0.331257
3428 4 9.40134 28.0174 11.9071 -0.652704 0.865627 3.33008 14.6228 15.0464 -21.856
3429 4 12.6581 32.1725 18.9215 -1.80884 -9.99731 5.88201 0.533168 -1.16713 -0.312147
3430 4 27.868 2.12016 18.5392 0.315826 -0.335103 0.700568 0.0175518 0.148997 0.218689
3431 4 28.8788 4.82068 18.9453 0.256965 -0.147049 -0.76129 0.028002 -0.0401925 -0.150889
3432 4 26.1569 9.71622 18.1744 0.383632 0.0166793 -0.722986 0.0602445 0.23166 -0.482363
3433 4 23.7347 12.1126 18.7388 -0.421576 -0.411785 -1.22689 -0.35214 -0.124768 -0.599153
3434 4 18.5913 27.7126 19.498 3.26724 2.61977 -1.97004 1.54587 0.821548 -1.18574
3435 4 6.19693 31.8624 15.1321 -1.21341 -1.13913 -1.95876 -7.45374 -17.457 -18.2379
3436 4 31.3589 6.16426 19.1418 0.151278 -0.425445 -0.402317 -0.0469121 -0.173996 0.0510357
3437 4 25.2233 14.044 18.8947 0.0792615 -0.345794 -0.228674 0.0250678 -0.215732 0.0263002
3438 4 23.9833 16.7913 17.3825 2.14795 2.88804 3.13207 -23.2264 11.5152 12.9099
3439 4 20.543 26.1853 18.6469 -0.328286 0.476546 -0.125945 -0.242694 0.0454755 0.211116
3440 4 18.2689 30.3714 17.4579 0.339552 -1.09932 0.712031 -21.8126 -5.43108 10.2344
3441 4 -2.90146 7.44811 18.7151 2.26484 0.947423 -0.476823 0.417153 0.624284 0.15267
3442 4 29.9778 9.6431 18.1649 -0.134581 0.631137 0.338583 -0.265236 0.0455497 -0.13182
3443 4 -9.57355 17.4107 18.3213 -2.74058 0.132258 1.04379 -0.257667 0.0822668 0.131566
3444 4 24.0869 21.2999 17.3627 1.42861 -1.86541 -2.09341 18.5093 2.70094 17.0815
3445 4 -13.5782 24.0887 19.8319 -0.325589 -0.247148 -0.36013 0.111421 0.142322 0.358334
3446 4 -9.95552 21.4107 18.1324 0.288053 -0.976311 0.319833 0.323447 0.276396 -0.27928
3447 4 -10.329 24.8297 19.5337 -1.21163 0.453108 -0.15063 -0.281467 0.111993 0.0759219
3448 4 -13.9052 30.1808 18.3035 -0.398984 -0.468642 0.335797 0.0642222 0.0133078 -0.192884
3449 4 4.91198 4.70681 19.144 0.104064 0.315235 -0.579392 -0.352557 0.163472 -0.104126
3450 4 3.10092 6.70469 19.753 0.639363 -0.639874 0.121894 0.311599 -0.0487362 -0.128864
3451 4 -0.90492 13.5514 20.893 -0.187083 0.642604 -0.471949 0.0298091 0.0520886 -0.125025
3452 4 -1.9564 15.9059 22.1071 -0.270117 -0.297272 0.40363 0.250856 -0.137128 0.0196759
3453 4 -4.03295 18.8 19.5099 -0.0362332 0.0552861 0.458252 -0.16944 -0.157054 0.303847
3454 4 -11.4444 31.2397 20.3234 0.179801 0.183439 -0.175618 0.0438838 0.00846861 0.0138553
3455 4 6.17179 8.87907 20.802 0.264788 -0.447259 -0.404456 0.157424 0.113528 -0.00808737
3456 4 5.17882 10.9929 19.939 -0.429973 0.729456 -1.27353 0.152492 -0.132935 -0.274047
3457 4 1.64344 13.5749 21.6114 0.55129 0.465322 -1.32062 0.180103 -0.162265 0.158593
3458 4 -6.65812 26.1912 20.9453 -0.299624 -0.0575239 0.0592421 -0.00982109 0.0085314 -0.105586
3459 4 9.91114 3.44444 22.5639 0.212506 -0.0934702 -0.284971 0.0940401 -0.0353487 -0.0580518
3460 4 5.99068 13.637 21.0629 -0.199244 -0.0936471 -0.43335 0.100256 0.26296 -0.260105
3461 4 -1.60288 27.1152 22.5776 -0.400691 0.232892 0.397068 -0.0335349 0.190419 0.00564021
3462 4 14.5837 3.72587 20.7659 -0.0197973 0.180075 -0.31761 0.139103 -0.0795093 -0.0714144
3463 4 11.1403 6.10708 20.4493 -0.0248496 -0.161673 -0.134523 -0.0233712 -0.0351093 -0.0436867
3464 4 2.1976 19.5291 22.6258 2.59567 2.40314 -5.39729 2.55757 0.989342 0.293186
3465 4 0.633411 22.9591 21.307 3.18734 -0.330645 -1.57431 0.0417328 -1.24058 0.237369
3466 4 12.0168 10.4133 21.7692 0.0547582 -0.243249 0.226441 -0.05199 -0.084142 0.0215225
3467 4 10.5918 12.8919 22.0084 -0.152209 -0.217364 0.470818 0.111587 0.0518248 0.461884
3468 4 3.13347 21.9567 17.2922 1.59964 -8.8037 3.23727 -0.953969 0.19902 0.979493
3469 4 1.2095 23.9013 19.1371 0.726357 -4.74178 8.15141 -2.0472 1.25769 -1.37408
3470 4 2.11004 27.891 20.1443 2.1701 -0.0678766 -0.598977 0.462401 0.058152 -0.909374
3471 4 -0.192314 30.3707 21.0117 -0.00997934 -0.0898362 -1.46545 0.373531 -0.247682 -0.160198
3472 4 17.371 0.984355 20.6589 0.45108 1.20645 -0.810421 -0.0305109 -0.432086 0.0943147
3473 4 18.7497 3.50882 22.4293 -0.0239121 0.0520859 0.348176 -0.0558339 0.0814397 0.220679
3474 4 14.1435 12.3845 19.6774 0.0204443 -0.956101 0.0109753 -0.0659871 -0.105782 -0.0823681
3475 4 5.7531 16.452 19.4622 0.266177 1.42756 2.0927 -0.525908 -0.953143 -0.678836
3476 4 3.79496 30.4362 20.482 1.43331 -2.68504 0.174968 -3.01967 6.23052 -1.82124
3477 4 20.7283 1.64111 22.5276 0.794602 0.444037 -0.30954 0.149552 -0.0443482 -0.269962
3478 4 16.7222 13.133 21.0753 -1.06805 0.304176 -1.48154 -0.643923 0.0276102 -0.785205
3479 4 14.8474 15.6283 21.5469 1.18145 -3.07351 0.440787 0.599053 0.405217 -0.116132
3480 4 24.8097 4.06584 22.264 -0.126807 -3.85107 -0.840881 0.113695 0.168655 -0.202963
3481 4 23.0535 6.4034 21.4658 0.416625 -0.207116 0.470173 0.183702 -0.182417 0.110394
3482 4 21.5619 8.6079 20.7477 2.00751 -0.707329 -4.08281 -0.566839 -0.67081 -0.039088
3483 4 19.2034 15.743 21.2766 -0.460548 -0.475345 -2.97809 -0.0863327 -0.164034 -0.436926
3484 4 25.22 1.86365 21.1647 -1.82164 2.21485 -5.39876 -0.667362 0.776946 -1.08093
3485 4 27.447 3.55307 22.1592 0.42727 0.00409091 -1.035 0.0771537 -0.0629812 -0.285293
3486 4 25.5018 8.49224 21.9049 0.320332 1.70385 -17.2829 0.376267 -0.0932277 1.37165
3487 4 23.0789 11.8371 22.2142 -0.49944 0.112288 0.793613 -0.243558 0.0596819 0.300812
3488 4 21.2471 14.9486 19.92 0.0591848 -0.144596 -0.199937 -0.0281119 -0.161084 -0.106588
3489 4 20.1129 18.0354 21.7791 0.278313 -0.305698 -0.701664 0.33214 0.119188 -0.0848762
3490 4 16.7187 21.8871 17.0009 4.61769 -6.31162 -4.72872 -2.54413 -0.919388 1.05836
3491 4 29.7798 0.830283 20.464 3.54106 -4.81841 2.51498 0.838183 1.08131 0.915663
3492 4 26.22 11.2483 20.3247 0.100777 -0.652175 0.045665 -0.178503 -0.256504 -0.00175454
3493 4 21.7129 20.2315 22.0088 -0.235806 -0.293393 -0.327265 0.0337964 0.0205733 -0.138903
3494 4 19.3019 25.2688 20.792 0.57996 -0.423671 -0.0525594 -0.283525 -1.88881 0.64858
3495 4 32.2973 6.22564 21.6 1.38976 -0.847988 -0.313068 0.221999 -0.191401 -0.0196882
3496 4 23.3841 19.9745 19.7031 0.083377 -0.262246 -0.108043 0.238497 0.194342 0.0228735
3497 4 21.6652 23.3419 18.8527 0.529161 0.378644 -0.536303 0.651666 -0.497319 0.0442463
3498 4 18.438 31.9938 20.1257 -0.613761 0.447251 0.254074 0.0744736 0.0753335 0.437772
3499 4 34.9241 0.793355 21.5858 0.159139 -0.716507 -1.07197 0.100303 -0.151686 -0.101764
3500 4 -1.92059 5.93299 20.4239 -0.537593 -0.524291 0.323105 -0.221383 0.0666665 -0.0448247
3501 4 -3.54567 8.62636 20.8877 -0.434824 0.260585 0.568602 -0.132485 0.0103966 0.0508776
3502 4 -10.6088 19.9089 20.0846 0.340829 0.0469414 -0.403163 -0.0299503 0.071584 0.165859
3503 4 -12.7203 22.3996 21.5961 5.45072 2.14289 -0.330192 -1.2968 -0.652778 0.38582
3504 4 -14.8412 32.0613 21.7628 -0.175196 0.670288 0.0440961 -0.0555767 0.131004 -0.0812881
3505 4 -0.332738 2.04531 18.8715 -0.183205 -0.781316 -0.451121 -0.482064 -0.450714 0.165198
3506 4 2.20253 2.81469 20.5224 -0.0630068 -0.290826 0.144189 -1.84871 -0.481344 -0.458224
3507 4 -4.97236 14.9784 19.1793 -1.06963 -0.324496 0.0591031 -0.42133 -0.0961561 -0.423986
3508 4 -8.71586 22.8281 20.0781 0.0342954 1.04511 -1.01946 -0.0106408 0.232394 -0.312524
3509 4 3.5681 1.37931 19.209 -0.503801 0.00625611 -0.130486 -0.230603 -0.444453 -0.0633426
3510 4 4.49898 2.28966 23.3913 1.14823 -0.854768 -1.95895 0.324403 0.0127025 -0.303065
3511 4 1.04462 4.83794 24.933 0.103673 -0.31527 -0.383641 -0.0455702 -0.0613366 -0.0377658
3512 4 -4.73807 15.6738 24.8528 -0.114238 0.0494559 0.0433215 -0.101108 0.0799566 0.0916753
3513 4 -6.84304 17.9695 24.4696 -0.0762742 0.0540162 0.0138266 -0.0415866 -0.0291407 0.0492412
3514 4 -8.49382 21.7429 24.0196 -0.208114 0.0699759 1.74954 -0.00230854 0.0461849 0.111008
3515 4 -9.9925 24.2128 24.2399 -0.0670859 0.0735622 -0.00517122 -0.000289467 -0.00634334 -0.0379508
3516 4 5.81272 3.96996 24.7503 1.01064 -1.62475 -0.136725 0.08809 -0.109377 0.15321
3517 4 -0.879522 15.2581 24.6758 0.202916 -0.26985 -0.0312693 0.105657 0.014495 -0.0597553
3518 4 -2.93662 17.3761 24.0527 -0.26291 0.798039 0.131999 -0.0303158 -0.00238434 0.0684999
3519 4 -4.63812 19.2708 23.5361 -0.3009 0.0776809 -0.0710455 -0.143067 -0.0644075 -0.00309468
3520 4 -6.09838 25.9759 24.2234 0.0225661 0.239705 0.250617 -0.199293 0.0558508 0.249127
3521 4 -8.47497 26.8379 24.6358 0.241017 0.465181 0.35566 0.0837164 0.23468 0.117925
3522 4 7.65541 7.55192 24.2059 0.321975 -0.660291 1.26623 0.100455 -0.264894 0.125922
3523 4 2.83321 11.6258 23.8373 -0.22606 -0.140276 -0.137361 0.0558916 -0.165392 0.0497528
3524 4 2.91121 13.5024 25.5224 1.37684 0.0851591 0.0159789 0.116582 -0.0480915 -0.0755806
3525 4 -5.15056 28.8211 23.6402 0.985554 1.64959 -0.0388085 0.0706312 0.371609 -0.0325444
3526 4 -7.34447 29.6357 26.1021 -4.87652 -3.55749 2.86114 -1.6557 -1.32414 0.971959
3527 4 -8.81845 31.8036 23.5123 0.0559014 -0.133093 -0.0739927 0.00326402 -0.041602 -0.0209569
3528 4 11.4975 2.58819 24.3284 0.124337 -0.181464 0.0746654 0.0275379 -0.0207807 0.0247783
3529 4 5.17258 14.3634 23.2845 0.15076 0.431446 0.600341 0.446398 0.533306 0.0867057
3530 4 -3.29922 30.1362 22.229 0.7045 -0.0647223 -0.037193 0.171032 0.0166232 0.0473898
3531 4 14.5731 0.0782101 23.7861 0.178683 0.078893 -0.12431 0.178928 -0.0238333 -0.114186
3532 4 0.223199 24.8585 23.5301 2.8535 -0.738873 3.07688 -1.82338 0.58934 1.43993
3533 4 17.7847 2.70684 24.7179 0.164655 0.831186 0.289058 -0.164552 -0.226445 0.586383
3534 4 11.7256 11.8482 24.0238 0.200276 0.204565 -0.307088 0.0597894 0.305627 0.0579734
3535 4 1.69805 26.2767 22.4972 5.76844 -2.22186 -4.85058 0.0455801 4.28272 0.77401
3536 4 23.7109 0.584244 23.5911 -4.37151 -3.32653 3.24283 -0.0156571 0.667594 0.326626
3537 4 1.01182 31.0309 23.0876 4.35347 1.65637 -2.30401 1.25961 0.0585848 -0.373154
3538 4 18.3045 0.761169 23.3843 -1.14983 2.06998 0.0640371 -0.321798 0.576282 -0.196813
3539 4 13.5916 14.2132 23.8768 2.05809 0.71605 -2.1715 1.1077 -0.330787 -0.154687
3540 4 12.2033 17.1715 18.4641 0.911145 0.061995 4.40013 -0.294522 2.40052 2.89927
3541 4 3.04455 29.8255 23.4594 2.57238 0.943569 4.72525 -3.25211 1.26986 0.913022
3542 4 21.4965 6.34591 23.83 -0.0257932 0.293882 0.159205 0.0347756 0.173555 -0.00823903
3543 4 16.1844 15.0067 24.131 1.95715 0.104721 0.613797 0.154603 0.540356 0.537106
3544 4 16.9074 19.4709 20.441 -3.0599 -3.25275 -0.251838 1.83471 -0.776735 2.88703
3545 4 15.5673 17.9671 12.3443 -0.469399 0.189377 0.626943 -13.6559 -1.52888 -21.9811
3546 4 12.5854 27.1688 13.6197 -6.86043 -7.4239 6.75061 1.48727 -0.107616 -0.504309
3547 4 24.683 6.8436 24.1247 1.14125 -1.87176 -0.748696 0.592078 -0.710391 0.284382
3548 4 18.4475 13.8065 24.5124 1.43234 -0.227809 0.0935545 0.512827 -0.00770251 0.0525401
3549 4 18.8517 21.2768 19.7524 -1.07 -0.103974 0.260781 1.07501 -0.72861 0.440494
3550 4 16.4601 31.669 18.5788 0.244328 0.567166 0.983448 0.368366 -0.378837 0.882195
3551 4 16.9534 30.665 22.111 -0.300247 0.4711 0.162319 -0.362563 -0.113103 -0.435738
3552 4 9.60874 29.8681 15.2587 -0.043668 -2.13135 -4.83374 2.15798 -1.51824 -0.796513
3553 4 27.0245 2.56755 24.4578 -3.31798 -1.12024 -1.88334 -0.728909 -0.016103 0.644457
3554 4 24.3688 10.5701 23.8704 0.272563 -0.0431191 -0.121113 -0.0265946 -0.0435259 0.0239429
3555 4 19.7801 19.3708 23.8231 -0.54003 2.95796 0.26227 0.308688 -0.484016 0.0425103
3556 4 20.0511 21.6569 23.2116 -0.20496 0.490052 -0.382548 -0.584902 0.688834 -0.754776
3557 4 18.5809 27.1612 23.5298 -3.91201 -7.26407 0.997616 -0.694763 -0.564376 0.60214
3558 4 30.8916 1.11016 22.8434 0.779178 0.908126 -2.8202 1.56233 2.16413 -2.07901
3559 4 30.074 3.2279 24.0198 -0.182578 1.21514 0.010171 -0.00219427 -0.282371 0.337762
3560 4 31.0205 5.5972 23.8473 -0.104137 0.985731 -0.353197 -0.102738 0.250607 -0.12385
3561 4 26.61 9.6044 24.32 -0.279788 -1.8337 -3.29623 -0.0952758 -0.199953 -0.340472
3562 4 27.2673 12.7808 23.0704 -0.0720015 -0.456581 -0.270485 -0.059613 -0.0691587 -0.0531532
3563 4 22.035 22.7537 24.2931 0.107118 -0.354938 0.423351 -0.161965 0.11885 0.110356
3564 4 33.3517 1.37717 23.8324 -1.95483 -0.592619 -1.03297 -0.601766 -0.0300589 -0.563331
3565 4 34.2912 4.45841 23.7599 -0.724085 -1.78332 0.3891 -0.224574 -0.267768 -0.00882385
3566 4 30.155 8.05103 23.9982 -0.662023 -0.0748658 -0.0596296 -0.257113 0.193012 -0.0706255
3567 4 29.8152 12.3805 24.3867 -0.144463 0.158262 -0.301618 -0.0790773 0.111629 -0.0571312
3568 4 -17.6081 31.3036 22.5925 -0.421774 -0.457076 -1.32697 -0.000204378 -0.214127 -0.575136
3569 4 35.8267 1.98388 24.2207 -4.28606 1.18095 0.0301333 -0.461721 -0.10232 0.120248
3570 4 1.13511 2.69493 23.7715 -3.06328 -2.25491 0.773298 -0.60445 -0.305735 0.0665224
3571 4 -2.05223 6.89852 23.621 0.77336 -4.16215 -3.95852 -0.0141684 -0.704282 -0.721443
3572 4 -7.06173 15.8202 23.1631 -0.208734 0.168627 0.0645337 -0.136985 0.0977067 -0.0272377
3573 4 -15.8294 30.7235 24.5575 0.425543 1.17297 -2.40664 -0.00629499 0.636824 -0.688926
3574 4 2.81712 0.875088 24.2884 0.0518936 3.95255 1.41891 -0.0119471 1.00264 0.656274
3575 4 0.746265 10.4521 26.075 -0.654112 0.107599 0.39079 -0.110314 0.0600201 0.161295
3576 4 -0.941246 12.0566 25.2148 -0.0205714 0.148351 -0.0891897 0.00692959 0.129384 -0.0879863
3577 4 -6.7605 20.6648 25.9038 0.114705 0.0133226 0.0421688 -0.0731485 0.125212 0.00299834
3578 4 -8.71521 24.7303 26.664 0.256852 -0.494967 0.477634 0.146253 -0.00173772 0.0722722
3579 4 7.91012 2.66983 25.4811 0.798995 -0.616515 0.539443 0.19729 -0.0546415 0.0575338
3580 4 4.80527 6.38758 25.8696 0.278653 -0.421557 0.0805251 0.173027 -0.114412 0.683735
3581 4 -3.29777 18.7472 26.1753 -1.10229 0.204195 0.88251 -0.222257 0.0596182 0.169632
3582 4 -4.40026 22.4971 25.9853 0.226732 0.152514 0.223312 -0.0182524 0.0945093 0.097387
3583 4 -6.84206 23.5245 24.9346 -0.200816 0.821164 -0.238813 0.134426 -0.0715541 -0.258877
3584 4 -10.2343 31.7544 27.0455 0.0420073 0.0427493 -0.0605275 0.000956178 0.0164197 -0.00218494
3585 4 8.96096 1.92778 27.4916 0.842097 -0.20866 0.861123 0.235203 -0.00433138 0.0701745
3586 4 8.65712 8.01819 26.4977 0.000323617 0.0828522 0.365063 -0.151667 -0.0072883 0.115365
3587 4 1.34133 12.6612 27.2008 -0.159148 0.408554 -0.333122 0.0504426 0.166143 -0.0257151
3588 4 0.0499741 18.5584 25.1614 3.00845 2.59082 -0.148101 0.0138903 0.0219146 -0.025341
3589 4 -1.87941 23.3952 24.9734 -0.52004 0.323551 0.323492 0.14535 0.0185597 0.0782302
3590 4 -3.20144 24.7309 27.0364 0.206221 0.216872 -0.0919801 -0.00535825 0.105335 -0.0304036
3591 4 -5.92309 32.0248 26.4116 -0.701932 -1.56089 -1.6345 -0.279361 -0.457916 -0.48956
3592 4 10.2779 0.623577 25.7334 -0.0786635 0.0372378 -0.011286 -0.0109262 -0.01754 0.0160167
3593 4 5.74624 13.3404 26.0612 -0.226288 -1.44512 3.64172 0.258194 0.326012 -0.443314
3594 4 3.27886 15.8871 24.6558 0.9285 -0.556523 -0.0680404 -0.0704629 0.218099 -0.263604
3595 4 2.29312 18.005 26.1683 -1.18962 -0.217894 0.763388 0.137835 0.0800036 0.955637
3596 4 0.0648669 21.6264 24.962 3.43585 -0.460024 3.35138 -0.0783749 -1.0193 0.326308
3597 4 -1.28788 26.0024 25.3979 -0.127363 -0.292123 -0.212545 -0.745587 -0.165267 -0.103782
3598 4 13.9143 2.33988 25.231 0.0407517 -0.0471832 0.0607544 -0.0303451 -0.0304025 0.0111639
3599 4 14.2852 4.39275 26.7099 -0.0571397 0.0298228 -0.0464677 -0.0255386 -0.00184763 -0.0668509
3600 4 11.1301 8.4677 25.7373 0.00894683 -0.294294 -0.153595 -0.0483733 -0.174812 -0.0917736
3601 4 7.45211 15.1446 25.4228 -0.18768 1.8263 -0.672378 0.14472 0.0263487 -0.0392709
3602 4 3.32555 21.9418 22.6241 -9.17829 5.0731 -3.51333 -2.27996 1.80106 -6.98793
3603 4 0.44489 29.2936 25.0659 1.57243 1.8272 1.21702 -1.96949 1.99577 -0.311992
3604 4 16.1582 1.66357 26.343 -0.0115832 -0.105154 0.193668 0.641913 0.0146177 -0.216461
3605 4 14.9453 8.22418 26.3098 -0.330829 -0.00526034 -0.0419575 -0.0694254 -0.0350947 -0.0213626
3606 4 13.3392 10.9314 25.6308 0.113385 -0.306156 0.837329 -0.0666648 -0.213712 0.117269
3607 4 8.68405 20.1729 17.0418 -0.749517 1.64893 1.4025 1.86976 -1.93154 -3.6519
3608 4 17.8629 5.7207 26.8147 -0.225559 0.0890693 0.140673 0.296966 0.385564 0.0801492
3609 4 16.9893 8.82968 25.2311 -0.0778089 -0.0586388 0.178143 -0.0520307 -0.0261878 0.0319572
3610 4 14.875 13.5449 25.8581 -0.218759 0.688716 -1.12923 -0.27742 0.184994 0.0321385
3611 4 11.5015 16.7049 27.135 1.62652 -2.72221 14.3347 -0.705268 -1.4508 -2.45121
3612 4 6.75444 26.3866 17.2292 -15.1174 0.9211 -10.3669 -1.67483 2.58829 3.49944
3613 4 5.8681 31.5922 20.3819 0.457079 -0.946513 4.29493 2.2284 2.97364 -2.15988
3614 4 20.1807 5.53962 25.9766 0.11153 0.184228 -0.243644 -0.0156985 0.156354 -0.0445021
3615 4 20.2931 10.0922 27.0905 -0.0115551 -0.387728 0.0555344 -0.000212664 -0.14761 -0.00500208
3616 4 17.2502 12.5275 26.4472 0.46615 -0.183547 -0.105299 0.208343 -0.142019 -0.0899406
3617 4 20.1329 24.1277 23.393 -1.86833 0.159226 -1.16592 1.89842 0.930272 -1.01723
3618 4 10.7254 24.3193 16.4325 4.53537 -1.84283 -3.02448 -2.34771 2.06817 2.09004
3619 4 27.9355 0.176524 25.0431 -1.36036 4.74706 -0.869133 -2.67916 -3.67972 -2.14672
3620 4 24.9027 2.32446 25.9904 -1.09788 -4.57631 0.199837 0.00478554 0.223392 -0.455572
3621 4 26.4557 4.37362 25.9779 2.70469 -0.774859 -0.542927 -0.444941 0.253001 -0.248943
3622 4 19.5293 16.076 25.7295 1.19396 -0.315741 0.119986 0.245705 -0.0447714 0.160159
3623 4 18.5999 28.2588 27.2139 1.54981 -3.82208 2.53489 -3.54196 2.49377 -2.21478
3624 4 21.8244 16.6516 25.0716 0.408239 -0.0876934 0.110919 0.0861174 0.111543 -0.0755048
3625 4 19.8582 21.2164 25.5369 2.29684 1.46044 -0.954919 0.0477302 0.474819 0.335158
3626 4 19.8766 25.7244 25.599 -3.28206 0.138871 1.08173 -0.296033 0.204114 0.320961
3627 4 29.4011 2.59871 26.3459 -0.836415 1.28474 1.68244 0.246181 -1.3217 -1.12611
3628 4 32.0835 3.83683 25.524 0.667598 0.109575 0.200254 0.0957912 0.0759849 -0.0011775
3629 4 28.6581 10.3619 25.9384 -0.397561 0.101816 -0.184718 -0.103664 0.0809938 -0.00149088
3630 4 26.645 13.7731 25.1895 -0.189432 -0.577097 -0.178576 -0.076446 -0.118826 -0.0657478
3631 4 26.7424 16.4915 24.7901 2.60852 -1.33087 0.0769395 0.606844 -0.197248 -0.00968575
3632 4 23.0867 20.1312 25.8509 0.0883619 0.272617 -0.196889 0.310228 -0.269353 -0.180004
3633 4 17.5781 32.2892 25.6566 -0.215821 0.725367 -0.351551 -0.384569 -0.24816 -0.127266
3634 4 33.5178 2.35577 26.9144 0.631863 1.21566 0.385476 0.0667846 0.235552 0.126763
3635 4 31.707 8.67137 26.3862 -0.385572 0.313835 0.0552241 -0.0955943 0.205698 -0.0505049
3636 4 -7.04992 14.0993 26.6004 0.101531 0.108645 0.0154026 0.00112133 0.0775997 0.0645078
3637 4 -8.8977 16.6967 26.7705 0.944984 0.156677 0.419197 0.258536 0.00826272 0.209826
3638 4 -9.88038 19.553 26.3245 0.0419333 0.293588 -0.000785982 0.0192698 0.0873185 0.0287353
3639 4 -15.1302 26.5655 25.7085 1.97645 1.00869 1.61883 0.37747 -0.0272202 0.13828
3640 4 20.0084 29.424 25.7344 4.30181 1.51641 -2.71431 -0.561174 -0.531958 0.327983
3641 4 -17.5737 31.6773 26.517 -2.36041 -0.876986 0.663611 -0.809647 -0.762029 0.346521
3642 4 0.614774 1.87506 27.3589 0.328002 0.134591 0.380795 0.321115 -0.146497 0.0866629
3643 4 -0.706135 7.35203 26.0924 0.0167376 -0.155692 -0.0211806 -0.0911189 0.0058448 0.0478356
3644 4 -4.35006 11.5734 26.0523 -0.167692 0.0225265 0.0373559 -0.0201716 0.0793495 -0.0123952
3645 4 -11.6573 26.5847 25.5683 0.014684 -0.0477906 -0.00283022 0.0356291 -0.0844976 -0.022751
3646 4 -12.3915 30.6932 25.4552 0.222453 0.0138729 -0.125532 0.0194825 -0.0681374 0.0296712
3647 4 0.0939964 9.49058 28.3563 2.24738 -2.02142 2.5035 0.333932 -0.384726 0.404139
3648 4 3.82183 5.94788 28.2544 -0.0588515 -0.224772 -0.218834 -0.13903 -0.114253 0.182958
3649 4 -1.26277 17.5974 27.5016 -0.304841 0.0596529 -0.172271 -0.156674 -0.0384855 0.0933245
3650 4 -2.30102 21.2175 28.7216 -1.60275 1.14509 -0.38301 -0.263537 0.250928 0.062396
3651 4 8.85497 6.20032 28.5384 0.236947 -0.461077 -0.110539 0.0889874 -0.0276169 0.00327408
3652 4 3.79202 11.7724 28.3319 6.76948 3.74017 -4.49159 -1.51215 -0.831545 1.10625
3653 4 2.48576 15.6959 26.9111 0.979801 0.0698315 -0.721346 0.172768 -0.200658 -0.153285
3654 4 1.57733 18.2043 29.4413 3.56837 1.71582 -0.0752116 0.374313 0.279946 -0.162302
3655 4 -0.0877952 20.1271 29.9036 -0.34841 -1.83832 -0.183319 0.071999 -0.39592 0.0571064
3656 4 -1.15136 23.6657 28.2387 -0.323877 -1.35304 -0.0257822 -0.271676 -0.264149 0.134919
3657 4 12.0276 3.43393 27.8651 -0.24986 -0.207256 0.103446 -0.0311445 -0.00285902 0.000533469
3658 4 7.21648 14.0262 29.3503 -0.343202 1.08976 0.850144 0.00107145 0.279157 0.106928
3659 4 2.47819 23.8903 32.3694 -8.92847 -8.26492 11.8513 2.47244 -5.32931 -0.0580951
3660 4 -0.0502751 25.9413 28.2941 -2.6894 -0.348539 0.471396 -1.09311 0.0109491 0.400429
3661 4 -1.57384 28.3202 27.2531 0.721705 -1.41045 0.596898 -0.413262 -0.250642 -0.123426
3662 4 16.4162 2.84401 28.5517 0.278324 0.244139 -0.0635295 0.0715123 0.0558704 -0.0369394
3663 4 15.1591 6.52681 28.4224 -0.168447 -0.108648 -0.138414 -0.0411286 -0.0354305 -0.110199
3664 4 12.5379 7.48312 28.0629 0.0862661 0.13459 -0.666543 -0.0152627 0.0543189 0.035652
3665 4 10.1999 9.71802 27.8038 0.212308 -0.158082 -0.27126 0.102961 0.171376 -0.219922
3666 4 10.8966 11.9326 28.4661 0.626017 0.242109 0.416993 -0.00128389 0.186133 0.0777972
3667 4 1.38409 20.6538 26.6749 -0.0446034 -3.48424 0.683256 1.65606 0.393774 0.281872
3668 4 0.319123 28.6314 28.6713 1.06216 1.58956 0.57525 -0.451788 1.22318 -0.0296267
3669 4 0.0900432 31.032 26.6752 3.41728 -1.3045 0.892014 0.564663 -0.965484 -0.154718
3670 4 14.7133 10.4052 27.9162 -0.111394 -0.325904 -0.0106198 -0.0731998 0.101 0.0332031
3671 4 13.0949 12.7555 27.3924 0.170476 -0.703384 -0.203388 -0.142235 0.0206871 0.197491
3672 4 12.4369 15.4455 28.9038 -1.27639 -6.63719 -0.827702 0.0728531 -1.0082 -0.341825
3673 4 3.96798 26.8858 21.3879 1.69556 -1.81067 -13.8001 -6.40002 -2.26318 -1.70182
3674 4 2.24104 31.2049 27.8654 -0.432533 -0.0329537 -1.4261 0.417325 0.169299 -0.715703
3675 4 19.3527 1.02422 27.7967 1.60797 -1.08096 1.25625 -0.0467142 0.0381094 0.369776
3676 4 21.1403 3.06105 27.4256 -0.585939 -0.0615976 0.186523 -0.179457 0.129058 0.106099
3677 4 20.2574 5.2584 28.6838 0.487982 -0.190648 0.260262 -0.0302066 0.0120671 -0.0472759
3678 4 18.1366 9.59643 28.3006 -0.344376 -0.770129 -0.766726 -0.0828019 -0.302545 -0.194616
3679 4 22.8445 1.23258 27.4108 -0.76934 -0.994404 -2.47925 -0.202953 -0.222782 -0.596671
3680 4 24.6217 4.22427 28.0769 -0.495651 0.320951 0.641386 -0.098177 -0.097281 -0.0994484
3681 4 22.5754 5.49789 27.1428 -0.206574 0.523255 0.0842544 0.0465639 0.317664 0.017104
3682 4 22.8149 7.77574 28.2954 0.373172 -0.330575 -0.241076 -0.0484375 0.173928 0.0578537
3683 4 18.4358 13.134 28.726 0.0924151 0.0855816 0.0371592 0.0624892 -0.0149844 0.00686141
3684 4 17.8043 15.3489 27.2611 -0.603776 0.296687 0.276993 0.0618509 0.591115 0.398328
3685 4 26.3077 2.11688 28.6415 2.04137 -0.87329 -1.18604 0.524232 -0.0796856 -0.0259618
3686 4 26.4605 6.2591 27.5677 0.601838 1.6171 0.463811 0.0736802 0.186943 -0.067955
3687 4 21.2324 14.6264 27.2079 0.249782 -0.0439484 0.00989103 0.0875226 -0.0463127 0.0643949
3688 4 15.9893 21.0283 24.1358 -1.83379 -6.88713 3.38884 -1.72438 5.78878 5.68322
3689 4 28.9417 4.44584 27.7347 0.126017 -1.41022 -0.0116326 -0.34171 0.917792 0.50404
3690 4 26.9157 8.86576 28.1034 0.616792 1.60588 -1.55866 -0.0152243 0.166668 -0.134512
3691 4 25.1448 10.9181 28.3805 -0.350525 0.343388 -0.0243551 -0.0657235 0.100057 0.0233745
3692 4 23.4522 13.8732 28.3836 0.325363 -0.249859 -0.00320472 0.0476339 -0.0168849 0.035626
3693 4 16.6417 24.8542 22.2856 -4.0432 -5.09305 -13.739 1.44162 -0.722404 -1.34261
3694 4 16.25 31.3644 28.1791 0.675712 2.26221 1.47326 -0.91691 -1.26891 -0.0712319
3695 4 32.3363 1.87284 29.1002 0.255547 -0.308769 -0.62424 0.0234068 0.157512 0.0471728
3696 4 28.7403 10.7428 28.9126 0.147337 0.623115 -0.685466 -0.00921301 0.170235 -0.277077
3697 4 28.9878 13.7769 28.8172 0.133767 -0.359832 -0.190237 0.011461 -0.111249 -0.0181311
3698 4 27.7179 16.3385 29.2325 -0.192227 0.363047 0.257128 -0.0295683 0.0674014 0.135463
3699 4 26.045 18.4528 28.7316 -0.0749864 0.20567 0.238023 -0.00418859 0.0716295 0.102532
3700 4 22.0137 23.4856 27.8963 -0.0482939 -0.44348 -0.0538814 0.050703 -0.269337 -0.048286
3701 4 20.8361 26.7184 28.9498 0.3888 -1.60658 0.199348 0.367443 0.150915 0.599075
3702 4 18.9995 30.8939 28.8003 0.500562 0.632235 -0.215651 -0.116862 -0.155956 -0.279614
3703 4 35.5261 1.77023 28.8499 0.720911 -0.189315 -0.224431 0.0589674 0.0351657 0.0801463
3704 4 -12.9094 25.2431 27.2754 -0.0453333 -0.0940954 0.0368664 -0.0288421 0.0312837 0.0306194
3705 4 -16.0088 29.05 29.4217 0.122632 0.599721 0.0694067 -0.424528 -0.0594054 -0.14772
3706 4 2.55065 0.305749 28.5186 0.92083 0.461976 0.575432 0.218953 0.148453 0.0830977
3707 4 2.07415 2.70031 29.5254 -0.0750579 0.646273 1.15128 0.0396874 0.0735517 0.386556
3708 4 -1.9329 6.92464 29.2508 0.413448 -2.32864 -1.12104 0.0969439 -0.753735 -0.52347
3709 4 -2.41839 10.8416 27.2626 0.0999631 0.131613 -0.329502 -0.0221167 0.035204 -0.0550571
3710 4 -10.2043 22.0654 27.3089 -0.0888768 0.0299357 -0.0571432 0.0425618 0.06098 -0.00010235
3711 4 -11.0532 24.1369 28.6641 0.0997409 0.0845864 0.158962 0.0310639 0.0299309 0.0285133
3712 4 -11.5419 28.3421 27.1149 -0.0550982 0.00502733 -0.11554 -0.0317773 0.00948568 -0.091334
3713 4 0.22274 6.72813 30.679 -0.0551681 -1.62198 -1.0723 -0.0447797 0.236566 0.0464179
3714 4 0.22186 9.16703 31.1422 -2.8146 -5.26501 7.19508 1.34445 0.689335 0.532914
3715 4 -2.06251 12.7053 28.7865 -0.0683198 -0.0121297 0.0719479 -0.0965149 -0.00548375 0.0112412
3716 4 -4.51775 15.4445 29.9878 0.0385864 0.00957557 0.0432773 0.150952 -0.00321872 0.0281129
3717 4 -5.89387 18.7086 29.7677 -0.0983947 0.125412 -0.0442359 -0.0474606 0.183197 0.0691849
3718 4 -7.17328 23.0048 29.4783 -2.03558 0.933151 2.10153 0.5198 -0.740934 -1.02224
3719 4 -9.09719 24.9627 31.1402 -6.86534 -0.672339 -1.04532 0.862868 0.657946 0.221093
3720 4 -3.75358 17.702 30.6474 0.475395 0.543518 -0.0711015 0.0173765 0.283554 0.0835469
3721 4 -8.73133 27.7261 30.2566 -0.491621 1.11804 0.198736 -0.0485729 -0.236889 -0.10157
3722 4 7.24701 7.61918 30.4433 0.162268 -0.95166 -2.19647 0.0873776 -0.034461 -0.220718
3723 4 4.61228 8.89828 30.7551 0.34913 -0.35999 0.322634 0.125385 0.165674 0.0296253
3724 4 -6.0643 26.7285 28.9488 -0.148084 0.264998 -0.669743 -0.125217 0.135662 -0.182507
3725 4 -6.26539 29.1294 29.7977 -0.438238 0.00926965 -0.0786729 -0.358857 0.0517311 0.0166169
3726 4 9.6619 7.33963 31.3826 -0.217825 0.0559679 -0.0187011 -0.0108614 -0.170732 -0.0776811
3727 4 7.80738 10.052 30.7231 0.0520092 -0.567515 0.101872 0.0232793 -0.0741479 -0.0635041
3728 4 -2.75778 27.1984 29.6968 -4.38086 0.504399 8.1796 0.318535 -0.0509324 -0.743387
3729 4 -3.85874 29.9803 29.9769 -0.992739 0.749352 -1.02991 -0.947527 0.674609 -0.546796
3730 4 15.867 2.15401 31.0393 -0.14921 0.0381173 -0.0813302 -0.0251144 -0.0116873 0.0661744
3731 4 15.0926 5.74983 31.309 -0.105624 -1.35286 2.28851 0.159826 0.0908471 0.0708618
3732 4 -0.451433 26.3801 31.3335 -0.413995 -2.89652 0.576111 -1.38244 0.375979 -0.781751
3733 4 16.9723 4.47397 30.3492 -0.0643178 0.188316 0.0341158 0.0394181 0.0208398 0.0318539
3734 4 13.6904 9.52134 31.5876 0.31512 -0.567736 0.333719 0.177093 -0.150529 0.104033
3735 4 12.2583 11.7097 31.499 -0.62499 -1.70322 2.06027 -0.115524 -0.271645 0.436456
3736 4 10.3368 13.1365 30.515 0.0629167 0.520678 1.10833 -0.11682 -0.216116 0.148132
3737 4 3.94802 24.5713 28.536 -2.98198 -1.49564 -8.64459 -1.54043 -0.237955 -2.03012
3738 4 1.10617 30.1547 30.8792 -2.94597 3.14664 -1.79652 -0.356859 0.506904 -0.593321
3739 4 19.8347 3.68268 31.9697 0.0922724 -0.0410074 -0.0959636 -0.0157494 0.103454 -0.0670624
3740 4 6.35986 26.5175 23.8038 1.14146 -9.22367 -2.77774 6.30231 -0.490593 -2.96696
3741 4 20.3361 0.316628 31.4672 -0.446138 1.02212 -0.248051 -0.0802957 0.188299 -0.196655
3742 4 23.4892 4.09503 31.8029 -0.707269 0.241964 -0.360651 0.149729 0.102383 -0.0899901
3743 4 19.8832 9.36002 30.1174 -0.527981 -0.210201 -0.975829 -0.134184 -0.0306903 -0.202465
3744 4 18.1708 13.299 32.7684 1.11357 -1.04196 2.12437 0.71136 -0.703653 1.55175
3745 4 6.77609 18.2404 20.7336 -0.96514 -4.27697 9.26285 -4.53767 2.49076 -0.832898
3746 4 14.7065 25.9394 14.635 -4.05879 -6.63465 3.82083 3.23658 -0.117963 3.09535
3747 4 24.0039 0.499269 29.6846 -1.0981 1.22969 -1.29556 0.547771 0.236268 -0.401914
3748 4 21.367 13.0577 29.5385 -0.155561 0.124065 -0.224806 -0.14678 -0.013105 -0.122323
3749 4 19.0593 15.6395 32.8991 -0.33097 -1.13976 -0.0447751 0.462212 -0.629853 -0.129184
3750 4 18.1365 18.6356 30.2637 -4.50281 -1.47337 0.665596 -1.16042 -0.0955631 0.195488
3751 4 15.7641 17.4819 25.4911 3.2707 4.8396 1.66015 -0.296813 -1.39514 -0.134936
3752 4 27.5647 5.48251 30.4053 0.119173 -0.131406 -0.00311399 0.095496 0.0102969 0.0249586
3753 4 25.0131 7.22831 30.9416 0.0329879 0.0251537 -0.145634 0.0429986 0.0623377 -0.0459679
3754 4 22.3923 15.0827 32.3528 -0.085188 0.114388 0.125743 0.104853 0.043276 0.0206553
3755 4 19.683 22.6804 27.5013 1.19072 0.0551584 -0.0739696 0.0916157 0.492975 -0.386981
3756 4 17.1762 29.9908 33.0865 5.74953 -1.95018 -1.51432 -2.88976 -2.03654 -2.9528
3757 4 29.2472 1.46666 32.3799 -2.10394 5.95399 -0.724007 0.174912 0.188891 -0.0389393
3758 4 31.6295 4.85558 29.4334 0.0412419 -0.204383 -0.245769 0.112019 0.126357 0.0258975
3759 4 29.3993 8.28401 28.8029 -0.220594 0.576689 -0.239841 -0.0462133 -0.00574163 -0.0637049
3760 4 26.245 9.59901 30.6759 -0.156356 -0.0906426 -0.301693 -0.0901924 0.112962 -0.0142158
3761 4 25.5224 12.334 32.0349 -0.681993 -0.942159 1.0924 -0.276214 -0.133379 0.144811
3762 4 17.7898 30.5463 30.8308 -0.476199 -0.544148 -3.90059 0.961591 0.171097 -0.183846
3763 4 34.3914 1.69061 31.5357 1.6103 1.2804 -0.481557 0.407448 -0.186742 -0.177491
3764 4 23.1003 23.791 32.6709 0.794466 -0.395388 -0.256525 0.276638 -0.0161998 -0.0611141
3765 4 -16.5757 28.7897 32.8947 -0.600602 0.729506 0.315822 1.43723 0.564117 0.83793
3766 4 0.843369 2.28816 31.7917 -0.17368 -0.300106 0.707197 -0.0410264 -0.131268 0.144452
3767 4 -3.18526 7.64621 31.6599 0.600989 -0.0798287 0.0693337 0.073851 0.0854427 -0.0243798
3768 4 -12.564 23.0027 31.0346 0.157166 -0.114153 0.087802 -0.0417031 -0.11947 -0.0167239
3769 4 -13.3471 26.5521 31.9201 2.88445 1.51501 1.71302 0.550677 0.3557 0.427689
3770 4 3.21626 3.33974 32.5451 -0.0639694 0.127267 -0.231376 -0.014385 -0.0584089 -0.101812
3771 4 0.234415 9.13988 33.7982 -0.37629 0.101729 1.58789 -0.122011 -0.00405796 0.0660349
3772 4 -1.18693 11.0908 33.9703 -0.170449 0.442558 -0.160256 0.134079 0.199794 -0.0120143
3773 4 -3.01464 12.8746 34.1271 -0.0265755 0.0485145 -0.223263 -0.0209277 0.0174464 -0.0957053
3774 4 -4.31607 15.4941 33.8361 -3.20956 1.50111 3.48675 -0.786344 0.347537 0.864425
3775 4 -4.94194 18.1831 33.0872 -0.0673505 -0.0521508 0.00543235 -0.129671 -0.204857 0.0389199
3776 4 -7.18954 23.5331 32.4148 -0.722484 0.474419 -0.623048 -0.250886 -0.156457 -0.0167326
3777 4 4.09424 5.92334 32.5618 0.0157198 0.118145 -0.121252 -0.0540589 0.106364 -0.0483392
3778 4 -1.54433 17.1362 32.8791 0.0147569 0.261212 -0.0963099 -0.287733 -0.179257 -0.197651
3779 4 -7.07343 27.124 32.3883 -1.3417 0.257498 0.56872 -0.250701 0.0525866 0.126539
3780 4 -8.23646 29.4042 32.4187 -0.030767 0.485293 0.119956 -0.0192104 0.000436115 -0.127437
3781 4 -10.7784 29.9367 32.8161 0.0764096 0.347992 0.101413 0.0902761 0.0585233 0.000824609
3782 4 6.07186 2.84733 33.8728 -0.126803 -0.281304 -0.155962 -0.106378 -0.0274388 -0.102834
3783 4 7.56097 6.40567 33.3083 0.116748 0.0770752 -0.268139 0.0433352 -0.0589295 -0.208633
3784 4 6.56023 9.17613 32.9381 0.583434 0.075825 -0.155473 0.194401 -0.0490537 -0.132077
3785 4 4.32827 11.0064 33.4176 0.161011 0.246382 0.0506382 0.149729 0.0853397 -0.0496552
3786 4 1.521 16.2789 32.4264 1.76874 -2.62467 -6.26977 0.175364 -0.405244 -0.644029
3787 4 -0.29909 19.1556 33.9279 -0.826281 0.0647678 -0.277033 -0.240052 -0.299549 -0.375215
3788 4 -3.78503 24.1502 32.5622 -0.0847733 -0.402746 -0.0580304 0.0224382 -0.178177 0.159422
3789 4 -4.29069 27.3228 33.5458 -4.04964 1.22328 -0.668551 -0.648477 0.281736 0.00325527
3790 4 -4.72502 29.3283 32.2862 -0.0547457 0.60587 -0.597555 0.0349066 0.116721 -0.203904
3791 4 11.8682 2.09131 32.7181 0.939856 -2.10616 1.0552 0.22587 -0.324748 0.241005
3792 4 3.69248 17.5054 33.5642 -2.01149 -1.23365 0.433232 -0.412216 -0.57735 0.699485
3793 4 -1.42028 27.8752 33.3059 0.210975 -1.29096 -1.02828 0.129599 0.101622 -0.0441656
3794 4 -1.43755 29.8217 31.6472 0.154466 1.35901 -1.22662 -0.167181 0.306815 -0.126431
3795 4 13.9797 5.53474 34.1858 0.165938 -0.143929 0.204284 0.0589288 0.00879952 0.164179
3796 4 10.2024 11.3227 33.3407 -0.757534 -0.0975858 0.366915 -0.0259833 -0.383361 0.262812
3797 4 8.2485 13.4792 32.6898 0.071345 -0.0615903 -0.642748 -0.193051 -0.0328356 -0.120986
3798 4 5.05811 15.0612 29.1046 -0.860398 -0.502307 0.589329 0.279094 0.762297 -0.0916913
3799 4 17.0068 28.3212 47.8591 0.465682 -4.54686 1.06691 -1.63943 0.426953 1.14716
3800 4 15.791 2.5307 33.6434 -0.226199 0.661494 -0.442247 0.0340438 0.111753 -0.0389304
3801 4 13.0537 12.7597 33.6931 -0.700438 1.66268 -1.22543 0.327319 0.0181635 -0.359385
3802 4 9.79058 15.6475 24.0493 -1.40045 -5.26174 -4.41796 -0.867999 -3.13314 -0.311732
3803 4 1.0842 23.257 34.1937 3.72525 -4.68614 -3.74147 0.0192486 -1.03531 2.20511
3804 4 2.35922 27.2012 32.8474 0.832533 -2.44492 8.68125 2.1493 -1.12891 -0.159555
3805 4 17.5444 24.9441 36.8996 5.00415 9.82236 5.18844 -0.700334 0.516177 1.80497
3806 4 11.2106 17.4891 24.1026 2.36724 9.75954 13.8834 -3.55976 -0.559369 0.952416
3807 4 14.1259 22.6395 15.1861 -3.97274 2.07945 -2.26888 -2.17068 0.402549 -2.13065
3808 4 22.1324 0.368101 33.9965 0.781975 -0.661931 2.13091 0.283684 -0.077316 0.0340783
3809 4 21.8788 2.35954 32.4879 0.453917 1.4446 -1.12935 0.238397 0.2006 -0.306994
3810 4 22.6896 8.26979 32.9911 -0.121053 0.0302036 -0.136841 -0.129383 -0.0607703 -0.186908
3811 4 18.3748 11.1992 34.8519 -0.382276 0.101372 -0.484562 -0.0806409 0.00816088 -0.195879
3812 4 16.8751 16.1963 33.584 2.34633 0.996521 -0.415645 -1.05013 0.786423 -0.279613
3813 4 9.76217 15.6353 28.8849 2.38333 4.08921 -3.66841 -0.561158 0.812668 -0.450451
3814 4 17.5919 18.4812 36.5924 0.531259 -1.42899 -2.01762 -1.53518 0.614279 0.169562
3815 4 14.7822 30.7707 24.4817 0.625551 -1.06497 2.03103 -2.96205 -0.648168 2.08216
3816 4 17.4813 24.9533 44.2427 4.81448 -5.19475 -0.106403 -2.96639 0.812527 3.95892
3817 4 26.7947 0.636961 34.516 -1.72418 9.72907 -1.79621 0.637144 -0.392862 0.997291
3818 4 24.7271 1.92624 31.8864 0.351029 -0.858545 -0.113045 0.134027 0.113552 0.0137536
3819 4 21.6017 10.8912 33.8393 0.840085 1.39415 3.50134 0.05775 0.155057 0.733144
3820 4 22.7832 13.583 34.3449 0.298729 0.0838102 0.318778 0.112423 0.0499882 0.0825209
3821 4 18.9351 17.7462 34.4814 0.176348 -0.272801 -0.595024 0.434336 -0.653541 -0.460528
3822 4 19.36 21.9676 35.5247 2.76573 0.582329 0.93741 -0.41045 -0.272987 0.0208211
3823 4 19.6099 23.0616 31.1426 1.08202 0.676282 1.65745 0.0347118 -0.212577 1.22962
3824 4 29.1843 4.53704 34.4551 -0.464244 -0.829743 0.669825 -0.104424 -0.0502165 -0.0934166
3825 4 27.7952 6.73842 34.5471 0.111146 -0.0585231 0.0536803 0.00384545 -0.0480058 -0.0432494
3826 4 26.7465 8.38007 32.9842 0.0271537 0.0579878 -0.240852 0.043042 -0.161138 -0.141042
3827 4 23.5653 19.4481 32.6983 0.23519 0.0643242 -0.0148649 0.00746567 -0.0122832 -0.121109
3828 4 19.6792 20.7786 33.3985 -1.27227 0.116298 -0.449582 0.092038 0.126303 0.602004
3829 4 33.5846 0.0798386 33.6583 0.376531 0.328765 -0.174017 0.511764 -0.933357 0.0407792
3830 4 30.9727 1.64019 34.6989 0.884982 0.144066 0.000942409 -0.129127 0.244244 -0.304188
3831 4 31.5229 3.29364 32.9775 -0.555211 0.550024 -0.0540774 -0.247259 0.357647 -0.0836761
3832 4 30.5187 5.7096 32.5532 0.0327986 0.269047 0.132289 -0.0302523 0.156408 -0.014876
3833 4 29.862 8.41641 32.6827 -0.0433638 -0.00228591 0.101998 -0.0257806 0.0235587 -0.0287931
3834 4 28.2143 10.3984 33.1538 0.0373755 0.0249254 -0.10991 0.00942489 0.0471256 -0.0994449
3835 4 0.253448 4.88719 33.3764 -0.371792 -0.062653 -0.0877107 -0.131542 -0.0175317 0.00865885
3836 4 -3.18525 8.93664 33.7904 -0.0492579 0.0453699 -0.0449314 -0.0292441 0.0138145 -0.0122337
3837 4 -5.1411 11.3011 33.687 0.00769882 0.0596594 -0.0750716 0.00663931 -0.00265953 -0.046904
3838 4 -6.09672 13.6447 32.8896 -1.56077 0.945316 1.07316 -0.231773 0.119375 0.201007
3839 4 -6.86921 16.0058 32.5812 1.14958 1.35181 -2.01054 -0.265162 0.0384409 0.411129
3840 4 -9.39377 18.9457 32.824 0.34045 1.55204 0.532534 0.133028 0.301392 0.16747
3841 4 -10.4351 21.4376 33.8798 -1.4411 3.66595 -0.598049 -0.33206 0.677077 -0.0459238
3842 4 -9.64013 24.5249 33.626 -0.0543184 -0.269746 0.0231592 -0.0302043 -0.10618 -0.0891747
3843 4 2.33724 0.69689 33.3117 0.183321 0.800251 0.952055 0.38438 0.485565 0.468445
3844 4 3.00277 6.37795 36.0488 0.0261647 0.164118 -0.0519138 -0.0420382 0.0632561 -0.112057
3845 4 2.1778 9.26929 36.5118 0.197343 -0.121471 -0.0947766 0.0595316 -0.0644757 -0.079435
3846 4 -10.8252 30.9251 36.886 -0.0986455 0.457479 -0.038906 -0.0843609 0.20679 0.00785422
3847 4 5.73863 0.283535 34.9169 1.38392 -1.92425 -1.24022 0.248615 -0.182078 0.0371849
3848 4 7.84114 3.79647 35.3427 -0.12616 -0.133509 -0.159879 -0.0683998 -0.0857491 -0.0899878
3849 4 5.17397 7.35335 34.3676 0.204363 0.13962 -0.212776 0.0598134 0.122822 -0.0892204
3850 4 -0.749177 15.7877 34.9857 0.0418894 -0.0584481 0.26217 -0.0302926 -0.00213057 -0.117823
3851 4 -3.85095 22.6246 34.5681 -0.0617089 -0.0529313 0.0949354 -0.0462277 -0.100473 0.0771408
3852 4 -4.8064 25.2592 34.8695 -0.0834701 0.125136 -0.168262 -0.102036 0.0203369 -0.121979
3853 4 11.6963 2.22506 35.2486 -0.0972401 0.257874 0.468273 0.0276961 0.264788 0.183471
3854 4 2.13781 15.3741 36.1591 -0.280634 0.536595 0.0721581 0.0243694 -0.0116279 -0.240011
3855 4 1.73868 18.8317 35.9404 -0.635135 0.00139293 0.94369 -0.688225 -0.0305338 0.596842
3856 4 -2.13738 24.9303 35.2722 -0.759756 0.556988 0.315442 -0.801116 0.552947 -0.120652
3857 4 -3.10671 28.4542 35.8867 -0.423138 0.287766 0.238404 -0.0735288 0.239642 -0.0695155
3858 4 14.4107 3.03372 35.7238 0.0427 0.0330872 0.225697 0.247817 -0.0306095 0.176263
3859 4 11.3835 5.45092 34.6026 -0.20599 -0.189352 -0.284471 0.0222447 -0.198082 -0.0574589
3860 4 7.52146 12.1384 34.7681 -0.712347 -0.406683 0.781723 -0.383312 -0.200558 0.122231
3861 4 3.93297 13.6392 34.9212 -0.85316 -0.494485 -0.0465233 -0.129718 -0.174029 0.157888
3862 4 29.0716 1.77476 56.7866 2.54189 9.7028 6.21269 0.666637 -0.190561 -1.1822
3863 4 -0.376388 27.213 35.5206 -0.996792 0.932506 -0.23314 -0.0953884 0.170244 0.252139
3864 4 -1.39035 30.0286 35.0691 -0.338213 -0.0167698 -0.00445055 -0.0782005 0.0909712 -0.0692666
3865 4 17.3884 3.84247 35.2241 0.195942 0.814807 -0.402441 0.039499 0.138128 -0.121802
3866 4 15.8817 6.08633 35.6598 -0.034576 0.187321 0.0295401 0.116523 0.0685835 0.035335
3867 4 12.4812 9.0002 35.2547 -0.210997 0.510265 -0.276447 -0.0744717 0.151671 0.0366019
3868 4 10.9748 12.2819 36.023 0.363312 -5.83649 0.443346 0.367135 0.0170462 0.295569
3869 4 9.52845 14.1295 35.2376 -3.27725 5.84306 -1.09408 -0.101857 -0.230285 -0.47034
3870 4 4.23613 16.4971 37.2567 -2.44732 0.0499801 0.434474 0.071135 -0.00732947 -0.184929
3871 4 18.3472 0.212033 34.427 -0.399573 -0.279783 -0.523204 0.0408288 0.11777 -0.0848214
3872 4 15.1889 0.0956346 34.5175 -0.330983 0.171638 -0.658524 -0.367493 -0.149059 -0.362289
3873 4 17.1096 21.9561 21.9231 3.38021 -10.5897 -10.6722 2.21504 -3.30108 2.14234
3874 4 7.46658 18.6971 22.9377 0.981315 -0.754299 2.32715 0.0479481 -0.473482 1.4383
3875 4 20.4601 5.58458 35.1841 -0.206632 -0.0486032 -0.0168058 0.0782805 0.0610059 0.0641925
3876 4 19.0418 7.83809 35.6133 0.167328 0.364195 -0.169707 0.139183 0.122359 -0.106723
3877 4 5.51258 31.8847 37.1239 1.05748 0.205606 -3.94316 0.306919 -0.00820304 -0.653835
3878 4 25.007 3.43475 35.225 0.379212 -0.642889 0.606978 -0.205547 0.157901 0.258453
3879 4 22.8411 6.08876 34.5046 0.0688135 0.133246 -0.316754 0.0605463 0.155622 -0.0515438
3880 4 22.4228 9.90283 35.9885 0.294043 -0.714082 1.41128 0.00707977 -0.047024 0.392122
3881 4 20.6803 12.0132 36.6867 0.106847 0.194045 -0.0120274 0.0506861 0.14859 0.168273
3882 4 17.954 17.5018 24.058 -2.37319 -0.191884 -1.52161 0.625693 -1.2148 0.296968
3883 4 4.55382 30.8711 24.6874 4.98745 1.62994 0.0200268 1.76933 -1.49533 2.946
3884 4 29.2569 2.71114 36.0347 -0.738345 1.29739 -0.243486 0.0315544 0.479852 0.489157
3885 4 25.69 10.2844 34.6898 -0.354406 -0.19189 -0.845299 -0.14531 0.0412915 -0.0792416
3886 4 23.8921 14.645 36.2534 0.375361 0.134293 0.208128 0.13071 0.0777387 0.02565
3887 4 22.7838 17.6326 34.568 -0.00708251 0.399472 -0.0151321 -0.0318857 -0.0630439 0.0530701
3888 4 21.5626 20.0505 34.797 1.71459 2.2001 1.83672 0.27386 0.41513 0.121117
3889 4 24.756 18.7206 35.7234 0.102765 -0.00800757 -0.127652 -0.0208609 0.063656 -0.00264734
3890 4 23.0987 22.132 35.4748 0.402654 0.87379 0.476357 0.114409 0.130184 -0.163265
3891 4 21.1632 23.6815 36.2211 -0.456211 1.48409 -0.658112 -0.105657 0.409933 -0.257477
3892 4 20.2988 25.0134 34.2221 0.198248 0.651876 -0.527242 0.392112 -0.27604 0.019722
3893 4 20.6007 28.2438 36.1978 1.2193 1.00158 0.986079 0.00290434 0.119129 0.00993605
3894 4 35.2919 3.26924 34.6882 0.160448 0.1519 -0.0471233 0.150047 0.0954621 -0.0446255
3895 4 26.7379 17.3412 34.4944 0.129007 0.153285 -0.0994688 0.0593144 0.0234591 -0.136155
3896 4 -10.1373 19.4935 36.1541 -0.188648 1.13961 -0.805162 -0.131193 0.310141 -0.0274289
3897 4 -14.9648 26.4916 35.1174 -0.0134789 0.986501 0.550884 0.254623 0.181912 -0.105887
3898 4 -13.5076 28.6136 35.5183 1.20808 0.545259 -0.902699 0.703429 0.236421 -0.580084
3899 4 -16.6142 30.8457 34.7546 0.210934 0.387218 0.112183 -0.0664215 0.178547 0.393573
3900 4 -0.1222 0.319566 35.1388 -1.40687 -1.46874 0.0895106 -0.544308 -0.70474 0.123054
3901 4 2.53277 3.73472 36.3286 -0.124611 0.0596114 -0.191797 -0.041529 0.119075 -0.099518
3902 4 0.276205 6.29765 35.5076 -0.111843 0.0617407 -0.21097 -0.0341922 0.0675467 -0.100765
3903 4 -6.68361 18.1231 35.2667 0.202368 -0.473482 -1.32619 0.0602706 0.0825546 -0.310459
3904 4 -7.81889 20.6927 34.9291 -1.46517 2.1045 -0.787516 -0.328751 0.465168 -0.127215
3905 4 3.52971 0.185597 36.0265 0.55728 2.15672 -1.78677 -0.0225694 0.738671 -0.308983
3906 4 0.267514 10.0175 37.7396 0.112973 -0.484115 0.0001284 0.0756187 -0.0744173 -0.0100566
3907 4 -3.01643 12.8179 36.9313 -0.15263 -0.110709 -0.201837 0.0303921 0.0300222 -0.252943
3908 4 -10.6004 25.9491 36.3635 -0.0550155 0.231037 0.0264626 3.78549e-05 0.0251503 -0.0302154
3909 4 4.27523 7.54841 37.9574 0.659541 0.363533 0.0347107 0.170321 0.134288 -0.140034
3910 4 3.75245 12.0003 37.4398 0.239862 -0.0977672 -0.175227 -0.315074 -0.0172337 -0.139675
3911 4 0.0832006 12.5521 36.7411 0.0709583 0.0703573 -0.136796 0.0522251 0.0174736 -0.0602598
3912 4 -1.58219 16.706 39.3088 -0.216152 -0.342641 0.222357 -0.0211413 -0.0910094 0.00780253
3913 4 -9.3725 28.6017 36.0466 -0.163492 0.0492222 -0.176312 0.0902124 0.0528919 -0.134579
3914 4 8.35158 1.07852 37.9962 0.436515 0.558681 0.108489 0.237978 0.242997 0.00337229
3915 4 9.14603 3.39754 37.4519 0.0270755 0.701923 -0.241417 0.0600474 0.259877 -0.132903
3916 4 6.83948 7.24233 36.9674 -0.138707 -0.0132077 0.288473 0.0357808 -0.25171 -0.02026
3917 4 5.02846 10.0935 36.6813 0.0517863 -0.289515 -0.226341 -0.175004 -0.202004 -0.0724647
3918 4 0.0719738 16.8135 37.099 -0.464893 0.0279426 -0.250215 -0.16464 0.000162199 -0.0397778
3919 4 -1.77725 18.8078 37.8051 -0.459493 0.341627 0.0119817 -0.188648 0.104134 0.361551
3920 4 -4.01635 24.3265 37.0673 -0.372134 0.231058 -0.347554 -0.35118 0.315819 -0.0702841
3921 4 -5.82736 26.3949 37.0478 -0.0585189 -0.313012 0.0358208 -0.161757 -0.00124205 0.0388575
3922 4 12.0992 0.102605 36.7941 0.0129591 -0.0484031 -0.0909345 0.00857325 0.200056 -0.0218547
3923 4 -1.74656 27.2229 38.0162 0.319404 -0.608127 -0.364293 0.169665 -0.399771 0.0892718
3924 4 12.3802 6.32404 36.445 0.426872 0.716437 -1.86236 0.017719 0.177674 -0.35418
3925 4 10.8917 8.28133 37.1958 -0.111194 -0.0804979 0.135313 -0.136554 -0.114897 -0.0579207
3926 4 0.0696529 29.1031 38.696 0.683913 -0.15278 1.42102 -0.0816608 0.372998 0.103903
3927 4 -2.38258 30.5784 37.7022 -0.0325723 -0.431693 -0.160701 -0.00588195 0.0330785 -0.212737
3928 4 14.1602 7.44057 37.4794 0.0162399 -1.96735 1.02812 0.072623 -0.313516 0.198643
3929 4 13.6269 10.0445 37.0963 1.35986 -0.563424 -0.232011 0.398416 -0.359278 -0.203808
3930 4 10.0423 27.5694 27.1041 -18.2849 -0.967214 2.28153 -0.776018 -0.130532 -0.967882
3931 4 0.228372 31.1565 36.5364 0.0817847 0.0433305 0.201517 0.168141 -0.0816538 0.128165
3932 4 18.5389 1.89582 36.3472 -3.35255 -0.488097 -2.16528 0.0107022 -0.0728744 -0.232117
3933 4 16.1593 9.81567 38.0413 0.321671 0.358003 0.18043 0.205953 0.161003 0.000671925
3934 4 15.0799 12.0958 36.976 0.858141 -1.11117 0.0904862 0.351873 -0.132846 0.0741635
3935 4 13.8801 14.2116 37.001 1.97918 -0.405724 -1.57104 -0.185399 1.12423 -0.476763
3936 4 1.70006 23.4037 24.6712 -0.220805 13.7567 12.039 -3.98074 -2.87631 5.03689
3937 4 21.3719 2.45371 36.3546 -1.55381 0.109898 -1.16333 -0.0495977 0.251946 -0.0594354
3938 4 23.6802 2.27921 37.0849 0.321335 -0.50471 -0.676406 -0.0811525 -0.126807 -0.10312
3939 4 21.1153 6.75108 38.6149 -0.101802 -0.0489273 0.128489 0.0104293 0.032971 0.092219
3940 4 20.1304 9.29243 37.4972 -0.107136 0.0890064 0.036134 0.0329493 0.0476428 -0.0174191
3941 4 18.2435 12.374 37.5154 0.145024 0.180348 -0.474613 -0.196511 0.0506253 0.0515849
3942 4 17.8795 14.6823 36.6034 0.478447 -0.952206 0.266483 0.360985 0.427101 -0.0840421
3943 4 30.2798 1.60766 38.9319 0.973592 -0.429067 -1.49006 0.765855 -0.243623 0.382441
3944 4 6.1162 29.515 21.2325 9.00516 0.0988406 -4.15027 -1.17742 -0.496532 -3.01026
3945 4 26.3159 3.16482 37.4926 0.294671 -0.00901835 0.343016 0.0739596 -0.164565 0.226367
3946 4 23.681 5.16242 36.866 -0.662994 0.827251 0.202435 -0.0943334 0.162781 0.0635719
3947 4 27.5604 5.01014 36.303 0.299587 0.0428804 0.261629 0.0141615 0.201039 0.191123
3948 4 21.0551 16.0725 37.0204 0.47398 -1.97851 0.819765 0.124435 0.0958766 0.19777
3949 4 19.4878 25.2744 38.402 2.71106 1.2991 1.31731 -0.217372 0.327754 -0.00568941
3950 4 17.2233 29.0761 36.8723 1.02295 0.298272 -1.17259 4.38577 0.803258 0.544604
3951 4 14.2457 32.1636 36.9968 1.24867 -0.389917 2.10687 -0.216559 -1.16194 1.00729
3952 4 29.1742 9.37517 36.5188 -0.100262 -0.0186159 -0.119127 0.0595113 -0.0505426 -0.0942118
3953 4 25.9198 12.5196 37.2219 -0.82166 0.611502 0.34244 -0.500583 -0.125745 0.167026
3954 4 22.7913 17.4897 38.7921 0.581223 0.137737 0.203905 0.375389 -0.0204272 -0.0696035
3955 4 21.711 18.5604 36.7506 0.00786317 1.25763 -1.03455 -0.245727 -0.164221 -0.0412586
3956 4 18.1711 31.4749 37.2828 -4.09841 -5.17115 0.578338 0.664013 -0.672722 0.258003
3957 4 33.8213 2.14577 36.9335 0.148908 0.057887 0.0282071 0.0211259 -0.0428084 -0.12543
3958 4 -4.49095 8.09139 37.4944 -0.0190501 -0.0611233 0.145267 0.0517902 0.000972137 0.0556448
3959 4 30.8276 10.4428 37.9666 -0.066096 0.510745 0.19599 -0.0191159 0.128916 0.012134
3960 4 28.4873 13.0845 37.8413 -0.0306685 0.0296644 0.113511 -0.0599748 0.0126013 0.0393741
3961 4 -14.2602 24.7179 37.405 -0.21195 0.855182 -0.230063 -0.214003 0.320077 -0.492422
3962 4 20.8018 27.717 38.697 0.372995 -0.199158 0.451897 0.0478075 -0.0778659 0.339041
3963 4 -4.12225 10.336 36.8395 -0.218091 -0.168719 -0.0723553 -0.0446982 -0.0345035 -0.0480849
3964 4 -6.12762 12.9475 36.7562 0.0272858 -0.0165836 -0.0751183 0.0230626 -0.0178759 -0.0228235
3965 4 -11.8243 25.0316 38.5284 0.336186 -0.0108085 -0.308079 0.0793914 0.142719 -0.28863
3966 4 -12.85 26.9908 37.1749 -0.522463 0.0658941 0.053032 -0.21411 0.104137 -0.355607
3967 4 -0.437845 11.7925 41.7169 -0.143964 -0.0708225 -0.0523658 -0.0287188 -0.0241421 -0.0319381
3968 4 -3.57066 15.1566 38.8531 -0.139934 -0.47216 -0.0513631 0.0130432 -0.069861 -0.00695164
3969 4 -5.36849 19.0486 39.5463 0.0956504 -0.82512 -0.6414 0.00204685 -0.338612 -0.123995
3970 4 -7.88021 22.9795 38.9758 0.0909256 -0.346626 -0.609684 -0.0748699 -0.103116 -0.344025
3971 4 -9.61024 26.7126 41.7998 -1.12264 -3.12938 0.711721 -0.215842 -0.58048 0.119879
3972 4 -11.166 29.3729 41.3132 -1.02453 0.090549 -0.355202 -0.421675 0.170215 -0.248558
3973 4 4.7935 6.37832 40.8285 -0.948413 1.86664 2.47894 -0.310647 0.461673 0.417722
3974 4 3.02821 9.31892 39.7277 -0.20242 -0.0718167 -0.327413 -0.0980993 -0.0968992 -0.135691
3975 4 3.11178 11.215 41.1666 0.159397 -0.208017 -0.193373 0.132582 0.0134965 -0.237018
3976 4 0.501032 13.8716 40.0481 1.14249 0.364984 0.881603 -0.0985197 0.0966863 -0.150728
3977 4 -1.47995 18.8625 41.0213 0.212559 0.220146 -0.327702 -0.0255868 -0.0175501 -0.0738194
3978 4 -6.78246 26.1962 41.4793 -0.197524 0.00118301 0.0572471 -0.0822215 -0.0135053 0.0198969
3979 4 -8.68755 29.0985 41.8414 -2.29484 -1.87162 1.87091 -0.508272 -0.404546 0.454638
3980 4 -8.63427 31.9649 41.4383 0.035481 -0.267456 -0.343828 -0.0469386 -0.0396112 -0.226575
3981 4 7.14639 5.93403 39.1914 -1.94489 -1.69256 0.163555 -0.298869 -0.273719 -0.0370749
3982 4 6.2322 8.66427 39.4092 0.988485 0.877206 0.330044 0.0278875 0.0816322 0.123419
3983 4 2.47574 14.0667 41.5351 0.175568 -0.27192 1.01404 -0.0724461 -0.0626514 -0.10786
3984 4 -4.46235 23.904 39.557 -0.477032 -0.347463 -0.319169 -0.115362 -0.0113891 0.00512656
3985 4 9.03058 1.83146 42.0734 -0.00516281 -0.0322075 -0.558807 -0.0790499 0.0113893 -0.22774
3986 4 10.7751 6.55736 40.4521 0.292451 -0.133067 -0.456368 0.136003 -0.0152166 -0.182236
3987 4 9.03438 9.45157 38.118 0.611927 1.88325 -1.92421 0.0721145 0.477813 -0.580689
3988 4 0.285175 20.7305 39.3605 -2.30364 -0.00283715 -0.0513847 0.445254 0.672677 0.223865
3989 4 12.1828 8.63001 40.0598 0.322353 -0.377357 -0.763798 0.155629 -0.147426 -0.229503
3990 4 5.5574 15.3217 33.4726 -1.89226 -9.30342 -0.0505719 -1.18506 -1.84284 -0.400888
3991 4 6.62083 30.0623 38.7553 -39.2635 14.2141 -93.5481 8.62984 -1.83411 1.12161
3992 4 15.8556 17.9496 29.4735 2.3472 -0.40894 2.95647 -0.700223 1.2077 -0.194684
3993 4 16.6564 18.4375 32.5443 -1.29561 3.84806 -0.566247 2.84189 -5.72211 -0.617746
3994 4 18.1058 23.5454 49.875 -3.51458 -11.2654 -8.61318 -0.381317 -1.08676 -0.954331
3995 4 1.04506 28.9984 41.2311 -5.39784 1.45894 0.817429 -0.526929 0.365138 -0.329667
3996 4 20.2217 0.41691 37.8326 -0.780574 2.35046 -1.09022 0.617103 -0.197399 -0.132754
3997 4 16.667 10.7723 40.4086 0.029554 -0.0873793 0.0751801 0.0968503 -0.153279 -0.0439418
3998 4 14.6008 12.3401 39.5154 0.118874 0.631573 0.392459 0.0475158 0.274725 0.112175
3999 4 7.58666 15.8629 35.5613 2.44854 5.05243 -0.928498 -2.41456 -0.986238 0.693901
4000 4 3.92561 19.0468 24.4756 -3.81809 -3.81925 0.298813 3.26093 8.69634 0.0261769
4001 4 12.3596 29.7122 41.2582 -9.81006 -7.10054 -7.45191 0.781733 2.15235 -0.0389021
4002 4 22.2448 0.536951 40.5939 7.11923 -2.94129 4.29818 -1.12282 0.12645 -0.35294
4003 4 22.2802 3.04634 40.6566 1.17557 0.0810837 0.557444 -0.970916 0.582121 -0.659568
4004 4 17.5176 13.8415 40.1752 -1.93327 -1.17741 0.400582 0.0752654 0.0823411 -0.116079
4005 4 16.8517 15.1422 42.1336 0.862252 0.800756 2.01079 0.0898759 -0.0483103 -0.307815
4006 4 16.0495 17.836 38.7456 0.437809 0.600108 -3.55925 -0.87195 -0.275044 -0.361991
4007 4 10.1722 28.9856 17.2328 -6.95166 -1.13915 -0.128755 0.161214 1.2108 4.14733
4008 4 29.9743 0.386856 50.4607 -1.30673 2.91959 7.57311 0.164813 -0.514561 -0.816882
4009 4 24.6947 2.2412 39.425 -1.52594 1.09745 -0.0955127 -0.188118 0.150921 -0.607534
4010 4 25.8852 3.53642 41.1337 -1.02714 -1.75486 -0.0591427 0.289819 -0.00274054 -0.157853
4011 4 19.3167 16.3812 38.8185 0.522026 -1.13504 -0.56198 0.0145807 -0.264338 -0.0348159
4012 4 15.8026 15.0199 38.6909 0.124899 0.764593 1.38421 0.00248973 0.117458 -0.121709
4013 4 14.8103 29.0852 22.6298 -3.85561 -3.35838 11.1229 1.51371 -1.75554 2.17894
4014 4 1.88678 20.8114 49.5146 1.52846 -5.07192 0.223748 -0.824756 0.918137 -1.02423
4015 4 29.6721 3.99539 42.1908 -0.627089 0.849027 0.121849 -0.233925 0.24203 -0.163723
4016 4 25.3222 10.9576 39.3049 2.10123 -2.32791 -0.273817 0.17925 -0.36735 0.117899
4017 4 21.898 15.7079 40.3994 0.731989 -3.41071 -3.33705 -0.0670846 -0.234485 -0.332178
4018 4 19.6437 22.9386 40.5697 -0.598197 1.04604 0.581053 -0.206958 -0.247614 -0.599775
4019 4 19.0184 31.0201 39.7032 -0.967104 -0.520632 0.632515 0.274689 0.173994 0.0251546
4020 4 5.89952 17.1756 28.107 0.0600767 1.39637 2.58478 1.70171 2.25092 1.99801
4021 4 31.3589 5.03667 40.8513 0.307204 -0.47977 -0.237454 0.00132974 -0.288506 -0.0190945
4022 4 30.5409 7.5537 41.2276 0.293434 -0.322426 -0.097925 0.122378 -0.0801917 -0.0576123
4023 4 27.866 10.4334 39.7825 1.55207 0.872492 0.0281106 0.290448 0.346936 0.0789787
4024 4 28.6926 13.5315 40.7242 0.0406817 0.345122 -0.246548 0.0035588 -0.0221976 -0.143188
4025 4 24.3232 19.4054 39.0576 0.188139 0.0878817 -0.200819 0.0240534 -0.197957 0.134138
4026 4 34.9763 0.357194 38.6045 1.41861 -0.798662 -0.47988 0.0853565 -0.00290338 -0.0723676
4027 4 33.7846 2.2708 40.4055 1.20542 -1.0814 0.364803 0.729193 -0.916634 0.204049
4028 4 34.7902 4.22272 38.2232 -0.170415 1.87674 -0.564477 -0.222107 0.743834 -0.180767
4029 4 33.5414 6.03042 39.515 0.172144 0.599067 0.371381 -0.523292 0.509705 -0.127366
4030 4 31.0689 10.2456 40.6855 -0.0666706 0.278888 -0.325992 -0.0385448 0.033187 -0.195635
4031 4 -6.15553 12.5383 41.587 -0.00909125 0.111177 -0.155247 0.104001 -0.0209586 -0.00470918
4032 4 -4.12182 8.78617 41.3097 0.18783 0.757376 -0.14971 0.0604658 0.0719341 -0.0563998
4033 4 -3.09041 12.2064 41.4158 -0.145276 0.41181 -0.242209 -0.117894 -0.0165386 -0.0415379
4034 4 -10.9174 22.6029 38.8319 -0.0209272 -0.254586 -0.346739 -0.0174462 -0.0150467 -0.115857
4035 4 -12.0857 26.8161 41.2214 -0.165284 0.357128 -0.0733127 0.00317487 0.115092 0.00340066
4036 4 5.19204 2.49669 42.7197 -0.370459 1.69444 0.0808436 -0.219698 0.343898 -0.0632344
4037 4 -3.77921 18.9298 42.9955 0.0661413 -0.204704 -0.201873 0.033809 -0.167469 -0.121259
4038 4 -5.6436 20.7418 41.8315 -0.111011 -0.13495 0.0446759 -0.164608 -0.0902432 0.0209461
4039 4 -7.53142 22.8578 42.4005 -0.304792 -0.135881 -0.131281 -0.155859 -0.0676004 -0.0279141
4040 4 -8.05917 25.1768 43.3121 0.196228 -0.359163 0.296111 -0.027612 -0.0482177 0.0442139
4041 4 5.29227 5.10228 42.9896 -2.07615 2.70358 0.462686 -0.511762 0.541201 0.0160062
4042 4 0.609259 13.8545 43.13 0.0590259 0.0271872 -0.817734 -0.141151 -0.0692983 0.021068
4043 4 10.194 5.06142 43.4925 -0.0209383 0.0188676 -0.26729 -0.102223 -0.0835334 -0.221755
4044 4 7.05607 7.25107 41.6676 0.879687 0.429947 -0.885339 0.289521 -0.169247 -0.123575
4045 4 5.62425 13.1066 42.7112 -0.142536 0.197598 -0.281095 -0.0584859 -0.0371511 -0.10907
4046 4 3.08081 16.2498 43.2581 -0.333178 0.166577 -0.254838 -0.311232 -0.435549 -0.267625
4047 4 -0.143844 20.8201 42.1241 -1.09363 0.710515 1.83652 -0.373218 -0.151867 0.145564
4048 4 -1.2628 24.3796 41.0312 -0.0716591 -0.453174 -0.0758966 -0.0933265 -0.267506 -0.0289396
4049 4 -5.41523 29.522 42.7198 0.142138 0.305593 0.362507 0.0277505 0.109472 -0.0144411
4050 4 12.2388 0.992582 41.3501 -2.21684 3.64459 -1.76649 -0.210404 0.440616 -0.318512
4051 4 12.5598 2.46224 43.6816 -0.110458 0.145702 -0.41201 -0.338552 -0.0434021 -0.443617
4052 4 11.6254 6.9665 42.9858 -0.0846437 -0.0645144 0.0227876 0.0103241 -0.0632033 0.0542089
4053 4 5.79151 16.0063 43.0081 -2.09508 2.83407 1.08638 -1.77388 -2.02971 1.06333
4054 4 2.32648 19.6705 43.0607 0.279728 0.104206 1.48788 -2.12954 -0.813744 -1.65875
4055 4 0.0628019 23.3989 42.8778 0.715939 -0.615401 0.232157 2.07765 0.017767 -0.471178
4056 4 -2.66101 30.2774 42.2783 -1.9512 0.168529 -3.56688 -0.27569 -0.0500342 -0.0794039
4057 4 15.2519 0.58659 42.0255 0.189489 -0.319738 0.303409 0.0385771 0.0647839 -0.149893
4058 4 14.683 3.34517 42.6618 0.0515474 -0.277794 -0.0791454 0.065545 -0.105843 -0.12143
4059 4 11.8108 10.6328 41.6965 -0.270305 -0.654065 -0.0946107 -0.202932 -0.412609 -0.0033425
4060 4 11.2335 13.1536 42.345 2.52169 -1.39586 -1.36308 0.0319483 0.414321 -0.750292
4061 4 8.89353 14.0546 42.7301 -2.1214 -1.34472 0.48033 0.561652 0.181794 -0.952448
4062 4 1.02173 19.3653 46.9601 -0.281922 0.195841 1.37447 -1.55356 0.19486 1.69407
4063 4 13.1903 14.4621 41.6259 0.399357 3.0926 1.49651 -0.965533 -0.144764 0.290251
4064 4 16.517 27.2878 20.3554 7.13928 13.0184 2.6048 -2.78428 1.7163 -5.49301
4065 4 18.6438 0.734571 41.672 -0.693699 0.474904 -1.1308 0.0972419 0.00529892 0.16819
4066 4 19.4256 3.27157 42.0515 -0.119122 0.718528 0.253954 0.172773 0.0189598 0.000535552
4067 4 16.288 4.96435 40.9618 0.864326 -0.585922 -1.33021 0.0282836 -0.197688 -0.228454
4068 4 16.0309 7.57642 43.2577 -0.0462858 -0.161453 0.0484329 0.0526359 -0.0446259 -0.0484318
4069 4 16.8498 18.6881 40.9176 0.953203 1.40551 2.10594 0.33632 0.690783 0.314692
4070 4 2.4342 17.8859 39.6365 -0.324942 -1.32075 0.975381 -0.444891 -0.370204 -0.433364
4071 4 11.5383 16.4307 41.7488 -6.97186 2.88401 9.56529 -0.410327 3.44596 -0.536929
4072 4 1.96749 31.7648 42.6433 -0.265741 0.211716 -0.893731 -0.358668 -0.234349 0.350928
4073 4 18.792 9.77049 41.4237 0.140859 -0.101425 -0.0832718 0.03334 0.000106713 -0.0306546
4074 4 24.2225 0.054662 41.9014 -7.28289 14.5809 -2.81033 2.49865 -3.61208 -0.924984
4075 4 24.7869 3.17984 43.3608 0.0524889 -0.541698 -2.14852 -0.149447 -0.0267574 0.384032
4076 4 22.8279 7.8791 43.8734 0.115773 0.142082 -0.0668183 0.0272821 0.10703 -0.0925191
4077 4 7.80716 19.2523 30.0739 20.4926 -8.00873 -1.66044 -0.149603 -3.48736 -1.31101
4078 4 27.635 3.16325 43.2741 0.21868 -0.164084 0.67925 -0.123077 0.254247 0.0917114
4079 4 25.3673 5.63969 42.6747 0.258902 -0.636061 -0.382639 0.230436 -0.0973959 -0.0438773
4080 4 24.8632 8.17506 42.5696 0.14 0.0935856 -0.103101 -0.0101366 0.0817391 -0.118292
4081 4 22.0659 11.7459 42.9102 -0.160804 -0.114379 -0.0711376 0.0690435 -0.0936946 0.113249
4082 4 19.1665 17.1594 41.2682 0.752318 -2.06233 -1.16125 -0.118088 -0.164122 -0.21252
4083 4 18.069 28.7157 39.672 -3.69033 -1.34169 0.522637 1.50882 -0.460832 0.444537
4084 4 31.3478 1.04812 43.347 0.299147 -0.153183 0.116235 -0.0186969 -0.224436 -0.429991
4085 4 27.2377 12.1743 42.1018 0.108736 0.431596 -0.282109 -0.0938834 0.149082 -0.1851
4086 4 24.0445 12.793 41.4724 -0.0547493 0.0146776 -0.0568726 -0.0634743 -0.0666451 -0.0683236
4087 4 23.6009 17.0178 42.6343 0.080979 -0.118695 -0.17536 -0.060487 -0.0257845 -0.124928
4088 4 21.7763 20.5135 42.2581 4.82498 0.738189 -3.10967 0.610336 0.376753 -0.554324
4089 4 19.3652 26.3261 41.7107 0.726782 -2.35649 2.56206 1.76631 1.09094 -0.142299
4090 4 33.2977 3.85524 42.2701 0.00907643 -0.175078 0.195663 -0.111348 -0.197844 -0.30218
4091 4 25.6218 17.4653 41.3617 0.0918684 -1.07913 -0.139543 0.0118629 -0.255172 -0.0571273
4092 4 21.6488 24.2836 41.5751 0.767031 -0.434219 -0.235504 0.638604 0.182359 -0.188833
4093 4 -0.975025 4.43084 41.722 -0.00366851 0.0712485 -0.0841599 -0.0417116 -0.24738 0.257007
4094 4 -2.18986 6.9403 41.3488 0.00886645 0.560599 -0.0227017 -0.00104622 0.0116953 -0.0713842
4095 4 -14.3747 26.8883 43.1926 0.115893 -0.917643 0.806839 0.00514402 -0.303529 0.161756
4096 4 -17.6426 30.8181 43.5506 0.179582 -0.215806 -1.05861 0.582362 -0.00313835 -0.445345
4097 4 1.8894 3.44613 42.2076 -1.00395 0.18071 0.422521 -0.371925 -0.0805108 -0.0536728
4098 4 0.514067 6.46321 41.9782 -0.0915021 0.125387 -0.213471 -0.0111718 0.0286207 -0.041366
4099 4 -6.0806 16.2726 42.9188 2.35325 0.271909 -2.04146 -0.666083 0.0564107 0.222279
4100 4 -7.30818 18.5023 41.7401 0.245791 -0.303449 -0.503135 0.0163586 -0.0933612 -0.188562
4101 4 -7.91925 19.3754 43.9843 0.256972 -0.316986 -0.215756 0.0254196 -0.123888 -0.0375408
4102 4 -9.55423 22.5398 40.9616 -0.364262 0.556207 -0.494534 0.0924938 0.19019 -0.236829
4103 4 -14.9481 30.1398 42.08 -2.66227 0.680166 -2.79166 -0.255984 0.15638 -0.541613
4104 4 4.38535 0.380536 41.4931 1.16771 0.292759 -1.33758 0.254612 -0.106598 -0.345031
4105 4 3.38419 2.59736 44.5517 -0.476717 -0.218599 0.109858 -0.351308 0.0479604 -0.19702
4106 4 -1.56557 9.32719 44.2386 -0.0217374 0.00271266 -0.194478 0.0796854 -0.0712444 -0.0158232
4107 4 -2.33664 12.5407 44.822 -0.103233 0.0603179 -0.2015 0.0372831 -0.0104822 -0.0932255
4108 4 -4.51689 14.2935 44.5171 -0.546168 0.200191 -0.232659 -0.165999 -0.125196 0.0309772
4109 4 -5.32995 18.0013 44.6883 0.151339 -0.105068 -0.24943 0.0704958 -0.0109178 -0.0525215
4110 4 -9.61143 21.2663 43.4862 0.241707 -0.988609 -1.12351 0.148996 -0.247035 -0.224998
4111 4 -10.0604 24.6885 44.7668 -0.216866 0.540117 -0.238573 -0.179477 0.0950601 -0.330809
4112 4 -12.6859 29.1079 44.2697 0.388141 -0.623569 0.135374 0.179607 -0.0497846 -0.00631666
4113 4 -13.4793 31.9996 45.3714 -0.422991 -1.21596 1.02035 -0.125523 -0.0104511 -0.0143935
4114 4 -6.08947 23.3377 44.4467 -0.355171 -0.593023 0.0528372 0.0412979 -0.145946 -0.0448697
4115 4 7.75711 4.63711 44.2214 -0.3448 0.110105 -0.538794 -0.0416015 -0.0613651 -0.216014
4116 4 6.53136 6.91771 44.092 0.674303 0.635581 -0.369533 0.126205 0.0896296 -0.0824523
4117 4 3.94128 11.8248 44.2894 0.254172 0.393684 0.47954 0.0236933 -0.263811 -0.0477082
4118 4 0.964344 15.818 44.686 -0.298197 1.26178 0.500117 -0.0819462 0.0915202 -0.0730297
4119 4 -8.02032 31.3533 44.4339 0.635162 0.139158 -0.560494 0.098381 0.0777447 -0.22689
4120 4 8.27061 8.6914 43.5779 0.26102 0.363119 -0.363678 0.0629524 0.0476576 -0.241455
4121 4 4.44764 14.3209 44.5792 0.0198458 -0.365002 -0.561758 -0.36875 -0.132844 0.119453
4122 4 -0.576152 21.3774 44.4835 1.4997 -0.157268 0.36989 -0.113677 -0.391176 0.423539
4123 4 -2.2078 23.4693 43.888 -0.273937 -0.572496 -0.527192 -0.0411147 -0.220984 -0.136958
4124 4 -3.88379 26.4071 43.5414 -0.0703541 0.100068 -0.152182 -0.0167524 -0.0451622 -0.10438
4125 4 -3.72692 28.8391 44.3962 -0.961476 -0.453476 0.49369 -0.0529471 -0.0435156 -0.0805614
4126 4 -5.82962 31.9662 43.3535 0.0179754 2.32303 -2.60444 0.0397205 0.306812 -0.37042
4127 4 7.50117 13.3399 44.5958 1.59418 0.436823 -1.95482 0.00899755 0.12207 0.032684
4128 4 6.69848 15.9 45.369 0.823398 -1.86558 -2.43114 1.52988 1.07437 0.278097
4129 4 -0.355437 25.4224 44.4367 -0.345101 1.05161 -0.0120817 -0.415876 0.0569048 -0.154535
4130 4 -0.971735 29.9253 44.0942 7.87791 -4.7467 4.3541 0.578672 -0.440762 -0.291009
4131 4 -2.93496 31.7273 44.5981 -1.24297 1.30953 1.4539 -0.201495 0.145499 -0.269253
4132 4 17.8457 2.46629 44.0081 0.143956 -0.231913 -0.0283574 0.0496871 -0.0440899 -0.149821
4133 4 16.371 5.08514 43.4534 0.547632 -0.56056 -1.20992 0.134805 -0.021674 -0.26236
4134 4 14.3276 5.88399 44.779 -0.0454534 -0.809227 -0.636001 -0.144673 -0.611555 -0.254255
4135 4 13.0362 9.86504 43.8522 -0.134104 -0.403382 -0.72239 -0.0405276 -0.0689405 -0.166066
4136 4 12.1721 12.1514 44.3908 0.393022 1.35267 -1.83477 -0.387281 -0.00253885 -0.0664378
4137 4 11.0025 14.3311 44.611 0.476829 4.10318 1.19086 0.42102 0.19238 -0.0554072
4138 4 12.7435 18.6632 26.3505 2.47688 -8.29877 9.62649 5.37746 4.17695 0.91506
4139 4 1.61507 27.4254 44.562 0.265109 1.79669 1.7101 0.359969 -0.201109 -0.924234
4140 4 20.1863 8.05262 44.1917 0.380482 0.292306 -0.294979 0.265182 0.0482005 -0.109291
4141 4 17.0099 10.0074 44.4467 0.115419 0.154629 -0.19566 0.105347 0.0472672 -0.00282455
4142 4 15.3215 11.8143 43.7847 -0.308812 -0.141763 -0.773532 -0.0583398 -0.0084914 0.0586884
4143 4 12.2717 16.0652 45.8634 -2.71119 -0.603077 -1.45368 0.115305 0.392171 -0.567878
4144 4 14.6878 16.9461 34.9962 9.29337 2.20326 -2.3158 -0.79238 0.178983 -1.63822
4145 4 4.54424 31.3125 43.7788 1.11613 1.32452 4.2508 1.38365 2.88641 -2.43844
4146 4 22.739 4.87961 43.9761 0.000837796 0.0479965 -0.0219423 0.0130082 -0.0833479 -0.154749
4147 4 17.7892 16.9497 44.5827 -0.854198 -0.0636018 2.08568 -0.244821 0.538391 0.270662
4148 4 15.9501 18.4713 43.4314 0.969475 2.13382 2.4429 -0.464601 1.27012 -1.13547
4149 4 14.1095 16.4505 27.1082 1.33049 -7.20192 1.79815 -0.120426 0.872252 -0.69745
4150 4 26.4968 1.30983 44.5508 0.38166 -1.30914 1.41399 -0.68255 -0.659429 0.375743
4151 4 28.1131 4.46598 45.613 0.139424 0.819505 -0.02539 -0.0831804 0.235343 -0.0712533
4152 4 26.3564 9.52889 44.0608 -0.188322 0.263935 0.153083 -0.133089 0.183151 -0.0536506
4153 4 23.9175 11.913 44.847 -0.269532 -1.48696 -1.39739 0.137119 -0.312023 -0.468542
4154 4 20.9027 16.5651 45.0675 0.193927 0.0630694 -0.552528 0.0179586 -0.0309116 -0.132518
4155 4 20.5762 20.9836 44.9278 -0.924657 0.555462 0.544648 -0.273316 0.515767 -0.0175446
4156 4 17.3394 29.9672 41.2832 3.09471 4.35251 4.61019 -1.47063 -1.52958 0.352704
4157 4 14.7119 31.335 44.0912 -0.301578 3.88993 -0.771362 -0.750103 0.435046 0.0133577
4158 4 29.6663 0.736475 45.294 2.3148 2.13679 -0.704303 -0.200081 -1.41189 -0.627741
4159 4 27.0232 14.226 43.6006 0.119412 0.191418 -0.0564795 -0.0270528 0.041807 -0.172398
4160 4 24.0167 19.7261 43.6744 0.968318 0.0614261 -0.700801 0.171898 0.0231853 -0.182268
4161 4 32.5313 7.10705 43.4161 -0.444184 0.40787 -0.513644 -0.0409938 -0.0552823 -0.0902247
4162 4 21.2433 23.5638 43.9526 -1.94957 0.5137 -1.52184 0.416965 -0.147095 0.0282052
4163 4 20.5982 28.3931 43.151 0.127913 -0.711887 -1.54516 -0.294861 -0.571752 -0.0160469
4164 4 0.00757551 2.65863 44.0143 -0.26488 -0.555301 0.832551 -0.00405042 0.262958 0.274043
4165 4 -2.50771 6.80606 44.8189 -0.256593 -0.416204 -0.116826 -0.120654 -0.184776 -0.164504
4166 4 -3.86854 10.2032 43.5249 -0.0155123 0.0246917 0.0251162 0.0151236 -0.03215 0.0628052
4167 4 -13.03 27.1997 45.9449 0.146068 0.0477098 0.424593 0.0698227 0.0299088 0.10245
4168 4 -16.2458 29.9937 45.3092 -0.322511 -0.0638892 -1.15949 0.101289 -0.0671119 -0.240625
4169 4 1.04944 0.795419 45.2057 1.01742 0.324959 -0.458903 0.513077 -0.0125602 -0.0635341
4170 4 -0.0319506 10.956 45.6698 0.118684 0.094698 0.0228056 -0.0101134 -0.0648097 -0.0642883
4171 4 -2.42543 14.5702 46.2638 0.116992 -0.277784 -0.238612 -0.111684 -0.193052 -0.156134
4172 4 -3.69791 17.3394 46.6512 0.390639 0.415137 -0.059161 0.250511 0.117849 -0.0346316
4173 4 -7.50077 21.5049 45.9957 0.112743 -0.173317 0.107689 0.122155 -0.00857666 0.082939
4174 4 -7.91074 24.0824 45.9643 -0.162022 0.130089 -1.01222 0.056237 -0.0426694 -0.375088
4175 4 4.7337 8.1334 46.2505 -0.235524 -0.0529794 -0.497372 0.094091 0.133584 -0.0860997
4176 4 2.74686 8.14355 44.9421 -0.0456418 0.313874 -0.547401 0.220318 0.271941 -0.267108
4177 4 2.69208 10.2243 46.0721 0.0927096 -0.341799 0.16003 0.195705 -0.12 0.115364
4178 4 1.05948 13.5839 46.849 0.45958 0.32391 0.0324208 0.0631847 0.0686255 -0.237485
4179 4 -5.61669 23.481 46.8711 0.575858 -0.242473 -0.165182 0.149378 -0.226762 -0.00228952
4180 4 9.1077 0.314417 45.9503 0.503345 0.176386 -1.2536 0.0468851 0.0869766 -0.175033
4181 4 7.0627 9.60033 46.8124 0.108455 -0.447833 -0.188854 0.0421867 -0.139913 -0.218436
4182 4 3.35335 12.4911 46.6962 0.257956 -1.13782 0.105527 0.266247 -0.221152 0.141279
4183 4 1.52371 15.6299 48.3509 -0.155713 0.189727 0.143417 -0.0499373 -0.0763496 -0.0293924
4184 4 -3.41381 23.8633 46.048 -0.585942 0.447203 0.361102 0.043633 0.0458356 -0.17021
4185 4 -5.08935 27.1068 45.8781 -0.276094 0.105567 -0.318586 -0.0674765 -0.0840875 -0.0760181
4186 4 -5.46973 31.5807 45.7666 1.31146 -2.77078 -3.70459 0.0499176 -0.00962494 -0.473986
4187 4 10.5053 2.20569 45.8169 0.424429 -0.0682259 0.442039 0.0715019 0.0512648 -0.117069
4188 4 3.97427 14.9208 47.1011 -0.671577 0.523827 -0.740923 -0.505486 -0.0534078 -0.338625
4189 4 -0.400689 27.1831 46.4776 -0.121571 0.482703 -0.955219 -0.289114 0.106315 0.0292176
4190 4 -1.35862 31.7711 47.1234 -0.352561 0.388313 0.0154903 -0.0332872 0.190147 -0.248222
4191 4 16.3904 4.83577 46.1815 0.143206 -0.290405 -0.31784 -0.0549081 -0.113384 0.0134496
4192 4 14.5723 8.92652 45.6905 0.907109 -1.11944 -1.70034 0.1092 -0.0663855 -0.27536
4193 4 13.3954 11.327 46.2219 1.02055 -0.980551 1.10533 -0.276251 0.0595131 -0.122256
4194 4 14.021 17.2254 44.1819 0.170517 -0.39113 -0.33259 0.0627785 -0.250431 -0.453415
4195 4 1.66977 26.1622 40.8124 0.408139 -0.0414466 0.302303 -0.128307 -1.02203 -0.0905895
4196 4 2.55607 32.1768 46.5647 0.341028 -0.420646 -0.148948 -0.273687 0.304176 0.263416
4197 4 19.4634 1.08745 45.3046 -0.280471 -0.0500222 0.155466 -0.19196 -0.152461 -0.107389
4198 4 17.4971 12.4515 45.2558 -0.0885892 0.0889997 -0.205875 -0.186426 -0.0409058 -0.135359
4199 4 14.5318 14.506 47.0397 -1.04401 5.3914 -2.07912 -0.24897 0.141374 -0.0849608
4200 4 13.6061 21.4101 34.65 -4.72434 4.62474 7.38829 2.35502 -4.41956 2.01099
4201 4 3.08461 29.0865 31.6023 1.40006 -1.29052 -0.627425 2.05419 -0.550059 -3.5362
4202 4 12.845 18.6202 39.5848 -7.28552 3.47521 -8.08991 1.16015 -2.51011 0.0884012
4203 4 21.1646 2.22241 47.4029 0.596029 -0.808059 -0.312329 -0.0374343 -0.0865513 -0.231608
4204 4 24.1397 3.80338 46.5178 0.120492 0.111621 -0.174724 0.00592329 0.0603 0.0547056
4205 4 16.3984 15.5285 45.9661 -0.709878 3.93643 2.35142 -0.232909 -0.429154 -0.254418
4206 4 2.98981 20.1741 34.3088 -3.10534 -2.0705 2.09705 -3.25015 -0.850633 2.58746
4207 4 26.1786 5.11626 47.9935 -0.716893 -0.47933 -3.60465 -0.223928 -0.138828 -0.619085
4208 4 18.4454 19.4664 46.6262 0.0716634 -1.2183 1.31167 3.07815 -0.2323 -0.853373
4209 4 8.34088 18.1333 33.5707 7.01366 -19.879 2.77632 4.52756 -0.469532 2.98061
4210 4 2.79053 21.1246 39.9355 -4.44328 -9.12404 -1.01469 -4.83192 1.26107 2.21826
4211 4 24.9068 0.423439 46.2747 0.0571803 0.255698 -0.993948 -0.457992 0.115365 -0.94613
4212 4 28.0799 6.975 46.8208 2.24742 0.549708 0.509287 0.436553 0.137803 -0.0498367
4213 4 20.9069 18.6424 46.2903 0.233037 -0.185847 -0.0897708 -0.020354 -0.0905604 -0.108984
4214 4 19.21 24.3376 43.1236 1.01522 1.10166 -0.642145 4.9436 -2.0707 -3.24485
4215 4 13.4785 16.3114 50.223 -0.0382243 3.5219 -1.73837 -0.13464 0.366946 -0.185133
4216 4 33.0216 2.65146 46.2085 -1.97076 2.59569 -1.7328 -0.293362 0.305929 -0.404582
4217 4 29.7297 2.74628 46.4853 -0.119492 1.39836 0.290109 -0.0304979 0.707052 0.0308609
4218 4 30.4009 6.22723 44.7951 0.00170369 -0.0737925 -0.113842 -0.0429599 -0.272582 -0.0489615
4219 4 29.4913 9.89924 46.7101 -0.462405 0.693275 -0.417512 -0.112757 0.182321 -0.299546
4220 4 24.8187 14.2133 44.9233 -0.311043 -0.409511 -0.0107771 -0.103904 0.00599964 -0.0748808
4221 4 24.4026 16.4713 45.8043 0.0333733 -0.295163 -0.295526 0.0425068 0.132351 -0.088452
4222 4 31.3794 9.04615 44.8391 -0.162186 -0.00875687 0.0865608 -0.0715333 0.0754308 -0.0308963
4223 4 -12.8522 24.9054 45.0274 -0.0898326 0.1531 -0.227823 0.0164074 0.0336634 -0.0878748
4224 4 21.9411 25.318 45.7872 0.0198611 -0.968668 -0.441649 0.0931164 -0.115653 -0.183496
4225 4 1.14116 5.14331 46.9791 0.114362 0.286768 0.066469 0.13073 0.429675 0.0972147
4226 4 -2.57694 10.5685 46.5184 0.381993 0.0569312 -0.516034 0.142562 0.0470515 -0.23867
4227 4 -5.19574 11.5869 45.2324 -0.0384064 -0.0630716 -0.0430695 -0.0877974 0.0235453 -0.100511
4228 4 -7.52953 14.3709 44.5222 -0.0973436 0.124417 -0.257919 -0.111911 -0.0609075 -0.0189377
4229 4 -6.29855 17.3453 47.0958 -0.0189533 -0.534294 -0.270966 0.0681201 -0.119295 -0.176162
4230 4 -11.2337 21.4683 45.8902 0.388046 0.395898 -0.354499 0.0192549 0.108726 -0.255318
4231 4 -11.3498 24.1653 46.7912 0.00443444 0.0730326 -0.31524 -0.11713 -0.123681 -0.221257
4232 4 -11.1058 26.6941 47.6905 0.628788 -0.372766 -0.0102209 0.288409 -0.00167508 -0.104706
4233 4 -14.2515 29.9284 46.5641 1.69859 -0.447342 -0.274113 0.0318051 -0.270329 -0.206573
4234 4 2.29915 2.21599 46.9931 0.279242 0.0931515 0.424718 0.243767 0.140355 -0.0194327
4235 4 -4.67295 19.8126 47.1117 -0.106047 0.133175 -0.199332 0.0558555 0.0492368 -0.0568586
4236 4 -10.7245 31.0277 47.7056 -0.484543 2.55739 -1.72408 0.000184521 0.31021 -0.305038
4237 4 6.98906 6.43392 49.5777 1.98039 -0.0362742 -0.69992 0.205742 0.167237 0.134466
4238 4 5.33359 8.34953 48.634 -0.268707 -1.82453 -0.528139 -0.198786 -0.242941 0.152982
4239 4 -0.670991 17.6045 47.5783 -2.46446 0.856712 -10.4989 -0.544367 0.115016 -1.83409
4240 4 -5.20303 25.9947 48.5515 2.20767 0.154925 -1.81564 0.26054 0.11721 -0.401571
4241 4 -8.05887 31.1556 48.0998 -0.582538 -0.196932 -0.942554 -0.272807 -0.102329 -0.473045
4242 4 9.35397 0.90725 48.6962 0.76811 0.238775 -0.955585 -0.0034933 0.0609834 -0.0841835
4243 4 11.0967 4.49124 46.7762 -0.107785 -0.238348 -0.181591 -0.239575 -0.0981834 -0.188348
4244 4 8.36035 7.50185 47.5754 0.442213 -0.396709 -0.854414 0.00551043 -0.0438548 -0.20907
4245 4 6.68302 11.5139 48.2445 -0.499972 -0.857959 -0.919692 -0.294817 -0.16574 -0.273128
4246 4 2.04923 17.7256 49.8044 0.567062 0.330246 -0.199472 0.336602 0.517971 -0.983343
4247 4 -0.564318 19.8389 49.2113 0.00821365 -3.60043 -3.45561 -0.335467 -0.666426 -0.521712
4248 4 -2.74897 25.8655 47.5868 2.02122 0.0447986 -2.02428 0.32251 0.074537 -0.500236
4249 4 -3.37085 28.3625 48.1923 2.02111 -0.344547 -1.78833 0.203393 0.110092 -0.279752
4250 4 12.1934 1.0474 47.2217 4.7389 -2.09221 -4.04054 0.32569 -0.0311425 -0.417943
4251 4 13.1608 3.73423 48.0156 2.40438 2.82583 -2.07962 0.0210828 -0.0710786 -0.113269
4252 4 8.41146 9.6051 49.2836 0.891299 -2.23215 -0.88322 -0.128065 -0.0815397 -0.0895253
4253 4 3.26306 17.7399 47.0383 0.737646 -0.159313 -0.150691 0.919999 -0.464906 0.739685
4254 4 3.01819 30.8298 39.4528 2.34193 0.325992 -1.7034 -1.34522 3.40181 2.18101
4255 4 -0.404796 29.5398 47.296 -1.18822 -0.240596 0.0128778 -0.137096 -0.037541 0.0818609
4256 4 14.8195 5.83982 47.8248 1.95684 3.04853 -1.53391 -0.0156119 -0.108662 0.147262
4257 4 9.63335 12.7346 48.6893 0.434103 0.136875 -0.0264449 -0.0479325 -0.286726 -0.0795362
4258 4 8.35173 15.3107 49.2079 0.376686 -1.34523 0.571875 0.364577 -0.618305 0.887833
4259 4 19.7539 3.86094 46.2518 -0.0109744 -0.206778 -0.2128 0.0405312 0.0396395 -0.106813
4260 4 10.7521 14.5395 47.4307 0.911152 0.24133 -0.724753 0.01524 0.0972497 0.374312
4261 4 -2.06587 21.9342 49.4673 0.623371 -1.67089 -0.793071 0.362479 -0.00243843 -0.0575171
4262 4 2.30829 28.6764 49.5329 -2.57183 3.96421 2.92262 -0.062147 0.205798 -0.227435
4263 4 3.21584 31.3936 49.4547 -1.38101 0.627933 1.07435 -0.0988639 -0.247239 0.564007
4264 4 20.0477 0.833972 49.5743 -2.74615 1.41762 1.34501 -0.134739 0.572319 0.0268725
4265 4 22.142 3.81566 49.0968 -4.58696 -0.645267 2.58172 0.967192 0.0583057 -0.756051
4266 4 16.2955 12.7937 47.5943 1.51266 -1.12701 0.178754 0.0590485 -0.183948 -0.1294
4267 4 14.3839 14.0849 49.7037 -1.00543 1.46393 0.464607 -0.402582 0.363713 -0.0445254
4268 4 19.9766 25.27 49.7441 -2.93239 -4.20346 -0.818056 0.341354 -0.691487 0.170921
4269 4 8.044 31.1464 46.6336 6.10851 10.6045 -1.12371 0.777234 1.54756 0.652204
4270 4 3.97466 20.8992 30.8466 -2.44713 10.5159 3.98591 4.75235 3.73704 0.00655035
4271 4 23.3175 1.50079 48.7038 0.365019 -0.873359 3.02142 0.191272 0.135821 -0.176389
4272 4 21.4123 8.34149 49.151 0.395991 -0.222288 -0.42316 0.0629623 0.163709 -0.174584
4273 4 20.6611 10.398 47.0116 0.0849917 0.0698502 -0.102024 0.0918468 0.0168985 -0.108409
4274 4 18.6756 12.8272 48.6545 -0.037885 0.460615 -1.29166 0.0228989 0.25447 -0.54162
4275 4 17.8294 16.2682 48.8737 1.85759 1.06173 -0.106624 0.742202 -0.62901 -1.33095
4276 4 17.4611 19.0882 48.6899 0.363206 -0.915752 -1.00051 -0.725577 -0.561467 0.0516009
4277 4 22.9964 10.1135 48.0602 0.181829 -0.0174948 -0.763318 0.153459 0.0987712 -0.334682
4278 4 23.0534 12.9784 48.7401 3.33693 -1.3136 -0.268969 0.64783 -0.156773 -0.229427
4279 4 18.4025 19.7571 43.3565 1.03258 -1.74695 0.960323 -0.211005 1.45135 -0.0981771
4280 4 3.80766 25.2034 23.041 -10.178 8.02607 6.64019 -2.62559 -3.99688 -12.1943
4281 4 4.21401 25.3236 44.1129 2.92138 -23.5203 34.2051 -0.908582 2.06789 -0.181107
4282 4 29.3183 2.31363 49.222 0.312238 -0.0574138 -1.25739 -0.140721 0.278588 0.300381
4283 4 29.1841 5.50052 48.6893 1.92561 0.129476 1.32278 0.300119 -0.138954 0.0173347
4284 4 26.8302 9.41061 47.4623 -3.86336 0.0923917 -6.05484 -0.253408 -0.069301 -0.747597
4285 4 23.0464 15.5931 48.7892 -1.89096 -1.11242 0.210077 -0.301621 0.0692443 0.083177
4286 4 19.0535 29.0638 46.7236 -0.127397 -0.113208 -1.03303 -0.738151 -0.0934078 0.0397205
4287 4 18.8618 29.5058 49.2929 -0.4901 -2.0878 -1.47576 0.454122 -0.774606 -0.235656
4288 4 34.2992 0.615051 46.7168 0.744315 -2.32068 -0.372558 -0.026837 0.174344 -1.54229
4289 4 32.3 2.18681 48.5424 2.15694 -1.37252 2.28437 0.63568 0.148919 0.29869
4290 4 30.4819 8.03015 48.0944 4.56185 1.87585 -4.71189 0.553696 0.268922 -0.733853
4291 4 26.2002 15.1689 47.1249 -0.0358195 -0.148492 -0.287378 -0.0620614 0.0414929 -0.157867
4292 4 24.7538 18.1764 48.4375 -0.44877 7.09305 11.6307 -0.277158 -1.06063 -2.59198
4293 4 24.2505 20.5679 47.4337 0.22878 0.481713 -0.301441 0.0487832 0.17899 -0.131546
4294 4 -1.63482 4.70179 47.4159 0.316166 0.145733 -0.344283 0.0456845 0.0272682 -0.0507282
4295 4 -8.89906 16.1488 46.3003 0.1039 -0.21278 0.0956805 -0.0074322 -0.0631954 -0.0124072
4296 4 -10.6896 21.7385 48.5602 -0.606928 0.334588 -0.848063 -0.100936 0.219601 -0.265275
4297 4 -12.9121 23.0253 48.5441 -0.168857 0.204754 -0.187864 -0.128292 0.0103012 -0.0775453
4298 4 1.65177 1.19908 49.3108 -0.967525 1.95275 -0.137721 0.165737 0.450271 -0.0574484
4299 4 2.83453 4.28104 48.5951 0.105797 0.244959 0.0282314 0.0458312 0.099196 0.0213723
4300 4 -0.592255 6.84468 48.0984 -0.365422 -0.23032 -0.251887 -0.0294475 0.020745 -0.0671672
4301 4 -2.79467 7.2763 48.9645 -0.270171 0.393672 -0.388892 -0.196915 0.155975 -0.267369
4302 4 -4.80626 14.5954 47.3323 -0.175615 -0.113673 -0.319194 -0.0370599 -0.113272 0.0348027
4303 4 -7.84469 17.0659 49.245 -2.505 -3.71095 -1.8914 -0.0348444 -0.459261 -0.32246
4304 4 -9.53454 24.2656 48.5992 0.0121294 0.044266 -0.347941 0.2254 -0.160565 -0.153947
4305 4 -12.2139 28.9727 47.8765 1.54048 0.83464 0.09687 0.37829 0.180235 -0.143184
4306 4 11.1697 15.3988 39.2381 1.3006 -0.0747367 -1.59795 0.524003 0.793481 -0.314351
4307 4 1.01222 24.9785 37.156 -1.16658 -1.50803 -0.477517 -0.329062 0.269355 0.313482
4308 4 9.22581 10.523 51.8676 -2.42355 -12.0066 0.66187 -0.671684 0.0738909 0.25958
4309 4 6.63659 15.9633 37.9565 -0.690589 -0.606186 0.810325 0.214101 0.0646292 -0.611337
4310 4 -1.03088 13.915 59.8198 -12.2652 -7.86274 6.14126 0.790825 0.425978 -0.745391
4311 4 18.3876 23.7223 58.175 10.2513 0.533259 9.36518 0.603095 -0.59291 0.309784
4312 4 1.95226 27.7795 25.1526 -4.60285 3.67701 -3.72484 5.34861 -4.37735 0.301152
4313 4 5.38119 21.9434 21.1456 7.92436 -0.421306 6.60024 -0.238837 4.24852 1.63707
4314 4 12.5575 15.0126 33.9512 0.235307 -1.44428 -6.35342 -0.422655 -0.857818 -2.44417
4315 4 15.2612 29.3081 42.3398 -0.703575 -5.01981 1.88217 -1.15468 0.38632 0.143083
4316 4 30.1219 0.392526 29.0045 -1.38846 1.26061 -0.0378554 0.103163 1.89344 0.640548
4317 4 4.70237 17.2743 23.0931 -2.15089 1.92298 0.214789 -0.282861 -2.13568 -0.94221
4318 4 6.96112 18.1821 16.812 1.50977 4.42637 11.7553 -3.70574 -0.794937 0.440028
4319 4 8.29979 21.2676 14.5084 -9.94695 1.09178 2.89845 1.31292 0.439334 0.0360928
4320 4 13.9877 20.07 11.912 0.0197009 1.73741 0.803027 -15.5671 19.648 8.15012
4321 4 7.12932 25.7281 31.0481 18.2776 6.16766 -30.0591 -0.678138 -0.655428 -0.303266
4322 4 12.6532 19.2677 17.0323 -4.52819 -6.14977 5.73795 -1.27286 -1.58581 -0.581885
4323 4 18.412 23.1683 18.2329 -0.796662 2.79582 -2.36433 1.16496 -1.26802 1.69773
4324 4 19.3628 26.4174 53.097 15.4283 5.71335 8.47734 -0.196603 0.163389 -0.0483383
4325 4 13.1765 16.4819 23.0377 3.70552 0.138336 0.87478 0.227945 -2.52625 0.227245
4326 4 5.3825 20.1892 17.5039 -4.14982 0.00321576 2.08392 -3.29119 -1.95741 -3.58882
4327 4 13.5029 16.3772 38.0944 -0.517215 3.01577 -3.58497 0.476716 1.58309 0.291848
4328 4 8.98983 21.3427 29.6395 -3.8564 -9.51457 4.91938 1.24783 1.61492 0.0321496
4329 4 9.6752 23.3313 24.9618 -0.581235 -6.30345 -5.62173 1.27572 3.66329 4.82961
4330 4 1.97167 25.6794 26.9435 -7.53965 6.5376 -2.38659 -0.913464 -4.09939 0.389619
4331 4 7.24945 30.0001 12.3813 -2.2318 -2.63492 -5.13658 0.554905 -2.23678 0.531157
4332 4 9.25195 21.3153 11.7707 3.03405 0.209879 1.71658 -3.18367 -17.591 10.4208
4333 4 10.89 16.4702 21.472 5.51019 -8.88382 5.86265 4.11549 3.92774 -0.837619
4334 4 17.022 22.3138 37.3323 5.22918 -5.75261 -4.3059 0.050672 3.66369 2.35001
4335 4 8.40263 16.8677 20.2113 3.94077 -8.05971 4.73969 4.12291 -0.123586 1.53559
4336 4 17.7633 24.3643 33.0451 0.0468467 7.59373 3.64943 0.0853419 -2.40095 -3.61134
4337 4 9.49368 15.6943 37.38 1.4642 -2.58291 -3.11656 -1.69474 2.15837 -1.18141
4338 4 4.5044 17.9039 60.3489 -0.879226 -32.5171 49.8396 -1.53128 0.750207 -0.375043
4339 4 4.58406 28.6684 19.661 -8.85949 2.53617 -6.33944 1.00348 -9.3957 -0.871602
4340 4 18.2886 28.1781 34.7161 1.31688 -0.332849 -0.84054 4.28839 -2.0614 -0.346854
4341 4 19.4197 22.851 47.1201 -3.53359 0.93597 -1.49676 1.89209 -0.592845 1.13545
4342 4 12.1408 21.165 15.7451 3.29593 -0.273679 2.39621 -0.714159 -0.585724 -1.96642
4343 4 16.971 26.1911 40.1424 -4.34209 3.76246 -11.6934 0.537429 2.52722 -1.39343
4344 4 3.94986 23.2472 24.6683 -10.2656 3.44737 9.07828 2.84434 -1.22026 1.32217
4345 4 8.10304 23.6168 16.4369 -3.89064 -2.62306 -9.52392 0.146358 0.916543 0.528436
4346 4 8.90081 26.9473 22.1961 -5.94058 3.13793 -3.21329 0.0280915 -7.50244 6.65227
4347 4 7.99662 21.3572 26.857 10.3658 6.84694 -10.4813 1.31321 2.94977 -1.61106
4348 4 13.3363 25.3158 12.0369 -0.172281 -3.6607 1.32901 -2.99023 -1.00851 4.20982
4349 4 34.066 1.45778 50.7414 -3.96121 -0.879945 14.0698 0.296876 -0.493566 -1.77824
4350 4 34.7705 2.1423 54.7724 10.7956 10.0916 -1.07689 -1.12668 0.896665 1.0286
4351 4 18.8402 26.5379 46.2779 0.55026 1.42131 0.206377 -0.441446 0.190339 -1.10761
4352 4 12.5116 30.3925 22.7404 -9.50092 -4.62857 2.13981 2.92601 1.63075 -3.73416
4353 4 18.3603 24.7565 27.0955 -2.98583 2.7874 1.64178 -0.214819 2.5808 2.69444
4354 4 2.79509 29.2851 35.8951 0.955071 0.950146 -0.629893 0.114402 -0.192921 -0.212736
4355 4 16.1694 28.6958 26.3757 3.34326 3.28159 -10.8161 0.480794 2.31907 6.59106
4356 4 15.4922 20.1959 37.8041 -18.654 1.84617 -4.16592 -2.33709 -1.8381 -4.01316
4357 4 5.4587 28.6185 23.6758 -0.805363 7.87343 -7.34007 -2.43033 2.72675 -1.09289
4358 4 8.64705 17.6274 25.4492 -2.6111 10.9041 13.5676 0.338793 -3.307 -1.8884
4359 4 -0.197266 21.4117 58.2644 -9.74964 -8.72473 30.2981 1.22371 -0.0728624 -1.13735
4360 4 1.36632 15.2062 57.5604 -10.7432 -3.51184 1.88399 -0.606941 -0.0460158 -0.00638352
4361 4 16.6174 19.7044 26.2573 -3.33337 0.0424646 -3.00761 3.24527 -2.18201 -1.7307
4362 4 36.3018 0.254944 49.1625 -3.46171 1.41857 -2.87681 -0.389777 0.166176 -0.725304
4363 4 14.6544 15.1962 31.4561 1.54057 -1.46861 0.506173 2.25946 -2.6236 1.10252
4364 4 3.77303 21.1669 36.7093 8.13854 -2.91615 -1.83055 1.24472 -1.44733 1.28764
4365 4 11.6056 19.8129 13.5003 -0.00787042 1.57681 -0.331179 -1.9568 -0.258703 -0.316561
4366 4 20.353 22.0089 65.0339 11.7081 -10.0512 13.8158 -0.0201667 -0.000179497 -0.0583405
4367 4 7.27282 20.1503 18.7129 2.34289 3.06599 6.66402 0.64568 -4.05305 8.4435
4368 4 16.1349 24.3591 39.0954 -15.8614 6.79722 7.11938 -0.784417 0.738667 -2.78819
4369 4 18.7528 26.4181 30.2989 -2.22473 -2.35471 2.13733 0.0236449 -0.759043 -1.11066
4370 4 13.3363 24.2452 19.0901 -11.176 1.84962 6.15228 1.96691 -1.29526 1.09992
4371 4 8.31878 30.8108 18.4693 -4.15255 -2.90316 -5.5873 1.32338 -0.841207 2.08248
4372 4 10.0938 18.7963 22.14 -3.98486 -10.8698 5.54657 -2.50911 -1.68291 -4.54675
4373 4 3.61924 16.3498 52.8257 8.37477 -6.37972 -3.56439 -0.389524 0.316559 -0.0643619
4374 4 19.5268 24.4994 55.7746 5.18508 -5.31547 11.36 -0.477392 -0.277388 -0.161559
4375 4 1.05919 22.1041 30.9243 6.38415 -2.18359 2.58486 0.296152 -0.172317 -0.427003
4376 4 12.2045 21.9236 11.6038 -1.12408 0.408591 -0.952822 -22.1698 2.62289 12.9042
4377 4 10.0688 27.4967 14.7561 9.97872 -2.75782 0.943878 -5.21525 2.45105 -6.96156
4378 4 14.8266 22.0419 12.8878 1.34105 0.132135 5.36541 0.877005 -3.34263 0.994374
4379 4 1.44598 23.3943 45.134 2.81987 -0.975055 -0.225592 -3.03222 0.886584 1.56167
4380 4 6.3324 16.0219 40.5542 -0.937245 0.307846 -1.81453 -0.791555 -2.05854 -2.63253
4381 4 6.97512 23.5725 13.5045 4.54045 4.69763 -0.652 5.66829 1.09514 1.17865
4382 4 13.7469 29.5175 16.7298 -0.360929 7.42122 3.0612 2.79858 1.68518 0.534102
4383 4 4.27187 21.062 25.962 14.6282 5.10826 -1.20702 -4.43461 0.492335 -0.157753
4384 4 12.4264 31.9242 32.8308 -2.06815 0.799165 -0.243495 0.213831 -1.17358 -0.969308
4385 4 32.0653 0.0353778 26.2729 1.1062 -3.06666 -0.393616 0.901825 1.44215 0.0698613
4386 4 2.77357 24.0356 39.0832 4.69931 5.49205 7.46467 -1.54194 -0.778787 0.348266
4387 4 12.0627 21.2313 30.6247 -7.36937 -2.44724 3.30963 -0.287391 1.88473 3.78465
4388 4 6.4649 18.9843 25.966 -2.98275 -3.57755 3.31733 0.389455 -0.523191 -4.31341
4389 4 15.2435 16.1598 83.0936 5.86211 -8.80067 29.5526 0 0 0
4390 4 7.9506 28.1374 20.6655 0.684168 -6.59371 2.24982 -3.48278 2.50513 -5.8516
4391 4 9.44434 24.0599 14.4275 -3.54863 1.49472 -6.05865 2.25387 0.239193 -1.75414
4392 4 5.89664 23.9869 23.209 -4.08505 -0.0178064 -6.29364 2.5564 -3.53259 -2.43433
4393 4 17.1573 20.3984 50.8131 1.68907 2.46359 1.93076 0.207996 0.519665 -0.654605
4394 4 19.4097 21.6895 51.1396 3.47236 0.378738 2.29657 0.568252 0.200354 -0.0385176
4395 4 12.8635 27.3801 17.6567 -0.309296 2.27636 -9.17342 -0.441463 -0.0844095 -4.0863
4396 4 16.0279 23.8839 18.6901 6.37158 13.5784 12.2821 -4.46576 -3.43131 -3.73017
4397 4 13.2564 18.3652 28.6654 -6.77813 2.22444 -8.4806 -0.936832 0.603971 1.09186
4398 4 18.9833 23.8497 52.9752 7.46786 9.76231 -4.24498 0.460429 -0.104121 -0.29515
4399 4 2.5095 21.3084 19.437 3.68621 -7.1166 5.78488 3.56591 -0.402947 2.60007
4400 4 1.89698 19.1972 59.7178 4.37073 -16.1738 16.6087 1.02767 -0.263031 0.00304547
4401 4 14.2506 21.9783 17.8231 -0.824131 0.679532 2.95585 1.42631 -0.407908 2.23637
4402 4 11.2909 27.2065 21.1727 -12.6802 11.1043 9.95668 -0.546181 1.00263 -1.42653
4403 4 16.9745 23.4222 25.8987 1.78239 4.42716 -1.90009 -3.89351 -4.41333 -0.410519
4404 4 32.1465 0.900674 57.0416 9.86957 14.9624 13.4489 -0.558577 1.09412 -0.566704
4405 4 17.1599 28.1949 43.5067 -6.34952 -2.04213 0.140728 4.40712 2.93761 0.710557
4406 4 9.55839 25.906 18.2511 -5.50238 4.55792 7.18601 -1.48555 2.15917 -0.747779
4407 4 9.94594 18.8375 36.8954 0.241263 -13.1136 -7.63098 0.502318 -2.18556 -0.900956
4408 4 10.951 21.5366 17.8915 1.98101 4.12506 1.27894 2.02535 -0.498137 -0.383253
4409 4 18.5922 20.7764 29.0892 -1.67918 1.20011 1.16033 0.150411 0.229153 -0.410653
4410 4 16.3251 25.9217 46.504 12.3636 -1.76883 3.84652 0.984548 0.677418 0.0643935
4411 4 5.53911 22.5704 27.4097 -19.2542 -8.05006 -3.32945 2.18809 3.3486 -0.50707
4412 4 6.98436 17.7153 41.9054 5.06846 -1.92043 -5.06272 1.45122 3.27097 0.616589
4413 4 6.58159 31.9986 74.7231 2.90679 5.80908 10.4307 0 0 0
4414 4 0.0310452 27.0761 50.7321 -45.1481 10.5912 2.04301 0.379992 -0.804589 0.36866
4415 4 3.82301 25.1093 19.7069 -9.4448 0.756924 -9.74147 -2.77498 3.53446 1.19233
4416 4 10.7035 19.7914 24.4348 -8.71638 -0.261862 1.88326 -3.15704 1.56335 -0.233324
4417 4 17.0623 28.2312 30.7081 3.92547 0.806884 2.61101 -0.931872 -1.48793 -0.712211
4418 4 -2.36249 28.7027 58.7245 -21.2135 12.0702 16.9976 1.36162 -0.0839515 -0.0466807
4419 4 16.3621 15.0882 51.5722 1.12885 -3.45059 12.9018 -0.498522 0.589729 -1.27691
4420 4 7.19377 24.1122 25.4578 -4.37906 -2.61072 7.62604 -0.528131 -1.86152 -0.224936
4421 4 1.88931 16.2525 55.2118 -7.27814 -9.40635 2.87899 0.510983 -0.299841 -0.172768
4422 4 9.73168 13.3978 51.0436 -3.78464 -8.71426 3.43028 0.682116 0.830354 -0.34187
4423 4 3.07414 29.6796 51.8551 -6.74321 -1.32802 3.96977 0.0578542 0.575517 -0.158194
4424 4 14.2588 18.435 21.885 1.93739 -5.046 -2.63078 6.17595 1.19767 -0.126142
4425 4 30.5355 4.67865 51.2756 12.7213 15.4464 20.9574 -1.18508 -0.424335 -2.58629
4426 4 10.4304 29.719 23.9529 5.32572 -5.10306 -14.1306 -3.60072 -3.30475 -0.772807
4427 4 8.97992 21.1983 36.8122 8.16273 -16.1206 -12.8467 0.133237 0.182311 -0.550477
4428 4 8.3069 20.7906 21.0948 5.4389 -0.887576 0.0683454 3.84646 -5.71481 -5.16295
4429 4 7.45675 23.2121 19.5008 -0.353989 7.07501 -6.16592 1.40524 -4.35612 1.43849
4430 4 15.2688 31.1252 40.355 -0.910443 0.628063 -2.85375 -0.0962854 -0.73446 -1.66382
4431 4 16.3858 27.5974 24.5391 1.61036 -6.84752 -15.43 -1.77664 -1.63615 -7.15478
4432 4 13.0444 18.8089 23.8418 -0.738217 -2.38796 1.79553 -1.11088 4.82929 -0.136294
4433 4 16.7675 21.293 34.4215 12.1959 14.4943 1.28473 -0.336617 5.60769 2.9907
4434 4 16.6505 25.957 18.2072 1.367 1.32441 1.0629 -0.345493 4.46994 2.46696
4435 4 9.9541 20.2967 27.7679 -2.86273 -0.963083 2.77936 -3.31635 -7.31967 2.97051
4436 4 6.78783 16.186 51.0046 1.57233 -0.656335 2.76265 -1.21539 0.620069 -0.263894
4437 4 5.20816 29.5006 29.6261 7.95186 -10.0358 -1.19488 -2.63733 4.00144 1.16417
4438 4 7.27021 32.2004 22.5613 -3.0384 1.62057 0.0713054 2.29103 0.228986 -3.80559
4439 4 16.8475 19.2983 22.8269 1.64379 -6.12661 1.18821 -1.21372 -1.18155 0.797867
4440 4 11.2221 20.5608 20.646 6.14811 -3.02475 3.96773 2.3959 1.1178 1.8979
4441 4 -1.70926 25.9282 52.0104 -52.1537 -8.69841 -26.6276 -0.0394689 -0.308982 -0.138177
4442 4 12.3776 29.4186 18.8185 -5.1444 -0.823029 -1.22025 5.31041 5.45768 1.86671
4443 4 13.8676 27.6729 20.6839 -7.24362 7.94773 2.9704 -2.0436 0.53317 1.2045
4444 4 7.2634 32.1509 31.2682 0.814181 4.03103 -2.54402 0.703759 -0.391722 -0.51603
4445 4 16.1385 21.1515 42.4752 3.88495 -12.8325 -15.113 -2.53016 -0.315622 -1.31994
4446 4 1.97394 25.5093 29.9399 -0.0158618 2.57609 -1.79249 -1.62999 2.06191 -1.57613
4447 4 4.86216 22.4427 40.7026 -8.16626 -23.0796 10.4735 -0.189198 0.864793 0.447
4448 4 10.0889 17.1749 31.2462 12.8543 2.7139 14.8487 5.51208 0.859881 -3.39834
4449 4 13.263 23.6029 24.8244 4.05171 6.10491 1.98373 -5.14958 2.89665 -3.66632
4450 4 7.57963 9.74617 54.3386 -2.40179 -26.0407 9.41025 0.720838 0.341475 -1.08944
4451 4 7.16112 31.7425 26.4305 6.53992 -12.495 -4.663 1.31742 -5.20574 2.13298
4452 4 13.1517 25.2183 16.3639 -3.82093 -0.599481 -0.882362 -2.72659 2.50726 -2.42791
4453 4 17.8108 24.8112 24.312 -3.89245 10.8718 14.9763 -1.52367 7.22045 -3.39119
4454 4 9.76818 29.4602 19.9092 -3.86681 6.65552 6.54275 3.48974 1.42489 -2.0078
4455 4 20.2198 20.5627 55.5002 12.5567 -10.0802 17.7016 -0.86105 0.145086 -0.827219
4456 4 9.9687 31.5323 21.9823 11.2995 2.40433 -4.83161 -2.74432 -1.80139 -0.873885
4457 4 3.61436 20.484 44.6515 -0.0909713 -1.78372 3.29291 7.77713 9.83838 -5.057
4458 4 4.35305 30.202 33.7294 0.313469 -1.54054 0.671274 0.0104164 -0.421176 -0.307821
4459 4 11.2406 17.3888 34.5203 3.16876 3.75796 0.556943 5.88895 1.84319 0.575253
4460 4 12.5137 30.1169 48.2501 1.18971 -1.94258 5.02324 0.609676 0.524309 -0.982306
4461 4 14.7079 27.0013 39.3259 1.70714 8.33798 5.87826 0.338508 0.418818 0.127767
4462 4 10.2057 15.5826 33.1452 -4.40724 0.713693 5.8728 -2.31385 -0.0945593 0.579609
4463 4 5.90295 18.4443 37.4852 4.85826 -1.47708 -13.5803 -1.52936 0.827367 0.639728
4464 4 15.7712 20.4396 32.3832 -9.39323 11.2161 2.63055 -3.48877 1.89416 1.86174
4465 4 5.58406 29.3804 36.0024 7.92468 20.2616 16.064 -1.77391 1.57507 2.01194
4466 4 15.3322 30.4835 35.0786 0.417337 -1.79334 0.684782 -0.0443888 -1.678 0.521783
4467 4 14.2931 29.8718 38.3822 -3.15146 9.17417 -5.25343 0.0152074 1.32732 4.76232
4468 4 27.9449 0.499646 27.8044 -0.355424 0.145885 4.33216 0.753796 -3.86511 2.59087
4469 4 16.9312 17.4346 52.798 8.18652 -4.81006 -3.88025 0.265741 0.346834 0.188254
4470 4 18.033 27.1412 49.8035 2.49387 -0.961262 4.15442 0.472505 -1.72593 0.502683
4471 4 18.0708 20.281 53.3368 -4.08298 3.11152 5.14288 0.897315 0.0274653 0.250035
4472 4 23.976 0.61895 51.2193 -24.3733 -12.4362 25.2552 0.23304 -0.209547 -0.740228
4473 4 12.0949 23.0748 22.0208 -5.17031 2.00567 -1.96234 -4.75693 1.435 -4.5168
4474 4 5.3084 18.7493 31.9801 -1.8521 -1.52632 -5.04746 2.74305 1.79004 -4.04584
4475 4 13.5831 20.9046 25.1664 13.7676 2.30121 2.80266 0.306035 3.00022 0.249494
4476 4 3.1133 29.8158 43.8548 -2.61633 3.69674 2.10059 -0.580231 -5.89602 0.862658
4477 4 14.0118 26.658 24.2579 4.0964 4.29965 -5.64592 -0.788262 2.74046 1.02828
4478 4 26.0526 3.82376 58.1203 19.0978 31.7093 -0.154739 0.475694 -0.322857 -0.210159
4479 4 4.69152 19.2157 27.3574 0.527277 -8.21663 -9.39573 -1.89488 -0.913387 3.25315
4480 4 7.04395 26.0584 19.9691 -9.20497 -2.69116 8.66294 -1.27805 2.48351 -2.97282
4481 4 4.49066 21.1276 33.1313 -3.53229 0.548009 7.28737 2.95466 2.31147 -2.57372
4482 4 13.9181 21.5312 20.5815 -5.7154 -3.56191 5.5925 -7.84146 -2.75367 -2.81168
4483 4 15.7364 22.9114 32.8408 -4.98142 -4.16166 -6.41829 -0.752339 0.450401 0.689367
4484 4 14.5779 22.627 29.5174 3.35644 -18.5129 10.5044 -1.15646 1.48192 -0.619825
4485 4 10.4103 26.3449 24.627 -11.7022 13.2834 0.336107 3.83765 -4.40165 -0.00168117
4486 4 25.2054 0.329572 53.532 17.257 11.1322 3.27777 -0.748996 -0.237277 -0.385023
4487 4 2.86649 23.9962 42.0433 -4.53579 -8.259 7.713 -2.97854 -0.700523 -2.57844
4488 4 -14.9139 27.9392 62.3625 25.7569 10.7173 3.32666 0 0 0
4489 4 15.238 25.1904 31.9596 -2.17834 2.29304 3.55248 -3.04542 4.20525 2.7218
4490 4 18.8116 21.9951 60.5747 13.9524 2.5056 35.5195 -0.181063 0.824981 -1.09231
4491 4 13.4037 30.5568 30.0002 5.90075 -4.28572 6.39245 1.53075 -3.67682 1.12921
4492 4 10.2395 14.8444 56.0101 -0.564299 -8.80414 1.07729 -0.184569 0.0286049 -0.384668
4493 4 10.6899 31.075 35.5958 -24.2679 -4.55075 5.40576 1.74553 -0.410779 1.23311
4494 4 4.47917 27.3554 34.3495 8.88048 -4.51566 3.13062 -2.08029 1.33249 0.33948
4495 4 14.6511 25.3549 20.7592 0.119667 3.76725 -10.1419 -0.290653 2.35307 -0.115595
4496 4 0.869774 23.1597 51.2387 7.99362 11.0364 19.0037 -0.331785 -0.568897 -1.57501
4497 4 29.2911 1.31665 53.9309 0.97522 0.620065 -0.198444 -0.0704338 0.19025 1.16128
4498 4 3.81102 31.1603 54.0064 -3.362 -2.88186 -0.80944 0.542812 0.102441 -0.823175
4499 4 0.689277 28.5283 58.6037 -11.9423 8.18413 18.0387 -0.249887 -0.149979 0.903862
4500 4 9.49442 14.8756 58.399 -5.13958 -15.2868 -0.635062 0.0771288 -0.00318423 -0.249576
4501 4 15.1318 31.3824 48.6584 -2.19366 4.09498 2.79573 -0.0223575 0.0157813 -1.05989
4502 4 5.11649 22.0339 18.8392 4.99145 -3.59804 0.481505 -0.712042 0.713934 4.39409
4503 4 11.584 27.5111 29.0324 -2.61422 -8.97657 7.68273 1.70119 0.791806 0.205711
4504 4 11.5435 14.9135 67.6204 4.42752 -13.2337 22.3632 0 0 0
4505 4 9.84804 22.7438 20.3417 -8.58331 -2.16585 -2.03879 -2.6511 0.923626 5.04287
4506 4 12.2094 30.6568 25.2694 -10.6325 1.39569 -0.630443 -0.0288032 -3.31677 2.34152
4507 4 7.70882 24.6269 21.6 6.2762 -2.84449 -2.12332 0.742526 1.34221 3.84822
4508 4 6.72245 22.4814 32.8094 -11.1465 -3.24161 2.0803 1.95214 0.724344 -1.97436
4509 4 7.26611 20.9508 23.6536 -2.30952 -10.1421 -5.84051 -6.88467 7.74193 -3.10125
4510 4 28.0495 0.168929 37.4766 -1.03102 4.37921 0.0931474 0.817014 -0.359736 0.235983
4511 4 0.723998 25.3824 63.6146 -5.66895 2.49736 8.26442 0.283018 0.40001 -0.849129
4512 4 9.27477 17.8016 40.4026 5.71837 -0.0689073 -0.247277 -0.211114 -3.34504 -0.566314
4513 4 33.1497 4.19407 56.3997 -0.057947 28.753 13.6368 0.630412 -1.7247 -0.723345
4514 4 2.35435 20.93 28.9994 0.891312 0.515937 -2.37104 -0.224516 1.39331 -0.703321
4515 4 16.5539 1.09769 53.9262 -16.6885 31.197 13.7857 0.000399127 -0.00158504 -0.0158709
4516 4 2.61984 22.5517 47.3264 -1.4309 0.860359 1.81496 -0.561237 -0.290269 -0.24573
4517 4 10.0485 18.4572 42.7262 1.93057 -4.66582 -9.08381 -0.0743261 -1.97472 1.08612
4518 4 17.524 22.4251 43.9724 7.6117 -3.77462 1.48411 -0.765028 2.64867 -2.05704
4519 4 12.066 27.9117 25.544 4.34533 17.8718 0.0911283 0.294275 -1.19293 6.34082
4520 4 9.73662 14.9674 53.072 -12.4634 -3.13758 -1.00363 0.0393639 0.154656 0.314877
4521 4 3.50362 30.5517 58.9945 -11.5579 9.29768 16.0306 -0.170563 -0.920063 0.102281
4522 4 10.698 17.0241 48.043 -6.75225 -5.68022 3.53553 -0.719619 0.446233 -3.06511
4523 4 5.43607 17.275 35.2098 1.18053 4.51052 -0.132653 0.811783 1.26608 2.569
4524 4 15.2295 24.3795 42.4093 3.39102 -13.0813 1.09841 2.72372 -0.743119 -1.15945
4525 4 31.1334 0.534319 41.0464 1.73887 -1.71741 -0.045651 0.0859817 -1.31714 -0.349906
4526 4 15.4462 23.0509 20.8298 0.911069 -0.779897 1.90679 2.29092 2.29027 1.6808
4527 4 3.65224 28.9027 38.6817 29.4835 5.71807 12.7497 12.422 0.238574 3.43953
4528 4 5.49317 17.6337 49.1827 9.66875 -8.00843 8.58705 0.867636 0.344306 -0.176393
4529 4 16.2548 17.6144 50.3036 -7.81997 -3.17748 -1.63032 -1.61843 -0.741433 -0.182765
4530 4 7.91275 16.9729 31.5944 3.96419 -2.85144 -7.44013 -6.21274 -0.844434 -0.389317
4531 4 13.348 16.8544 30.5604 7.15855 -1.40456 -1.74796 -3.011 2.87535 5.2244
4532 4 7.87981 20.5062 33.5001 -10.7641 -8.56867 0.424186 -1.42991 -0.130947 0.958292
4533 4 7.45112 30.4633 33.3471 0.120033 -2.89795 -12.6364 20.339 17.1738 18.0833
4534 4 7.70547 29.4543 24.7436 0.103433 -10.5425 -0.510934 1.25237 0.871222 1.80443
4535 4 15.7899 21.3135 48.4136 -4.19273 -2.12316 0.349879 -1.6181 -1.23892 0.91582
4536 4 1.11834 22.2149 55.6074 -10.0388 2.99092 13.7973 -0.734202 -0.438916 1.42543
4537 4 9.56931 17.904 45.4345 0.635543 12.12 -0.000698231 0.0450693 -2.66442 0.6268
4538 4 16.5843 22.6473 40.5211 -4.24081 16.8558 15.8216 4.78785 -0.402465 -0.195682
4539 4 14.7517 25.015 28.2693 -7.17209 -2.48948 2.31559 1.27344 0.425552 -0.85744
4540 4 4.01447 18.8273 29.6818 1.92047 -4.5258 -2.69091 1.30059 -0.592596 -0.0905637
4541 4 2.82815 26.4183 36.8395 -1.74399 3.66874 -1.25554 1.04726 0.622018 -2.95845
4542 4 17.5431 23.3933 46.2522 -0.800388 -6.03715 -2.23139 -4.34995 -0.172344 -0.751368
4543 4 14.052 29.6246 32.5527 10.0518 10.7375 5.71338 1.5472 -0.73828 0.544197
4544 4 4.33917 25.9425 24.7929 -6.54459 0.797817 10.9704 1.21949 7.28801 13.3569
4545 4 10.8876 25.2821 32.3872 18.725 -1.88229 1.24571 0.0854674 -0.923254 0.93371
4546 4 16.6388 21.7734 30.7319 8.25817 12.7002 13.326 3.92879 0.911136 -2.91418
4547 4 5.48065 27.7086 31.5011 13.9471 -1.33976 0.363617 -2.80606 -3.54861 -1.24615
4548 4 16.8273 22.6071 28.2114 1.82318 -5.05482 9.32339 -3.89413 -1.46479 -3.76473
4549 4 8.42449 17.8119 27.8372 5.52744 2.14606 4.69527 0.22305 -1.23212 1.58367
4550 4 3.79977 29.3863 27.3597 -0.242001 6.6007 3.96131 1.66502 -0.720644 -0.224385
4551 4 16.7701 24.5102 30.509 -5.86154 -6.97235 1.959 4.57865 -0.283064 -3.46507
4552 4 10.1288 24.6197 22.4719 8.69025 0.7505 5.3062 4.44387 2.8059 -2.44138
4553 4 14.4048 20.1483 30.3346 5.96417 1.28389 6.10368 0.0117727 -1.86248 -0.907347
4554 4 9.91465 23.9996 35.1865 24.6729 3.00268 7.05972 0.309439 -0.284341 -0.838986
4555 4 3.41374 23.8659 36.0182 9.45908 4.00536 7.41465 -4.58872 0.000404014 1.18209
4556 4 11.437 21.8579 24.1188 -4.7758 6.51635 -7.25601 2.34294 1.90989 0.161224
4557 4 17.2436 30.7948 74.3253 10.8082 4.43674 32.9571 0 0 0
4558 4 13.0194 30.1344 27.5352 12.4371 -4.09223 -4.32837 -3.02971 -3.42268 -4.56787
4559 4 5.57146 27.6006 28.1464 -1.48589 -4.06498 -0.0332726 -1.81414 -1.3473 -1.11428
4560 4 1.78499 26.882 60.4314 -18.3409 6.58297 23.7695 -0.68982 0.394313 0.0417275
4561 4 11.6734 31.2494 38.8655 -2.18176 -0.325981 8.64097 0.570523 1.88394 -0.410327
4562 4 5.06461 23.1648 34.4323 16.1196 10.7711 2.37805 -0.603432 1.74275 -0.115382
4563 4 4.73877 20.3397 39.1897 -5.49605 -5.51544 -8.83686 1.92435 -4.35549 -2.79749
4564 4 16.3844 25.771 34.7943 -3.29031 8.33281 -7.61193 1.95382 -0.680945 -5.40381
4565 4 22.279 24.7112 51.8285 24.0359 -6.12409 32.2529 -1.33023 0.241186 -1.97854
4566 4 17.4459 29.4339 53.8785 7.96206 8.06696 2.04001 0.499874 -0.770237 -0.38151
4567 4 14.2403 20.7763 27.7827 12.3252 3.50362 4.41433 -3.74286 -3.60991 2.35221
4568 4 9.98769 31.1114 42.485 -1.94985 19.5494 0.77482 1.04596 0.850783 -1.78662
4569 4 9.13366 19.7669 47.7694 -16.0972 3.9147 -1.45098 0.420299 -1.42494 -0.690282
4570 4 6.37834 29.6015 32.4422 -6.75266 1.12709 2.47806 -19.5332 -11.9706 -17.0807
4571 4 14.4759 27.9758 35.2043 0.19976 3.30241 -3.84726 -3.9285 -2.77936 -4.02237
4572 4 13.2791 18.7375 32.6866 4.66223 -1.00583 -1.92191 -2.79128 -1.8516 -1.27076
4573 4 12.2819 22.4494 27.1998 5.02237 -0.190059 -1.256 1.16461 -0.120412 0.236508
4574 4 3.462 23.0321 44.1492 15.0067 -0.402851 3.01356 1.67186 -3.27413 -0.39627
4575 4 13.2886 9.45305 53.5068 9.17853 -44.3003 12.3088 -0.0925614 0.026197 -0.0514744
4576 4 14.4655 29.6182 46.1777 -11.7168 -6.10494 -14.9405 0.372432 -0.413996 -0.00384818
4577 4 4.03167 25.1829 30.9506 -5.25751 -10.3419 1.10414 4.09095 -5.93151 5.86195
4578 4 7.53754 27.6813 26.3908 0.139472 4.12921 3.71957 -1.88582 -0.962332 0.570585
4579 4 9.59636 20.2917 31.7504 1.68725 4.5725 -6.00704 -0.572302 -0.0672961 3.92147
4580 4 9.31779 30.5194 29.5118 8.80132 1.28323 13.1183 -2.93287 2.14486 1.29821
4581 4 12.8203 22.9429 33.193 2.51274 -9.71924 21.6295 -1.66716 2.87273 -2.83457
4582 4 8.16536 24.8676 27.6873 -3.16537 -6.479 -6.41879 0.514357 -0.00279501 -0.140653
4583 4 15.9729 26.5959 43.4245 1.57367 -17.0061 -1.09068 -12.0524 -1.07689 2.39269
4584 4 12.2005 27.5498 46.6122 37.8821 -17.2672 -1.97 0.769413 1.34643 0.37298
4585 4 6.59312 28.3318 60 0 0 -105.316 -0.533591 0.361204 -0.164637
ITEM: TIMESTEP
4000
ITEM: NUMBER OF ATOMS
4585
ITEM: BOX BOUNDS xy xz yz pp pp ff
-1.8642987430510001e+01 3.7285974861020001e+01 -1.8642987430510001e+01
0.0000000000000000e+00 3.2290601434510997e+01 0.0000000000000000e+00
-1.0000000000000000e+01 1.0000000000000000e+02 0.0000000000000000e+00
ITEM: ATOMS id type x y z vx vy vz fx fy fz
1 2 18.5461 32.2699 3.94166 0 0 0 0 0 0
2 1 0.0316457 1.74732 2.06017 0 0 0 0 0 0
3 3 1.1639 0.795549 0.610904 0 0 0 0 0 0
4 1 0.188269 1.85961 5.55948 0 0 0 0 0 0
5 1 -1.41434 2.75991 7.84307 0 0 0 0 0 0
6 1 0.180088 0.101448 17.906 3.97166 1.30765 1.3003 5.04361 -6.73846 -4.97633
7 1 1.6944 1.16053 15.2902 1.92827 -1.85126 -0.85964 -10.0518 10.0303 12.744
8 3 0.686092 1.96851 16.8472 -4.32804 -1.21951 -0.749171 -8.71878 -7.28039 5.46725
9 2 -1.48356 2.59233 3.85583 0 0 0 0 0 0
10 1 -0.784476 4.50933 10.764 1.58534 1.67066 1.12638 13.1451 7.66208 -14.6447
11 3 -1.5978 5.61584 9.28439 -1.98063 -1.89846 3.82876 1.14491 1.02452 3.40633
12 3 0.274166 3.76233 7.18554 0 0 0 0 0 0
13 1 -1.23382 2.83254 16.9917 1.94277 -0.189851 -0.12563 -12.9524 5.31292 11.6322
14 2 0.132328 5.68786 12.8436 0.0267848 -0.434849 -3.92032 -2.4882 -9.12401 -11.1145
15 3 -1.48838 4.79188 16.3165 0.730414 8.71369 6.39574 -4.1788 -11.9249 -5.82557
16 1 -3.10716 7.17569 2.22916 0 0 0 0 0 0
17 3 -1.72972 6.28201 0.783527 0 0 0 0 0 0
18 1 -1.37734 7.05328 10.6096 -2.1709 3.70298 -0.387704 -3.18485 -16.9644 8.16652
19 1 -2.64478 5.42532 17.7768 0.0485932 -1.35189 -1.20761 6.76088 12.3634 -1.22741
20 2 -1.48518 8.03241 13.0162 -1.50367 0.716998 0.808454 -4.44505 10.4108 -10.837
21 1 -1.58861 6.33759 14.9948 5.44737 0.399863 0.724925 14.4783 -13.7328 -0.658398
22 3 -3.04039 6.87065 16.4884 3.197 8.84114 -1.23315 -2.97289 6.24679 6.65203
23 2 32.404 8.40592 3.98447 0 0 0 0 0 0
24 1 -4.51214 9.87322 1.90885 0 0 0 0 0 0
25 3 -3.10065 8.8433 0.797443 0 0 0 0 0 0
26 1 -4.73977 9.96332 5.93089 0 0 0 0 0 0
27 1 31.0001 10.5819 8.24651 -0.895511 3.06778 -4.14018 7.56482 -7.82618 6.93342
28 3 -5.06378 9.39587 9.1276 3.17017 -4.76712 -1.07646 2.64908 -8.38443 -3.69162
29 1 -4.82443 10.8757 10.4587 -0.415364 3.91989 -1.89647 12.4082 -8.81231 8.82117
30 1 29.5917 13.0512 8.31047 1.0062 1.90696 5.07356 15.9181 11.952 -2.44915
31 3 -6.34832 11.9766 9.48796 1.60362 -4.35837 -1.93218 1.3968 -3.51135 5.54539
32 3 -4.78769 11.4643 7.35678 0 0 0 0 0 0
33 1 -6.01998 11.1526 17.0612 -1.29626 1.11106 4.12905 5.87913 1.34076 13.4232
34 3 -6.34965 12.8971 16.1364 -8.15933 -5.78851 1.39404 2.27698 -4.24379 -0.307341
35 1 -7.46816 15.3411 5.85453 0 0 0 0 0 0
36 3 -6.25912 14.3866 7.299 0 0 0 0 0 0
37 1 29.4107 13.2457 17.2678 0.00104804 -0.442175 3.7021 6.17222 -5.79861 -6.92319
38 2 28.0911 15.8469 3.85373 0 0 0 0 0 0
39 1 -9.40118 17.7369 2.14695 0 0 0 0 0 0
40 3 -7.923 16.9077 0.797968 0 0 0 0 0 0
41 1 -9.22138 17.7239 5.50015 0 0 0 0 0 0
42 2 -7.96411 19.1963 13.0551 0.76887 -1.6307 -7.13265 12.1711 -7.94507 -0.990748
43 2 26.2268 18.7913 4.18862 0 0 0 0 0 0
44 3 -9.27699 19.6887 0.608713 0 0 0 0 0 0
45 1 -10.8751 20.6301 6.07086 0 0 0 0 0 0
46 1 -9.49905 20.1192 11.4204 -1.29767 0.332855 -1.55821 14.2941 2.76008 12.229
47 1 24.8789 21.4763 8.54713 4.27778 1.803 -1.56884 -10.0629 1.02173 -5.15476
48 3 -11.0442 20.9375 10.1229 -1.74382 -1.50681 4.02268 0.432349 5.99406 6.10239
49 1 -10.6833 19.3797 17.5708 -1.91377 -0.639732 -1.41045 2.37845 -7.88492 -12.3635
50 2 -8.73844 21.8108 13.2192 -0.604517 -0.823509 -1.53232 -11.5481 8.02106 11.7709
51 1 -9.66735 19.7234 14.8791 -4.40538 3.18586 1.5867 -0.101844 -10.6626 1.81701
52 3 -10.9866 20.8543 16.2017 -3.39414 5.19587 7.39929 -5.48567 5.40201 8.47432
53 2 -12.3967 21.528 4.0999 0 0 0 0 0 0
54 1 -12.5785 23.5438 2.09611 0 0 0 0 0 0
55 1 -12.238 23.3236 5.89478 0 0 0 0 0 0
56 1 -11.0323 22.6517 11.1704 0.00891327 2.47301 -0.63956 13.6413 -18.76 -5.91618
57 1 23.3381 23.9143 8.44909 -0.587109 0.729598 -4.80895 -3.65354 18.1262 2.15928
58 3 -12.8629 22.9842 10.1801 -9.05353 3.89227 4.10725 2.87942 5.07404 -1.64204
59 3 -10.7389 22.4838 7.18478 0 0 0 0 0 0
60 2 -13.9178 24.3562 4.04052 0 0 0 0 0 0
61 3 -12.4823 25.1664 0.812998 0 0 0 0 0 0
62 1 -13.8514 26.1517 6.15981 0 0 0 0 0 0
63 1 -12.8549 25.0016 10.9817 1.51553 -0.3013 -3.21929 17.5082 16.723 9.46032
64 1 -15.3404 27.7094 8.71797 1.27125 1.59234 -2.2687 -8.98944 -9.92514 -15.3565
65 3 -14.6732 25.6744 9.31237 1.15156 -2.0134 1.00471 7.40184 -2.47052 -6.10337
66 3 -12.4938 24.9462 7.15575 0 0 0 0 0 0
67 1 -13.7795 23.89 17.6068 -1.36999 1.94595 -1.21514 14.1781 -11.5183 3.47822
68 2 -12.3826 26.4353 13.0232 -5.40376 -0.767247 -2.67052 -4.79866 3.75602 -1.38696
69 1 -12.1593 24.741 14.829 -4.28784 -0.978088 -2.95136 2.50549 -2.44435 8.49867
70 3 -13.4501 25.5272 16.1672 1.16082 4.69393 2.29122 -7.2584 -8.42794 -9.05632
71 1 -15.311 29.066 2.18021 0 0 0 0 0 0
72 1 -15.467 28.7039 6.11813 0 0 0 0 0 0
73 3 -13.9143 27.9367 7.25335 0 0 0 0 0 0
74 2 20.2213 29.5545 4.17429 0 0 0 0 0 0
75 1 -17.5227 30.9896 2.1771 0 0 0 0 0 0
76 3 -15.5498 30.6153 0.827037 0 0 0 0 0 0
77 1 -17.1727 31.5221 5.78393 0 0 0 0 0 0
78 2 3.77969 0.751564 13.4869 6.54582 -2.06046 1.73477 3.2955 8.28914 10.9094
79 3 -17.3948 31.589 16.43 -5.86179 2.01588 5.98422 1.82151 0.0302549 5.74675
80 2 -15.4473 32.018 4.00546 0 0 0 0 0 0
81 1 2.85535 1.02431 1.78348 0 0 0 0 0 0
82 3 4.73202 0.88585 0.917102 0 0 0 0 0 0
83 1 3.12089 1.84871 5.32028 0 0 0 0 0 0
84 1 4.1979 1.09732 11.0906 -2.52107 -1.24156 2.23787 10.6283 0.0386625 6.13103
85 1 1.78569 2.60201 7.99621 0 0 0 0 0 0
86 1 -15.4075 32.0739 17.6287 -1.92369 -2.34999 -0.919307 8.93276 -0.14689 -7.85821
87 2 3.44854 3.06482 12.321 -2.27499 -0.166132 -1.13625 3.95828 -8.00925 -1.1996
88 1 5.02276 0.4971 15.5885 0.145889 -0.81099 -0.0673585 18.0018 -2.87712 -11.3471
89 3 3.15511 1.4936 16.7793 1.31417 -1.1134 -1.18726 7.17829 1.13252 5.6178
90 2 1.51902 2.91549 3.72958 0 0 0 0 0 0
91 1 1.5365 4.69757 5.83644 0 0 0 0 0 0
92 1 0.114831 5.34835 8.36991 1.78965 0.194208 -0.674506 11.6834 10.8956 -1.66552
93 3 1.54709 4.42455 9.59143 -3.64568 -4.65885 -12.9336 7.81636 3.11359 4.33366
94 3 3.20492 3.72175 6.98616 0 0 0 0 0 0
95 1 1.80863 2.33111 18.2708 0.189398 -1.27972 0.400769 1.09485 0.11733 2.41059
96 2 -0.0687399 5.52084 4.11024 0 0 0 0 0 0
97 1 -0.0262304 7.14265 2.21229 0 0 0 0 0 0
98 1 0.102835 7.2497 5.91248 0 0 0 0 0 0
99 1 1.65878 6.15323 10.954 -4.65473 -1.08935 3.29159 -13.8029 -12.6227 14.6528
100 3 1.50104 6.39571 7.19363 0 0 0 0 0 0
101 1 0.295303 5.53613 17.052 0.602517 1.35523 2.54456 -0.867645 14.0109 14.6779
102 2 1.75383 7.8289 12.9319 -2.05966 7.90325 -0.352986 2.91439 8.77527 -13.6802
103 3 -0.0594255 7.27398 16.087 0.484751 -2.43438 -4.88603 6.61664 1.34794 3.02818
104 2 -1.55358 8.07265 4.15001 0 0 0 0 0 0
105 1 -1.61206 9.84437 2.31049 0 0 0 0 0 0
106 3 -0.216987 8.74103 0.459978 0 0 0 0 0 0
107 1 -1.60712 9.92508 5.95387 0 0 0 0 0 0
108 1 -3.24366 10.5022 8.38493 1.14754 2.52378 -0.233637 9.08588 6.24003 -0.876982
109 1 -1.31215 8.09726 17.3109 -1.32367 -1.46082 1.0337 10.4769 7.54561 3.585
110 1 0.249934 8.75565 14.7697 -1.74039 0.694185 -1.07946 10.1729 4.92405 -1.00284
111 2 -3.11231 10.7664 4.08062 0 0 0 0 0 0
112 1 -3.0301 12.5504 2.22434 0 0 0 0 0 0
113 3 -1.55358 11.6605 0.961352 0 0 0 0 0 0
114 1 -3.10424 12.4412 5.9325 0 0 0 0 0 0
115 1 -4.84725 13.1283 8.46766 0.0896399 3.08487 -0.757617 -2.99291 8.75405 -12.8067
116 3 -3.39745 12.4171 9.86483 3.83837 0.721384 -1.50063 -4.55165 10.0496 -7.93672
117 3 -1.51478 11.6077 7.33764 0 0 0 0 0 0
118 3 -3.96417 13.0058 15.6885 -8.68557 3.81685 -3.17789 6.78294 7.51074 2.46321
119 2 -4.60693 13.44 4.19633 0 0 0 0 0 0
120 1 -4.52237 15.0679 2.13623 0 0 0 0 0 0
121 3 -3.03821 14.3163 0.903122 0 0 0 0 0 0
122 1 -4.56535 15.103 6.15388 0 0 0 0 0 0
123 3 -3.25625 13.933 7.36069 0 0 0 0 0 0
124 1 -4.79498 13.7725 17.4015 -0.293326 -1.15441 1.3352 -10.7228 3.66426 10.1889
125 1 -2.97171 14.6332 15.2548 0.114413 0.93354 -1.93365 -12.3853 16.8906 -2.09953
126 3 -4.31612 15.5957 16.6107 1.30908 3.98787 2.86522 3.43807 3.68801 3.78971
127 2 -6.12786 15.944 3.836 0 0 0 0 0 0
128 1 -6.47647 17.7575 2.01192 0 0 0 0 0 0
129 1 -5.93432 17.9123 5.35998 0 0 0 0 0 0
130 1 -7.81238 18.9622 8.59746 -4.21495 3.76032 -1.36673 -4.72669 -7.61165 -6.87464
131 1 -6.22877 16.1437 17.1861 1.52135 1.28771 -0.140991 -2.01101 -18.0391 1.98477
132 2 -4.31968 19.6524 13.0831 -1.09128 6.01019 2.1164 -11.3735 -8.49982 -17.7097
133 1 -4.58559 16.9981 15.0909 3.44322 2.04739 0.67599 -6.7441 2.25968 5.37181
134 3 -6.08931 17.9835 16.0603 4.21195 3.56502 2.40586 -8.36783 4.99734 -0.20869
135 2 -7.70746 18.9989 3.97811 0 0 0 0 0 0
136 1 -7.63519 20.4452 1.93185 0 0 0 0 0 0
137 1 -7.77434 20.6438 6.02942 0 0 0 0 0 0
138 1 -6.18678 19.7396 11.414 -0.00405713 1.25016 1.59432 12.472 10.0572 -6.55389
139 1 -9.41764 21.2712 8.51784 -0.170415 0.508879 -1.52746 12.9117 -4.02588 8.87653
140 3 -7.88446 20.3891 9.9122 0.0902213 -0.0757504 0.534698 6.51641 5.57538 0.853303
141 3 -6.18961 19.8618 7.19662 0 0 0 0 0 0
142 1 -7.72 18.8816 17.3077 6.6038 0.268875 0.999759 -6.94754 11.0406 14.2556
143 2 -5.93889 21.6729 13.0124 1.20833 3.82758 -3.79056 -13.088 -2.21837 -4.8569
144 1 -6.16835 19.9064 14.8419 0.797041 -0.7387 -0.942974 -0.847045 -3.05363 -4.32224
145 3 -7.87562 20.4856 16.0245 5.94394 -0.328814 0.154469 -0.787079 -2.25867 5.40822
146 2 -9.2342 21.6503 4.16458 0 0 0 0 0 0
147 1 -9.2879 23.3912 6.01879 0 0 0 0 0 0
148 3 -7.81624 22.4012 7.25838 0 0 0 0 0 0
149 1 -9.1915 22.1129 16.1522 -0.510248 2.64329 3.59486 9.5134 -2.0592 -11.4987
150 2 -10.8505 24.1177 3.97677 0 0 0 0 0 0
151 1 -11.2725 26.1631 2.17682 0 0 0 0 0 0
152 1 -10.956 25.9766 5.64764 0 0 0 0 0 0
153 1 -12.7373 26.7732 8.5857 -1.51181 2.53233 -0.31318 -8.87205 -12.8141 -4.42596
154 2 -9.39198 26.7838 13.2317 -5.02116 3.95857 1.99207 3.42593 9.17769 3.69872
155 1 -9.2503 25.4056 15.4248 1.37702 1.86891 -2.69712 12.6924 15.3692 -8.99423
156 2 -12.5756 27.0863 4.10496 0 0 0 0 0 0
157 1 -11.9858 29.0074 2.22934 0 0 0 0 0 0
158 3 -10.8922 27.8008 0.94548 0 0 0 0 0 0
159 1 -10.8684 27.6514 11.3231 -1.36435 -0.789149 -2.42161 6.53927 -12.3285 -1.14942
160 3 -12.2975 28.564 10.1582 2.31719 4.16834 -5.18398 0.00165988 2.56081 1.95084
161 2 -11.0048 29.9824 13.1841 1.06102 -4.69201 -3.44613 -0.137831 0.20814 -13.8832
162 1 -11.1659 27.9193 14.6187 -1.25384 1.03966 1.08412 -3.85516 -7.33483 -8.44763
163 1 -13.6081 31.4421 2.34435 0 0 0 0 0 0
164 3 -12.4149 30.5331 0.896531 0 0 0 0 0 0
165 1 -12.5613 30.5133 10.9224 -0.725784 2.65518 -0.399861 6.5403 -1.41158 -9.95845
166 3 -11.9469 30.0929 6.96351 0 0 0 0 0 0
167 2 6.08001 0.0870909 12.7062 2.07444 1.99758 3.11705 -5.52364 4.47196 -2.09382
168 1 -13.354 30.5175 14.1465 -3.16173 -2.39838 -1.02174 4.19478 1.00094 -15.0973
169 3 -13.6147 30.9137 16.2353 4.48147 8.21429 -8.49176 7.85651 -7.19628 -1.32902
170 3 7.67288 0.832675 0.878057 0 0 0 0 0 0
171 1 6.18319 1.80777 5.92967 0 0 0 0 0 0
172 1 7.2614 0.916599 10.6113 0.100349 0.866148 -1.71425 -9.91953 -10.8292 7.52517
173 1 4.65645 2.6143 8.03531 3.28748 -1.06389 -0.646199 4.50963 -10.1579 -1.84031
174 3 5.70329 1.73304 9.50511 2.87607 2.61476 -0.181601 -5.50245 -8.6073 7.09296
175 3 8.06318 0.846277 7.04307 0 0 0 0 0 0
176 3 6.2135 1.7042 16.5729 7.71304 3.0512 3.70282 -5.54402 -5.59211 -0.309765
177 1 4.87291 4.86663 6.17476 0 0 0 0 0 0
178 1 5.31682 3.65052 10.7479 -0.785428 -1.89421 -2.40669 4.26561 10.9877 3.14087
179 1 2.94003 5.28469 8.38938 0.0261651 4.55061 0.950424 -0.744119 9.31528 6.49194
180 3 4.64381 4.37372 9.01601 0.529066 -7.26141 3.88096 6.17389 -9.50461 8.23866
181 3 6.11696 3.51345 7.12843 0 0 0 0 0 0
182 1 4.75269 2.78328 17.5345 -0.542222 4.24448 -2.63094 15.2034 -8.13972 -14.3328
183 3 4.3842 4.42437 16.1615 -0.175286 -12.9753 -13.2631 9.58814 0.624683 -0.868053
184 2 3.12415 6.03286 3.78904 0 0 0 0 0 0
185 1 3.06515 7.18273 6.08097 0 0 0 0 0 0
186 1 5.09001 6.29137 9.29506 -1.09315 -2.40812 -1.31215 -10.2253 -7.73604 -7.04673
187 3 3.12458 7.05315 9.47332 3.32421 -7.5042 1.31832 0.72519 -4.2602 -7.58142
188 3 4.39302 6.40995 7.46943 0 0 0 0 0 0
189 1 1.22182 9.71605 1.58577 0 0 0 0 0 0
190 3 3.10716 8.96961 0.961352 0 0 0 0 0 0
191 1 3.44751 8.53146 10.8789 -4.01144 4.40561 -1.66724 14.162 12.2307 7.55014
192 1 0.0396847 10.4283 8.63539 0.863263 -1.79995 -2.05708 -12.326 13.5164 -3.45762
193 3 1.75035 9.47242 9.6383 0.55942 -0.529521 -1.74281 -6.0354 6.03627 5.973
194 2 2.92755 10.2213 12.8463 0.536176 1.71618 -2.0082 -5.89558 -7.06551 6.96909
195 1 3.27612 8.65822 14.8805 -0.507822 2.5869 -0.110649 5.96255 -2.96512 1.64986
196 3 1.87688 9.5902 16.0257 2.70467 -4.89081 -6.34348 3.22708 0.104994 6.11788
197 1 1.87333 11.5138 10.8942 -0.642952 -3.1729 2.85939 15.396 13.5728 11.4453
198 1 -1.54178 13.3488 8.65684 -4.87436 1.52204 0.86196 11.3378 -17.4105 -1.39637
199 3 0.139737 12.4528 9.82436 -3.33604 -1.98218 -0.771724 5.47227 -4.09686 -5.56063
200 2 1.85775 13.328 13.0853 -2.68837 -3.0842 0.608691 -0.429139 -12.0188 -4.65829
201 1 1.51062 11.3955 15.0222 -2.56742 -3.47256 0.746566 -14.2324 -4.03736 -2.31997
202 3 -0.159024 12.1689 16.482 4.91504 -0.234571 -2.30175 -7.33098 -1.12209 -2.45189
203 1 -1.55358 15.2483 2.22916 0 0 0 0 0 0
204 1 0.345968 14.3788 10.8597 -2.85524 1.5682 -2.02453 -4.42349 -16.2216 3.8038
205 3 -1.2375 15.2837 9.83972 4.50973 3.10412 -11.9368 3.21531 -2.47074 -1.80996
206 3 -0.0242833 14.3636 7.32159 0 0 0 0 0 0
207 1 -1.44419 13.6119 17.4584 1.00329 0.659573 -3.54988 11.8173 -6.51745 4.99764
208 1 -0.0940626 13.6814 14.9368 2.62163 -0.18522 -3.07941 16.4625 -14.0496 -9.63707
209 3 -1.33154 15.2973 16.1723 14.1445 2.02056 1.98552 7.85622 6.4096 -2.92295
210 3 -1.55358 17.0423 0.961352 0 0 0 0 0 0
211 1 -0.629372 17.1468 11.3196 2.63183 -0.261574 0.998605 -2.91105 -5.89493 4.64398
212 1 -2.86522 16.3675 17.5256 2.12664 2.06454 1.24849 -13.7718 -7.20241 8.57184
213 2 -1.50483 18.9117 12.9434 -0.131568 0.662681 3.47522 6.24652 1.50983 -8.61034
214 1 -1.45184 16.9839 14.7273 1.01684 -5.1217 0.199421 -9.34014 -5.79942 3.60564
215 3 -3.13432 17.875 16.1769 -1.34043 3.02613 4.89688 1.02698 6.08539 0.943178
216 1 -3.28954 18.9998 10.8716 1.28413 -0.665548 -1.14049 -7.95996 -0.265562 -18.6375
217 1 -6.3441 21.3671 8.58291 1.87101 -1.80697 -4.78899 -4.87303 -14.6642 14.0102
218 3 -4.80358 20.3438 9.76346 -2.31644 3.4767 0.935925 6.51013 0.610729 -7.50874
219 1 -4.8192 18.699 17.3843 -1.13716 -0.522812 0.196926 4.42742 -2.30477 2.65812
220 1 -3.13087 19.5365 15.1813 -0.363641 0.460759 -3.54586 -3.5549 -5.6846 7.27829
221 3 -4.72931 20.3035 16.3262 6.1323 2.84955 -3.05565 -2.77707 0.641822 -3.88458
222 2 -6.20439 21.5388 4.03501 0 0 0 0 0 0
223 1 -5.97445 23.4323 2.15749 0 0 0 0 0 0
224 3 -4.72521 22.3883 0.877806 0 0 0 0 0 0
225 1 -6.21656 23.1221 5.96563 0 0 0 0 0 0
226 3 -4.75435 22.3678 7.51299 0 0 0 0 0 0
227 1 -6.22078 21.5671 17.188 2.06494 2.98662 0.558335 0.235029 -4.69152 13.0873
228 3 -5.24202 23.2831 16.1076 -0.451882 -6.04056 -3.04587 0.799679 2.96389 4.76242
229 3 -6.30941 25.0101 0.858699 0 0 0 0 0 0
230 1 -6.21665 25.1699 10.8609 -1.65985 -2.97824 -1.91188 -14.5975 -4.31302 17.1167
231 3 -6.22183 24.8435 7.11661 0 0 0 0 0 0
232 1 -6.91088 24.1253 17.243 0.399047 1.49805 -1.97429 -8.40301 -16.3163 -6.46039
233 2 -6.33938 26.6883 12.9676 1.70458 -0.934691 -1.19009 -11.4301 -3.23662 7.89328
234 1 -6.16552 24.7797 14.8796 2.2161 -0.614852 4.63841 12.185 -11.7149 -0.418213
235 3 -7.37355 25.6798 16.1236 -4.10007 -1.14034 -1.72318 -2.1085 6.96518 3.2173
236 1 -9.17115 28.2018 2.19509 0 0 0 0 0 0
237 3 -7.64601 27.7718 0.86196 0 0 0 0 0 0
238 1 -7.92578 27.8176 11.2103 -1.12493 -1.55422 -0.0893989 17.5647 14.9216 19.4328
239 1 -10.8655 29.4342 8.63482 -4.05503 0.0530037 -0.147021 9.88056 -11.3888 5.54396
240 3 -9.37441 28.9155 10.0402 0.0122951 -3.06862 2.00531 -0.490403 -5.35172 -1.97957
241 2 -8.12578 29.3658 13.2561 3.77156 -0.874924 1.56892 -5.36783 -11.3005 1.45012
242 1 -7.85804 27.6889 15.1776 5.37073 1.3541 -2.0709 -8.56383 1.63851 -9.31347
243 3 -9.52925 28.6496 16.4674 -2.61845 2.64337 -3.98791 -3.60352 -4.88531 0.0743687
244 1 -9.52854 30.6833 11.0862 0.374935 2.04405 -0.963954 18.1429 5.76071 5.96376
245 1 -12.2435 32.1669 7.9182 -1.15626 -1.20629 1.53754 1.47132 0.211991 -0.745992
246 3 -11.1775 31.3563 9.48473 9.67816 8.94541 -6.66129 -4.48704 -7.31392 5.59594
247 3 -9.12289 30.5267 7.48934 0 0 0 0 0 0
248 2 -8.57526 31.8947 13.4143 -1.94899 1.85686 3.13314 -4.83582 -8.11728 0.443914
249 1 -9.60509 30.5106 15.365 0.425131 -0.186516 0.120133 10.0031 10.8731 -1.58485
250 2 9.46087 0.362618 3.89774 0 0 0 0 0 0
251 1 9.00822 1.93617 2.01271 0 0 0 0 0 0
252 1 9.53153 1.81751 5.95271 0 0 0 0 0 0
253 1 10.7181 0.925633 11.3064 -1.24927 -3.17832 1.73693 5.94578 1.75412 -2.5745
254 3 10.9466 0.944556 7.38381 0 0 0 0 0 0
255 2 7.66526 2.69429 4.12638 0 0 0 0 0 0
256 1 7.56152 4.48155 2.03961 0 0 0 0 0 0
257 3 9.33238 3.61181 0.790335 0 0 0 0 0 0
258 1 7.77331 4.62081 5.85886 0 0 0 0 0 0
259 2 9.54882 5.33338 12.7518 -0.29646 0.944401 2.59906 -1.37955 -0.880501 -8.59792
260 2 6.17531 5.48368 4.13582 0 0 0 0 0 0
261 1 6.25461 7.31137 2.23258 0 0 0 0 0 0
262 3 7.69541 6.29398 0.840511 0 0 0 0 0 0
263 1 7.74766 6.00913 10.5027 -5.6319 -3.54376 -1.41296 -1.67121 10.6538 4.1304
264 3 6.79091 7.1421 9.03805 -8.00443 4.02165 -4.04937 1.45412 5.38908 -4.12624
265 1 5.8826 5.47412 17.2706 3.31377 2.31413 -0.564143 -5.18823 -15.7165 0.843148
266 2 7.73193 7.72383 12.5756 0.0856233 1.39722 -0.975067 -10.2134 8.09559 -2.91223
267 1 8.07804 6.22888 14.7264 0.80669 -0.467044 -0.63755 -14.5265 6.86193 18.2879
268 3 6.67531 6.97689 16.1473 1.78787 3.72965 8.52432 -6.29547 -3.4773 5.35306
269 1 4.98085 9.9416 2.05363 0 0 0 0 0 0
270 3 6.31948 8.90142 0.86437 0 0 0 0 0 0
271 1 6.34018 8.62472 10.2876 -4.165 0.471574 0.172738 14.075 18.1752 15.0779
272 1 3.03303 10.4617 8.59221 -1.37384 -1.15122 -1.96027 17.2657 13.3229 10.6178
273 3 4.70614 9.53748 9.36721 8.06757 3.65956 1.30495 -6.29607 4.19955 -0.51038
274 1 5.12911 7.99063 16.9958 0.854506 -0.688107 3.94351 15.7941 13.5385 6.6862
275 1 6.33677 8.48763 14.6472 0.660118 -0.61961 -2.76743 5.35407 -1.40395 -14.6066
276 3 5.02067 9.62581 15.8309 0.414664 -0.157969 1.973 6.73226 1.53157 5.36063
277 3 4.65929 11.6682 0.95644 0 0 0 0 0 0
278 1 4.75255 11.1272 10.7395 -1.03597 -1.39015 5.90042 15.2557 1.94296 -7.89459
279 1 1.55732 13.1488 8.32713 3.49756 0.0696657 -1.20059 -6.83469 -4.77221 -12.2828
280 3 3.31479 12.4487 9.69291 3.06433 -3.39052 1.86521 -4.62651 5.1132 6.54859
281 1 3.51568 10.4191 17.1857 0.462069 1.033 -3.61507 2.02128 8.2552 -12.7866
282 2 4.48277 14.3989 13.0322 -6.66307 6.45327 5.87896 -4.07301 13.4375 7.34748
283 1 4.50975 11.2296 14.5939 -4.10308 -1.77595 -0.0600226 4.32592 13.6953 -6.49678
284 3 2.90495 12.3556 16.276 -1.70278 0.0117284 1.42838 -5.0786 -6.66406 -0.616333
285 1 1.53576 15.2374 2.20755 0 0 0 0 0 0
286 3 3.10716 14.3514 0.961352 0 0 0 0 0 0
287 1 1.51187 15.2459 6.0236 0 0 0 0 0 0
288 1 3.02587 14.4647 10.8793 1.62074 1.07424 3.24694 15.0529 -8.00663 17.8567
289 1 -0.118531 16.1985 8.41895 -2.66415 -4.05252 -1.2783 9.2144 13.6134 4.34948
290 3 1.54851 14.8472 9.32282 -6.75935 -7.18097 0.470282 -2.35568 -1.77729 0.780217
291 3 3.0637 14.3659 7.2547 0 0 0 0 0 0
292 1 1.35212 12.8072 17.7037 -2.15037 3.38377 3.03037 -9.00829 0.501353 14.2187
293 1 2.56146 14.6084 15.0954 -1.50547 -1.32196 5.7251 -1.61635 8.96654 1.98034
294 1 0.030201 17.8082 2.18656 0 0 0 0 0 0
295 3 1.55364 17.0409 0.95884 0 0 0 0 0 0
296 1 -1.58323 18.9695 8.47931 1.36956 0.606307 4.91477 1.95699 -3.36055 -3.55274
297 3 -0.164297 18.1191 9.54018 -4.99986 -2.20468 1.58219 -6.3253 3.83084 -2.2193
298 3 1.50278 17.0021 7.31861 0 0 0 0 0 0
299 1 -1.42914 20.346 2.23517 0 0 0 0 0 0
300 3 0.0401593 19.7087 0.914631 0 0 0 0 0 0
301 1 -0.293749 19.9606 11.0448 4.08674 1.83945 1.72198 0.0813202 -3.30697 -15.6098
302 1 -3.34895 21.7575 9.06215 0.964405 -0.131244 -4.34631 2.07904 -12.9591 19.2714
303 3 -1.85865 20.4455 9.79839 3.0415 7.33622 1.17282 5.89392 4.61319 -0.809455
304 3 0.160797 19.8511 7.58297 0 0 0 0 0 0
305 2 -0.658449 21.9842 12.6414 -2.09712 4.24825 -4.37125 -5.33065 11.697 -9.50187
306 1 -0.366995 20.2208 14.7461 -3.81111 -0.587091 1.45021 -0.126529 -12.8674 5.3417
307 3 -1.95969 20.9342 15.8589 -0.426223 0.250381 6.33924 5.15825 -2.12515 5.03138
308 1 -3.13308 22.7258 2.15821 0 0 0 0 0 0
309 3 -1.49831 22.3915 0.882305 0 0 0 0 0 0
310 1 -3.25028 23.2018 6.29535 0 0 0 0 0 0
311 1 -4.82836 24.1165 8.30141 1.89926 2.58203 1.75968 -9.78733 -14.3063 10.2907
312 3 -1.91697 21.8414 7.17835 0 0 0 0 0 0
313 1 -2.13161 22.6912 15.0212 -1.32335 3.23358 0.330564 -10.7341 7.20017 10.9686
314 3 -3.77376 23.3478 16.3404 2.7116 -5.70646 -4.68007 -5.00714 -7.94324 8.41955
315 2 -4.6049 24.1417 4.12101 0 0 0 0 0 0
316 1 -5.20348 26.301 2.04135 0 0 0 0 0 0
317 1 -4.67642 25.9807 6.33759 0 0 0 0 0 0
318 1 -3.16901 25.3841 10.9154 2.30118 2.62948 0.379353 12.9272 -11.2038 -9.40998
319 1 -6.2052 26.7761 8.5551 1.55662 0.34246 -2.2539 -4.72624 16.0574 -17.8513
320 3 -4.73057 25.5468 9.53332 4.19993 8.39784 -9.2801 6.75206 -0.159307 4.34985
321 3 -3.37393 25.0508 7.65176 0 0 0 0 0 0
322 2 -3.11393 26.6106 13.1786 0.0648868 -3.49926 -1.43158 9.68606 -11.7557 2.55392
323 1 -3.04379 25.5428 16.0092 1.27092 -1.2104 2.1283 -8.33369 -15.0686 0.0767957
324 3 -4.9107 25.9603 15.7368 -0.315248 0.251674 8.83125 5.09527 3.88452 4.53931
325 2 -6.65502 26.9487 4.1769 0 0 0 0 0 0
326 1 -6.35092 28.9864 2.25281 0 0 0 0 0 0
327 3 -4.7366 27.8649 0.766804 0 0 0 0 0 0
328 1 -6.21433 28.7028 6.07086 0 0 0 0 0 0
329 1 -7.71691 29.7118 8.77726 1.05748 -1.06708 4.91769 -15.951 -0.341971 -16.7409
330 3 -6.5287 28.5242 9.90898 -4.48596 -0.176338 2.26158 10.3547 4.86012 3.75561
331 3 -4.71733 27.8528 7.35722 0 0 0 0 0 0
332 1 -5.92268 26.772 17.4052 -4.44107 2.64008 4.78892 10.8086 4.75687 9.41939
333 3 -6.30057 28.59 16.4939 -0.00722294 1.68741 -3.13148 -6.41103 0.450011 9.57936
334 2 -7.86058 29.6431 4.17031 0 0 0 0 0 0
335 1 -7.64296 31.2669 6.24429 0 0 0 0 0 0
336 1 -9.36928 32.2822 8.4914 -0.0125909 -1.58884 3.51425 -13.0604 -10.9429 -12.5003
337 3 -8.01543 31.6603 9.75734 -0.979529 2.78372 -4.73709 3.84889 -3.32239 -6.9011
338 3 -6.18151 30.3934 7.42303 0 0 0 0 0 0
339 1 -7.74131 29.1852 17.66 -0.0588381 2.61131 -0.326474 -0.951412 8.49218 -1.37181
340 2 -6.23165 32.1171 4.36823 0 0 0 0 0 0
341 1 11.9146 2.03523 1.67283 0 0 0 0 0 0
342 3 14.1161 0.958878 0.661661 0 0 0 0 0 0
343 1 12.4569 1.79385 6.07179 0 0 0 0 0 0
344 1 14.0406 0.950683 11.3669 5.65013 3.24976 -2.03074 -13.9866 5.22793 8.79431
345 3 12.557 1.656 10.2096 -1.50046 -1.16587 -3.8414 -3.66916 -4.32093 7.32285
346 3 13.9827 0.902217 7.3416 0 0 0 0 0 0
347 1 -6.44932 32.1323 16.8949 0.96621 0.675672 1.65187 -13.8599 4.42819 6.46582
348 2 13.6206 2.98697 12.9533 0.168579 1.59925 1.16088 4.08698 -9.43428 0.211292
349 1 14.2848 1.25602 14.5599 -0.636166 1.3875 1.84982 9.96905 -5.23939 2.87336
350 3 12.4276 0.955428 15.1177 -2.81132 -3.27662 -3.03408 -6.19498 9.44951 5.90796
351 1 10.6679 4.66545 1.98945 0 0 0 0 0 0
352 3 12.4824 3.81687 0.783101 0 0 0 0 0 0
353 1 12.3542 3.69418 10.8417 0.561432 -0.509311 1.577 -12.7358 -9.39626 -11.2004
354 2 12.2989 5.22849 12.9972 -1.28079 4.55527 1.52536 -9.85535 -3.87988 -6.07243
355 1 12.1165 3.29873 14.9654 3.15963 1.08663 -2.52636 -8.09231 2.72345 -8.49482
356 2 9.10383 5.25629 3.84386 0 0 0 0 0 0
357 1 9.17863 7.18096 2.15326 0 0 0 0 0 0
358 3 10.8846 6.39664 0.873975 0 0 0 0 0 0
359 1 10.981 6.27491 10.9218 0.0674925 -0.678163 1.45623 -6.72545 3.15685 9.13551
360 3 9.45008 6.70698 9.40406 -1.1697 0.17718 2.25271 -2.64347 -6.37672 10.9741
361 2 10.9938 7.80667 12.9345 -1.64824 -4.05165 0.225278 5.2511 4.76646 -2.74667
362 1 11.3004 6.33494 14.9665 3.43032 -0.121202 1.0875 7.90981 8.06923 -10.3048
363 3 9.60191 7.00382 16.0343 -1.16511 -1.44373 3.3261 2.86113 -7.38206 1.08312
364 1 7.90493 9.81724 2.13639 0 0 0 0 0 0
365 1 9.33395 8.5034 10.6309 -3.43534 6.54002 1.54582 -12.9142 -2.0816 -6.00919
366 1 6.12096 10.4264 7.99854 -1.03324 -1.52475 1.50623 -0.343922 -1.03086 -1.08563
367 3 7.75086 9.53913 9.26781 2.98944 2.09807 -8.83583 6.89836 -5.26895 -1.98148
368 3 9.61544 8.86137 7.38546 0 0 0 0 0 0
369 1 8.03655 7.76438 17.3651 -0.568831 1.14013 1.20213 -1.72109 8.11884 -9.55937
370 1 9.53137 8.80523 14.8381 -1.28026 0.309207 -2.91811 -3.94319 -12.9516 0.0437827
371 3 7.84389 9.32053 15.8256 1.5543 0.916135 -1.60299 0.540654 -3.39358 -1.74012
372 2 6.219 10.9343 3.99764 0 0 0 0 0 0
373 1 6.21455 12.6218 2.15575 0 0 0 0 0 0
374 3 7.71381 11.666 0.866204 0 0 0 0 0 0
375 1 6.01718 12.5305 5.90796 0 0 0 0 0 0
376 1 4.58438 13.3631 8.30768 4.5244 -0.281526 -1.75426 -12.8648 14.2487 -15.7938
377 3 7.87963 11.1796 7.15653 0 0 0 0 0 0
378 1 6.66394 10.7154 16.8836 -2.90713 -2.47875 -3.43438 7.45118 14.1649 -4.04298
379 3 5.85038 12.338 15.7466 -1.91747 -1.29921 4.71206 7.50565 3.10074 1.03176
380 2 4.61426 13.4694 4.06823 0 0 0 0 0 0
381 1 4.66075 15.2483 2.22916 0 0 0 0 0 0
382 1 4.48749 15.2537 5.82173 0 0 0 0 0 0
383 1 2.92053 15.9719 8.32738 -1.95236 -1.60308 -0.06962 16.7806 -15.7364 -10.1432
384 3 4.58937 15.4901 9.4495 -2.78038 -3.18402 -8.28461 -8.28918 -3.71217 1.21885
385 1 4.55412 13.3278 17.2319 2.38203 1.63461 -1.35207 -6.55684 16.9424 -1.50778
386 2 6.76435 15.4887 12.5603 1.33148 4.00222 -2.09898 8.3889 -7.38991 -1.7786
387 1 6.12591 14.2125 14.8958 2.12784 -0.823238 1.11806 0.95064 7.77077 -1.82424
388 3 4.50863 15.0622 16.1725 0.884826 5.40461 11.6103 8.99597 -8.19399 -0.235637
389 2 3.02714 16.1344 3.99796 0 0 0 0 0 0
390 1 3.15998 17.8699 2.20784 0 0 0 0 0 0
391 1 2.91742 17.8083 5.84736 0 0 0 0 0 0
392 1 3.50612 17.5046 10.5128 -4.0975 -0.948438 2.0785 -10.3828 -9.99399 14.9129
393 1 1.5718 18.7873 8.55631 -0.918164 2.19042 -2.60615 8.25837 12.5555 -16.015
394 1 2.73711 15.7191 17.4884 -1.00668 -1.28153 -0.871612 -0.484103 2.15686 -14.3823
395 1 4.63053 16.9134 13.5731 3.43204 1.52416 -1.12959 3.57005 13.7184 -6.38206
396 2 1.48164 18.7026 4.01076 0 0 0 0 0 0
397 1 1.70985 20.4135 2.2066 0 0 0 0 0 0
398 3 3.16285 19.7061 0.911766 0 0 0 0 0 0
399 1 1.52368 20.3832 5.8578 0 0 0 0 0 0
400 1 -0.0554037 21.5559 8.57267 -1.747 -0.148848 -2.56061 -5.6029 -2.9886 10.9713
401 3 1.62442 20.6606 9.73062 2.61937 -1.49943 -7.47401 1.33977 1.13978 0.135007
402 3 3.00321 19.4883 7.1043 0 0 0 0 0 0
403 2 1.57576 20.3712 13.011 -0.133801 -1.27359 0.300028 -1.84151 -0.314416 2.33085
404 1 2.4439 19.0169 15.2969 0.173931 0.39977 -2.21405 -12.1786 -11.1739 -0.720521
405 3 0.746341 19.2561 16.4837 -3.54609 5.99932 3.98926 2.32489 12.7696 -5.20572
406 2 0.0522192 21.2852 4.0122 0 0 0 0 0 0
407 1 0.11985 22.8689 2.0831 0 0 0 0 0 0
408 3 1.69696 22.3681 0.838062 0 0 0 0 0 0
409 1 -0.345701 22.6256 6.08088 0 0 0 0 0 0
410 1 1.30298 22.3863 10.9649 0.49504 1.0447 2.8373 -3.60833 0.0375899 13.6859
411 1 -1.7048 23.9874 8.51098 -2.20323 -2.38137 -1.95926 -14.0919 1.80468 -11.3549
412 3 -0.222278 23.2295 9.766 1.36064 -0.0632605 -3.75429 -5.70729 -0.0206791 -1.7221
413 3 1.48522 22.3841 7.0635 0 0 0 0 0 0
414 1 -0.597642 20.8488 17.2651 -1.10391 1.11604 -0.80426 -1.91353 12.3244 3.09495
415 2 1.41821 24.3661 12.7104 -4.13487 -2.82093 -0.292056 18.0689 -7.91843 10.2902
416 1 1.05718 22.5419 14.3043 -3.88843 0.976756 -0.204285 12.1244 0.000919477 12.2139
417 3 -0.218922 22.878 15.9694 -0.249835 3.60325 0.184687 6.65302 4.52806 6.4139
418 1 -0.0201602 25.0561 10.664 4.37383 -0.253263 -0.248254 14.7223 0.426071 0.577351
419 1 -3.24404 26.9905 8.66436 0.5647 -2.65082 -1.38199 -11.1261 -15.2612 -3.41113
420 3 -1.60502 25.9742 9.6221 1.96069 2.53494 0.107138 8.0734 -4.92969 -2.07856
421 3 -0.596782 24.4278 7.06931 0 0 0 0 0 0
422 2 -0.166375 26.8918 13.0043 -1.92163 7.58102 -1.97553 3.62178 8.29955 9.80257
423 1 -0.135792 25.0457 14.7487 -0.583375 1.89905 1.84341 -3.09039 -17.103 -10.4347
424 2 -2.53917 27.651 3.9919 0 0 0 0 0 0
425 1 -3.33646 28.8358 1.94375 0 0 0 0 0 0
426 1 -3.27074 28.8078 6.08022 0 0 0 0 0 0
427 1 -1.56688 27.7646 10.9707 -1.73297 -4.05851 -0.0733015 12.9083 -1.17243 -0.273342
428 3 -1.82089 28.0773 7.36577 0 0 0 0 0 0
429 2 -1.59256 29.4691 12.9591 3.1033 -0.414977 2.01411 3.49958 4.48074 5.53601
430 1 -1.71184 27.7659 14.9449 4.11361 -0.211734 3.13295 -15.1327 2.38539 -2.83148
431 2 -4.79557 29.5489 4.1335 0 0 0 0 0 0
432 1 -4.76472 31.3767 1.66733 0 0 0 0 0 0
433 3 -2.96003 30.516 0.793338 0 0 0 0 0 0
434 1 -4.71678 31.3433 6.30918 0 0 0 0 0 0
435 1 12.3745 0.0335674 8.6693 2.95514 1.55056 -1.14069 -8.68972 -2.04049 -15.5276
436 3 17.4076 1.00732 0.44149 0 0 0 0 0 0
437 1 17.3958 1.33967 11.318 -2.43204 2.31402 -1.42047 -14.8177 -13.5573 12.8087
438 1 14.0877 2.55167 8.7805 -0.810315 -0.538627 -0.213889 -9.66949 7.15397 -6.21082
439 3 15.7081 1.73671 10.0609 -1.65056 -1.46124 -7.63519 -9.88852 -3.79318 -6.26667
440 1 15.519 0.160178 17.2039 -2.70403 -2.35016 -4.7187 -0.461128 1.53591 -1.75002
441 2 17.6674 3.13414 13.0026 0.119817 -5.71652 1.02108 7.32944 6.05462 3.87479
442 1 17.1215 1.08816 14.6841 -2.71937 -1.824 -0.896771 11.1545 17.0836 12.959
443 3 15.8311 1.8994 15.9646 -3.15333 2.08978 -0.588727 10.5533 -3.06008 -0.520022
444 1 14.0381 4.05305 2.3062 0 0 0 0 0 0
445 3 15.5849 3.51458 0.957677 0 0 0 0 0 0
446 1 15.4605 3.51331 11.4021 0.46909 -2.04041 -1.86932 1.16257 17.5449 8.74997
447 1 12.9957 5.17902 8.62016 -2.15686 -3.55651 2.17359 17.9773 -10.3098 0.257738
448 3 14.2349 4.41542 9.98922 1.4314 -1.48811 -4.49539 -6.99328 10.8331 0.108472
449 3 15.5377 3.58435 7.3388 0 0 0 0 0 0
450 1 14.3174 2.5145 17.0422 -0.732824 1.94932 -0.378118 12.1904 -13.2496 -6.70963
451 1 15.4385 3.7064 14.6453 0.101956 0.887087 -3.00302 -14.8353 -16.1975 -4.5992
452 3 13.6744 4.0442 16.231 -0.747514 1.8821 10.7645 5.28927 -4.02083 4.19337
453 1 12.8124 6.62976 1.64992 0 0 0 0 0 0
454 3 14.3205 6.05876 0.350737 0 0 0 0 0 0
455 1 10.9065 7.55669 8.07649 -0.889153 2.9998 3.11157 18.2309 9.85693 18.5752
456 3 12.3569 6.95787 9.26966 1.73133 0.15168 -5.35041 0.606112 -8.78956 9.64127
457 3 14.1948 6.15843 7.23501 0 0 0 0 0 0
458 3 12.4142 7.05852 16.9275 -1.8174 -7.19586 3.95281 2.2618 8.9456 0.0195239
459 1 10.6533 10.0727 6.0649 0 0 0 0 0 0
460 1 12.4149 8.51484 10.6487 -1.52446 1.64256 -1.35632 20.0006 -2.30789 7.27114
461 1 9.44727 10.4681 8.4998 1.25244 -1.78836 -1.82649 -9.01934 -3.07374 13.5998
462 3 10.9982 9.54366 9.58859 5.51014 10.3905 1.44961 -4.20562 5.71981 5.01301
463 3 12.5138 8.70878 7.25948 0 0 0 0 0 0
464 1 10.8185 8.25812 17.2374 -2.69758 2.14253 2.78708 7.60104 5.48138 -0.607242
465 3 10.6573 9.84226 16.1953 -3.29277 2.19636 2.08842 0.574032 -2.27922 -6.29793
466 2 9.18232 10.9782 3.94047 0 0 0 0 0 0
467 1 9.26865 12.6524 6.06834 0 0 0 0 0 0
468 1 10.6018 11.5551 10.5111 0.752053 2.72891 0.585646 -8.05497 -0.0607807 7.96448
469 3 10.9436 11.6389 7.40925 0 0 0 0 0 0
470 2 7.66684 13.5007 4.17255 0 0 0 0 0 0
471 1 7.89753 15.2575 5.93166 0 0 0 0 0 0
472 3 9.63225 14.2303 7.47688 0 0 0 0 0 0
473 2 9.77123 15.5523 12.594 -2.67045 2.58718 -5.44267 -7.81712 1.45006 1.25704
474 3 7.55377 15.0147 15.9761 -4.20171 -5.4194 -5.51159 7.2272 9.48859 7.09334
475 2 6.1959 16.0598 4.18897 0 0 0 0 0 0
476 1 7.98991 17.3299 11.2987 -2.9668 0.653001 -2.7934 -14.5083 10.4354 -2.95734
477 1 5.834 15.9405 17.3675 0.861075 0.126285 0.0288278 6.19985 4.60637 -1.52327
478 2 5.51381 18.247 11.5294 4.24173 -2.82288 0.489491 -4.25174 9.7521 3.55749
479 1 8.15674 16.3594 14.3197 2.23341 -0.0924151 0.43746 10.781 3.83501 -3.35842
480 3 5.38025 18.734 18.9234 -3.13476 3.49453 -0.190132 3.75834 0.690769 1.16156
481 1 2.83892 21.3229 8.15955 -2.21835 -1.42421 3.23781 -0.364085 -1.15293 6.15548
482 1 4.42073 18.155 17.3007 -0.431449 -3.38664 -4.47697 -1.95055 15.3738 16.556
483 2 2.62254 18.0167 12.8577 0.360711 -2.61212 -3.6443 10.0331 3.15527 -8.15854
484 1 4.1493 19.8735 12.7097 2.75394 -6.22481 11.0984 0.479119 0.175596 3.33796
485 3 3.40533 19.7821 16.9634 3.26137 10.0396 -1.84306 -0.245538 0.916179 -0.565484
486 2 3.07809 21.3234 4.14489 0 0 0 0 0 0
487 1 3.13555 23.2531 5.97168 0 0 0 0 0 0
488 3 4.50606 22.2502 7.17516 0 0 0 0 0 0
489 1 1.82112 20.0065 18.0139 4.54426 6.5264 3.76091 -2.2074 1.39141 2.06412
490 1 3.54391 23.1838 11.8594 6.52028 -3.59203 -0.335131 8.13501 2.02382 13.9734
491 3 2.76755 22.9041 15.5519 -2.96442 -0.654574 0.618081 0.852685 3.44917 2.88465
492 1 -0.309512 27.1745 8.38254 0.522836 -0.122647 -0.648064 8.46898 -8.27215 12.5366
493 3 3.1081 24.5707 8.0503 0.887438 -8.92114 7.6154 -5.02021 9.88537 -7.40646
494 1 1.26536 23.5748 16.9633 -4.32798 1.24776 1.73955 -4.14573 -3.41017 -14.7788
495 1 2.8556 24.7384 14.5178 -8.70745 -6.30523 -9.51926 2.5076 -0.848754 2.89009
496 3 1.26809 25.9235 15.9363 6.99587 5.36884 -0.380017 9.99123 -4.79991 -4.4125
497 2 0.208907 26.7291 3.43399 0 0 0 0 0 0
498 1 0.282017 28.6223 1.80775 0 0 0 0 0 0
499 3 1.73074 27.8789 0.528383 0 0 0 0 0 0
500 1 -0.354073 28.7873 5.82488 0 0 0 0 0 0
501 3 0.55932 28.3323 10.0235 10.0403 -0.573636 -0.175359 -4.62335 -4.54456 4.10854
502 2 1.19891 29.5901 13.223 -3.92085 -1.89774 1.61733 5.57976 -3.58285 -6.59348
503 1 0.953949 28.2017 15.2276 -6.13168 1.45558 1.82387 0.572779 5.15831 3.09212
504 1 -1.38177 31.0033 2.17586 0 0 0 0 0 0
505 3 0.114397 30.4542 0.851814 0 0 0 0 0 0
506 1 -0.249714 30.388 10.9305 1.98302 0.423408 -3.20033 19.1226 8.70786 1.95602
507 1 15.6427 0.126553 8.57313 -0.108323 0.85204 2.21433 -7.82172 7.72383 3.75559
508 2 -0.091921 32.2889 12.952 -1.28616 2.82138 -1.66506 1.62939 10.2964 2.04312
509 1 -0.562033 30.6866 15.0146 3.49516 0.0386 1.6392 -12.349 11.6458 5.06796
510 3 -2.42197 31.4876 15.5503 3.69067 2.75281 -8.64759 0.431358 7.56389 10.8884
511 3 20.2711 0.91151 0.921965 0 0 0 0 0 0
512 1 20.24 0.638686 10.6544 3.00882 0.848832 0.708055 -19.4699 11.3374 12.7769
513 1 17.0138 2.64761 8.44892 0.553179 1.55056 -2.31115 -10.6117 3.29132 3.70946
514 3 18.6452 1.8181 9.63174 0.676293 0.404593 -2.94609 -0.462669 4.48618 7.66896
515 3 20.1966 0.896961 7.33867 0 0 0 0 0 0
516 1 16.8709 4.77301 2.13431 0 0 0 0 0 0
517 3 18.6977 3.64939 0.867532 0 0 0 0 0 0
518 1 17.0895 4.4661 6.05747 0 0 0 0 0 0
519 1 15.6926 5.28574 8.61048 3.7337 -1.08869 -2.47827 6.97621 3.86108 15.1026
520 3 18.643 3.58784 7.33867 0 0 0 0 0 0
521 1 16.9016 3.00669 17.3946 1.3644 2.30752 1.33539 -5.36652 7.31442 0.868318
522 3 16.4639 4.81604 16.1251 7.72061 2.73266 -2.57018 8.66615 6.38499 -0.058192
523 1 15.5627 7.38646 2.31017 0 0 0 0 0 0
524 3 17.1869 6.29165 0.76214 0 0 0 0 0 0
525 1 14.1175 7.86386 8.38496 2.12015 -0.560252 -2.52166 18.6185 -12.8569 -8.5872
526 3 15.6741 7.19468 9.61072 0.112065 0.280178 7.13773 -5.30633 -6.04288 3.52537
527 3 17.0998 6.149 7.26411 0 0 0 0 0 0
528 1 15.0281 5.32177 17.3992 1.79367 2.04167 2.32626 -3.92438 0.568651 -4.61968
529 1 16.2356 6.89107 15.3168 -0.862092 0.440872 1.39047 -8.23208 8.13926 -3.19062
530 3 15.5344 8.96708 0.961704 0 0 0 0 0 0
531 1 14.1358 9.5902 5.85872 0 0 0 0 0 0
532 1 15.7189 8.71969 10.9158 1.26229 -4.21059 1.123 15.2486 -14.725 -9.13472
533 1 12.5114 10.403 8.3451 -0.466023 -2.01812 1.80667 -4.31682 -10.2349 12.9339
534 3 14.0949 9.46016 9.7621 -5.06288 -6.11658 3.44059 3.24197 -3.01478 4.29079
535 3 15.7523 8.72321 7.21595 0 0 0 0 0 0
536 3 13.5272 9.69856 15.9766 -6.21929 0.442877 0.522538 -2.97102 9.87531 -3.58071
537 2 12.1253 10.7529 3.905 0 0 0 0 0 0
538 3 14.0107 11.4953 0.691211 0 0 0 0 0 0
539 1 12.2296 12.5266 5.80799 0 0 0 0 0 0
540 3 14.1224 11.1279 7.24564 0 0 0 0 0 0
541 1 12.0646 11.0571 17.1024 -0.0342174 0.166193 4.96826 -12.4735 6.99977 -15.023
542 2 13.873 13.5393 12.9788 0.070483 -3.48917 -0.0460618 10.3427 -0.126915 -3.10005
543 1 14.1135 11.364 14.7859 3.13699 3.72143 2.24722 9.35335 14.1751 1.16363
544 3 12.6874 12.4547 15.6858 6.93107 6.40574 1.13754 -2.47524 -7.2571 -0.708979
545 2 10.6991 13.5058 4.09533 0 0 0 0 0 0
546 1 10.8265 15.1403 5.98024 0 0 0 0 0 0
547 1 8.64965 16.3926 8.14603 3.74317 -4.92813 -1.78683 9.9455 -12.7202 5.88373
548 2 12.9759 16.1614 13.0534 -1.95505 3.37637 0.882446 16.4026 3.83742 -0.178507
549 1 12.5826 14.4896 14.9269 -0.57312 -1.27861 2.52404 0.187609 5.88493 11.5038
550 2 9.1947 16.0411 3.94731 0 0 0 0 0 0
551 1 9.27291 17.9475 5.77881 0 0 0 0 0 0
552 1 11.3022 16.6283 10.8577 0.156039 -2.04104 3.07708 7.74517 -2.42756 9.52614
553 3 9.58011 17.1334 9.85828 5.96025 1.95952 -11.6334 1.7594 6.83096 2.58446
554 3 10.5984 16.9284 7.00066 0 0 0 0 0 0
555 2 6.74302 18.2055 13.8304 -6.21067 -9.35269 7.72572 -0.127406 -0.377101 -1.87338
556 2 7.67873 18.5585 3.6687 0 0 0 0 0 0
557 1 7.76791 20.6301 2.22916 0 0 0 0 0 0
558 3 9.34937 19.7718 0.872721 0 0 0 0 0 0
559 1 7.50262 20.3005 5.44887 0 0 0 0 0 0
560 3 9.2587 19.4711 7.42446 0 0 0 0 0 0
561 3 6.87639 20.4903 16.0487 -13.2185 3.66129 -2.38628 -3.6688 0.503198 -1.35766
562 2 6.01634 21.5282 3.86204 0 0 0 0 0 0
563 1 6.1342 23.2191 2.0287 0 0 0 0 0 0
564 3 7.76791 22.424 0.961352 0 0 0 0 0 0
565 1 6.22269 23.0023 5.8667 0 0 0 0 0 0
566 1 7.75742 23.0026 10.8851 -0.432392 4.64605 5.3828 -4.96305 -12.6649 -14.6256
567 3 6.71814 24.5277 10.1194 5.01822 -3.62783 -0.156239 -2.24957 2.98795 -1.66863
568 3 7.37446 22.5479 7.52658 0 0 0 0 0 0
569 1 4.44786 21.1552 15.8263 7.12852 3.58303 -0.379675 -0.576065 0.76829 -3.18343
570 2 5.57662 21.3666 11.2735 5.24059 3.0542 3.35712 -9.68704 9.521 0.0762567
571 1 5.42451 22.7182 13.4141 -5.94222 3.96078 -3.93593 -1.80546 -2.44345 -1.66661
572 3 5.34828 22.5265 16.9331 18.8725 -11.2996 -11.1064 1.69277 -2.37565 -2.5532
573 2 4.35679 23.9686 3.80323 0 0 0 0 0 0
574 1 4.7641 25.8033 1.8979 0 0 0 0 0 0
575 3 6.31495 25.0748 0.734974 0 0 0 0 0 0
576 1 4.90145 25.6026 5.6109 0 0 0 0 0 0
577 3 6.18641 25.2507 7.21517 0 0 0 0 0 0
578 1 4.11916 23.906 17.3179 -6.02478 0.982918 -0.234636 1.16215 -1.79809 0.783949
579 3 5.9675 25.2287 13.4186 -0.74409 6.35465 12.4265 -2.98469 0.0569867 -1.06299
580 2 3.47763 27.0557 3.63307 0 0 0 0 0 0
581 1 3.2747 28.6165 1.69474 0 0 0 0 0 0
582 3 4.77586 27.8267 0.502439 0 0 0 0 0 0
583 1 3.45648 28.611 5.65407 0 0 0 0 0 0
584 1 1.53449 29.5634 8.53067 -0.216763 2.25653 -3.49835 17.988 -15.4886 -9.79875
585 1 3.19571 27.3309 16.0682 4.9734 -0.0556151 1.64291 1.16573 -2.92597 0.4685
586 3 2.83371 29.3195 16.4222 -1.26238 -1.44645 -1.45566 -8.4226 -8.93733 -6.05407
587 2 1.54604 29.5396 4.09326 0 0 0 0 0 0
588 1 1.88154 31.1496 2.15841 0 0 0 0 0 0
589 3 3.2679 30.4728 0.777022 0 0 0 0 0 0
590 1 2.80908 30.4568 11.2954 2.01186 0.709367 0.665478 8.46727 -8.38068 -7.39816
591 1 -0.0633184 32.293 8.72963 -2.18811 1.99269 0.533428 -7.63964 9.37332 4.42816
592 3 1.53962 31.2046 9.58427 1.92167 4.1564 -0.673939 6.65198 -8.42948 10.5839
593 3 2.98215 30.4364 7.1287 0 0 0 0 0 0
594 2 21.4399 0.273205 12.844 -4.37429 4.0359 -1.54848 -9.17936 -5.09946 -11.6757
595 1 2.33942 31.0193 15.0543 0.756235 2.43716 -1.8236 -5.91509 11.9757 -5.40103
596 1 21.6286 1.79843 2.22948 0 0 0 0 0 0
597 3 23.221 0.847713 0.881811 0 0 0 0 0 0
598 1 23.2625 0.628786 11.0906 0.434224 -4.8577 1.84301 -16.3658 2.92341 0.738408
599 1 20.2713 2.37873 8.34048 0.878871 -1.28854 -0.272365 -0.796369 0.798299 -12.008
600 3 21.8466 1.61019 9.64219 1.12929 0.571123 2.38585 6.62006 -1.97129 3.47473
601 2 22.7615 2.92393 12.6532 3.31266 0.997621 2.21437 9.39501 -12.3117 -6.38597
602 1 23.3786 1.23891 14.4069 -1.94484 1.33746 1.51985 -5.02261 -10.835 16.3394
603 1 20.1728 4.46868 2.20003 0 0 0 0 0 0
604 3 21.7502 3.58784 0.961352 0 0 0 0 0 0
605 1 20.0992 4.17916 5.8441 0 0 0 0 0 0
606 1 21.5237 3.51762 10.6492 -3.11275 0.148502 5.03548 -2.31191 -10.0788 16.047
607 3 21.7452 3.58523 7.33159 0 0 0 0 0 0
608 1 22.0368 3.83848 14.8906 1.73119 2.98288 0.633195 10.2129 12.8184 -17.9973
609 3 19.978 4.67686 15.8718 5.73442 1.96949 -1.35053 -6.23404 6.89399 2.98368
610 2 18.643 5.38177 4.15001 0 0 0 0 0 0
611 1 18.4791 7.2193 2.08806 0 0 0 0 0 0
612 1 17.2254 7.94393 8.44369 -0.222263 3.6693 0.210578 -12.6893 13.9826 -6.75168
613 1 18.1092 5.61775 17.024 -1.42969 -0.241902 -0.89853 16.2736 -11.1935 -4.72247
614 2 20.5725 7.56534 12.5465 6.05294 -1.92224 2.2485 5.6142 -8.71433 -13.3523
615 1 20.2831 6.29051 14.7595 -0.11397 -0.617173 3.17449 8.08057 8.19404 14.7297
616 3 18.4178 7.24706 15.6758 -7.1495 -3.08212 1.75599 -6.88199 -0.449216 -2.54008
617 2 17.2097 8.20574 3.99852 0 0 0 0 0 0
618 1 17.0217 9.92131 2.17475 0 0 0 0 0 0
619 1 17.0976 9.70926 5.98879 0 0 0 0 0 0
620 1 19.0417 9.24703 11.1069 -0.601404 -1.26108 1.75251 8.40749 2.66669 -11.8123
621 1 15.706 10.5807 8.5953 -3.66514 -2.25252 -0.975786 12.7283 -8.18695 -12.9732
622 3 17.338 9.61899 9.84659 2.01414 1.00189 6.27925 -5.50397 -0.126556 3.6708
623 2 19.0793 10.9852 13.2051 1.64674 -2.06285 2.96022 -4.3133 11.9536 7.26739
624 1 18.2713 8.70248 14.1293 -1.94223 -6.545 0.39216 11.4471 -8.02509 -4.01849
625 3 18.3963 9.71756 16.1862 3.2754 4.47757 -2.23292 7.23012 -6.8336 -9.91433
626 2 15.5224 10.6879 4.02717 0 0 0 0 0 0
627 1 15.4477 12.5295 2.13346 0 0 0 0 0 0
628 3 16.9506 11.4787 0.606679 0 0 0 0 0 0
629 1 15.3313 12.296 5.92765 0 0 0 0 0 0
630 1 17.4071 11.7153 10.972 3.11026 0.423519 -1.71914 -7.98546 -5.26139 -15.9119
631 3 16.162 12.6254 9.53476 8.86825 -2.16492 9.92849 6.10289 6.37166 10.1311
632 3 17.1175 11.3467 7.25636 0 0 0 0 0 0
633 1 15.1204 9.99436 17.1187 -1.01244 -0.482189 1.87147 8.57016 4.46171 4.2683
634 2 17.1158 13.1283 13.0504 -1.6637 -8.42592 -0.389282 10.0603 -11.1171 6.91374
635 1 17.3401 11.3214 15.1837 4.09779 -1.96993 -0.793625 -8.53669 9.42617 -5.75661
636 3 15.7003 11.9783 16.2598 5.2395 -6.30484 8.84006 5.70595 -1.71799 1.6152
637 2 13.6076 13.2917 3.6393 0 0 0 0 0 0
638 1 13.9208 15.2332 2.10088 0 0 0 0 0 0
639 3 15.5413 14.3544 0.953738 0 0 0 0 0 0
640 1 14.1569 12.9703 17.2618 -3.17463 -0.105694 -0.480667 0.182184 -6.22948 12.1147
641 2 16.0507 15.707 12.8905 -0.929091 1.0859 2.43261 5.17604 -10.3943 -11.4881
642 1 15.4867 13.6918 14.8094 0.676548 0.0856152 0.823659 3.44801 12.3573 -14.7805
643 3 14.3262 14.9611 16.1388 2.70843 -11.3679 -3.58257 -7.41768 6.53054 -4.22717
644 2 12.371 15.9573 3.9197 0 0 0 0 0 0
645 1 12.2528 17.6619 2.0991 0 0 0 0 0 0
646 3 13.9814 17.0419 0.960716 0 0 0 0 0 0
647 1 12.3302 17.643 5.76116 0 0 0 0 0 0
648 1 13.9712 17.2602 10.8644 -0.686092 -0.814334 -2.93861 19.2611 -2.74421 -7.28981
649 1 10.867 18.2998 8.45969 -3.99939 1.61864 -1.25262 4.70653 -8.83939 6.56317
650 3 12.4311 18.2339 9.92067 2.24234 3.19665 -0.433074 -8.56001 11.1882 -2.61722
651 1 12.7655 15.4309 17.5804 1.20101 -1.35152 1.58379 12.7262 5.23855 9.27367
652 2 15.3924 19.9916 13.7075 -3.66216 -9.41264 6.5574 3.26702 -0.128546 1.53946
653 1 14.9639 16.5867 14.7736 0.991515 -4.54687 -2.28307 -14.6814 0.261926 -14.8955
654 2 10.8977 18.8563 4.11492 0 0 0 0 0 0
655 1 10.8858 20.6076 2.18712 0 0 0 0 0 0
656 3 12.2403 19.7166 0.590709 0 0 0 0 0 0
657 1 11.9684 19.7683 11.0416 1.97212 -2.51276 3.81261 -3.31233 -4.73346 4.324
658 3 12.6827 19.0103 7.2759 0 0 0 0 0 0
659 1 9.2513 23.2321 2.21448 0 0 0 0 0 0
660 3 10.8751 22.424 0.961352 0 0 0 0 0 0
661 1 10.513 22.6879 10.4912 -0.00357564 0.140548 -1.9322 13.1653 9.01911 -13.9633
662 1 7.87172 24.508 8.43357 -3.37718 -0.77055 -0.402978 -1.57622 7.67473 -13.5121
663 3 9.37407 24.2199 9.93091 -4.70878 -1.43684 6.57694 8.26618 6.29888 -8.57965
664 2 11.4215 28.6426 10.8864 -0.00474053 3.69346 -2.58139 2.99793 6.42495 8.1742
665 1 8.21216 28.2067 13.9418 3.29889 5.41035 -0.107531 2.90565 3.12542 -1.98681
666 3 7.0928 21.6781 12.4405 -7.42082 5.19683 -0.298319 3.00518 -0.404566 -2.90778
667 2 7.30782 24.2699 3.9889 0 0 0 0 0 0
668 1 7.77069 26.078 6.03604 0 0 0 0 0 0
669 1 9.4689 26.0692 10.713 0.96203 -1.26733 2.30445 -8.89236 1.97094 -17.2288
670 1 6.09494 27.0921 8.38744 0.279351 -0.774993 -0.651349 -8.75307 -17.1761 12.0941
671 3 7.82976 26.5235 9.41639 -9.03598 -4.15646 6.59058 2.52972 6.74728 3.11312
672 3 9.32743 25.2951 7.1549 0 0 0 0 0 0
673 2 4.27583 25.6085 12.3427 1.80341 -14.2181 -7.50549 0.765961 -1.50989 0.645037
674 1 7.34889 25.3119 12.0311 2.88961 0.654835 0.943009 -2.92724 1.39518 -2.34452
675 2 6.37151 27.0602 4.21495 0 0 0 0 0 0
676 1 6.35086 28.7699 6.06625 0 0 0 0 0 0
677 1 7.37683 28.0959 10.8531 1.0885 3.1424 -0.368785 7.64846 10.8247 13.8614
678 3 5.54151 28.4743 10.0119 1.84402 -12.4414 -4.74698 -4.37452 3.45017 0.015899
679 3 7.77012 27.8317 7.30188 0 0 0 0 0 0
680 2 6.0263 27.2671 12.9564 3.48607 -3.18234 -4.37239 -1.32636 0.872883 0.344497
681 2 4.81671 29.6772 3.85203 0 0 0 0 0 0
682 1 4.7978 31.3665 2.01348 0 0 0 0 0 0
683 1 4.60468 31.2899 5.93259 0 0 0 0 0 0
684 1 6.02986 30.3763 10.6464 1.14373 0.824871 -1.14911 -9.91626 6.24389 5.77293
685 1 3.14312 32.1241 8.45132 4.10056 -3.9136 3.23647 -11.4867 -4.54794 2.89207
686 3 4.20231 30.712 9.83928 -1.67753 8.73504 2.9837 -5.05125 -1.1042 -6.41438
687 3 6.33395 30.716 7.36639 0 0 0 0 0 0
688 1 4.93701 30.318 16.2689 -8.45488 -9.64549 3.95452 -0.483916 -2.34639 3.50454
689 2 6.52788 32.1425 12.7976 6.13578 -2.79657 -0.820134 -3.1009 -2.90368 -10.7761
690 1 4.61215 30.8826 13.617 -2.8952 1.42386 -2.15448 5.85621 -2.3083 -1.16274
691 3 4.14898 31.7946 15.5462 4.25245 -8.86954 -1.87729 -1.69722 2.37032 2.93952
692 2 6.20555 32.2818 3.86218 0 0 0 0 0 0
693 1 24.5555 1.78939 2.15482 0 0 0 0 0 0
694 1 23.312 2.66403 8.58526 -2.1542 -2.42616 -2.80156 -14.8999 13.3135 9.26854
695 2 25.4581 2.55634 12.9526 4.00387 2.19586 0.39031 0.822064 8.90157 -3.79831
696 1 26.5867 1.10058 14.6133 -3.31471 1.11561 -2.03534 -16.8241 9.33533 0.775829
697 3 24.8576 1.62338 15.8531 4.32108 2.33921 2.06809 9.00769 7.17009 -2.64204
698 1 23.2831 4.47233 2.20388 0 0 0 0 0 0
699 3 24.8573 3.58784 0.961352 0 0 0 0 0 0
700 1 22.9732 4.73266 5.92209 0 0 0 0 0 0
701 1 24.7049 3.86881 10.946 -0.432085 2.87124 -1.70536 -10.216 4.70683 -15.289
702 1 21.8214 5.26421 8.45427 1.12357 -0.973517 -1.1136 8.53722 -5.14502 13.7085
703 3 23.1736 4.51634 9.72448 -7.5924 -1.79788 -4.12086 -3.7792 -2.04243 6.39512
704 1 23.4142 2.68976 17.4092 -1.37505 -0.798182 2.05935 -9.87383 -18.5324 9.38372
705 2 24.885 5.33293 13.0081 6.25086 -1.27788 -4.6842 10.5546 -3.26473 -1.94325
706 1 25.0699 3.72285 15.2375 -0.423584 4.10638 1.56186 6.81328 10.3841 1.89463
707 3 23.3802 4.58473 16.3556 3.15258 -1.8985 -9.53687 -1.63638 -4.73881 -0.160335
708 2 21.6172 5.4848 3.9651 0 0 0 0 0 0
709 1 22.8895 6.27695 11.123 -1.65838 1.62194 -0.784254 5.37515 12.2563 -5.96584
710 3 23.3037 6.26507 7.36261 0 0 0 0 0 0
711 1 21.5815 5.35956 17.4918 2.51754 0.739684 3.40062 16.8484 12.4928 -17.552
712 2 23.3502 7.77907 13.0685 -1.41614 -1.89872 -0.262438 -11.6246 -11.8774 8.30845
713 1 23.6164 6.35096 15.0733 2.84973 1.8619 -0.637045 -1.68725 -4.11578 -18.2539
714 3 21.6104 7.25361 16.0309 13.7543 -7.59423 -9.24843 6.04664 9.14079 9.75499
715 2 20.1344 8.03496 4.35922 0 0 0 0 0 0
716 1 20.284 9.94802 5.95675 0 0 0 0 0 0
717 1 21.9309 8.96016 11.0171 -1.36162 0.54401 1.08555 6.28751 0.926428 10.7077
718 1 18.7939 10.5949 8.50916 -0.142113 -0.394489 2.05758 10.2916 -9.35863 6.34561
719 3 20.4229 9.52696 9.53958 -5.4666 -2.52778 -3.74955 -2.74394 -2.17837 0.0821755
720 3 18.5849 12.4258 9.3866 4.17976 -5.97092 9.33573 -3.63514 4.09352 -2.521
721 3 20.2865 11.5613 7.25502 0 0 0 0 0 0
722 1 18.2711 11.0506 17.8442 -2.32515 -0.390917 1.12801 -3.76835 -15.4072 -0.419344
723 1 20.1639 10.963 15.5564 2.57443 0.298569 -2.82773 -2.13364 -16.6 -14.5686
724 3 18.807 12.3157 16.5948 2.73383 -4.79327 1.96526 6.01395 2.09585 -7.30922
725 1 17.0086 15.1253 2.23301 0 0 0 0 0 0
726 3 18.5397 13.8475 6.85271 0 0 0 0 0 0
727 1 17.1361 13.4645 17.1989 0.903433 0.0669251 -0.85451 -3.86279 -10.5206 -3.3514
728 1 15.5292 17.6784 2.18297 0 0 0 0 0 0
729 3 17.0272 17.0204 0.913614 0 0 0 0 0 0
730 1 17.0741 17.0344 10.7447 3.25166 -0.560006 -1.31276 -2.05188 3.44408 0.931625
731 1 13.9027 19.5017 8.98435 -2.8785 2.22417 1.40159 -9.89078 13.7654 5.92668
732 3 15.5218 18.2877 9.88295 -4.29887 1.93481 5.75699 -7.87955 -4.18159 9.27714
733 1 15.6276 15.565 17.6219 -1.56963 0.320614 -0.616953 18.3163 11.1263 -2.95445
734 2 17.8181 19.1913 12.8928 -1.03227 -0.0727298 -0.480542 -0.51509 -5.30432 -11.1971
735 3 15.9469 17.3234 16.4228 -0.950738 -0.476286 6.24018 0.70755 7.84228 -6.20591
736 1 13.8384 20.3986 6.25203 0 0 0 0 0 0
737 1 15.9746 19.7802 11.0817 2.88971 1.42247 -0.980404 3.51066 4.29366 5.20471
738 1 12.4628 21.9155 8.75125 -4.03634 0.158647 4.52645 9.11266 14.205 -4.8224
739 3 13.9549 21.1477 10.1796 4.59658 4.82153 5.96111 -4.84366 6.94167 -1.61822
740 3 15.3854 20.0317 7.57883 0 0 0 0 0 0
741 1 14.2433 17.7041 17.3598 -0.218951 9.04184 -2.65829 -0.356323 0.986079 1.50526
742 1 12.3889 23.3479 2.23036 0 0 0 0 0 0
743 3 13.7091 22.687 0 0 0 0 0 0 0
744 1 13.9199 23.0268 10.9733 0.587948 1.08206 4.75639 7.53286 14.5008 3.91724
745 1 10.8349 24.7824 8.73043 -1.65815 2.23543 -5.02429 -6.80968 -12.7943 14.6928
746 3 12.3018 23.4749 9.66935 7.44073 -0.492303 -4.9277 9.41053 12.5838 3.75979
747 3 13.9182 22.5339 7.33087 0 0 0 0 0 0
748 2 9.97261 26.224 13.0366 6.69621 3.98436 4.51876 1.30919 -1.08449 -0.885884
749 3 9.23769 29.8675 13.2154 10.178 1.72697 15.1895 2.19403 -1.30326 -0.391185
750 3 12.4287 25.1149 0.961352 0 0 0 0 0 0
751 1 9.19921 26.897 8.15054 -1.33506 0.518838 1.53991 -12.5745 10.1002 -1.88451
752 1 13.342 18.5122 13.5704 -8.62484 -4.63249 -2.26908 -1.74197 1.88256 -1.323
753 2 14.3557 27.9224 14.7991 5.73758 13.631 0.105082 -0.447611 5.39374 1.58877
754 1 11.4829 27.8568 19.4735 15.4825 -10.8234 -7.30063 -0.151145 -2.55263 -0.988
755 3 11.3737 26.8301 11.7186 0.555733 -5.08514 4.27247 6.05023 -2.26773 4.46586
756 2 9.26437 27.1685 3.63807 0 0 0 0 0 0
757 1 9.27511 28.7611 5.92039 0 0 0 0 0 0
758 2 11.6174 30.9196 17.2347 -1.5317 1.59427 3.69089 -0.142148 -1.88518 -2.6101
759 1 13.8076 29.0977 12.5467 5.7349 6.09939 -5.89809 -1.41093 -3.05036 0.586357
760 2 7.75775 29.6638 4.10351 0 0 0 0 0 0
761 1 7.52699 31.4445 5.83856 0 0 0 0 0 0
762 2 27.8082 1.87993 12.4334 -0.294571 0.423946 -5.00657 14.7317 4.40275 -7.81981
763 1 7.81136 30.7515 14.4399 -0.423535 -11.4517 4.56972 1.39581 -2.89006 1.77543
764 3 9.62043 31.103 16.7671 1.2557 2.94666 2.34177 4.22873 -0.0543507 0.43151
765 2 9.14556 32.2689 4.12546 0 0 0 0 0 0
766 3 29.4531 0.935918 0.799955 0 0 0 0 0 0
767 1 27.9811 1.82837 5.79118 0 0 0 0 0 0
768 1 26.5916 3.03061 8.26764 -1.64095 1.39263 -2.89528 -8.84411 -13.9166 11.1001
769 3 29.4587 0.920401 7.31456 0 0 0 0 0 0
770 2 29.6674 3.51379 12.9446 -4.99394 -3.52839 0.184374 -1.88675 -14.4126 0.648089
771 1 29.1692 2.0145 14.7164 1.13431 1.07587 0.587387 -13.9382 -12.9152 0.686323
772 3 27.7925 2.25693 16.3023 -3.19985 1.63067 7.66716 9.15692 7.99828 -0.465712
773 1 24.8549 5.38711 8.59114 2.56235 0.35302 5.2827 8.59983 11.535 5.81291
774 3 26.4623 4.46987 9.69115 -3.6119 -0.519233 4.43429 7.4194 2.58428 -9.17125
775 3 28.193 3.80048 7.04569 0 0 0 0 0 0
776 3 26.8072 4.14884 16.6741 -2.80188 -6.03188 -1.24016 -4.7438 -3.42033 3.81655
777 2 24.7571 5.3381 4.02374 0 0 0 0 0 0
778 1 25.4422 6.69611 2.04365 0 0 0 0 0 0
779 1 24.9061 6.93184 5.94002 0 0 0 0 0 0
780 3 26.4109 6.30971 7.29692 0 0 0 0 0 0
781 1 24.9784 5.32324 17.7451 -2.31439 0.0214675 -0.550995 -12.6624 5.86029 -6.80091
782 3 24.8504 7.62729 16.6191 4.44694 -1.85849 -4.50274 -1.88377 0.403476 -7.72617
783 2 23.2993 7.9567 4.32634 0 0 0 0 0 0
784 1 23.1809 9.91366 2.23762 0 0 0 0 0 0
785 3 24.7873 8.933 0.825166 0 0 0 0 0 0
786 1 23.2723 9.92921 5.85695 0 0 0 0 0 0
787 1 24.6218 9.25206 11.5622 -1.09249 0.00199121 -0.699694 -12.3336 7.89572 -0.830576
788 1 21.9015 10.3139 8.26107 2.95508 -1.28978 -2.14481 -5.33074 -5.11841 14.4062
789 3 23.2263 10.1315 10.0095 4.48738 10.8248 -1.60349 -0.61058 6.7042 -5.60018
790 2 24.5853 11.2502 13.0312 3.48826 -1.91544 -3.31766 2.66784 -0.310648 2.28207
791 1 24.4936 9.36958 14.9216 2.11985 6.29027 -2.61459 1.17904 5.577 -3.11569
792 2 21.7225 10.7616 4.08506 0 0 0 0 0 0
793 1 21.8277 12.4599 6.14225 0 0 0 0 0 0
794 1 23.0124 11.7499 11.0193 0.561092 0.257314 -0.889909 -2.9263 20.6861 -7.0874
795 1 19.9543 13.5083 8.1458 -1.11979 -0.580061 -2.41624 14.7755 18.3557 -6.86264
796 3 23.3093 11.6243 7.32323 0 0 0 0 0 0
797 1 21.9962 10.8802 17.7428 0.826031 1.53429 2.52422 12.8742 -9.22805 14.6244
798 1 23.1323 11.6633 15.0274 -1.75011 -2.40282 -1.49369 18.2416 -7.94168 -6.65765
799 3 21.6994 12.3915 16.3643 -2.06588 -0.824827 1.87878 -0.834249 1.46587 -5.96282
800 1 18.653 16.2976 8.56395 2.64414 4.02323 -1.14683 -10.8212 -1.84095 10.4288
801 3 20.0953 15.2902 9.30347 2.14849 -2.62155 3.74544 -5.46488 -3.6432 -2.63861
802 3 21.7566 14.3127 7.21121 0 0 0 0 0 0
803 1 20.5288 13.3193 17.8159 1.81365 -0.346838 -2.08637 14.37 1.90687 -15.9919
804 1 21.0956 14.2107 15.404 0.941603 0.811824 -2.78971 -9.32175 12.4746 14.7838
805 2 18.6387 16.2032 4.18434 0 0 0 0 0 0
806 1 18.6542 17.5483 2.08081 0 0 0 0 0 0
807 3 20.1291 16.9831 0.741545 0 0 0 0 0 0
808 1 20.4667 16.8323 10.5121 -0.494485 -3.37638 -0.875589 -2.07052 -12.0181 15.4733
809 1 17.1427 19.048 8.66609 0.277179 0.168994 0.707899 -4.54621 -0.0304872 -6.41466
810 3 18.8732 18.0119 9.72373 -6.79723 5.20546 -6.98152 -5.25892 3.93795 -2.54271
811 3 20.0828 17.0544 7.22911 0 0 0 0 0 0
812 2 20.6813 18.458 12.7444 -1.71501 0.190065 2.99818 -6.7632 9.57596 -13.7955
813 1 21.1894 16.7783 14.6149 -3.09122 0.09814 -0.549341 -12.3268 -13.3474 16.9354
814 1 19.082 19.6774 10.926 -0.760795 1.74677 -0.693544 20.2673 -1.13013 8.55837
815 1 15.6407 21.8594 8.59904 4.98227 1.15929 -3.26025 -9.62572 -0.562782 -11.7018
816 3 17.3978 20.7049 9.70398 2.71092 2.2109 -3.21396 -6.20961 -1.44609 7.07256
817 3 18.7579 19.6391 7.29098 0 0 0 0 0 0
818 2 15.6058 21.3493 4.13383 0 0 0 0 0 0
819 1 15.9455 23.4768 1.58643 0 0 0 0 0 0
820 1 15.4564 23.1795 5.93052 0 0 0 0 0 0
821 1 13.9324 24.3549 8.30833 -0.117582 -1.98988 0.476938 4.23133 -3.50683 -6.10192
822 3 15.1837 23.6784 9.87053 2.44188 1.50536 0.782074 0.0613362 -4.57031 0.630947
823 3 17.2791 22.1744 7.06639 0 0 0 0 0 0
824 1 16.5222 19.4953 16.2751 -2.71754 5.63086 1.03829 5.36543 15.0567 -12.1948
825 3 12.7176 24.9918 14.2056 12.6467 -15.093 6.34535 -5.2102 -7.63529 4.14199
826 2 14.2374 24.2301 3.99564 0 0 0 0 0 0
827 1 13.9459 25.941 2.12908 0 0 0 0 0 0
828 3 15.4068 25.2832 0.729 0 0 0 0 0 0
829 1 14.8525 25.5432 10.6652 1.62796 -2.21297 -2.41485 14.1021 -4.64774 -4.79195
830 3 15.9159 24.7354 7.21751 0 0 0 0 0 0
831 1 17.3797 21.5494 13.0512 -1.34179 5.58464 7.74164 -0.887269 1.90986 2.23799
832 2 15.0184 26.5097 12.8322 -16.3528 -5.23276 -1.82006 4.82905 2.25235 -1.65911
833 1 16.7176 24.9293 13.9135 2.89844 -1.5575 -0.72174 -3.37659 -2.21547 -0.993919
834 3 15.937 21.1862 15.1797 3.85972 15.7059 -3.91062 -0.139922 0.233508 -1.41822
835 2 12.5526 27.0117 3.90296 0 0 0 0 0 0
836 1 12.4225 28.7826 2.14761 0 0 0 0 0 0
837 3 13.7147 27.9043 0.464103 0 0 0 0 0 0
838 1 12.1923 28.7543 5.66028 0 0 0 0 0 0
839 1 9.24705 30.2148 11.3397 -1.27487 -0.108305 -7.38614 10.8261 -8.80714 7.74873
840 2 13.8391 31.4926 12.7192 3.85095 -0.797633 -0.362321 7.84798 14.2663 -2.22703
841 2 10.7025 29.7318 3.91118 0 0 0 0 0 0
842 1 10.9359 31.3864 2.05589 0 0 0 0 0 0
843 3 12.441 30.4896 0.951965 0 0 0 0 0 0
844 1 10.7748 31.5537 5.88772 0 0 0 0 0 0
845 1 28.7093 0.0200978 18.6065 -2.69475 -0.44952 1.50045 1.6533 0.306921 1.78053
846 2 30.1526 0.737333 12.6006 1.04584 3.28892 0.291892 3.53721 -8.14131 -10.614
847 1 14.675 30.8826 15.1752 -0.365273 1.85373 -2.35715 -5.79973 8.92551 3.62237
848 3 12.685 31.8396 15.7596 0.306956 -2.47306 -4.10216 1.16038 8.29209 8.2887
849 2 30.7239 0.242276 3.95981 0 0 0 0 0 0
850 1 31.3273 1.78928 2.09516 0 0 0 0 0 0
851 3 32.4671 0.962875 0.531889 0 0 0 0 0 0
852 1 30.8954 2.09599 5.70241 0 0 0 0 0 0
853 1 32.261 0.864121 10.6931 -0.0707766 2.24742 -5.40417 -2.15993 18.4661 -15.8807
854 1 29.5997 2.92586 8.21123 4.91434 -1.01238 0.223134 -17.2961 15.9981 13.1272
855 3 31.0496 1.90157 9.33653 -5.26535 5.1148 -0.487041 -5.98146 -4.65179 5.44503
856 3 32.8527 1.3224 7.07472 0 0 0 0 0 0
857 1 31.5191 1.04613 16.9954 1.60691 -5.56906 -3.75055 -12.0139 -4.00669 7.48002
858 3 30.8391 2.68237 16.2562 0.457791 3.66976 -1.65687 2.13061 -5.05575 2.95714
859 3 31.0846 3.54481 0.915378 0 0 0 0 0 0
860 1 31.2194 3.66769 10.735 0.897096 1.06261 -1.2932 9.61613 10.0361 7.09647
861 1 27.9889 5.47646 8.45698 -2.86424 -1.28147 2.51218 16.1457 15.4403 -12.5731
862 3 29.5295 4.64979 9.7921 -3.00676 4.25414 -5.62562 2.64709 5.84254 3.05893
863 3 31.129 3.65358 7.26012 0 0 0 0 0 0
864 1 29.5103 3.13854 17.4758 3.49899 -1.4902 0.631054 -10.8206 7.67762 0.144996
865 2 31.6567 5.02408 12.8119 0.245128 5.00024 0.384488 -9.82318 -6.98888 9.6751
866 1 31.637 3.75517 14.9796 1.58503 -0.182474 1.86416 -3.90247 12.6841 -16.244
867 2 27.9558 5.46779 4.00523 0 0 0 0 0 0
868 1 28.3215 7.19518 2.22584 0 0 0 0 0 0
869 3 29.5832 6.23256 0.895531 0 0 0 0 0 0
870 1 28.1079 6.96551 5.99722 0 0 0 0 0 0
871 1 30.1401 6.32602 10.9767 -0.483979 -1.60811 0.397299 -4.21889 -11.3486 6.25987
872 3 29.5542 6.34946 7.34508 0 0 0 0 0 0
873 1 28.2163 5.56311 16.7218 0.22798 -0.700461 2.5651 -16.5728 -9.3155 -11.029
874 3 27.6661 6.99014 15.4303 -6.45727 3.32358 -7.44187 7.91338 -3.33163 -5.72809
875 2 26.4109 8.07265 4.15001 0 0 0 0 0 0
876 1 26.1691 9.74207 2.13829 0 0 0 0 0 0
877 3 27.7966 8.82473 0.772027 0 0 0 0 0 0
878 1 24.7322 10.7555 8.69279 0.214496 -1.19022 1.52199 -15.175 -10.0394 -4.09693
879 1 26.7472 7.94731 16.9518 1.14026 1.35931 -0.985731 -1.04061 5.55259 6.3039
880 1 28.0179 9.02693 14.7948 1.13585 -0.478331 -4.19794 -12.1386 1.45962 -5.43329
881 3 26.4398 9.76427 15.901 5.40831 -1.77953 -5.42993 4.68231 3.23706 3.09313
882 2 24.8643 10.6386 4.06908 0 0 0 0 0 0
883 1 25.2585 12.5404 1.97421 0 0 0 0 0 0
884 3 26.5981 11.5085 0.778882 0 0 0 0 0 0
885 1 24.8878 12.3711 5.86699 0 0 0 0 0 0
886 1 26.3903 11.747 11.2699 0.818841 1.97773 3.65419 -11.1777 -3.20118 -18.3526
887 1 23.2835 13.4351 8.4537 3.28438 0.651452 1.14282 14.6319 5.41734 -15.8503
888 3 24.8113 12.6454 9.8271 0.121294 -2.07802 1.35521 -2.55746 3.60842 -6.37953
889 1 24.8733 11.0468 16.9311 1.1115 -0.506418 -3.42992 9.84818 -10.7829 -6.67731
890 2 26.6104 13.7477 12.8065 -3.7186 -2.53249 0.297796 5.34487 8.70064 -8.76424
891 1 26.468 11.6283 14.6194 -1.34165 2.11499 -1.5877 11.9041 3.50124 6.65188
892 2 23.367 13.2132 4.0747 0 0 0 0 0 0
893 1 23.3666 15.2223 2.17112 0 0 0 0 0 0
894 1 23.209 15.2391 5.52553 0 0 0 0 0 0
895 1 24.8101 14.6614 10.8726 -2.61646 -0.305348 -1.38612 -5.64977 -7.83211 2.72962
896 1 21.4198 16.0841 8.12293 2.8183 -0.983204 0.465866 4.81831 -18.8414 -10.5684
897 3 25.151 13.9711 7.15495 0 0 0 0 0 0
898 1 23.487 13.6706 17.0227 -1.55847 -0.316422 -2.77762 14.4961 -17.2393 -15.3935
899 2 24.8731 16.3376 13.0824 -1.20032 5.31981 0.262385 -7.92533 -7.83025 5.40407
900 3 22.552 15.5559 16.1028 -1.53377 -8.63601 -1.24106 -1.28562 7.71804 -0.867287
901 2 21.5637 15.9125 3.75459 0 0 0 0 0 0
902 1 21.6124 17.6901 2.00183 0 0 0 0 0 0
903 3 23.252 16.9105 0.524327 0 0 0 0 0 0
904 1 21.7561 17.8201 5.35412 0 0 0 0 0 0
905 1 22.7783 17.1664 11.7512 2.79576 0.981637 -4.10504 14.9302 -9.43456 10.0836
906 1 20.5477 18.8557 8.42444 0.652249 0.576009 1.54487 2.97156 -19.3116 -0.0215744
907 3 22.0579 17.3746 9.44543 6.91427 -5.13286 2.5384 7.99208 6.32693 -0.584101
908 1 21.8439 16.2079 17.8927 -4.16255 1.45586 -3.66032 0.581179 11.5951 -3.95053
909 2 23.4113 19.2231 13.0193 -0.345679 -6.61831 -0.305428 -7.51377 8.05401 -10.3958
910 1 23.679 17.3512 15.102 2.39535 2.12329 1.4797 -7.29846 -7.37845 -7.23865
911 3 22.0485 17.8563 16.3386 1.72873 8.70872 0.198249 -1.55754 6.14597 4.7434
912 2 20.0185 18.7907 3.84652 0 0 0 0 0 0
913 1 20.6629 20.4596 1.97377 0 0 0 0 0 0
914 3 22.0052 19.5286 0.701105 0 0 0 0 0 0
915 1 20.0465 20.5661 5.90389 0 0 0 0 0 0
916 1 18.9197 21.3782 8.22598 -3.2967 2.10192 -0.833026 6.39402 15.5974 7.38708
917 3 20.5706 20.7505 9.52873 -0.370805 6.56442 10.1111 11.3451 -1.0765 -0.855387
918 3 21.7427 20.0335 6.96577 0 0 0 0 0 0
919 1 20.6163 18.7193 17.322 -2.4507 -1.11695 2.41635 7.402 -10.3658 -3.84119
920 1 21.597 19.6861 14.737 1.41756 3.68152 -2.02627 -1.73165 -16.1614 4.06204
921 3 20.1335 20.4448 16.0317 4.51745 1.91192 4.24329 8.80344 0.0798633 -6.25813
922 2 18.6583 21.4076 3.96957 0 0 0 0 0 0
923 1 18.7945 22.9549 2.01468 0 0 0 0 0 0
924 3 20.2988 22.3709 0.716897 0 0 0 0 0 0
925 1 18.5663 23.3373 5.7419 0 0 0 0 0 0
926 3 20.4322 22.6257 6.91042 0 0 0 0 0 0
927 1 18.7856 21.3189 17.3148 -0.116338 -1.39596 -1.37234 -8.42971 4.4688 -4.58632
928 1 20.1799 22.3221 14.9502 -2.60459 0.248845 -3.55687 6.9756 -4.83792 -14.2324
929 3 18.6218 23.1174 16.0762 -7.66216 -5.29357 5.6859 4.4785 1.81746 -6.54268
930 2 17.1718 24.0125 3.76092 0 0 0 0 0 0
931 1 16.9989 26.207 1.68022 0 0 0 0 0 0
932 3 18.4865 25.1659 0.445911 0 0 0 0 0 0
933 1 16.7099 26.0706 5.09692 0 0 0 0 0 0
934 1 15.4543 26.8187 8.17557 2.92424 -0.601238 -1.00583 13.8183 -10.7522 2.72804
935 1 17.2023 24.5758 17.0326 5.92684 2.41425 9.16148 -0.00175369 -1.30725 0.657522
936 2 18.3056 26.0643 12.5868 -3.91288 2.85978 -5.14218 -11.8625 0.537897 -10.7482
937 1 18.9536 25.2382 15.0428 -2.34031 1.3655 -4.882 -13.9718 9.97201 9.95858
938 3 16.9027 25.9291 15.5384 4.96087 5.00767 4.62943 1.49109 -1.044 -0.757706
939 2 15.4371 27.4477 3.44826 0 0 0 0 0 0
940 1 16.6667 27.7372 11.0714 -1.04602 -1.95723 -2.49876 5.96421 5.44767 -17.1513
941 1 14.1612 29.9382 8.14539 1.73843 -0.882916 1.63499 -11.0918 6.41036 -5.94103
942 3 15.1592 28.7371 9.62044 -1.23639 1.65963 -4.71615 -11.6241 5.60139 -2.09251
943 3 16.757 27.9959 7.2737 0 0 0 0 0 0
944 2 16.1833 29.7788 12.9087 5.407 -0.205723 1.82207 -10.7702 9.34436 8.09635
945 1 17.0607 27.703 14.1299 2.34897 3.74216 -12.8117 0.13383 -0.26749 2.94754
946 1 13.9217 31.3239 2.13783 0 0 0 0 0 0
947 1 13.765 31.4104 5.42202 0 0 0 0 0 0
948 1 15.3906 30.7284 10.7556 0.788522 -3.00641 -2.83498 6.09278 14.5801 -5.66135
949 1 31.3134 0.215061 7.90694 0 0 0 0 0 0
950 3 13.9767 31.6694 9.31259 6.52077 3.83495 1.93293 -1.47656 -1.17681 5.03339
951 3 15.3055 30.4689 6.43629 0 0 0 0 0 0
952 2 33.6514 0.572443 3.7762 0 0 0 0 0 0
953 1 34.2573 2.07473 1.87611 0 0 0 0 0 0
954 1 33.744 2.61573 5.26886 0 0 0 0 0 0
955 1 32.7835 2.83988 8.44655 1.62974 5.4106 1.28371 0.925231 -2.94908 7.75041
956 3 34.0984 1.69062 9.82819 5.91623 -2.55727 -0.104141 -4.83855 5.77025 -2.43618
957 1 33.6473 3.31935 11.4075 -0.193788 -3.10746 1.11487 16.3174 -4.90958 5.17745
958 1 31.0485 5.52331 8.61935 0.101761 0.36746 -1.85826 1.08052 -20.5502 13.7607
959 3 32.6868 4.54151 9.67178 -1.6868 0.210014 0.911272 1.65794 11.177 10.9091
960 3 34.2065 3.87992 7.33207 0 0 0 0 0 0
961 1 32.5789 3.42537 17.6169 -4.67162 -2.8166 -2.04509 -10.6917 -11.0987 -15.3057
962 2 -2.45171 5.32132 12.4815 0.422844 3.94358 -7.21096 -5.94889 -6.9987 11.0416
963 1 31.2483 7.16678 2.15053 0 0 0 0 0 0
964 3 32.6414 6.28262 0.899177 0 0 0 0 0 0
965 1 31.021 7.3002 6.00445 0 0 0 0 0 0
966 1 32.989 6.30627 11.2722 -2.47467 3.85737 1.04004 -2.28048 -4.76391 -13.0283
967 3 31.7196 7.1212 9.98232 2.27803 4.564 -1.20585 -5.84598 3.56863 -4.47594
968 2 32.5551 8.12727 12.9867 0.0331295 6.40111 -0.522563 -7.95903 3.94982 4.91987
969 1 33.0977 6.11739 14.519 -2.52863 -0.453444 2.34343 -9.73051 11.2427 10.6931
970 2 29.4748 8.13649 4.23039 0 0 0 0 0 0
971 1 29.0773 10.0126 1.93424 0 0 0 0 0 0
972 3 31.0535 8.8983 0.819899 0 0 0 0 0 0
973 1 30.9644 8.84543 11.0566 1.89305 -1.25163 0.115386 -12.9656 11.3026 14.1079
974 3 31.0742 8.91225 7.30319 0 0 0 0 0 0
975 2 -5.8773 10.7815 12.6693 0.984509 -0.557231 -1.62766 0.377024 -2.61483 0.0618303
976 1 30.9375 8.99154 14.6043 -0.657347 -0.786936 2.20268 -1.2252 12.182 -12.3127
977 3 29.6413 9.96037 15.9593 2.97606 -10.1731 -0.206582 2.38249 -6.88738 -7.36424
978 1 29.6576 11.8778 11.2809 2.08799 -6.11986 1.0196 -3.18714 -12.4458 10.9612
979 1 26.5342 13.1517 8.42737 2.90995 -1.4632 0.618774 10.3539 -6.34883 -6.28208
980 3 28.1218 12.1233 9.64147 -2.99098 -4.13418 -4.6044 8.52478 2.66348 -8.14862
981 1 27.9945 10.6459 17.2588 -0.446417 2.8922 1.84467 4.51413 13.9941 8.0161
982 2 -7.42537 13.5854 13.0563 0.84299 -0.10492 -4.47009 1.92706 -10.0873 -10.1475
983 1 29.6451 11.6714 14.6241 -2.61779 2.57322 3.17861 20.3704 -0.585023 -13.3705
984 2 26.5548 13.1625 4.01552 0 0 0 0 0 0
985 1 26.3247 15.2595 2.18053 0 0 0 0 0 0
986 3 27.9576 14.25 0.769481 0 0 0 0 0 0
987 1 26.5826 15.0376 5.67171 0 0 0 0 0 0
988 1 28.0363 14.2545 10.9148 -0.16971 -0.901532 -2.32984 10.7323 0.767047 16.6936
989 3 28.0531 13.8678 7.07135 0 0 0 0 0 0
990 2 -8.68249 16.4106 12.2985 1.38169 0.932078 -4.17223 5.75179 -9.48057 -8.02624
991 3 26.3709 17.0225 0.927972 0 0 0 0 0 0
992 1 26.3957 17.1483 11.3185 0.137353 0.498259 -3.62057 -10.0526 -1.20813 16.6468
993 2 26.052 19.1451 12.8929 -2.23638 -3.02497 -2.34129 5.30266 1.40135 0.996734
994 1 24.763 19.398 10.6182 -0.247167 -0.127412 -2.04412 -18.1162 -0.777413 -8.99838
995 1 21.7624 21.6154 8.02728 0.646862 1.53238 -3.30928 -12.7886 18.3891 12.3014
996 1 23.4883 19.1055 17.4733 0.119037 2.33335 -1.80137 -11.2822 7.18695 6.42604
997 1 24.612 20.2448 14.9889 -1.349 0.281817 0.249691 9.85516 -20.9103 11.2602
998 3 22.8858 20.6385 15.8364 2.72751 6.21526 -0.0537896 5.85195 2.47293 -2.73325
999 2 21.8182 21.6337 3.88126 0 0 0 0 0 0
1000 1 21.8131 23.151 1.89448 0 0 0 0 0 0
1001 3 23.4331 22.3663 0.870733 0 0 0 0 0 0
1002 1 22.1208 23.3496 5.95497 0 0 0 0 0 0
1003 1 22.932 22.1772 11.0945 4.54499 2.67681 0.843387 8.27535 12.4598 14.9534
1004 3 23.4761 22.3563 7.16539 0 0 0 0 0 0
1005 1 21.7621 21.4485 17.3507 -1.55657 0.498904 0.490343 13.5407 0.0572453 1.30826
1006 2 22.901 23.9642 12.995 -2.97134 -1.57546 -1.65607 15.3586 7.33642 -2.56509
1007 1 23.3979 22.6011 15.2192 -1.20777 2.83537 3.17157 -8.36083 5.44185 5.30419
1008 3 21.7447 23.2397 16.2797 -4.47099 -2.56773 3.02114 6.78044 7.50567 4.77943
1009 1 21.6296 25.0765 11.0701 2.19557 2.67574 -3.86813 0.409196 -8.2437 6.34229
1010 1 18.7233 27.5936 8.42178 -1.25505 -2.52833 1.88597 -10.9522 -17.2753 10.7318
1011 1 20.2443 24.2549 17.461 1.04666 1.90762 -5.91427 -9.57526 10.6472 1.62524
1012 2 -15.3051 26.616 12.9967 -2.26181 1.77114 0.962056 14.1133 -4.27362 -8.97853
1013 1 22.092 25.1242 15.1855 -1.59172 -4.25986 0.00893474 1.70547 10.938 20.197
1014 3 20.4984 26.0871 16.3403 5.82472 -6.6123 0.0484341 0.199006 3.06093 6.41538
1015 2 18.3984 27.0759 3.55659 0 0 0 0 0 0
1016 1 18.9004 28.4974 6.01058 0 0 0 0 0 0
1017 1 19.9383 27.7261 11.3735 -2.33535 -1.98771 -0.127543 12.9742 -11.0886 -5.08504
1018 1 17.025 29.4765 8.69102 -1.38347 -2.51321 1.95773 -12.2495 -1.28933 -11.9745
1019 3 18.1758 28.729 10.2324 1.32358 -2.35036 -0.524381 6.39988 -5.78392 1.33976
1020 3 20.5479 27.2691 7.11085 0 0 0 0 0 0
1021 2 -16.8884 31.3461 13.2785 -1.38047 -0.0483462 -0.44322 13.3788 8.46503 9.76246
1022 3 18.0142 28.7082 16.3291 -4.60191 2.57321 -1.44136 -3.83298 -4.57049 -7.20746
1023 1 18.3477 30.5278 11.6692 -1.67582 1.85526 0.604781 0.883243 11.3628 -4.70291
1024 1 15.5423 32.2839 8.16982 -0.423895 -1.4718 0.292429 -12.0084 3.16489 2.04057
1025 3 19.071 29.7042 7.68477 0 0 0 0 0 0
1026 2 36.9667 0.486647 13.1651 1.85623 0.674446 -1.09556 -3.30275 -7.88882 -0.819441
1027 1 18.3513 30.7533 15.0305 0.146639 2.32584 3.23476 8.65845 -14.283 3.14192
1028 3 16.5085 31.5155 16.3309 -8.13598 0.409246 -8.15983 -1.77357 0.932089 1.77447
1029 3 1.45136 0.769542 19.1857 2.73573 -0.576204 1.53355 0.984593 0.770233 -1.54706
1030 1 35.8396 2.17848 26.5055 -0.149614 0.891969 0.090711 0.275578 -0.0712365 -0.271716
1031 3 1.03262 1.07917 25.3573 -1.40788 0.33383 0.679747 -0.478688 -0.221101 -0.254684
1032 2 35.0107 3.37717 21.6717 -0.829481 -0.22181 0.365991 0.0629483 0.0525996 -0.0818589
1033 1 -0.841932 4.16985 19.5648 -1.96814 -2.34143 2.53714 0.532284 -1.11553 0.795163
1034 3 0.427574 3.78857 17.9826 -4.12325 7.00819 -0.193742 3.26305 5.69277 7.36029
1035 1 -0.752515 4.07465 23.8305 -0.386486 0.596853 -0.252591 0.1635 -0.220048 0.0153608
1036 1 0.0769935 3.45449 28.7963 0.529548 0.136155 -0.231396 -0.285298 0.141912 -0.0983675
1037 1 34.2742 4.45237 26.0612 -0.122164 -0.416722 -1.40334 -0.136619 -0.0661509 0.631092
1038 3 -1.6847 3.70771 27.5416 -3.09836 -0.27653 3.92488 0.459683 -0.232385 -0.558285
1039 3 -0.156697 3.2091 25.5516 0.722445 0.364897 -0.628636 0.125851 0.25979 0.0573914
1040 2 0.786062 4.5157 30.9988 0.797468 0.975182 0.332777 0.0638835 0.181307 -0.0640046
1041 3 -0.993004 6.24477 18.4628 1.41303 1.53629 -1.09625 -0.0278955 -0.178891 -0.351066
1042 3 -1.34298 5.51428 25.0407 -0.0355814 -0.849529 0.470592 0.0307111 0.0304234 -0.0544392
1043 1 -3.07964 5.42614 34.988 1.01033 -0.571747 -0.744521 0.0139215 0.17229 0.0394599
1044 1 -1.40711 6.16341 32.253 -1.57911 0.0944884 0.91776 0.123328 -0.0460168 0.0930262
1045 3 -2.97375 6.92284 33.7644 0.300967 -0.038108 -0.543878 -0.0686829 -0.220053 -0.121324
1046 1 -4.91349 10.3296 19.8635 1.19847 -0.796176 0.380252 0.14071 -0.360281 0.476427
1047 1 30.763 11.2684 26.3096 0.253654 -0.380031 0.332065 0.032855 -0.0807447 0.114007
1048 3 -4.60056 10.1534 27.4586 0.055717 0.0339574 0.450449 -0.0440141 -0.123004 0.007962
1049 1 32.7432 7.79241 35.2358 -0.180039 -0.200947 0.0164653 0.0714357 0.0259718 -0.070002
1050 3 -4.7809 9.6927 34.9119 -0.624573 -0.589937 -0.67899 0.0892589 0.0839625 0.0256434
1051 2 30.8723 11.0296 21.8525 -0.250111 0.240579 0.268414 0.00672985 -0.166547 -0.055237
1052 1 -6.41965 12.8701 19.8632 -1.00479 1.42006 0.795731 0.718912 -0.343479 -0.534669
1053 3 -4.87733 12.1475 18.7742 7.96547 3.38136 -2.72765 -0.351606 2.24935 -1.19094
1054 1 -5.93505 13.5915 23.0071 0.224214 -0.285697 0.327678 0.0686535 -0.302257 0.402833
1055 1 -4.29758 11.8287 28.429 0.178181 0.626609 1.33197 0.218237 0.230215 0.121184
1056 3 -5.88689 12.6987 27.6191 -0.436789 -0.000768873 0.00804022 0.045262 -0.105662 -0.0247098
1057 3 -5.38688 12.3691 24.5717 0.96069 -3.40619 -0.598141 0.0448646 0.102078 0.0159591
1058 1 -6.2196 10.7774 35.7225 -0.246713 -0.212066 -0.146699 0.0714711 0.0264227 -0.0327647
1059 2 -4.90418 13.1892 30.6201 0.126561 1.24046 -0.57824 0.109912 -0.33873 0.0249702
1060 3 -6.55663 12.4226 34.6256 0.836079 0.930357 0.665361 0.128512 0.0585392 -0.0437725
1061 2 29.1232 13.5982 21.8046 -0.41102 0.612006 0.0946134 0.135643 -0.0448151 -0.0242531
1062 1 -7.65536 15.3756 19.9 -0.174106 -0.795741 -0.897534 -0.360547 -0.141333 -0.17129
1063 3 -6.71978 14.3638 18.1996 0.768328 -0.712838 4.20332 1.24536 -0.0225843 2.00929
1064 1 28.7483 14.5322 24.3313 0.672747 -1.50488 0.42227 0.144272 -0.229817 0.159199
1065 1 -6.13125 14.5453 28.7165 0.156397 0.953719 -0.890129 -0.115014 0.122281 -0.25629
1066 3 -7.66004 15.6215 27.9865 0.164453 -0.518899 -1.34145 -0.0594549 0.0622575 -0.204618
1067 3 -6.46891 14.5375 24.7329 0.490212 -1.41156 0.593799 0.151918 -0.205288 -0.0659162
1068 1 29.2568 13.2677 35.5086 -0.12229 0.0103079 -0.369646 -0.0101062 0.0329043 0.0865403
1069 2 -9.10327 16.1107 21.9509 -1.24751 -0.128349 -2.30993 0.0455133 0.0165888 0.0808129
1070 1 -9.01166 18.2379 20.3721 -0.524659 0.0779547 -0.270198 -0.136459 0.275647 -0.214781
1071 1 -9.02499 17.8062 23.7749 0.119119 0.990365 1.43486 -0.14498 -0.0446256 0.188438
1072 1 -7.60564 17.4194 28.9406 0.154458 -0.710325 -0.334664 0.0995381 -0.171991 -0.0689997
1073 3 -9.22943 18.242 28.0332 -0.718931 0.272579 -0.7931 -0.28212 0.117954 -0.29083
1074 3 -8.11066 16.4538 24.9793 1.20575 -4.67865 -0.63122 0.227569 0.109249 0.0417481
1075 2 -7.94573 19.2347 30.7826 -0.160297 0.364954 -0.280351 0.361863 0.0145584 -0.0820699
1076 2 -10.7778 18.6807 22.1283 0.0232489 0.931901 0.436181 0.0212332 -0.047089 0.0808703
1077 3 -9.12386 19.4917 18.6815 -1.7719 -2.81001 -2.01328 0.219106 0.318748 -0.29325
1078 1 -10.2183 20.3649 24.1004 -0.826815 -0.552645 -0.305094 -0.340962 -0.0620668 0.0132946
1079 1 -9.45755 20.0637 28.797 0.543888 -0.199253 -0.330591 -0.0568345 -0.0266102 0.146035
1080 1 -12.1543 21.444 26.3054 -1.72861 2.38385 -0.246661 0.415509 -0.615255 0.185859
1081 3 -11.2773 20.2551 27.6957 -0.348764 0.204522 -0.399122 0.00961799 -0.0399644 0.0139853
1082 3 -8.41287 19.6582 24.7582 0.148111 0.109747 0.12249 0.0154541 -0.00566727 0.0541208
1083 2 -9.42672 21.1253 31.5618 -0.142144 1.84472 -0.621237 -0.113795 -0.0849877 -0.074802
1084 1 -12.0072 23.1475 23.7667 1.24412 -0.105866 -0.0371983 -0.134693 0.0684713 0.0432306
1085 1 23.4714 23.8789 25.8338 -2.96093 -1.28562 1.06557 -1.22388 0.501698 0.542839
1086 3 -12.2656 23.2039 27.1585 -0.0161218 -0.071229 0.0626532 -0.172513 0.057143 -0.00772281
1087 3 -10.4782 22.3681 25.1971 0.0449642 0.851883 -1.83746 0.00113566 -0.508831 0.348468
1088 1 -12.1393 21.3958 35.3054 -0.558915 0.872724 0.149007 0.318886 -0.69415 0.289498
1089 3 -12.6117 23.1585 34.1637 0.138649 0.386727 -0.637413 -0.204288 0.051338 0.0119724
1090 2 -13.6352 24.5955 22.0317 1.59489 0.195092 0.0874718 -0.0668993 0.536887 -0.0314725
1091 1 -13.5821 26.3981 20.0149 0.322609 0.161867 -0.0464177 -0.371386 -0.760182 -0.0429159
1092 1 -13.6231 26.067 24.1045 0.210053 1.12446 -1.18107 0.0650795 -0.147463 -0.210833
1093 3 -12.168 24.7444 24.877 0.0702211 0.0211687 0.618711 -0.0077054 0.140926 0.089946
1094 1 -14.0312 24.3211 35.1252 3.56752 -1.36717 -1.3815 -0.207292 0.123109 0.613004
1095 1 -12.1575 24.6705 32.7533 -0.170683 0.787971 0.324267 -0.299034 0.214173 -0.272759
1096 3 -13.6415 25.6755 33.7477 -2.02601 2.17924 -0.27048 -0.312391 0.40457 -0.195978
1097 2 -14.9925 27.1677 22.0598 1.51375 0.428348 0.410785 -0.525276 -0.696647 -0.434065
1098 1 -15.0289 29.0568 20.0839 0.0359389 -0.178938 -0.313934 0.173986 0.244362 0.0118859
1099 3 -13.6129 27.9853 18.6124 0.171993 0.102613 -0.294286 -0.0437206 -0.0206801 0.152916
1100 1 -15.2946 28.5188 24.41 -0.223839 1.34317 0.171889 -0.0684124 -0.27517 0.00354292
1101 2 -14.2558 29.2171 31.0954 -2.70152 -1.0033 2.26564 -0.3256 -0.187041 0.292297
1102 1 -14.375 27.9774 33.3261 0.0363133 0.207238 0.196777 -0.351018 -0.397416 -0.353727
1103 3 -15.4703 29.0661 34.6255 1.8194 -0.269465 -1.36245 -0.367889 -0.309164 -0.0525279
1104 2 -15.839 29.9144 22.3004 -0.0950501 0.681301 0.495264 -0.362981 0.158122 -0.0672237
1105 1 -16.4991 31.7297 20.2681 0.192639 0.0853382 -0.556756 0.00225284 -0.709401 0.546203
1106 1 -14.9236 31.0148 29.4538 0.42441 0.312781 0.201027 0.0962862 -0.0130954 -0.100007
1107 3 -16.3122 30.5549 27.7451 -0.56586 -1.50316 -0.278684 -0.170906 -0.467036 0.207102
1108 2 2.61883 0.633508 30.9656 0.428068 0.862495 0.227416 -0.870419 -0.545578 -0.198577
1109 1 -15.6142 30.7691 32.6969 -0.177937 1.92435 -1.51913 1.66681 -0.755427 0.916032
1110 3 5.35613 0.931674 18.4304 -1.12491 -2.39515 -3.6959 -2.96767 -0.743649 1.47173
1111 1 4.78164 1.19612 28.4096 -0.0829144 -1.09908 0.0174656 -0.16398 -0.481732 -0.291382
1112 1 1.76658 2.90058 25.8982 0.199928 0.893491 0.750554 -0.0464244 0.307701 0.168041
1113 3 2.97163 1.91015 27.2603 -0.962795 0.144644 0.0210789 0.0565101 0.0153563 -0.0259756
1114 3 4.8321 0.822215 25.0145 4.39391 -0.170673 -0.452793 0.858887 0.113011 -0.249752
1115 2 4.34448 2.62001 30.451 0.473763 0.238867 -0.295263 -0.624457 -0.331589 0.198623
1116 1 4.55139 1.22091 32.6011 -0.0953207 0.0137523 -0.212839 -0.155549 0.0468726 0.101528
1117 1 1.78054 4.80206 19.4254 1.95703 0.181221 0.105861 0.0206293 -0.222092 -0.506403
1118 3 3.21451 3.53532 18.7659 2.45957 -1.16111 -1.69195 0.0495335 0.900174 0.599066
1119 1 3.49299 3.7268 28.2389 -0.438824 -0.0974889 0.621632 0.0078992 0.128962 0.0675458
1120 1 -0.168668 5.2631 26.7631 0.125243 0.291957 1.00835 -0.574972 -0.765641 -0.493335
1121 3 1.61322 4.36481 27.513 -0.524817 0.390254 0.774294 0.248145 -0.0791499 0.0726622
1122 3 3.06794 3.71545 24.6747 0.250328 -0.650047 -0.0812174 0.201528 0.0892486 0.0448367
1123 2 3.2173 4.97078 30.561 -0.265649 -0.27123 0.103083 0.170154 0.0223956 -0.0368684
1124 2 0.10612 5.4526 21.7003 -4.0962 1.89751 1.70934 -0.145908 0.0568568 0.156821
1125 1 0.225941 7.30012 19.7102 0.305985 1.74235 0.112303 -0.146226 -0.210917 -0.266812
1126 3 1.65545 6.28663 18.316 -2.89706 -0.469148 -1.93123 -1.428 -1.00168 -0.452999
1127 1 0.170455 6.89824 23.9522 -1.17525 -1.59316 1.67633 0.590063 0.271725 -0.0206132
1128 1 1.68763 6.30664 28.999 0.502581 -0.233392 0.114269 -0.0984193 -0.169228 -0.182019
1129 3 -0.0106988 7.20518 28.182 0.57183 0.182278 -0.362566 0.0731948 0.0846987 -0.0400919
1130 3 1.25152 6.70449 25.6655 -0.646635 -0.0834213 0.891188 0.073738 -0.0596323 -0.175342
1131 2 2.36947 8.0459 30.8309 0.769117 -0.824698 -0.706397 -0.179815 0.260396 -0.0336331
1132 1 1.78507 6.34549 32.3752 -1.5199 -0.837232 -0.998479 0.188863 0.14493 -0.0129871
1133 3 0.114194 7.08239 33.4738 -0.110918 0.184311 0.105202 0.0345709 -0.0194603 0.0779165
1134 2 -1.34166 8.09485 21.6447 -1.16272 -0.746446 -0.363668 -0.0197064 -0.105446 0.0647177
1135 1 -1.78556 9.78253 19.8221 0.0230478 0.31173 0.242874 -0.171825 0.0494246 0.337644
1136 3 -0.233061 9.25347 18.6674 0.108864 -0.0414912 -2.05564 1.3364 -0.200469 0.252553
1137 1 -1.43463 7.91591 34.7896 0.0682373 -0.646212 1.32983 0.0900399 -0.12113 0.194257
1138 2 -3.13206 10.9096 21.6617 -0.391997 -0.0387986 -0.0295606 0.0713093 -0.0546758 0.190167
1139 1 -3.05573 12.7274 19.7826 -0.500811 -0.832257 0.880796 0.228687 -0.334882 -0.261512
1140 1 -3.16284 12.4274 24.1578 0.0628562 -0.0748092 0.0474136 0.0740568 -0.198232 -0.00485676
1141 1 -4.82301 13.7806 25.9966 -0.17655 -0.145251 -0.14704 0.00453611 -0.0703464 0.0221875
1142 3 -3.21989 12.931 27.079 0.653369 0.486415 -0.0907784 -0.10927 -0.0566449 0.0152573
1143 1 -3.12957 10.7845 34.9014 0.0612068 -0.0410458 0.148851 0.0233813 -0.0430133 0.0514584
1144 3 -2.96526 14.4988 18.6013 -0.252711 -2.39926 -1.76746 -0.304716 -2.30314 0.86794
1145 1 -3.35864 14.4621 28.3512 -0.435831 -0.26524 -0.329401 -0.0699017 -0.194886 0.335712
1146 1 -6.42901 16.2978 26.2036 -0.155026 0.309998 -0.578323 0.0999924 0.00502476 -0.338969
1147 3 -4.80302 15.4933 27.2612 -3.55281 -0.141353 5.69118 -0.0762465 -0.263771 -0.0504442
1148 3 -2.94762 14.5099 25.0113 -0.426862 -0.0473043 -0.360294 0.000139917 -0.223744 0.0506644
1149 1 -4.92155 13.5473 34.7575 0.17249 0.381328 1.31935 -0.0453531 -0.0127698 -0.0329824
1150 3 -4.7224 17.0013 18.4231 3.67996 -1.81711 -4.46454 -0.861556 0.906746 0.323647
1151 1 -4.81976 17.1543 28.6086 -1.80182 -0.824325 -0.88324 -0.505327 -0.540527 -0.914055
1152 1 -7.82314 18.645 26.3357 0.0646666 0.119907 0.0399748 -0.00771752 -0.140185 -0.021021
1153 3 -6.23396 18.1533 27.5227 0.00955418 -1.69627 -1.12834 0.0951298 -0.205511 -0.0923938
1154 3 -4.86094 17.747 25.1697 2.85392 -6.05237 -2.86725 -0.315751 0.670513 0.272656
1155 2 -7.17872 18.1366 22.1272 0.178188 0.208719 0.118954 -0.111678 -0.0584591 0.0970966
1156 1 -7.98313 20.8808 19.3123 -0.312768 -0.73705 -0.371464 0.263292 0.635117 0.159158
1157 3 -6.25808 19.8436 18.4975 -3.43063 1.96648 2.1779 -0.257393 0.506522 -0.603777
1158 1 -6.8475 20.0951 23.6378 0.23855 0.00797779 0.456442 0.00524105 0.281879 0.282619
1159 1 -6.60867 20.2311 28.2757 -0.125233 -0.00582388 -0.11152 0.0425154 -0.0339426 -0.00630444
1160 3 -8.35687 20.744 27.2618 -0.371413 -0.402311 -0.238972 0.0239639 -0.045209 -0.03506
1161 3 -5.4607 19.0515 25.5199 -4.28944 8.84741 1.03365 0.732045 -1.17165 -0.267503
1162 2 -5.96537 21.0645 30.5255 -1.28119 0.448145 0.524293 -0.250886 -0.250576 -0.417756
1163 1 -6.56675 19.8276 32.9524 -0.0814336 0.26173 0.0156781 0.1507 0.207048 -0.0189264
1164 2 -8.84409 20.5156 21.7298 0.868641 -0.196786 -0.159089 0.0703773 -0.0739314 0.051841
1165 3 -7.99411 22.5072 17.9816 -0.582052 2.5138 -3.47779 8.40711 -6.66866 -5.01598
1166 1 -10.9043 24.3034 26.349 0.494898 -1.36106 0.905043 -0.114762 -0.291546 -0.0208118
1167 2 -10.8991 24.585 21.8402 5.55856 -2.46864 1.56061 0.289686 -0.0147727 0.240622
1168 1 -10.4944 26.9517 20.4431 -1.24254 1.42995 0.777608 -0.121572 0.262528 0.105395
1169 1 -10.6081 26.2661 23.6756 -0.072879 -1.33783 0.507622 -0.0111372 0.136771 0.122243
1170 1 -9.18232 25.6025 28.7916 -0.505429 0.530002 -0.153064 0.203319 -0.131273 -0.237561
1171 3 -10.857 26.1216 27.6383 0.314529 -0.119297 -1.05325 0.181781 0.174608 -0.172927
1172 1 -11.1139 24.1066 35.2271 1.82805 -1.02321 -0.121776 0.385992 -0.81354 0.104681
1173 3 -11.1553 25.9764 33.9079 -0.575859 -0.334543 0.297647 -0.155331 0.0043037 0.034173
1174 2 -12.326 27.2706 22.0522 0.0468357 -0.406143 0.471972 -0.415757 -0.12301 -0.139056
1175 1 -12.1385 29.0499 19.6615 0.365124 -0.45681 0.0252562 0.122437 0.0423026 -0.068733
1176 1 -12.1179 28.7615 24.0844 -0.434516 -0.449785 -0.367716 -0.0310891 0.0573978 0.0610326
1177 1 -10.5846 27.8733 29.0121 0.115859 -0.379652 -0.623351 -0.124685 0.102927 0.158246
1178 3 -10.3261 28.1181 24.961 -0.511172 -0.243042 -0.500601 0.141547 -0.0245092 0.0268027
1179 1 -12.5123 26.7398 34.9363 0.365397 -0.0730962 -0.0892652 -0.239779 0.152916 0.155571
1180 2 -11.0638 29.7809 30.5166 -0.00445085 -0.307105 1.19435 -0.557936 -0.220966 -0.0206902
1181 1 -11.223 27.7422 32.3958 -1.24034 -2.20226 -0.119324 -0.317657 -0.309386 -0.12166
1182 3 -12.467 28.6352 33.6773 -0.420699 4.03194 1.19547 -0.411078 0.553175 0.513499
1183 2 -13.133 30.1407 21.7663 -0.466106 -0.0490584 0.626413 0.388888 0.895676 -0.155541
1184 1 -13.5997 31.8174 19.8482 -1.14577 1.70987 -1.08458 0.363116 0.668284 0.0508229
1185 1 -13.921 31.4993 23.7331 2.76077 1.09315 1.39707 0.0817247 0.308382 0.689896
1186 1 -12.0552 30.6262 28.2576 -0.516532 0.278795 -0.139601 -0.00312818 0.218449 0.0502491
1187 1 -15.5248 32.2791 26.2893 -0.309542 0.85501 1.21129 0.305461 0.431955 0.576498
1188 3 -13.7624 31.6448 27.4488 -1.46007 0.0850376 -2.06531 -0.187535 -0.0702372 -0.308211
1189 1 -14.3712 30.5282 35.2093 0.501078 0.417354 -0.780463 0.430427 -0.137599 -0.742102
1190 2 -12.8478 32.1723 30.4685 -0.320795 0.324155 0.165376 -0.333944 0.358866 0.14835
1191 1 -12.8958 30.708 32.6845 1.04484 0.175302 -0.148976 0.161461 0.107639 -0.366152
1192 3 -14.5854 31.8918 33.8635 1.24936 -0.823912 -1.76294 -0.051007 -0.0470162 -0.34733
1193 2 6.06664 0.510392 21.9138 -0.170531 -0.40309 -0.550056 -0.174734 -0.197347 0.0461721
1194 1 5.74496 2.32256 20.0684 0.600581 -1.22587 -0.288194 -0.135103 -0.0124359 -0.73627
1195 1 6.58976 1.73829 23.9799 0.270262 -0.377951 -0.153086 0.214168 -0.142271 -0.0305382
1196 1 7.64486 0.864582 28.8834 0.0206795 0.684299 -0.203627 0.0059587 -0.574689 0.0324808
1197 1 4.47515 2.58705 25.9187 -0.69077 0.20464 -0.40745 0.23975 -0.212116 0.126174
1198 3 6.45795 2.06708 27.1425 0.0800914 -0.0939773 0.142357 0.00980344 -0.0747138 0.0655481
1199 3 8.15996 0.5415 25.0972 0.183489 0.0478046 0.0644849 -0.0762755 0.0134616 0.116431
1200 2 7.50779 2.70528 30.588 -0.0411079 2.1025 1.01392 -0.125284 -0.0791172 -0.657975
1201 3 6.6687 3.8045 18.4116 -0.862203 2.93191 0.319079 -1.51973 -0.00164873 -0.128942
1202 1 2.79496 5.556 26.2053 -0.277817 0.163779 0.331792 0.216328 -0.36804 -0.13559
1203 1 4.17362 2.61855 34.9642 0.266646 -0.459919 0.48166 0.0782735 0.0171711 0.0108308
1204 1 5.38053 4.11428 32.1485 0.5651 -0.581518 -0.773527 0.297998 -0.18328 0.147892
1205 3 4.47554 4.32169 33.9727 -1.03581 -0.638737 1.19192 -0.0257312 -0.0566345 0.285007
1206 3 4.75184 6.69337 18.3792 0.889666 4.89219 -5.08275 -0.422818 1.76903 -1.23061
1207 1 1.29115 8.42421 26.7118 0.124174 -0.31849 0.560768 0.153486 -0.169082 0.176923
1208 3 2.81058 7.55402 27.4632 -0.585699 -0.0217607 0.0266129 -0.0328988 -0.00386394 -0.0966547
1209 1 2.71139 4.9701 34.3073 -0.915449 2.50988 0.908359 0.0798362 0.117339 0.350879
1210 3 3.08043 7.01166 33.9751 0.117706 1.17646 -0.864496 -0.122315 -0.397402 0.161436
1211 2 1.24258 8.20625 22.0162 -2.52354 1.51411 0.874625 -0.337461 0.465664 -0.088683
1212 1 1.10561 10.1555 23.8621 1.15287 0.914567 2.57403 0.160091 -0.235658 0.271848
1213 1 3.1933 9.28529 28.8514 0.360848 0.324624 -0.503543 0.0250185 0.0401453 -0.196796
1214 3 1.97786 10.2565 27.7178 -1.03961 2.89647 1.13566 -0.130371 0.25727 -0.0288797
1215 3 2.69356 9.66539 25.289 -0.659517 0.533657 -2.21354 -0.00449568 0.0700542 -0.389625
1216 1 1.62248 7.88198 34.9246 0.162945 -0.390618 0.654569 -0.00685984 -0.076955 0.232723
1217 2 3.06648 10.7919 31.0693 -0.286882 -1.66498 2.08872 0.0556768 0.000753345 -0.17965
1218 1 3.72481 8.80834 32.9935 0.634778 -1.39647 -0.177765 0.106934 0.310513 0.00812479
1219 3 2.16703 9.75922 34.3535 0.0636042 -0.20126 -0.685918 0.0307215 0.0623112 0.0445029
1220 2 -0.273393 11.0735 21.7754 -0.265401 2.64587 -1.60141 -0.0951467 0.422365 -0.0545622
1221 1 -0.153442 13.1699 23.4092 0.204058 1.30939 -0.332079 -0.194895 -0.32031 0.178095
1222 1 1.23738 11.4995 29.0911 -1.37704 -0.789294 6.57139 -0.0359824 0.0117219 0.720983
1223 1 -1.48359 13.7486 26.3951 -0.528455 1.00159 -1.07731 -0.046979 -0.200852 0.200148
1224 3 -0.552961 11.8949 27.4572 -0.163404 0.0159914 -0.180953 -0.0529981 -0.0125091 0.154454
1225 3 1.21756 12.1426 25.0026 0.533507 -0.612296 -0.472083 -0.0129722 0.4129 -0.306144
1226 1 0.332113 10.6482 35.5203 -0.161722 0.0362197 -0.355509 0.149257 0.193458 -0.189666
1227 2 1.5472 13.6735 30.7422 1.58967 0.0327314 -0.367215 -0.324051 0.0789221 0.128481
1228 1 1.34233 11.1202 33.1213 -0.769598 1.44794 0.454305 0.31293 0.41906 -0.310725
1229 3 0.203847 12.5241 34.3899 3.39197 -3.16268 -2.76895 -0.491944 -1.18052 -0.42072
1230 3 -0.162918 13.5976 18.9288 -1.95035 -2.53513 -0.817247 -0.016512 0.00611235 -1.0148
1231 1 -0.285434 13.9735 28.9004 0.655083 -0.88175 0.0680013 0.0702712 0.160835 -0.0733984
1232 1 -3.15686 16.4648 26.3217 -0.392019 0.629425 1.63163 0.195735 -0.160909 -0.383794
1233 3 -1.60066 15.4091 27.6499 0.247741 0.339488 -0.322858 0.10053 -0.128621 0.00745168
1234 3 0.505226 14.0386 25.7172 -0.637791 -0.124832 0.147628 -0.118692 -0.383019 -0.0835154
1235 1 -1.37677 13.4826 35.3542 0.0455301 0.0443196 -0.391936 0.0676615 -0.0799427 0.110752
1236 2 -0.534033 15.6712 31.1132 1.02314 1.11596 2.67069 0.130827 -0.596036 -0.596841
1237 1 0.190781 14.3336 33.0682 0.404431 0.344968 -0.669209 0.109903 -0.228349 0.317084
1238 3 -2.11301 14.8237 33.7549 0.0110258 -0.785338 -0.623108 0.00412072 -0.0991004 0.254931
1239 3 -2.08435 17.9984 18.4614 -0.613342 0.76782 0.653169 0.0136042 -0.0453274 -0.116966
1240 1 -2.0596 16.7325 29.4209 -0.393524 0.197405 2.63449 0.356604 -0.141557 -0.716014
1241 3 -3.22708 17.9417 28.1614 0.436354 0.1832 1.24899 0.100144 -0.0294034 0.00894364
1242 3 -1.4377 17.1801 25.468 0.45336 0.281119 -0.683603 -0.0486087 0.0112542 0.0136505
1243 1 -2.89442 16.2705 35.2089 0.462258 0.381497 -0.743519 -0.0482629 -0.291312 0.151014
1244 2 -1.83689 18.9646 30.8644 0.135635 -1.65563 1.13599 -0.275433 0.653329 0.193975
1245 3 -3.04834 17.9794 34.1351 1.47625 0.42755 -2.51296 0.00894206 -0.143681 -0.156655
1246 1 -4.89542 20.94 19.6627 -1.64846 -1.5375 -1.09513 -1.17406 0.610249 -1.12376
1247 1 -3.80524 19.665 29.4702 0.232974 -0.689129 -0.212428 -0.025019 -0.592926 0.342502
1248 1 -4.54975 18.7025 35.2107 -0.121701 -0.0118387 0.667602 -0.434369 -0.00631908 0.149334
1249 2 -3.56318 21.7791 30.8023 2.23003 -0.970694 0.448975 0.940112 0.014277 -0.0402016
1250 1 -3.26494 19.6691 32.7569 0.600083 0.314711 1.79619 0.6555 0.387858 0.562551
1251 3 -4.63782 20.5417 34.0822 -0.35684 0.47943 -0.286611 -0.0710686 0.125218 0.0546568
1252 2 -6.58639 21.7922 21.5919 0.344754 1.75557 0.939525 0.078288 -0.155671 -0.121744
1253 1 -6.5439 23.445 19.7511 -1.82198 1.25959 -0.689813 0.262201 0.265223 0.297698
1254 3 -4.69781 22.6332 18.5213 2.13065 -2.82014 2.22743 -0.167227 -0.106164 -0.475503
1255 1 -4.7375 22.6239 28.4837 0.16567 -0.1331 0.326633 0.174131 -0.00348819 0.0462293
1256 3 -6.18853 23.2473 26.9755 -0.180237 0.102466 0.826621 0.139193 0.0523491 0.271243
1257 1 -5.86086 21.7499 35.2816 -0.786255 0.0583093 0.245598 -0.150496 0.0561948 -0.0227837
1258 2 -5.36658 24.016 30.5981 -0.295622 0.130704 0.201212 0.114857 0.145045 0.165609
1259 1 -5.26882 22.3202 32.599 -1.30347 0.0315504 -0.53141 0.12997 -0.365546 0.726138
1260 3 -5.69274 23.5618 34.085 -0.292708 0.0996841 -0.350233 0.00895254 0.002755 -0.00172005
1261 2 -8.0005 24.3373 21.7229 2.00203 -1.29047 1.82334 -0.215929 -0.0103518 0.00484714
1262 1 -8.21591 25.7452 19.3874 -1.01075 -0.849425 -0.351563 -0.0032339 -0.115128 0.197252
1263 3 -6.32122 25.2562 18.8628 3.52416 3.35746 -5.44271 -0.446877 0.458288 1.03943
1264 1 -6.64427 24.826 28.097 1.40056 0.439679 -0.952196 -0.0816957 -0.079109 -0.123432
1265 1 -9.55446 27.0182 26.5052 0.585551 -0.454403 -0.160536 -0.159941 -0.0986677 -0.0608491
1266 3 -7.77471 26.4441 27.389 0.641696 -0.0589191 0.741164 -0.00966292 -0.0794021 -0.322119
1267 1 -7.65286 23.7558 34.6881 0.195411 -0.00764679 -0.219718 -0.0766402 0.23905 0.0914277
1268 1 -5.76513 25.2318 32.7236 1.05294 0.953999 0.448539 0.846613 0.360535 0.347903
1269 3 -7.74399 25.4711 33.4485 -0.408372 0.529334 0.513027 0.0125613 0.0126656 -0.0543593
1270 2 -8.66734 26.7743 22.1778 -0.0349541 -1.30141 -0.296177 -0.0185717 -0.0503755 -0.0122291
1271 1 -8.27901 28.5751 20.5544 0.175862 -0.277569 0.534464 0.0449504 -0.0800523 -0.0382593
1272 3 -7.07564 27.5978 19.0389 -4.45989 1.44211 0.263971 -0.724731 -1.1573 0.257579
1273 1 -8.87591 29.0312 23.8728 0.0999448 0.401915 -0.469307 0.0206007 0.15013 -0.073374
1274 1 -7.674 28.0954 28.3116 -0.647233 -1.13047 1.62159 -0.042765 -0.225881 0.293018
1275 1 -10.3737 29.797 26.1028 0.790013 -0.407337 0.535593 0.0570436 -0.084652 0.0102454
1276 3 -9.34638 28.7704 27.5011 0.0111912 -0.580789 -0.320993 0.0440792 0.0565953 0.0869415
1277 1 -9.33444 26.6831 34.711 0.174822 -0.227046 0.342554 -0.0403374 -0.0278131 0.090869
1278 3 -9.57104 28.4848 33.7646 -1.60511 -0.101352 0.418067 -0.0734597 0.0499087 -0.00763732
1279 2 -10.4264 29.3989 21.7397 0.598412 0.271776 -0.0265575 -0.168824 0.0228201 0.0987127
1280 1 -10.9948 31.3017 23.5922 0.380035 0.54268 -0.139603 0.0979862 0.254474 -0.148835
1281 1 -9.08528 30.4525 28.653 0.521463 -0.635127 -0.0826149 -0.214374 0.35046 0.0608513
1282 1 6.40468 0.403314 26.2763 0.509624 0.135141 0.236068 -0.16417 -0.175322 0.151799
1283 3 -9.12599 30.7734 25.2558 0.165957 0.0518437 0.0364297 -0.0482948 -0.0116255 -0.00402363
1284 1 -11.1122 29.3778 34.8967 0.566418 0.516257 -0.209517 0.114681 0.0815782 -0.0983171
1285 2 8.83606 0.300147 21.5337 0.390352 0.0474589 -0.102371 -0.0390239 0.178073 -0.00195211
1286 1 9.13885 2.17349 19.79 -0.118522 0.044821 0.344302 -0.0926493 0.119475 0.183279
1287 3 10.6658 0.997901 18.1038 -0.244482 -0.399707 0.448132 0.288881 -0.214076 -0.102781
1288 1 9.36381 1.75835 23.8689 -0.283844 0.162438 -0.0690152 -0.158602 0.0909675 0.0137815
1289 1 11.0092 0.935816 28.0591 0.0208626 -0.133516 -0.0393888 -0.443801 0.398382 -0.120292
1290 2 10.8533 2.50741 30.2211 0.350647 -0.261307 -0.558399 0.13918 0.249337 0.0344411
1291 2 7.71769 2.77209 21.8485 0.0955904 0.335994 -0.134453 0.00292799 -0.101414 0.0910593
1292 1 6.91907 4.73809 20.3987 -0.319239 1.07962 -0.0793908 0.318264 -0.312078 0.7893
1293 1 7.93364 4.47881 23.7152 -0.670027 -0.653489 0.0700087 0.269582 0.302254 -0.289998
1294 1 9.21731 3.71727 28.8276 -0.047819 0.448095 -0.142449 -0.0650152 -0.20156 0.29092
1295 3 9.53486 3.83152 24.786 -0.247037 0.372074 0.0733667 -0.0830961 0.0312595 0.0797023
1296 2 9.30803 5.17893 30.7726 0.434681 -0.126019 0.0655856 0.0147381 0.113496 -0.0218167
1297 1 9.36161 3.21141 32.2271 -0.14658 0.15547 -0.172261 -0.0220761 0.0665575 0.0161915
1298 3 7.50885 4.33505 33.3285 -0.488115 0.311814 -0.0680917 0.167974 -0.0410774 0.0357372
1299 1 6.06199 7.19688 19.4361 2.22895 -0.980559 -0.0600542 0.31113 -0.553856 1.85711
1300 3 7.46363 6.04479 18.7418 -0.108883 -1.60549 0.208059 1.63319 1.58697 0.705872
1301 1 4.22047 8.54248 26.3153 0.335515 -0.17718 -0.291009 -0.112451 -0.146222 -0.00672441
1302 1 6.05635 5.27582 34.7 -0.103083 -0.254273 -0.187303 0.00415793 -0.339738 0.617355
1303 3 6.4427 8.91579 18.2407 -0.845842 -6.79947 -1.8331 0.523446 -0.214107 -1.05087
1304 1 4.49839 10.1466 24.1672 2.93052 -2.35902 -0.574988 -0.445734 0.499292 -0.253723
1305 1 6.15377 9.26126 28.9282 -0.297177 -0.0828343 -0.00734936 -0.00179695 0.0116758 0.129938
1306 1 2.9678 11.2977 26.2849 -0.359763 -0.0767106 1.01385 -0.138804 0.0377806 -0.0339789
1307 3 4.56869 10.0283 27.4902 0.0619631 -0.301517 -0.0327798 -0.0714144 0.0237986 -0.0138086
1308 3 5.25677 11.5582 17.9604 6.41392 2.70347 -1.49297 2.41181 10.2362 9.12772
1309 3 4.56075 11.9324 25.056 0.605293 -0.522834 -1.44545 0.00901365 -0.0760884 -0.216397
1310 1 3.33985 10.868 35.4613 0.39385 0.634412 0.308981 -0.0930106 -0.447164 -0.39562
1311 2 5.01771 12.9615 30.2957 -0.785948 -1.36322 1.60142 0.869863 -0.889118 0.185312
1312 1 5.67095 10.8026 31.4251 0.499104 1.21353 -0.0969764 -0.338558 -0.124383 -0.269658
1313 3 2.72278 12.1262 34.1279 -4.77263 -1.68464 -3.71349 0.314954 0.254615 0.221723
1314 1 1.00604 14.9292 19.6575 2.37468 2.47287 2.70697 -0.340517 0.116433 -0.0971203
1315 3 2.80023 14.1623 18.5916 6.9541 -2.95251 2.5567 -0.220262 -0.573932 -1.24695
1316 1 1.45239 14.9169 24.108 -0.0192082 0.0341352 0.389278 -0.0977516 -0.0583333 0.29617
1317 1 3.03524 13.9494 28.3711 0.589169 0.286895 0.357068 0.32421 -0.382844 -0.345358
1318 1 0.134642 16.1496 26.5593 0.360534 0.328994 -0.250044 -0.309297 -0.0250229 0.092735
1319 3 1.03946 14.6412 27.7569 -0.0653299 -0.368166 -0.436832 0.138665 -0.0770526 -0.0256785
1320 1 1.57669 13.3803 35.1895 0.114791 -0.72141 0.524932 0.342904 0.138841 0.508834
1321 2 3.73956 15.3693 30.8534 -1.35547 -7.34045 -7.33117 -4.02245 0.761625 1.82126
1322 1 3.42116 12.9734 32.3921 -0.162604 -0.213267 -0.452422 -0.281707 -0.491886 -0.237133
1323 2 0.296341 15.3905 22.011 1.43484 2.05749 -0.654233 -1.42469 0.355057 0.702721
1324 1 -0.928753 16.9534 20.1235 -4.68855 0.760789 2.0788 1.24075 0.875094 0.937168
1325 3 0.845872 16.5398 18.4459 3.6136 2.42464 0.883481 -0.323615 1.81494 0.988534
1326 1 -0.60018 17.2216 23.4781 1.21915 0.706565 -0.759082 -0.204109 0.312417 0.050472
1327 1 1.38262 16.0313 29.6 1.09513 -0.637548 -0.49684 0.060394 -0.79955 -0.462366
1328 3 1.15058 16.6808 24.8508 0.640139 -1.52485 0.262621 0.0164888 0.265613 0.166688
1329 2 0.358737 18.072 31.4904 -2.69764 -2.68113 -1.2854 -0.0870456 0.475576 -0.240351
1330 2 -2.43738 18.2828 21.7811 -3.41457 -0.500034 0.950842 -0.0208337 0.201332 0.18313
1331 1 -1.953 19.6245 19.6717 -0.663554 0.871567 3.13985 0.821211 1.67582 1.32963
1332 1 -2.32823 19.9617 23.74 -1.08894 0.425626 -0.379334 -0.776136 0.0142581 0.098439
1333 1 -1.73009 18.6739 35.4967 0.530213 0.688966 1.11853 -1.02447 -0.621231 -0.236199
1334 2 -1.11071 22.1932 30.4694 -3.35846 0.136872 -0.711582 -0.884309 -0.387832 -0.490505
1335 1 -0.201887 20.5706 32.2359 0.234573 -0.817111 0.0457568 -0.725416 1.04563 -2.37934
1336 3 -1.81841 20.6144 34.0596 2.52677 -1.44545 0.220938 -0.489195 0.185464 -0.509401
1337 2 -3.71064 20.8141 21.8116 -2.01181 1.66667 0.592819 0.0663022 -0.160332 -0.258659
1338 1 -3.77736 22.9684 23.6781 0.975565 -0.746056 0.367765 1.48543 0.195079 -0.30624
1339 1 -5.09805 24.6582 25.8745 -1.2113 1.83995 1.00093 0.31762 0.0761819 -0.0421458
1340 1 -3.04427 21.0028 35.7857 -0.229737 0.331069 -0.791921 0.164956 0.220475 -1.07114
1341 2 -2.22904 24.6464 30.8201 -3.73008 1.20034 0.47941 0.436192 -0.179417 -0.21329
1342 1 -2.33805 22.4562 32.9038 -1.02583 0.384766 -1.548 -0.0525063 0.444436 -0.577078
1343 2 -5.41578 24.3237 22.2363 1.38687 0.675378 0.0130098 0.332367 -0.113837 0.131388
1344 1 -4.12453 26.1844 23.4182 -1.07029 0.800275 0.0457525 0.515222 -0.311032 -0.139019
1345 1 -4.00407 25.3569 29.0121 0.238832 -0.00726409 1.06192 0.337323 0.208291 0.210042
1346 1 -6.2631 27.1947 26.1135 2.09741 3.71296 3.37923 -0.264296 -0.181924 -0.219293
1347 3 -4.8797 26.1739 27.3027 -0.444401 0.835967 0.541389 0.255368 -0.0294356 -0.283868
1348 3 -3.27546 25.0058 24.9361 1.57961 -1.68849 0.698071 0.106743 0.0609817 -0.122526
1349 1 -5.81555 29.0522 19.6197 -0.879446 0.248456 0.479446 0.230581 0.0386808 0.576962
1350 3 -4.57911 28.3718 18.1628 1.14311 0.156601 -0.286339 -0.205199 -0.371247 -0.228605
1351 1 -4.46406 28.1682 28.4114 1.1644 -0.955178 -0.457958 0.301288 0.239657 0.0461782
1352 3 -5.99138 28.7057 27.4476 -0.0188054 -0.287322 -0.181496 0.171703 0.727751 0.264298
1353 3 -4.42276 27.5409 25.0598 -1.54887 0.842017 1.25255 0.653082 -0.0816756 0.0478767
1354 1 -6.4826 26.7444 34.6317 0.128182 0.436152 0.465817 -0.10746 0.0528582 -0.0194699
1355 3 -6.36 28.7644 33.4649 -0.691453 1.2134 -0.729891 -0.0143709 -0.0420081 -0.12733
1356 1 -8.05224 31.7125 19.6262 0.455125 -0.0910068 -0.296898 0.0442199 -0.0282855 -0.633472
1357 3 -6.73695 30.7581 18.5393 -1.54885 -3.96611 -3.34666 0.768152 1.18084 0.689645
1358 1 -6.18517 30.6542 28.1768 -0.471393 0.8262 1.39411 0.280526 -0.186677 -0.00672607
1359 3 -7.91496 31.3685 27.1942 -0.661816 2.37793 0.535239 -0.187595 0.786884 0.180633
1360 1 -7.73315 29.4569 34.6751 0.929107 0.0335032 -1.90838 -0.316652 0.0121347 0.40855
1361 2 -5.81002 32.214 30.1923 1.25871 0.194759 -0.213492 -0.285459 -0.0953108 0.00457975
1362 1 -6.37064 30.7694 32.2419 -1.62584 1.36206 -0.246401 0.222385 0.328624 0.235813
1363 1 12.2083 1.8334 19.1455 -0.400886 0.164521 0.863082 0.0469607 0.347879 -0.0944137
1364 3 13.722 0.869858 18.0069 2.68286 -1.74361 1.08762 -1.50421 -0.834788 1.18338
1365 1 10.4731 3.09024 26.3129 -0.113065 0.39919 0.223257 0.001989 -0.043926 -0.0757257
1366 3 12.0004 1.80568 26.3577 0.505824 -0.68367 0.030843 0.0202196 0.0309375 0.0265505
1367 1 12.59 0.190513 34.5968 -0.289624 1.5657 0.638653 -0.0107988 -0.537037 -0.143462
1368 1 14.0948 1.07434 32.3313 -0.705663 0.66044 0.804348 0.108361 -0.0452222 -0.259432
1369 3 13.7177 1.83443 34.0978 -0.816721 0.216542 -0.619323 -0.387128 0.484977 -1.01384
1370 1 11.0592 4.77519 24.0658 -1.4257 1.4797 0.956495 -0.00655688 0.0270155 -0.116145
1371 1 9.36308 5.83529 26.2997 -0.719554 0.521792 0.640916 0.104165 -0.256273 0.020907
1372 3 10.488 4.84395 27.5459 0.445335 0.623794 -0.749321 0.367129 0.228898 -0.347014
1373 3 12.3718 3.93413 25.7095 0.528593 0.0588101 -0.578817 0.0332855 -0.00957929 -0.0515459
1374 1 12.8311 3.64295 34.06 1.51997 -0.0636378 -0.0688583 -1.17089 0.295051 -0.339776
1375 2 12.6329 5.20215 30.6757 0.541571 -0.211891 0.325368 0.128707 0.399896 -0.124016
1376 3 10.6431 3.76346 33.774 0.779704 1.40564 0.375396 -0.300203 0.215065 0.0643858
1377 2 9.33191 5.51171 21.9074 0.0028035 -0.440051 0.0764978 0.0126553 0.00958026 0.0343285
1378 1 9.07347 7.03322 20.0725 -1.15486 -0.219311 -1.35009 -0.493252 -0.706525 -0.0490201
1379 1 9.75577 7.31053 23.5739 0.587004 1.15644 0.26837 -0.20303 -0.257644 0.141521
1380 1 10.9491 6.21713 29.1983 -0.0878676 -0.272281 0.940853 0.13258 0.403325 -0.401401
1381 3 10.3482 7.5641 27.6862 0.401993 -0.277188 1.39839 -0.21355 -0.0300774 0.473138
1382 3 10.9887 6.45445 25.1655 0.257126 -0.239975 0.69708 0.171286 0.119224 0.159892
1383 1 9.20605 5.27332 34.5406 -0.266614 -0.524585 0.623719 0.049397 0.0623864 0.259056
1384 2 11.6637 8.22901 30.6256 1.82816 -2.06555 0.0716885 0.34412 -0.289169 0.0600712
1385 1 11.0797 5.94941 32.4952 -0.169082 -0.0699253 0.162201 -0.164616 0.183611 -0.197448
1386 3 9.52074 7.14921 33.6365 0.0167604 0.845536 1.93529 -0.0946184 0.255275 -0.166987
1387 2 8.29246 8.6082 21.7751 -0.1003 -0.026113 1.58896 0.120247 0.0231124 -0.0510462
1388 1 7.7448 9.75478 19.4607 -0.67153 0.103937 1.9281 0.333191 0.284134 -1.30606
1389 3 9.49622 8.44284 18.8219 5.56456 1.46751 2.90532 -3.07954 -0.746863 -1.37222
1390 1 7.59789 9.79302 23.8065 0.268478 0.0084387 0.144146 0.19786 0.56466 -0.104482
1391 1 9.18484 8.48122 29.3745 1.43463 0.8118 -1.66878 -0.279251 -0.0437658 0.288052
1392 1 6.17007 10.9739 26.5158 -0.357818 -0.33417 0.0634512 0.0380085 0.197734 0.0473436
1393 3 7.85961 9.53502 27.7667 -0.517144 -0.572652 0.16924 0.163387 0.0312422 -0.211913
1394 3 9.32783 8.94785 24.7368 -5.75936 -2.93466 2.93195 0.12653 0.171135 -0.14739
1395 1 7.78509 7.9788 34.8015 -1.5693 0.169162 -1.07784 0.417734 0.201565 0.182688
1396 2 10.1004 10.699 30.769 1.24988 -0.551494 0.541381 0.0337305 -0.18555 -0.356717
1397 1 9.42628 9.07495 32.6644 0.280895 -0.675972 -0.678143 0.0741709 0.452898 0.00650714
1398 3 8.14206 9.93393 34.0966 0.0981202 -0.64808 0.073781 0.0498135 -0.174191 -0.107143
1399 2 6.74834 10.9947 21.6326 0.618003 -3.46012 -2.25211 0.868891 0.670715 1.52003
1400 1 6.73201 12.4513 19.3466 -0.0191766 1.5756 0.594582 0.449441 -0.928363 -1.49725
1401 3 8.06661 11.6208 18.1732 -0.869082 -0.14332 -0.130024 0.664743 0.220849 0.590536
1402 1 6.26667 12.403 23.7633 -0.0910211 0.558357 -0.0787857 0.563065 0.613291 -0.240278
1403 1 8.54815 11.0574 28.7576 -0.225896 1.16108 0.31643 -0.315079 0.103009 -0.117065
1404 3 7.66273 11.5184 25.054 -0.330138 0.615958 0.128744 0.0249043 0.273216 0.0669183
1405 1 6.18083 10.3569 34.7815 -0.439816 -0.0758526 0.0273908 0.105858 0.123327 -0.0701319
1406 2 8.00337 12.4529 30.6355 0.693209 -0.160732 0.0101152 0.234552 0.177132 0.203564
1407 1 8.15662 11.2632 32.6612 0.677498 0.78994 -0.547279 -1.07672 0.0686002 0.298187
1408 3 6.375 11.3548 33.12 0.00838239 0.106208 0.0293772 -0.348767 0.242492 0.103732
1409 1 4.24106 14.7736 20.0343 1.17486 -1.59532 -1.13955 1.1993 0.536151 -0.565194
1410 3 5.85572 14.334 18.7341 -1.29377 -1.18288 -1.31037 0.361547 -1.28221 0.968319
1411 2 6.4286 15.163 31.2485 0.155278 -7.02394 3.01629 -3.86637 1.40737 0.86956
1412 1 5.98575 13.1814 33.0218 -0.0150552 1.52306 0.580011 -0.212734 1.94878 1.17656
1413 2 3.22718 15.5925 22.2975 -1.84839 0.577056 1.85007 0.111363 -0.665695 -0.274932
1414 1 1.78429 17.5964 19.6051 3.48516 3.82984 1.80761 3.19122 2.354 0.13067
1415 3 3.79859 16.7238 18.7279 -1.92484 1.97231 -4.56411 1.72715 2.6612 -1.14226
1416 1 2.52899 17.8208 23.876 -4.02331 0.934351 -0.835671 -3.28755 -1.52111 -2.8111
1417 2 3.1133 17.6751 31.3009 -2.69087 -0.576339 6.43279 -1.60193 -4.61296 -1.97878
1418 1 3.31776 15.2876 33.3886 -1.98834 -0.663884 1.68286 0.898043 0.449047 -1.41694
1419 2 0.319668 18.6661 21.3643 -0.290804 3.27873 -3.70027 0.769522 -2.21132 0.463705
1420 1 0.254561 20.0534 23.4494 1.62446 1.7267 -1.0616 0.886598 0.0180338 0.258321
1421 3 1.81651 19.6241 24.8228 0.288664 3.12383 3.91244 -0.687705 0.433744 -0.272612
1422 2 2.0319 19.8816 31.1666 -6.4816 5.79633 -4.97262 2.41831 1.11324 1.55796
1423 1 1.79961 18.6038 33.4305 1.52892 -3.08802 -3.69392 -0.773574 0.917518 1.40921
1424 3 0.929658 20.8737 34.0724 2.19742 5.88988 -4.31168 -0.762099 2.18338 -1.9625
1425 2 -1.15951 21.0576 21.5337 -0.764413 3.07947 0.376815 -0.600811 -1.00078 -1.38973
1426 1 -0.73248 22.6943 19.5402 0.836304 0.322908 5.68717 0.871741 0.608898 1.57346
1427 3 0.849939 21.8689 18.1752 6.55136 -8.37314 -3.48464 3.15782 -1.09311 0.379817
1428 1 -0.427009 22.8122 23.2035 2.40024 1.0146 1.37281 -1.66707 -2.36002 0.366199
1429 1 0.44663 22.1198 28.5053 -2.35224 0.0758471 1.21097 0.789087 0.896535 0.137658
1430 1 -0.643112 22.054 35.1785 2.2766 -0.852186 3.08552 -1.00758 -1.97133 -0.350611
1431 2 0.227015 24.2602 30.0398 2.52455 2.16577 0.20239 -0.505475 -1.37621 -2.13481
1432 1 -0.0510843 23.4898 32.336 1.85559 -1.59056 -0.0466342 0.471141 -0.183979 -1.71832
1433 3 -1.12383 23.7168 33.9558 20.3477 -1.35724 12.6508 0.0152816 0.974666 -1.36149
1434 2 -2.32256 23.4465 21.5478 0.72294 0.501867 -0.435796 -0.237534 0.370373 0.294241
1435 1 -1.89047 25.0635 23.4144 1.92495 -0.933065 -2.81882 0.375724 0.357578 -0.437572
1436 1 -3.03809 26.9178 26.2458 0.965439 0.399701 0.937749 0.295532 -0.381065 0.00815958
1437 1 -1.77672 25.6364 33.1085 0.533425 3.24213 -5.72715 -0.339269 -1.48731 -0.751026
1438 2 -4.19995 27.9338 21.5302 -1.0728 0.95044 0.0315023 0.423463 -0.405216 0.00910243
1439 1 -2.91144 28.4348 23.7519 0.503223 -0.889535 -1.03711 -0.423725 0.307584 -0.187612
1440 1 -4.87174 29.6077 25.8103 2.97454 -0.798753 0.990964 -0.126566 -0.393545 -0.0887758
1441 3 -3.4054 28.9838 26.8589 -1.77778 -1.94762 0.659818 0.289034 0.112382 -0.0528916
1442 3 -1.2545 28.0567 25.0986 -0.831573 -0.371185 -1.89844 -0.741838 0.682545 -1.04929
1443 3 -2.98223 29.2375 33.637 0.544544 -0.363644 0.374487 0.098839 -0.0545467 0.00688316
1444 1 -4.88122 31.6581 19.4238 0.379062 -0.601565 0.177432 0.362059 -0.148317 -0.229957
1445 3 -3.34702 30.9597 18.3458 3.18908 1.75124 -1.90147 -0.504761 1.16665 -0.430572
1446 1 -2.61067 30.3471 28.1985 -0.24915 -0.715528 -0.84076 0.395078 -0.10398 -0.184837
1447 3 -4.34555 30.895 27.3762 0.265043 0.699784 -0.369157 0.327545 0.200812 -0.182208
1448 3 -3.31329 30.3825 24.4624 0.16371 -0.410356 -0.417801 -0.540307 1.10053 0.783746
1449 1 -4.73936 29.5227 34.5725 0.0899959 0.765697 -0.356723 -0.0226787 -0.143928 -0.00732456
1450 2 -2.88956 32.1465 30.3425 -1.96449 0.49761 0.037714 -0.331042 -0.184058 -0.0850625
1451 1 -3.19637 30.859 32.4543 -0.11013 1.03346 1.15311 0.0837338 -0.260953 -0.207052
1452 3 -4.88364 31.3763 33.3507 -0.816034 -0.781219 0.590644 0.385159 -0.028004 0.309236
1453 2 15.2424 0.376098 21.5402 0.287467 -0.655332 -0.0128129 -0.0502748 0.0498979 0.00330379
1454 1 15.4143 1.90243 19.5734 0.373515 -0.801995 0.270709 0.147683 0.264976 -0.468423
1455 3 16.8791 1.02522 18.5674 1.29221 1.41248 -2.53281 -1.84275 1.38327 -0.217083
1456 1 15.8019 2.10936 23.8106 -0.571752 -0.802576 0.0882972 0.580211 -0.960499 0.381901
1457 1 17.1205 0.827193 28.345 0.525348 -0.344173 -1.09763 0.0262122 -0.0912412 -0.137538
1458 3 16.5213 0.544931 24.6635 2.94178 1.27484 2.31194 -2.45064 -0.892446 -3.41126
1459 1 16.9811 0.892989 32.5105 0.313193 -1.28496 1.31273 0.222933 0.0625335 -0.102502
1460 2 13.5974 2.4992 22.8073 -0.00822013 0.504048 -0.545667 0.180452 -0.050815 0.199139
1461 3 15.4796 3.72187 18.5881 1.49661 -1.39922 1.64981 0.146795 0.462122 0.205621
1462 1 13.9449 4.59377 24.3099 1.16431 -0.32392 0.259145 -0.101798 0.0778482 -0.0476307
1463 1 12.3047 5.67583 26.6322 1.2946 -0.337263 2.03328 0.341136 -1.0789 0.0271309
1464 3 15.6511 3.78571 25.1218 -3.64171 3.56487 3.87019 -0.335758 0.626429 0.685214
1465 2 12.5604 4.89609 22.0841 -0.217198 -0.134236 0.262255 -0.0643171 -0.00784957 0.0442084
1466 1 12.572 7.35355 23.8163 0.731417 1.40276 -0.92605 0.0638233 0.292157 -0.213989
1467 3 13.8913 6.53751 25.4424 -0.285139 -0.109699 -0.419947 -0.499952 0.0657438 -0.323666
1468 2 14.34 7.84527 30.1223 2.28674 0.0517916 1.25281 0.774077 0.186273 0.346229
1469 1 13.6102 6.93091 32.328 -0.382781 0.312837 0.0045979 0.076257 0.285308 0.0866691
1470 3 12.4365 7.15085 34.0264 -0.537475 0.314104 -0.0313057 -0.00762725 0.150873 -0.106644
1471 2 11.1511 8.20787 21.6255 -1.03662 0.404093 -0.332747 0.116905 0.029333 0.112529
1472 1 10.8463 9.79318 19.501 -1.51799 0.016042 -1.03767 -0.0539364 0.672879 0.679742
1473 1 10.8771 9.80535 23.7569 -1.7364 1.26648 0.979651 -0.283203 0.124023 0.185625
1474 1 8.9567 10.3188 26.1369 -0.14391 -0.594006 0.55677 0.577185 0.648808 -0.238409
1475 3 12.6041 9.32519 24.5138 -0.036154 0.911181 -0.650928 0.0431918 -0.00359163 0.00985424
1476 1 10.6839 7.73246 35.0576 -0.195982 0.113258 -0.378763 0.33374 0.113944 -0.0430682
1477 1 12.191 8.92438 33.0157 -0.66694 0.406267 -0.570512 -0.0473382 0.069919 -0.32683
1478 3 10.725 9.51411 34.2177 -1.79368 -0.493489 -1.12772 0.0013963 0.440472 -0.0573003
1479 3 10.3381 11.5393 18.3211 -2.44033 0.824441 1.18356 -1.24184 -0.275336 1.26015
1480 1 9.4203 12.07 23.9389 1.06432 0.0631765 -1.25227 -0.168462 -0.18659 -0.0868828
1481 1 8.04842 13.1464 26.1954 0.990974 -0.997738 -1.43148 -0.334982 -0.254224 0.487416
1482 3 9.3017 12.0276 27.1608 2.93156 -4.38732 -0.407802 -0.3051 0.0694591 -0.105658
1483 3 10.8588 10.7764 25.6247 -1.37966 3.49007 2.25022 -0.146165 -0.735559 -0.474793
1484 1 9.43272 10.4726 35.5187 -0.00121009 0.402608 -0.118163 0.0734799 0.22949 -0.0677031
1485 2 8.19933 12.9069 21.5449 1.33783 3.54967 1.63488 0.210556 -0.156274 0.0103303
1486 1 7.49631 14.9259 19.9945 -3.24312 -1.74335 0.204879 -0.540163 -0.771487 -1.0657
1487 1 7.86099 14.717 23.2287 -0.282009 -0.817313 -0.052264 -0.424639 -1.03598 0.0238213
1488 1 9.28977 13.536 28.5959 1.29807 1.81621 1.77111 0.139519 0.622196 -1.20379
1489 3 9.50822 13.8173 24.9952 -0.743136 -0.216867 1.54062 0.150254 0.0267204 -0.840889
1490 2 8.99227 14.9536 31.0262 -0.608788 -2.14682 -1.071 3.00421 -0.935895 -1.03522
1491 2 6.19839 16.0754 21.7344 2.66082 1.17248 -4.829 -1.66966 -2.37065 -0.796998
1492 1 4.18982 17.4681 20.7905 8.2371 -0.170787 -0.155589 0.533399 5.38101 1.88215
1493 3 11.7079 18.2282 15.3776 6.40752 -1.86793 -9.58094 0.705276 0.382785 0.889429
1494 1 8.90864 17.1016 22.1785 2.61957 -5.25926 3.14038 0.175462 0.962021 1.54401
1495 2 9.63291 23.0937 22.9392 -3.41493 -2.73453 14.7948 -0.822961 3.78207 -5.58812
1496 1 7.87226 15.5261 33.3693 6.40711 -2.75222 -4.35024 0.903253 1.61083 3.90912
1497 3 3.91804 15.9549 35.2036 -1.29871 -1.33762 -1.10819 -0.847395 -0.631404 0.301733
1498 2 4.03563 20.09 21.5217 -1.1306 3.54713 -4.31135 5.56963 -0.339167 -5.0251
1499 1 1.50859 21.0208 21.2455 -0.483462 2.58496 1.19023 -1.07995 -2.93832 3.47215
1500 1 14.8858 23.1208 16.8924 -5.07909 -3.37755 1.69426 0.105069 2.74893 1.78248
1501 1 2.27557 21.292 24.5201 -9.07807 -0.99999 -3.68957 5.36646 0.537678 1.84059
1502 3 10.9337 19.5324 29.6165 25.5719 4.26903 -8.8893 -3.40427 4.38414 4.18025
1503 3 5.0729 20.0927 19.6612 -7.42771 13.2927 8.86178 0.391614 -1.8282 2.04218
1504 2 4.64613 17.4055 25.6889 -1.77887 -1.59797 2.39478 0.960982 2.83307 -2.26282
1505 1 3.6821 17.0133 28.3375 -1.65607 1.50431 2.87611 -1.99172 -0.616273 -0.31506
1506 1 4.17257 27.2859 31.4133 14.3917 22.1226 -14.0182 -0.373607 -0.17538 -3.45654
1507 1 0.0603162 24.3127 26.062 6.34651 2.40922 -2.89033 -0.80574 -1.69606 -0.85362
1508 3 1.26674 24.1392 28.3078 -2.28055 -0.674313 -1.82335 -0.513204 -1.08103 -1.47695
1509 3 1.37644 21.9375 23.1318 -3.12102 -4.12466 3.06773 0.699488 1.09835 -0.661325
1510 2 0.11787 25.0759 21.0972 -7.67709 -2.22777 -0.505997 -8.12582 1.3301 0.848782
1511 1 1.62703 26.0828 18.8639 1.01543 2.4983 12.0025 4.19255 -0.70056 5.56513
1512 3 3.25848 27.2086 18.1439 7.92312 21.0885 3.01338 2.45148 -2.66496 1.83905
1513 1 0.155105 27.0656 23.9484 -0.223468 0.0565317 0.494485 -2.0126 -1.3663 -0.463098
1514 1 2.76811 23.1281 26.8561 -3.37454 2.86535 -7.08357 -3.15282 0.960762 2.63647
1515 3 0.766199 25.9787 25.3737 -3.46328 2.88575 3.4876 1.97776 1.84506 -1.60169
1516 1 0.0689653 25.065 34.9971 7.10818 3.23146 3.70993 4.82339 0.115034 3.27267
1517 2 1.41095 27.6084 30.4333 -4.1925 -2.18788 -6.9388 0.292921 1.50099 1.65386
1518 1 1.27998 25.6343 32.1705 2.28861 -18.301 -0.940719 6.40704 -3.78624 -1.92605
1519 3 0.27865 26.6534 33.5006 -1.8019 -0.371235 -1.11015 0.916303 -0.178683 -0.116671
1520 2 0.383126 27.8533 21.5094 -2.60473 -1.43156 -0.405419 -2.59821 -2.72281 1.00472
1521 1 0.20571 29.0344 19.1367 1.7595 2.33636 -0.780236 0.0707156 0.126485 -0.55969
1522 1 -0.560729 29.4344 23.0804 0.48267 -0.808416 -0.490053 -0.360163 -1.06826 0.866054
1523 1 -1.71838 29.9612 25.7272 -1.27052 -0.105031 -0.883007 -0.965061 -0.0306999 -0.226535
1524 3 1.34189 28.4844 23.115 0.0189906 -11.3685 2.3823 0.81527 3.14526 2.20299
1525 1 0.771291 28.5574 32.5122 2.61357 -2.66208 1.88157 -3.05278 2.18124 0.38108
1526 3 -0.264676 29.6691 33.4622 -0.46135 -0.165976 -0.957088 -3.43308 -0.252674 -1.4099
1527 2 -1.85419 28.7628 20.8979 -3.50754 0.692393 -1.4748 0.585424 -0.117979 0.270856
1528 1 -1.93523 31.22 19.8061 -1.71952 -1.54906 -0.844283 -0.435157 0.240733 -0.0197504
1529 3 -0.34738 30.8727 18.5343 0.79904 -0.600532 -0.992395 -0.426147 -0.223726 -0.0100943
1530 1 -1.94436 31.5471 23.2433 0.399245 -0.964503 1.2233 0.169133 0.26139 0.471151
1531 1 -3.60863 32.1235 25.9302 0.200218 -0.335477 -0.171961 0.278334 -0.278613 -0.183772
1532 3 -1.89109 31.7481 26.7949 0.193 -1.29613 4.74328 0.389509 0.155339 0.623744
1533 3 -0.472712 31.1057 24.4904 -2.21215 2.07355 0.270988 -0.100155 0.416147 -0.318278
1534 2 -0.277439 32.0761 30.1737 -1.73871 -0.159872 1.45553 0.282985 -0.0950206 0.498681
1535 1 0.018348 31.278 32.5066 1.91104 -1.90581 1.28284 -1.4698 -0.0443174 0.303182
1536 3 -1.7512 31.4169 33.4965 -0.0426502 -1.0613 1.43015 -0.0753592 -0.0844053 0.183177
1537 1 16.9433 3.74249 26.4958 -0.894698 0.553155 0.00903167 -0.517001 1.43725 0.481954
1538 3 18.0652 2.37438 27.0403 -1.11281 -1.23319 -2.24218 -0.120444 -0.0831778 -0.0939321
1539 3 19.982 1.43579 24.5816 -0.991462 5.0827 6.65008 -0.337665 -1.01747 2.18218
1540 2 18.2512 2.32658 30.6336 -0.529048 -0.888231 -0.210791 0.221339 0.242062 0.1166
1541 1 19.6403 1.67311 33.0046 1.02202 0.3322 0.194304 -0.5247 -0.106851 -0.541503
1542 3 18.0289 2.23488 34.0729 0.232616 0.0358498 1.10448 -0.275723 -0.0266008 -0.09304
1543 2 16.5994 2.99839 21.6521 0.407953 1.19054 0.14129 0.24129 0.172405 0.0633501
1544 1 16.6628 4.9772 20.0175 0.904096 0.0591832 0.916119 0.29516 0.319777 0.213577
1545 1 17.0128 4.77577 23.7017 -0.22548 0.305252 -0.0141807 0.0969168 0.0268287 -0.0104232
1546 1 18.5027 3.78815 28.5952 -0.691971 -0.0499425 0.433546 0.0305739 0.0696168 0.139967
1547 1 15.6822 6.01782 26.3534 0.249177 -0.154015 0.0541873 0.261815 -0.523731 0.140881
1548 3 16.3519 4.82576 28.0497 -0.348374 -1.34914 0.106927 -0.418608 0.000255146 0.607708
1549 3 18.4484 4.58903 25.2109 1.66011 -3.11288 2.92741 0.18375 -0.025941 -0.0268846
1550 2 18.9618 5.42768 30.6513 0.547356 0.178994 0.00554726 -0.0773797 -0.170963 0.0814488
1551 1 17.6564 3.75432 32.7257 0.630661 0.675608 -0.700502 0.191975 -0.236081 -0.0138726
1552 3 16.3628 4.97505 33.7669 0.666549 -0.425011 0.754137 -0.00399346 -0.149265 -0.0297907
1553 2 15.2739 5.71486 22.0141 -1.01681 0.418135 0.0599612 -0.132536 0.022446 -0.0141322
1554 3 16.5638 6.62417 18.6057 -3.14748 -2.73445 1.75897 -1.398 0.986883 -0.751913
1555 1 15.3675 7.55085 24.0112 -1.07207 0.220724 -0.692835 -0.0661529 -0.0742782 -0.156969
1556 1 17.402 6.31832 28.8936 0.735952 -1.24715 0.126563 0.0317007 0.0157688 0.0136353
1557 3 16.9579 7.59742 27.1668 1.74615 0.116167 0.151954 0.232909 0.0271491 0.0174223
1558 3 16.9966 6.6283 24.9696 0.0830012 0.430013 0.105879 0.0472004 0.163095 -0.0545104
1559 2 17.5003 8.28802 30.4141 -5.04198 0.211214 0.917754 -0.249792 -0.0756194 0.138488
1560 1 17.0427 6.36475 32.2051 1.01665 -0.562357 -0.109974 -0.286482 -0.162452 -0.125047
1561 3 15.4658 6.9812 33.6354 -0.372659 -0.313891 -0.122096 -0.0207897 -0.00826042 -0.105711
1562 2 14.416 8.50912 21.7338 -0.920066 0.0469144 -0.0884646 0.0905696 -0.16002 0.0354078
1563 1 13.5205 10.1701 19.9691 1.49084 0.740347 -1.80298 -0.58215 0.0635241 2.18668
1564 1 13.7592 10.4346 23.312 1.36315 -0.688357 -1.45124 0.0454025 -0.0341853 -0.545803
1565 1 15.9511 8.67392 28.3519 1.06099 -0.063696 0.585235 0.292979 0.170914 0.114598
1566 3 14.9985 9.59615 24.6873 1.06779 -1.58715 0.953514 0.0463137 0.304169 0.321115
1567 1 14.1543 7.62694 35.1755 0.272 1.16808 -1.38253 -0.0155407 0.0619237 -0.124884
1568 2 15.6725 10.3658 30.4742 -2.58364 3.12097 -0.253269 0.0875402 0.343787 0.0843036
1569 1 15.5834 8.79345 32.5966 0.667905 -0.0789418 0.908307 -0.36553 0.267952 -0.22622
1570 3 13.905 9.73229 33.8894 0.68859 0.0617731 0.884354 -0.245826 -0.131522 -0.220375
1571 3 13.8852 10.9895 18.1429 3.28448 1.57741 -4.31994 0.685566 1.14825 -0.617569
1572 1 11.0244 12.7033 26.3247 -3.1533 3.52691 -1.78436 -1.49975 -0.673445 0.489101
1573 1 12.0879 11.036 34.556 -0.690415 -3.34308 -0.432712 0.105446 0.0345319 -0.465208
1574 1 14.4396 11.4163 32.5852 -0.0641358 -0.0568993 -0.258141 -1.33662 -0.0203121 0.267254
1575 3 12.953 13.7735 18.593 -4.52932 0.618895 1.55988 1.25435 -1.31321 -1.16553
1576 1 11.3923 14.1188 23.9003 -1.78112 -0.502538 0.00730783 0.637823 0.889894 2.14245
1577 1 12.3924 13.3884 29.3576 0.539093 -0.190582 -0.0342673 1.6323 0.906796 -0.466709
1578 3 11.1582 14.253 27.6515 -2.4594 -0.592242 0.301765 0.272752 0.568044 1.5163
1579 3 12.7261 13.105 25.37 1.04343 0.852778 1.27043 -0.115171 -0.155937 -0.454545
1580 2 12.5883 14.2485 31.6216 3.36807 -3.50311 2.1386 -1.08106 -0.701619 0.0820179
1581 2 9.62801 14.8662 21.2267 1.68467 -1.49528 -0.740322 0.902686 -1.51172 -0.44539
1582 1 9.99776 16.0654 19.0281 -1.15537 -1.08546 -1.74576 -1.01028 -2.01045 -3.71837
1583 1 11.3416 22.5406 19.478 4.62788 -4.88627 -1.8103 3.9162 0.164839 1.51064
1584 3 11.8021 15.7757 24.9107 3.93202 4.16198 3.77593 0.694777 2.57833 1.51661
1585 2 5.00913 15.5047 26.8078 7.63097 4.70013 0.304227 -1.83587 -0.286358 4.72195
1586 1 10.6157 13.5105 32.6658 -2.14047 -7.67595 4.59817 0.660692 0.970626 0.210389
1587 3 5.66891 19.4659 22.5067 -14.5234 6.1448 9.23766 -0.911256 0.552326 0.290224
1588 2 10.8802 16.896 16.7285 11.2698 -3.98884 1.02136 1.97756 1.50139 1.20565
1589 1 10.6386 17.2205 14.1145 -1.25752 -3.8131 0.162509 3.69691 6.79421 -3.43537
1590 1 5.68235 24.3481 19.9958 3.6541 -10.5721 -16.0032 0.69278 -0.184014 4.06187
1591 1 2.1241 23.8946 22.6087 -22.2041 -2.89799 2.90102 -8.27842 -4.71193 -2.8057
1592 1 5.67852 14.9629 35.6386 -0.859278 0.0261673 -2.56099 -0.501298 0.170319 -1.72611
1593 2 8.77683 18.0386 18.327 -5.31709 8.14781 -22.9374 0.259085 3.80237 2.22159
1594 1 9.87851 15.4687 26.2693 0.580472 -1.79449 -0.184161 0.0628651 -0.033586 -1.55757
1595 3 3.42342 19.2894 32.4628 -5.49264 4.08816 3.53707 2.63336 1.89506 -2.21477
1596 2 6.64684 22.3882 15.4057 14.1866 -17.2647 -11.1888 -1.99528 -2.89814 3.94569
1597 1 2.01763 29.5858 21.5625 -2.78248 1.75 -4.11503 2.70493 3.82609 -4.6192
1598 1 4.89614 30.7061 22.3092 8.49681 4.04559 3.99094 -0.610535 8.12309 11.8736
1599 1 2.59562 25.6877 24.8841 -3.74552 4.28559 15.1933 -4.15843 -2.13591 -0.371252
1600 3 2.10013 24.8941 20.8852 1.84185 7.55747 2.87201 3.78009 1.37362 -1.87823
1601 3 4.27661 24.1309 21.6174 15.093 7.29794 -6.28798 4.12171 -1.20999 -3.83983
1602 1 3.91771 18.9273 40.8557 1.49272 2.73601 -3.10003 -2.2585 -1.19244 4.60126
1603 1 5.06361 26.4488 18.3539 12.7272 12.2345 -12.0756 2.44026 0.475212 3.59817
1604 3 5.00771 26.1487 16.6084 1.6472 38.341 -4.52501 -0.734045 -4.92584 -2.49937
1605 1 3.62583 27.4651 23.3965 9.35095 -6.80488 -14.71 -3.4822 5.04316 -2.06714
1606 1 0.375291 27.4718 26.6736 1.77395 0.773696 -0.452118 -0.395635 0.0561362 1.26069
1607 3 1.76408 27.0792 28.5817 -9.07081 -4.12259 6.54754 4.13934 -0.378491 -4.11299
1608 2 10.2078 26.8223 17.2786 -9.35429 -1.77027 17.0924 1.51462 0.00987596 -1.66741
1609 1 2.9777 29.0717 18.4444 -5.25531 3.9721 3.28609 -6.47009 7.14803 -3.8314
1610 3 6.46159 28.1012 18.6196 12.0613 9.91089 -33.5481 -2.09218 0.0194909 -1.47039
1611 1 2.40276 29.251 29.0195 -2.50931 -6.07986 -3.60832 2.24356 -1.91673 -3.01652
1612 3 1.65535 29.0553 27.0087 5.34508 4.93029 -6.039 -1.00819 -1.03245 -0.0662623
1613 1 1.71875 27.4749 34.906 -3.53068 -1.77174 -5.54669 2.56412 -1.56299 0.322595
1614 2 3.22297 31.3269 30.1203 -0.764458 0.884781 -0.12746 -0.128679 -0.639978 -0.280118
1615 1 3.34468 27.3943 26.7908 1.30149 2.67698 -4.9815 -1.4246 2.02874 3.13369
1616 3 2.47388 29.1454 33.6495 -2.37203 -3.85816 1.39885 -0.235991 -1.26824 -1.38883
1617 3 4.50343 30.3337 18.3208 1.93742 -2.94009 -0.352657 -1.15436 -1.49393 -1.42965
1618 1 18.2178 0.624171 25.6674 1.42656 1.11284 0.651018 -5.56502 5.55099 2.284
1619 3 1.74728 31.2831 25.0611 -8.29905 5.29688 -2.43382 0.672269 -1.05584 -1.29809
1620 1 1.19535 30.286 34.7526 0.572178 0.378759 0.938543 0.706655 -0.0104589 0.000463883
1621 1 2.74685 31.0253 32.5806 5.479 -2.33895 -1.25847 1.32221 -2.88083 -0.652835
1622 3 1.50717 32.0359 33.6696 0.861274 -1.11506 -0.852286 0.311029 -0.253075 -0.11162
1623 2 2.33863 31.9562 21.3053 -3.04148 -2.19459 0.0388956 0.541749 1.42798 0.35843
1624 3 21.8697 1.21803 17.6248 4.69492 5.14531 -3.16275 5.12195 -8.57823 3.88374
1625 1 21.7512 2.63844 24.1609 0.990725 0.546249 -0.868532 -0.275921 -0.580496 -0.272425
1626 1 19.7086 3.14777 25.8574 -0.532831 1.16027 -0.236297 0.443373 -0.19813 0.327842
1627 3 22.8852 1.6034 25.2163 -2.88832 -1.00577 -0.845484 0.128344 -0.00105437 0.409502
1628 1 20.4135 0.658954 35.4961 0.556472 -1.1988 -1.00334 -0.142197 0.382525 1.18667
1629 3 20.9521 2.23597 34.2736 -1.03699 -2.7211 -1.83458 0.205102 -1.55733 0.332193
1630 3 22.0504 3.71932 18.8244 -0.0123547 1.25221 5.57064 -1.60162 1.82188 0.674023
1631 1 19.9309 4.79348 23.8063 -0.0907747 -0.578401 -0.0254152 -0.325922 -0.0644021 0.153234
1632 3 21.6252 4.29095 25.2157 0.122907 0.391673 0.706918 -0.0485511 -0.272492 -0.117019
1633 1 19.7272 3.37178 35.2223 -0.525811 -0.68583 0.23407 -0.0494334 0.0101286 0.11883
1634 2 21.5825 5.01987 30.9227 -0.37546 1.72407 1.00931 -0.0286706 -0.247546 -0.0795322
1635 1 21.5633 4.30902 33.4895 -0.796781 -0.818792 1.92135 0.206761 -0.361808 -0.172015
1636 3 19.3389 4.55851 33.7486 2.68343 4.83253 -0.626369 -0.504886 -0.000486656 -0.0490159
1637 2 18.525 5.88596 21.7939 -1.12014 -2.57722 -0.705322 -0.12627 -0.499919 -0.286216
1638 1 18.7149 7.14196 19.3217 0.387409 0.660619 0.83926 0.260155 0.320494 -0.0272746
1639 3 19.4723 5.2205 18.4974 2.08619 0.42783 -1.00879 0.533799 -0.109477 0.759976
1640 1 18.5338 7.5491 23.9294 0.0797455 -0.0523678 -0.135745 -0.0494292 -0.155112 -0.108191
1641 1 18.2148 5.83157 34.799 0.00847602 0.854969 -0.395547 -0.088756 -0.188996 0.126492
1642 2 20.9495 7.19401 29.8133 -0.450273 1.03386 -3.36773 0.094485 -0.0833734 0.478783
1643 1 20.156 6.23141 32.6321 -0.8724 0.20532 -0.203262 -0.124754 -0.0472951 -0.0121525
1644 2 18.6406 8.5625 21.5433 1.93561 -1.8228 -0.353683 -0.0368907 -0.172866 0.02148
1645 1 16.6528 9.94758 23.1733 -0.435593 0.419078 -0.619566 -0.0540627 -0.0918904 0.102445
1646 1 15.5769 11.2192 25.8053 -0.139005 -0.107853 0.00628414 -0.0374931 -0.0830434 -0.0218791
1647 3 16.6253 10.0979 26.9021 0.281246 -0.617435 -0.722721 0.0918548 -0.114512 0.00996291
1648 1 16.8874 7.99882 34.9901 -4.05731 0.627316 2.83171 -0.460945 0.127044 0.0165712
1649 2 18.3609 11.0977 30.5253 -0.640895 1.52328 0.950401 0.020278 -0.0756636 0.540982
1650 3 16.7977 9.8543 34.0522 -0.808632 1.7913 0.513936 -0.07561 -0.494066 -0.170681
1651 2 15.3381 11.1513 21.357 0.452819 -0.507413 -0.663045 0.19622 0.229076 0.209092
1652 1 15.9261 12.9244 23.325 0.139027 0.420209 0.221597 0.182069 -0.0944384 -0.00896999
1653 1 16.8519 11.4092 28.4334 -0.401703 0.969268 2.32631 0.0505284 0.822959 0.533813
1654 3 15.2575 12.3231 27.4821 2.8713 2.12655 6.51785 -0.395368 -0.148491 -0.555282
1655 3 17.2393 11.6749 24.5314 -0.353991 0.0932541 -1.92023 0.0567414 -0.0867304 0.182385
1656 1 15.257 10.5494 35.2859 -0.62629 1.53188 -0.416424 0.642817 0.171317 -0.538128
1657 2 16.8414 13.2667 30.5499 4.17982 8.27021 0.0863859 0.0385856 -0.348276 0.214585
1658 1 17.0926 11.3612 32.6661 0.0941348 0.464569 0.170367 0.321394 -0.464491 -0.0130955
1659 3 15.8137 12.2749 34.0176 1.53271 -1.35193 -2.40121 -0.0882895 0.514382 0.685098
1660 1 14.2558 14.5751 19.7613 -0.535947 3.49649 -4.21254 -0.724095 -1.62509 1.1843
1661 3 15.67 13.7211 18.649 0.603693 0.185239 0.316908 -0.929901 -1.04687 0.644243
1662 1 16.2382 13.8596 28.0304 0.270256 0.570101 -0.0507934 -0.513518 -0.631982 -0.432334
1663 1 12.8629 14.803 26.3728 0.450559 -2.1347 0.763999 1.04819 -0.249556 -1.68726
1664 3 14.2275 14.4846 27.8988 0.367224 0.681889 0.368593 -0.406556 -0.182277 -0.316159
1665 1 14.4932 13.3876 35.1373 -0.218282 -3.10628 -1.37181 0.896586 -1.89447 2.04506
1666 2 16.7865 16.3219 31.1943 -0.133928 0.259167 -0.412017 0.160972 0.545057 0.0725793
1667 1 16.0966 14.1345 32.8358 1.05298 -1.48037 0.0207799 -0.215142 -0.117284 1.03445
1668 3 14.6262 15.1098 34.0587 -3.18758 -2.43132 -1.32039 2.17901 0.129775 -2.29621
1669 2 12.5052 14.6222 21.8358 1.23651 -0.364832 -3.42546 -0.0333561 1.2368 -0.49291
1670 1 13.108 16.7615 20.6697 -0.759318 0.421051 5.00089 0.133487 -0.412537 -4.43618
1671 3 14.3098 16.4192 18.971 -0.973992 1.84827 -0.351485 -0.212491 0.86701 -0.571283
1672 1 14.3986 30.0769 26.2232 4.90092 -17.2825 -13.078 -0.397003 -6.57156 8.71141
1673 1 14.6991 15.9596 29.1441 4.27933 1.86489 -4.96156 0.904947 -0.467335 2.45822
1674 3 14.4245 15.7749 24.952 -4.01121 1.8566 3.50607 -1.75561 2.83419 1.81957
1675 1 13.1364 15.8203 35.7284 -2.3001 -7.25691 0.593038 4.72646 8.40981 4.07252
1676 2 6.68252 16.9352 24.085 -3.9026 1.29973 0.00679325 3.77902 -0.643144 2.94827
1677 1 14.8645 16.9194 32.8832 -3.74769 -7.9956 1.12771 -0.0809316 1.41611 0.649769
1678 3 11.1091 15.1467 30.6648 5.06464 3.67728 -6.89602 -7.14246 -0.433693 0.857003
1679 1 9.80965 21.9247 15.946 2.84449 5.4573 5.51373 -2.01766 1.62404 -0.514127
1680 2 10.551 18.5085 19.9675 -4.6399 5.04825 -14.9458 1.94128 -2.13235 -11.1922
1681 3 8.6349 18.8095 20.3575 35.7931 14.5486 -8.45569 0.0799454 -0.178566 -2.02921
1682 2 10.2116 19.4964 15.5885 -2.12533 0.235542 1.67972 -0.424477 -0.793726 -2.65174
1683 1 8.9336 19.317 13.4194 -6.44376 7.39825 -0.292601 1.73997 0.209555 -0.581454
1684 3 7.60586 19.3242 15.2774 -5.51753 9.86506 8.11971 1.99436 1.70028 1.49812
1685 1 6.03241 27.6087 21.7004 1.23269 2.13005 13.9698 -2.88377 -1.86508 2.46182
1686 1 11.5364 25.7824 15.4383 3.31537 -1.32616 -6.91258 -0.221689 -1.9154 -0.249849
1687 1 15.4501 19.3223 24.4502 -9.07085 -7.48907 11.2785 -2.53507 -2.55311 -0.599862
1688 3 7.47947 28.964 22.4183 10.9318 -4.20829 -26.3982 3.35407 -1.60811 3.90685
1689 1 13.9913 20.5101 15.875 -1.56336 -1.95561 -2.56375 4.36116 -3.71784 -1.23902
1690 2 29.7205 0.29856 26.4822 0.5039 2.52869 -0.734101 2.24623 -0.895922 2.40595
1691 2 3.1363 23.1345 20.4705 -8.99367 -11.471 14.8646 -5.37052 1.27029 -0.188379
1692 1 6.50911 24.9196 15.5405 -2.78871 -8.0572 3.99851 2.44643 2.20505 3.3077
1693 1 10.4392 24.6955 20.5806 15.6247 4.27824 2.81046 -2.31793 -4.02303 6.57507
1694 3 4.14576 28.7635 22.0261 3.47589 4.23029 21.3883 -0.553408 -1.94658 -5.25863
1695 3 7.07062 30.1955 22.8322 16.0346 -24.2078 6.33766 0.45201 3.02366 0.763946
1696 2 13.6298 24.8763 27.4072 8.87973 -5.135 -0.79978 -0.682162 -3.12181 0.0735846
1697 1 6.14608 29.9533 18.9229 -9.40791 10.6848 -13.3811 1.68226 0.449743 0.465719
1698 1 7.43506 32.0463 28.8431 -2.71948 -0.709138 0.631704 -0.805474 -0.842376 -1.64059
1699 1 2.60963 29.9467 25.6052 9.07662 -0.901223 -8.51498 11.5482 -11.1737 7.73332
1700 3 12.0256 29.2172 21.1522 32.3226 -15.9929 17.2071 -2.06997 2.67544 -1.27467
1701 2 22.8311 0.486572 31.6463 -0.102441 0.547293 -0.815176 -0.0206284 0.23053 0.670252
1702 2 25.584 0.404909 18.725 -1.1 -0.217296 0.356314 1.13848 2.16332 1.89608
1703 1 4.0706 32.1628 19.1078 -0.763418 5.32922 0.0164598 0.354683 2.15447 -2.39916
1704 3 6.6498 31.2584 17.3983 -7.21466 4.59349 -2.68198 1.59049 -0.970013 -0.982705
1705 1 2.90219 32.169 23.7649 1.24293 0.14508 0.809645 6.10454 -2.17022 -2.72288
1706 1 4.70414 31.3949 28.1377 0.861319 -4.59305 1.26974 -1.10229 0.352581 -1.01658
1707 1 21.0334 0.633872 26.2733 -1.25442 0.0603291 -0.867581 -0.083681 1.80328 0.318145
1708 3 3.81592 31.4124 26.4766 -2.36695 2.55062 -3.19153 2.60217 -2.08151 0.592541
1709 3 3.91783 28.7498 25.1005 -18.7744 -0.485385 19.2462 -0.619696 0.364535 -0.631556
1710 1 4.02369 31.1818 35.6474 1.04162 -0.373795 -1.49561 2.50488 -2.51494 0.266125
1711 2 23.0683 0.621763 21.4813 -4.58923 -4.47943 1.70341 0.660367 2.09237 -2.72013
1712 1 24.8331 2.40155 23.7388 -1.23201 2.411 -0.663097 -0.753027 -2.09497 0.850157
1713 1 23.0611 3.38375 26.3455 1.83968 1.42406 -5.05744 0.617496 -1.04116 -0.651683
1714 3 25.8324 0.790438 24.5891 -0.431398 6.79852 -1.19582 1.76472 1.38642 -0.988319
1715 1 24.9309 0.982753 35.6078 -2.61098 -2.1364 -5.70777 2.5959 2.48576 2.84253
1716 2 26.9808 3.0241 30.6658 0.267479 1.12975 0.11471 -0.34678 -0.600963 -0.0227742
1717 1 27.0042 1.50134 32.5803 -0.879374 1.49725 -1.67437 -0.637432 0.18904 -0.315407
1718 3 25.271 1.93597 33.8785 1.64272 -0.515808 -1.33676 -1.23632 -0.959769 -0.119503
1719 2 22.8529 2.9254 21.9683 4.6451 -3.80725 1.42886 -0.902341 -1.44249 0.31076
1720 1 23.4059 4.55808 20.1326 -0.804151 -0.0926521 3.02471 0.271042 -0.37804 1.34571
1721 3 24.7225 3.51163 19.1212 -1.12304 -4.68449 -0.270342 0.229314 0.168606 -1.27976
1722 1 23.2597 5.02163 23.502 -2.45324 -3.127 -0.408889 -0.0570283 0.321156 0.267061
1723 3 24.64 4.11189 24.8245 -0.54172 -2.25446 0.36153 0.0310094 -0.348861 0.105784
1724 1 23.0592 2.40862 34.6325 -1.45589 -0.112127 0.0513718 -1.30918 0.470505 -0.76648
1725 2 25.2758 4.8928 30.5312 -1.13299 0.0702818 0.012569 0.44197 0.112769 0.0335846
1726 1 25.4851 3.7654 32.9087 -2.22481 0.861355 -0.278264 -0.779112 0.645696 0.119177
1727 3 23.7334 4.36211 33.8339 0.28119 0.355548 -0.535728 0.015136 -0.204069 0.318709
1728 2 21.2358 4.94498 21.774 2.87646 -6.70517 0.275404 -0.110469 -0.488107 -0.0196096
1729 3 23.3553 6.23486 19.1633 1.65131 -2.97524 -0.42077 -1.04404 -0.275603 -1.34683
1730 1 23.4268 5.9641 29.3095 -0.243727 1.05941 -0.433216 0.301113 -0.45167 -0.0908374
1731 3 23.0153 6.24778 25.2912 -1.1721 -1.1667 -0.604611 0.196977 0.0291258 0.0583037
1732 2 22.9677 8.30573 30.6688 0.109924 -0.745853 -0.125403 0.0471768 0.0518888 -0.0122569
1733 1 23.4927 6.23158 32.3393 0.540948 -0.161723 1.14766 -0.131849 0.00805703 0.213046
1734 1 19.9361 9.92372 19.8408 -0.579067 0.479157 0.48724 -0.262112 0.268431 0.818289
1735 1 21.6919 9.49839 28.8131 -0.232971 -0.370534 -0.26325 -0.0292325 -0.159162 0.108065
1736 1 18.4756 10.4458 25.8477 0.330395 -0.229713 -0.498746 0.0437016 0.16274 0.048837
1737 2 21.5906 11.0346 30.8661 -0.819729 -0.0668159 0.00267281 0.217918 -0.0132164 0.0515189
1738 2 17.9159 11.0126 21.1189 0.673036 -0.607404 0.330738 0.0885591 0.0206853 -0.131009
1739 1 18.8459 13.0143 19.9748 -0.891938 -0.615072 -0.563222 0.119532 -0.0186745 -0.342049
1740 3 20.2653 11.6206 18.7948 -2.50045 0.692156 -1.57112 0.0259969 0.817601 -0.11044
1741 1 18.9251 12.1471 23.1803 -0.262677 -0.333758 0.0852287 0.240695 -0.280976 -0.188725
1742 1 20.0193 11.4436 28.7815 0.439481 -0.303855 0.00333128 0.297061 -0.0023749 0.151138
1743 3 18.7583 11.5584 27.403 -1.83815 -0.074262 -6.95581 -0.104085 0.0613888 -1.54064
1744 3 20.1063 11.718 25.0885 -2.11801 -0.900986 -0.396854 -0.431394 -0.18924 -0.160039
1745 1 15.8433 15.4869 26.2817 0.768692 1.41121 1.32241 -0.285471 0.385793 -2.53124
1746 1 17.2273 12.8901 35.4852 -0.54386 0.18679 -0.291204 -0.595253 0.330164 -0.318333
1747 3 17.5771 14.4856 34.387 -0.771287 -0.276614 -0.903934 -0.050456 0.592949 0.760835
1748 2 17.031 15.3414 22.0841 0.301578 -0.236772 -0.153741 0.399049 0.25773 -0.745053
1749 1 15.8896 17.3343 20.2197 -2.27152 1.88262 2.2829 1.31407 0.488869 -0.535844
1750 1 15.7099 17.0698 23.3095 0.934548 -0.932776 -2.62093 -2.05409 -2.77805 -3.21662
1751 1 17.6328 16.9001 28.8528 -0.691336 1.98855 -0.404656 1.49325 -0.602469 0.841868
1752 1 13.5384 17.3549 25.2543 14.6649 9.31715 -2.30013 -4.78636 1.89863 -3.32548
1753 3 16.1333 16.9099 27.583 5.90237 4.06814 -3.13359 0.109205 0.140109 0.118615
1754 1 16.1854 15.5222 35.4508 -1.05069 2.50834 3.98728 0.419721 -1.1588 0.471684
1755 2 18.883 18.8602 32.5004 2.41402 -0.453266 -1.74395 0.461842 0.962863 0.236069
1756 2 14.872 20.7564 21.803 33.3982 -1.63619 13.2077 1.30106 -2.16029 2.51154
1757 1 15.3373 20.1846 18.9341 8.63825 2.81254 -11.7206 0.673633 2.86715 4.34424
1758 3 17.8692 17.2193 19.6391 -0.681457 0.534041 1.03352 -0.139581 1.06706 -0.389833
1759 1 16.4089 20.2318 29.6824 -0.703424 6.7468 -3.25958 3.27521 1.03703 -0.851
1760 3 10.7004 18.7547 17.5128 -4.00428 9.09283 -0.224483 -3.94008 -0.865755 4.04714
1761 3 18.1886 22.7848 23.694 2.45842 0.841009 -6.04118 -1.89907 -1.10839 -2.0073
1762 2 11.8606 23.1751 15.0542 -1.38399 2.84732 7.43467 2.24534 9.67401 -7.60888
1763 1 11.4957 24.053 12.7893 5.58589 -2.18792 -2.18222 -1.21853 -0.86338 3.32484
1764 3 14.8295 19.5269 17.5226 -21.6138 -8.08771 -15.2524 -7.07182 -1.08023 -6.67659
1765 1 17.9495 26.6534 25.7202 5.58636 -0.76561 3.12969 1.67209 5.02211 2.58052
1766 1 14.8799 28.3689 18.5421 -9.10548 4.8304 -10.8313 -5.23997 -6.82946 3.17992
1767 3 12.7026 22.123 13.5393 15.0412 -2.73986 19.2553 -1.07945 -3.26293 1.52475
1768 2 10.3975 22.018 13.2592 0.143844 -11.6399 -5.92103 5.88634 2.72499 6.69304
1769 1 11.1334 28.7835 13.2177 -7.73724 14.4968 6.60118 -1.48191 -1.71076 2.76168
1770 3 13.5335 20.732 13.9063 -6.19153 5.50056 -28.0799 -3.41877 -0.362878 -1.39714
1771 1 8.37726 27.9189 18.6211 -3.14556 -0.468025 10.0851 1.19155 2.44288 0.889624
1772 1 10.321 30.9455 28.188 -28.0664 -9.7876 -4.44082 -0.0506726 0.197877 -0.75202
1773 3 5.87576 19.5944 29.7175 31.8256 6.90047 -35.8024 -3.67748 -0.941255 2.06341
1774 3 17.9229 26.4648 21.6131 -8.46828 5.41335 -0.204338 -1.85051 4.38895 1.03902
1775 1 10.4101 18.7659 26.7456 13.8261 -17.7958 -10.378 3.71954 -2.48947 -12.4428
1776 2 33.6027 0.074155 30.1384 1.11295 1.00851 -1.93792 1.13609 0.251107 0.092195
1777 1 18.3199 20.8609 26.9967 0.899469 -4.49084 2.08162 -0.137966 0.512974 -1.00302
1778 3 31.6018 0.137925 30.6014 -3.45459 2.08069 0.40888 0.537831 1.80324 0.586343
1779 2 8.77545 25.751 15.8385 3.46006 -1.72372 5.32649 -0.792267 -3.3396 -0.793838
1780 1 6.42638 27.4428 15.6388 5.57575 4.00512 -1.07474 0.155748 -0.151988 -0.0445726
1781 3 8.63207 27.6622 16.2083 3.55599 -8.51148 11.7645 1.09646 6.28388 2.47202
1782 1 27.8156 1.23593 22.9992 -0.105535 6.79879 -2.22841 3.37521 -1.84976 0.213579
1783 2 30.6499 1.93471 30.6533 0.223413 -1.1958 -1.35456 -1.41238 -1.08208 0.136087
1784 1 32.382 1.2677 32.313 -1.65711 1.24609 0.262931 -0.543475 -0.598603 -0.153481
1785 2 27.417 0.846466 20.6122 1.90975 4.05331 0.715217 -1.3466 2.19324 1.20909
1786 1 12.5894 19.8316 18.8839 -3.50655 3.20566 -0.0565901 2.93254 -2.87352 5.4714
1787 1 9.74151 28.9809 21.4689 5.88998 14.9297 -20.096 -0.280254 1.57106 0.655324
1788 1 24.0881 0.263171 25.8148 0.387115 -3.3782 -2.35272 0.379995 2.03841 -0.0649982
1789 3 24.9246 0.928769 27.61 -4.4334 4.4657 7.44907 -2.00545 1.90274 1.81254
1790 2 28.0388 0.699631 30.2975 -1.00832 -1.02606 -5.87475 0.610256 0.767476 1.72208
1791 1 9.9368 27.7245 23.742 1.37692 7.62164 -6.71091 -5.62555 -2.09889 2.50776
1792 3 30.076 1.56561 18.4296 -4.50435 2.55401 1.25571 0.110691 0.11695 0.657119
1793 1 28.8526 2.27919 28.4982 -4.38084 -2.38854 -1.27476 2.35075 -1.24662 1.62019
1794 3 27.4662 2.97399 26.9959 2.4957 2.19231 -0.967962 0.0934685 -1.53434 1.24953
1795 1 28.9214 0.767566 35.0902 -1.27806 -0.323428 -0.569022 -0.58801 1.29693 -1.47328
1796 2 29.3777 4.0498 30.0622 0.701887 -2.06584 -0.550634 0.484455 -0.271591 -0.301363
1797 3 28.5756 2.4964 34.0173 0.372254 -3.01497 0.0361627 0.572736 -0.186366 -0.855071
1798 1 26.3623 4.88412 23.7475 2.37581 0.252622 -0.279162 -0.215413 -0.34858 0.148177
1799 1 26.8559 4.30261 28.4964 -0.134312 1.52293 1.94082 0.271846 0.230814 -0.212471
1800 1 24.7046 5.64347 26.2266 0.66345 2.28213 -1.12735 -0.176889 -0.550221 0.343593
1801 3 28.2657 4.08429 24.8619 0.254102 -1.72509 -1.16342 0.361125 -0.235901 -0.000843136
1802 1 27.1501 3.09919 35.105 -0.845711 0.261314 -1.65154 0.275131 0.548913 -0.242647
1803 1 28.3919 4.07307 32.4397 0.504052 0.0647611 0.564084 0.165508 0.32291 -0.0187319
1804 3 26.8781 4.82559 34.0728 0.110683 -0.880277 0.543325 -0.0364173 0.611599 -0.507268
1805 2 25.361 6.1416 21.6475 1.01443 0.286089 0.874092 0.259831 -0.00119207 0.171813
1806 3 27.1099 6.2046 18.0999 0.723102 0.621004 -2.09387 2.0166 0.986623 0.608749
1807 1 23.3681 8.13851 26.2079 -1.39766 -1.48841 1.36886 0.278161 0.207803 -0.382094
1808 3 24.679 7.2677 27.5094 0.264218 -0.564545 1.02793 0.0674829 0.116992 -0.210203
1809 3 26.4726 6.37487 25.1414 2.69327 -0.750278 0.266228 -0.875382 0.223947 -0.565847
1810 1 25.0508 5.61928 34.937 0.963051 0.328906 -0.0345591 0.29704 -0.107698 0.483968
1811 1 26.4524 6.22329 32.5043 -0.108876 -0.0740682 -0.058666 0.0794739 0.391981 0.147262
1812 3 24.8571 7.25327 33.6573 -0.268373 -1.467 1.29779 0.114818 0.699031 -1.05365
1813 1 24.7495 8.81381 29.0024 0.449938 0.0664915 0.345024 0.310956 -0.404658 -0.643871
1814 1 21.9587 11.0092 26.1166 0.929894 -0.636786 -0.111262 0.282552 -0.23637 0.266529
1815 3 23.4052 9.87314 27.5152 -0.841185 1.35037 0.735687 -0.463357 0.0926771 -0.146626
1816 3 24.7711 8.86393 25.0556 -2.14045 0.559912 0.070556 0.000210084 0.289119 0.12755
1817 1 23.5116 8.20071 35.0512 0.525836 -0.635174 0.0149857 0.32342 -0.742241 0.554613
1818 2 24.2302 10.7337 30.6748 -0.704036 -0.447496 0.203181 0.202971 0.094902 -0.0188698
1819 1 24.7308 9.07305 32.4515 -0.191379 -0.230855 0.355674 -0.0500055 0.0385431 -0.155721
1820 3 23.6147 9.92603 34.0186 0.192843 -1.85275 0.855515 0.204478 1.28689 -0.453462
1821 2 20.8246 10.9593 21.8986 -0.0163245 0.411434 -0.314002 0.159795 -0.0645215 0.205882
1822 1 21.9326 12.5798 20.1687 -0.822192 -0.203317 -0.511844 -0.991051 0.146216 0.489017
1823 1 21.6306 12.7988 23.7407 1.25784 -0.421052 0.92394 0.428289 -0.129611 0.184268
1824 1 23.0568 11.7094 28.7085 0.972128 0.373151 0.175121 0.0373268 -0.161911 0.147942
1825 1 19.761 13.2022 26.2699 0.291213 -0.250906 0.610597 -0.0957803 0.0440071 -0.0779854
1826 3 21.5104 12.4958 27.4161 -0.516712 1.45665 0.43368 -0.00297836 0.159321 0.148728
1827 3 23.3131 11.9962 24.9632 0.0179365 -1.37155 0.734104 0.241654 0.366406 0.00614217
1828 2 23.4266 13.2756 30.8329 -2.45788 -0.268696 0.806799 0.256201 0.0298897 -0.119799
1829 1 23.3402 11.7965 32.8354 -0.220705 -0.0548892 0.00451124 0.222879 0.097183 0.0292397
1830 2 20.3671 13.7468 21.7965 0.280132 -0.187866 0.0077819 -0.118145 -0.0684263 0.083459
1831 3 22.5092 14.0613 18.5856 1.17923 -1.22852 0.883727 1.50525 0.718135 0.788964
1832 1 20.0892 15.4152 23.6367 -0.0871124 -0.242127 -0.175781 0.321639 0.0549868 -0.223871
1833 3 21.3475 14.4776 25.0835 -0.154892 0.214848 -0.449613 0.14121 0.0231201 -0.072572
1834 1 20.6693 12.9293 34.6353 -0.647372 -0.621867 0.402354 -0.604692 0.215405 -0.218138
1835 3 20.8304 14.8713 33.805 -0.528011 1.5545 -2.8976 -0.651566 0.278215 0.816546
1836 1 19.3767 16.8972 31.0299 1.13797 0.179275 -0.908805 -0.329709 0.683295 -0.935636
1837 1 17.8048 17.7566 26.3717 -2.02773 -1.61333 1.93464 0.0623638 1.00899 -1.76307
1838 3 19.345 17.2882 27.4848 -0.781772 2.18342 3.00443 -0.176723 -0.257158 -0.659152
1839 3 20.0812 17.4494 24.2268 -1.36788 -0.0687908 -2.54821 -0.347372 -0.302979 -0.0817406
1840 1 19.3397 15.4161 35.1104 0.0512763 0.662285 1.0588 1.64392 -0.0520958 -0.413305
1841 2 21.3099 18.7064 31.4341 0.280816 -0.728476 0.404736 0.00894658 0.217288 0.0210018
1842 1 20.7911 17.0707 33.283 -0.46851 0.879748 -1.22681 -0.219043 0.334221 0.14624
1843 2 17.8343 17.6722 21.5795 -1.44075 2.0742 0.926556 0.611057 -1.50547 -0.772578
1844 1 18.7064 19.0089 19.5072 -0.2429 2.08009 0.105511 -0.569673 -0.792198 -0.316863
1845 1 18.0222 20.7504 24.1407 4.60322 5.42766 -6.32237 1.71917 0.558408 -4.12743
1846 1 19.6966 18.9157 28.7895 1.7409 -0.0149751 -1.41113 0.21269 -0.230747 -1.15833
1847 1 19.0123 23.0025 21.9402 0.0457934 2.4759 3.62389 -2.7796 3.01176 -4.47882
1848 3 17.4645 19.0017 28.0927 3.06241 -3.44346 -1.49947 0.939288 -0.733868 2.42927
1849 3 18.6339 19.4687 25.5431 1.63943 3.12451 -1.3438 -0.773014 -0.563423 0.726932
1850 2 19.4681 20.7158 31.0677 0.801222 -0.513168 -0.389482 2.56709 0.423189 0.905426
1851 2 18.943 20.1164 21.7924 0.497027 -1.33265 -0.306013 0.415969 1.43281 -0.501754
1852 1 17.1799 24.905 20.1503 -9.08198 -6.08477 12.2396 -1.03174 3.2769 -3.60796
1853 3 17.3406 20.2358 18.4187 2.42741 -1.63125 1.88162 -1.57391 -0.555141 -1.79268
1854 1 19.0407 23.5129 25.2051 0.74819 1.26101 7.62846 0.385794 -2.89893 -2.74287
1855 1 16.1173 23.1194 23.723 -12.0427 -13.0913 -4.02979 7.5181 11.0845 -4.20658
1856 3 12.9438 26.2421 19.4314 4.78295 -12.6063 3.44919 0.141098 -0.101735 -3.0387
1857 3 16.9077 28.3363 18.3367 -9.1576 1.16607 -0.698098 1.78068 3.38611 0.466594
1858 1 18.315 22.9856 29.496 -0.842056 -1.68443 1.58789 -4.09313 -0.561062 -0.0990212
1859 3 17.8811 23.1588 20.407 -1.38716 0.782523 -1.09566 -0.0108655 2.27862 -2.12567
1860 1 18.0685 21.9922 32.5598 0.88801 1.93129 -0.405483 -0.510943 1.45638 5.07069
1861 1 11.9948 24.4535 25.2581 6.80196 13.4229 12.4257 1.57488 -2.28148 1.70385
1862 3 13.1951 32.0815 24.2113 -2.39797 -2.71141 -0.518803 6.6216 1.08956 -1.26221
1863 2 16.1352 29.7798 17.209 0.779149 5.50963 4.83777 6.35087 -6.94365 -5.03176
1864 1 10.7336 31.7472 15.0675 -15.0702 -2.43992 2.69285 0.823554 -2.82492 -2.87515
1865 1 12.0007 28.8546 15.7328 -5.49772 -4.18309 7.348 -2.56874 -4.21569 2.22276
1866 3 16.0445 30.7501 26.0918 3.78663 2.30061 5.68835 3.63576 -0.2296 -2.09163
1867 1 6.88723 21.9073 17.7138 -1.11543 4.9032 -9.2102 1.76053 -0.25311 1.84442
1868 1 12.4662 19.5494 21.993 4.73284 3.52071 -3.89987 1.12261 -0.435369 -0.138662
1869 3 12.6843 26.657 22.7089 -13.8321 3.92175 16.4174 5.86761 -4.18423 0.724191
1870 2 13.9813 29.9805 20.6251 14.9706 -8.88395 15.7823 -0.836362 8.12715 1.97558
1871 1 14.2501 24.0264 13.6575 -1.16816 3.01301 4.51616 1.12622 -0.823018 1.29118
1872 3 14.682 30.4085 18.6443 -5.64417 -0.395993 5.01032 0.365927 -1.83593 0.890986
1873 1 11.2016 31.2271 21.5789 13.1446 -1.84363 14.807 3.49276 1.8136 2.91259
1874 1 13.4722 31.9328 28.3643 -1.57785 6.22026 1.00771 -1.75696 4.08624 -2.8573
1875 1 26.7301 1.33392 26.3409 3.48013 -0.974177 3.26106 0.621746 -1.09953 -0.0818536
1876 3 29.5506 1.34305 24.7735 -8.47787 1.88733 1.92154 0.288184 -2.32337 -7.07646
1877 3 13.2398 31.9428 21.044 -11.3473 0.287069 9.45922 -2.08542 -2.84141 -0.660189
1878 1 13.0816 31.9023 35.1166 -1.80434 2.14757 -2.19012 0.283533 -0.772521 0.0969278
1879 2 32.7141 1.45656 21.5837 -1.85112 -2.1457 1.39408 1.87706 4.01143 2.66589
1880 1 31.4251 2.23612 19.7085 5.14557 -2.53036 6.94757 -1.37421 1.99192 -0.0580279
1881 3 32.8532 1.41206 18.4208 2.61791 -1.73944 -0.331106 1.24053 -0.110129 1.14799
1882 3 31.0505 1.51489 27.368 -1.24885 -0.11719 -3.54955 0.0995629 -0.719796 -0.737792
1883 2 32.642 3.31302 30.9172 0.316859 -1.29014 2.09962 0.501446 0.388728 0.555717
1884 2 29.6714 2.79964 21.7482 -0.382121 -0.203329 0.496012 -0.241053 0.10375 0.396838
1885 1 30.3623 5.06807 20.9522 -0.364724 -1.76816 0.726009 -0.0583031 0.395332 -0.182521
1886 3 31.097 4.02639 18.9649 2.39592 1.94795 -0.728244 -0.765056 1.02779 0.772916
1887 1 28.9809 4.91355 23.2373 -0.012081 -1.02828 0.309478 0.145733 0.846524 0.226184
1888 1 31.0314 3.66975 27.6206 -0.578111 0.142757 2.47767 -0.148152 -1.23373 -0.727679
1889 1 28.2392 5.65019 26.1041 -0.502726 0.190836 -0.0369983 -0.138656 0.098678 -0.237302
1890 3 30.1031 4.5134 25.8933 -0.706033 0.782152 1.61071 -0.577451 0.360702 -0.117516
1891 2 27.8787 5.82985 21.1979 0.0075873 -0.0221437 0.552729 0.0269485 -0.2496 0.0822936
1892 1 28.9807 7.14718 19.1011 0.0408811 1.13564 -0.865055 -0.121425 0.160558 0.169542
1893 1 27.9106 7.31304 23.6221 0.615389 -0.278944 -0.248262 0.372753 -0.0931142 0.0692176
1894 1 29.7075 6.16812 28.8397 -0.239956 -0.344967 -0.449994 -0.118613 -0.0283327 0.164027
1895 1 26.4021 8.06612 26.1519 0.761248 1.41203 0.0994298 0.235513 -0.204189 -0.105944
1896 3 28.2195 7.25712 27.3802 -2.34375 1.44677 2.95736 -0.094987 -0.063863 0.120502
1897 3 29.4671 6.42061 24.9691 -0.98545 0.193701 -0.669904 0.185799 -0.386879 -0.0667028
1898 3 27.9854 8.83661 18.4676 -0.813586 2.75705 0.012049 0.194963 1.85424 1.24856
1899 1 24.865 10.7389 26.103 1.67703 -0.557746 0.474772 -0.0639297 -0.132371 -0.0842669
1900 3 28.2135 8.60902 24.9514 -1.20142 0.37089 -0.699178 0.24537 -0.152669 0.00601618
1901 1 26.121 8.15391 35.0696 0.582296 -0.86258 -0.000426405 0.313564 -0.143513 0.359049
1902 3 26.2026 11.9032 18.2588 -0.383976 -0.310915 -0.389834 0.1682 -0.239878 0.740477
1903 1 24.7987 12.8406 23.6717 -0.0990848 -0.266043 -0.0996532 -0.0553829 0.0166806 0.0749672
1904 1 23.0674 13.5891 26.1108 -0.55929 2.94652 0.391295 -0.0543746 0.0437042 0.0482844
1905 3 26.1833 11.6746 24.6609 -0.0936107 -0.109785 0.103199 -0.00133207 0.266213 0.0295594
1906 2 26.7573 14.5693 30.9833 0.133068 -1.09954 0.220472 0.217175 0.646597 -0.308208
1907 2 23.1948 14.0549 21.7332 -0.00955239 -0.421549 -0.5498 -0.16578 0.0370896 -0.302415
1908 1 23.5566 15.5696 19.7708 0.301725 -0.839489 1.09759 -0.152221 -0.544806 -0.971478
1909 1 23.2277 15.482 23.7708 0.00807205 0.0419257 1.35643 0.212926 -0.106812 -0.0936983
1910 3 24.7402 14.6005 24.8433 -0.839571 0.0498474 -0.197241 0.0298669 0.0611023 0.0985816
1911 2 24.3743 15.71 30.746 -0.19532 -1.83263 0.593769 -0.0517228 0.297135 -0.0752826
1912 1 24.6968 14.3724 32.9184 0.123715 0.850877 -0.0071929 0.0532105 -0.375786 -0.163736
1913 3 23.5735 15.6395 33.9864 -0.518844 -0.625609 -0.496267 -0.147186 -0.0656594 -0.0844772
1914 2 21.7733 16.3736 21.7647 -0.14973 0.117672 0.57217 0.0364284 0.247298 0.219988
1915 1 21.8093 18.4532 20.2863 -0.123867 1.4991 0.606151 0.718758 0.535952 -0.232781
1916 3 23.0501 17.6079 19.0523 -1.97141 -0.36423 1.74218 -1.01971 -0.587566 1.56815
1917 1 21.809 18.3483 23.4319 -1.35642 1.05254 0.437272 -0.763448 -0.167195 0.149063
1918 1 20.5087 18.9241 25.9594 -0.262467 0.538616 -0.892102 -1.06603 0.306332 -0.130904
1919 1 22.0915 15.5841 35.1959 -0.553523 -0.23806 0.306412 -0.923179 0.272342 -0.14183
1920 2 23.8933 18.7335 30.3884 2.55257 -1.53553 0.111094 0.0265697 -0.0736085 0.0716532
1921 1 23.3363 17.1688 32.4722 0.147115 -0.0299388 0.12377 -0.292983 0.230219 -0.172774
1922 1 21.0885 21.1571 20.0052 -4.2047 0.509793 1.61475 -0.157484 0.928444 0.839369
1923 3 21.6984 19.7362 18.5392 0.385689 0.148911 -0.910548 0.278892 -1.15014 0.506901
1924 1 22.4912 19.9952 28.3949 1.32371 -0.600391 0.729363 -0.0759149 0.219615 0.601756
1925 3 20.3951 20.6046 27.6183 2.43238 -2.47035 -2.49533 0.128663 -0.570349 -0.421732
1926 3 21.4755 20.5028 24.404 -0.199089 1.23059 2.63786 0.333526 0.349952 0.252278
1927 2 22.8829 21.4977 30.7395 -0.993688 -1.67099 0.0810036 -0.26032 0.117008 0.299862
1928 1 19.6928 23.4452 19.7241 -2.45455 1.71268 -0.487123 0.999719 1.48316 2.78118
1929 3 20.1717 22.0994 18.334 -6.8159 5.65654 2.06314 -0.691476 1.66608 -0.670728
1930 1 20.7096 22.0563 29.3633 -2.74044 1.55648 -0.534456 1.29839 0.28333 -0.841518
1931 2 21.6861 24.2444 30.5215 0.805762 -1.18544 -0.187765 -0.186037 0.206306 -0.29276
1932 1 21.1838 22.425 32.4692 -0.678365 0.380988 -1.42621 -0.79075 0.330518 0.00451049
1933 3 19.5847 23.0379 33.5596 2.2942 3.3568 1.96226 0.436268 0.822513 -0.387782
1934 3 18.6242 25.278 18.6843 -2.31215 0.968599 1.03166 0.350515 -2.48689 -1.86614
1935 1 19.9542 24.7414 28.6948 0.410762 3.36192 -4.80862 -4.55841 -0.903587 -2.64934
1936 1 11.7888 22.6337 17.2407 0.876247 1.05468 6.71062 1.35412 0.451728 2.5328
1937 3 18.8575 26.5072 28.049 11.7776 -4.40267 5.01222 0.686348 1.82425 -0.254608
1938 1 18.4514 24.04 35.0121 0.287122 -1.01071 -0.441951 0.0589635 3.58302 -3.9949
1939 2 20.8179 27.2477 31.2359 0.898638 0.221751 -0.580575 -0.680423 0.123384 -0.0185559
1940 1 19.5208 25.0755 31.9763 0.944423 -0.0646269 -0.974956 2.5716 -1.77902 0.0207662
1941 3 18.643 26.2019 33.5069 11.8334 -1.34965 6.08779 6.54379 -1.39076 6.75042
1942 1 16.7021 29.8985 24.2435 -6.06671 -1.48081 2.51268 1.23832 3.40868 2.40119
1943 1 18.966 28.5198 29.3903 4.8645 1.16804 6.43107 5.09392 2.02981 2.03856
1944 1 34.1153 0.270522 25.615 1.70722 -2.83634 4.61798 -4.34883 2.11464 -0.438004
1945 3 17.2399 29.3224 28.655 -23.0718 -4.19143 -6.42897 0.794067 7.34015 3.92139
1946 3 18.0349 28.7284 25.242 -4.72567 2.95349 -1.20475 -0.637903 0.638232 0.40879
1947 1 9.92844 20.2737 23.5507 13.0524 -9.41068 1.08208 -2.81539 1.68973 -4.54644
1948 1 18.6678 28.3161 32.415 8.07706 -0.561037 -3.65284 -3.25934 9.40247 2.12545
1949 3 14.6357 31.4356 31.8123 -2.17598 1.62797 -2.58789 0.778115 -3.13101 -1.05358
1950 2 16.3854 29.7248 19.6931 0.675053 1.0669 1.69652 2.56304 1.70416 3.06837
1951 1 14.6861 32.1584 19.803 -3.22255 -7.81961 9.47651 2.22711 -6.31666 1.53125
1952 1 14.755 31.5543 22.4846 -0.644635 -0.396192 -4.81178 3.50077 -1.46776 3.81647
1953 1 31.4214 1.69673 25.0896 -0.872607 1.27136 1.9288 -0.576743 0.274617 0.812278
1954 3 16.2247 32.0986 23.8851 -2.13144 0.349288 1.25555 -0.548979 -2.04753 -0.0439487
1955 1 15.6263 29.9939 30.3338 -3.68033 -5.43668 -1.00026 6.98837 -2.35259 -0.351933
1956 1 16.4977 31.8976 32.0449 -0.844832 -1.35538 1.56717 0.0232185 -0.110039 -0.736474
1957 1 34.7069 1.74849 19.2965 4.17529 -4.47855 1.24227 4.04406 1.30941 -0.746433
1958 3 35.5751 0.973151 17.5475 7.78696 -4.19715 0.149146 -8.52029 7.91166 -0.114233
1959 1 34.8665 0.993005 35.1807 0.750883 -0.595594 -0.0290303 0.368661 -0.123483 0.435007
1960 2 -1.27761 3.10394 30.7971 -1.96937 0.0756023 0.838125 0.24476 -0.363662 0.0795616
1961 1 36.2479 1.71386 33.0455 -0.928985 1.86339 0.944648 0.192498 1.19154 0.154216
1962 3 34.0496 2.06252 33.5623 -0.389175 -1.34326 1.66742 -0.459166 -0.0312861 -0.491892
1963 2 32.1341 3.93409 22.5545 -2.16364 -1.75581 0.785174 0.0196715 -0.146229 -0.17618
1964 1 33.2254 4.57589 20.1684 -1.74254 2.2559 1.8185 0.947967 0.686383 -0.238173
1965 3 34.6106 3.56634 18.4429 -2.2468 4.89456 1.17544 -0.510927 0.0908148 -0.908881
1966 1 34.0272 3.53515 28.9234 0.48708 -0.648533 -0.146703 0.313882 -0.186691 -0.196495
1967 1 31.4303 5.96958 26.0415 0.641813 -0.554031 0.321306 -0.290236 0.28284 -0.271044
1968 3 32.7469 4.62699 27.4519 -0.497789 -0.240719 -0.591086 -0.41177 -0.144641 -0.05402
1969 1 32.8465 2.95635 34.8695 -0.410723 1.61795 1.68067 -0.0939967 0.0127085 0.835543
1970 2 33.9128 5.52849 30.5485 -0.116331 0.418363 -0.106562 -0.0406595 -0.57204 0.0779699
1971 1 34.3573 3.81286 32.5394 1.41278 -2.29385 1.9522 -0.1969 0.295652 0.542521
1972 3 32.8423 4.64446 33.8168 0.214371 -0.571424 1.62843 0.225564 0.650607 0.00891477
1973 1 32.8379 6.46337 28.3946 -0.0201698 1.42432 -0.183163 0.0135242 -0.120994 0.0769755
1974 1 29.6036 8.19809 26.2502 0.339565 -0.30981 0.0462046 -0.0243058 -0.110945 0.102477
1975 3 30.8964 7.14246 27.5709 0.818291 1.65575 0.57941 0.0742769 0.191221 -0.0014321
1976 1 31.1881 5.39667 34.9175 0.206108 -0.789054 -0.194917 0.0228659 0.154492 0.237241
1977 2 31.4297 7.33208 30.6881 0.986749 0.155106 -0.112362 0.115904 -0.0177605 0.00270683
1978 1 32.6976 6.27505 32.6482 0.295565 0.343534 0.133028 -0.112911 -0.219243 -0.166771
1979 3 31.3741 7.26153 33.8718 0.530912 -0.693477 -0.566068 -0.111798 -0.345911 0.0156512
1980 2 29.7985 7.92752 21.6084 -1.31322 -0.17993 -0.147207 -0.106921 -0.163042 -0.010988
1981 1 29.0736 10.0907 20.2228 -0.904776 -0.546021 -0.253981 0.0769704 -0.0299584 -0.0471722
1982 1 29.1285 10.0843 23.6185 0.574966 -1.86104 0.285325 0.214036 -0.467625 -0.0544462
1983 1 31.44 9.08654 28.6723 0.47139 -0.63976 -0.269257 0.0455427 -0.154517 0.0859199
1984 3 29.9536 9.78087 27.4991 -0.971655 -0.422904 -0.290113 -0.119474 0.225434 0.294258
1985 3 30.5693 9.78954 25.0281 -1.40844 0.904013 -0.45272 0.0586642 -0.102501 0.0737195
1986 1 29.8013 8.02321 34.8762 -1.81146 -0.998642 -1.30062 0.273804 0.249433 0.261392
1987 2 31.0399 10.2624 31.0616 4.02758 1.45093 -0.829063 -0.232128 -0.0557859 -0.0502548
1988 1 31.9345 9.14711 33.0433 -0.334258 0.81349 -0.542155 0.0538695 0.0590251 0.153926
1989 3 30.0486 10.0422 34.1895 -0.12421 -0.0506138 0.0478839 0.00625971 0.0517046 0.0420922
1990 1 27.7009 12.7864 19.603 -0.838686 -0.631654 0.463474 0.617086 1.02142 0.357751
1991 3 29.4983 11.6781 18.6065 -1.07582 -1.66662 0.61712 -0.497356 0.259879 -1.10164
1992 1 -6.87118 12.0951 29.5321 -0.249111 0.261795 0.482177 0.0146693 0.063447 0.23138
1993 1 28.0796 10.8221 35.3105 -0.124833 0.0698856 0.0938852 -0.119641 0.216206 0.173914
1994 2 -7.49918 14.1299 31.0312 -0.400088 -0.295634 0.0309699 0.135509 0.0802298 -0.0353074
1995 1 29.9898 11.7905 32.8961 -0.620969 0.40664 -0.248337 -0.146365 0.0900775 -0.176786
1996 3 28.2482 12.4537 33.8542 0.0212228 -1.57088 0.100841 -0.0136207 -0.378045 -0.0160736
1997 2 25.8956 13.4933 21.2396 0.0416593 0.159835 0.143861 0.0718109 -0.0147231 -0.0601557
1998 1 26.6056 15.6514 20.0123 -0.0672865 0.0637502 0.269319 -0.159957 0.0125324 0.0323079
1999 1 26.306 15.0227 23.1912 -0.647419 1.3787 -0.981252 -0.0321893 -0.178867 0.112982
2000 2 -8.8225 16.7387 31.4335 -0.220729 0.221079 0.106948 0.0660543 0.102201 -0.133717
2001 1 28.1993 14.6057 33.0208 0.253715 -0.371822 -0.119422 -0.0252708 -0.0672656 -0.15649
2002 3 26.1791 15.2949 34.0221 0.37387 0.258948 0.32997 0.111865 0.183264 0.219348
2003 2 24.8421 16.432 21.7871 0.892595 0.497105 -0.205404 -0.128576 0.016216 0.140027
2004 1 25.0618 18.224 19.7874 1.32164 0.152562 -0.293877 -0.470533 -0.132027 -0.0693264
2005 1 24.9314 17.9812 23.9263 0.481771 -0.486842 0.104703 0.0165291 0.115148 0.0599069
2006 1 24.7809 16.4696 35.2416 0.238946 0.115637 0.0132147 -0.0764859 -0.102843 -0.0471196
2007 2 -10.7398 18.8653 30.9466 1.74363 -0.0148217 -0.725263 -0.115293 0.0663593 -0.130383
2008 1 26.133 16.7501 32.3832 -0.270154 -0.188997 -0.112928 0.345135 0.103642 -0.0446762
2009 3 24.7241 17.7339 33.7346 -0.403379 -0.0238085 -0.0939448 0.0441655 -0.130876 0.107874
2010 2 23.7285 19.0237 21.8883 -0.0308285 0.013166 0.0306876 0.00161644 0.0664444 0.0788532
2011 3 25.1727 19.9794 18.604 2.74913 0.573047 -1.15247 -0.433065 0.276892 0.165075
2012 1 23.3012 20.9737 23.5699 -0.851597 -0.129131 -0.235399 -0.120574 -0.693669 -0.0278088
2013 1 25.0408 20.7486 29.3628 -0.394219 0.0613962 -0.0908666 -0.156189 -0.0866639 -0.183534
2014 1 21.7763 21.7698 26.3591 -0.126378 -0.578167 -0.61638 2.00281 -0.252289 0.92756
2015 3 23.5075 21.5283 27.612 -2.61366 -2.83641 -0.426938 0.693266 0.345799 0.142675
2016 2 -11.9104 20.9228 31.8951 0.12562 0.128937 -0.219364 -0.0438366 -0.0807532 0.135856
2017 1 25.6587 19.342 33.7152 -1.17543 0.397432 -1.08711 0.370119 0.10077 0.536686
2018 3 23.6996 20.1646 34.7044 -0.592326 0.181798 -0.234464 -0.00853375 0.0810847 0.0459094
2019 3 23.2314 22.0603 19.1399 -1.00379 0.318826 0.843869 -0.63669 -0.0216391 -1.61578
2020 1 -13.3579 23.1512 28.8116 0.570466 0.0676076 -0.524548 -0.14666 -0.281253 0.457753
2021 1 20.9424 24.009 26.0298 -2.25879 -0.171435 0.156391 2.79734 3.09966 1.51768
2022 3 23.7291 22.0896 25.1489 -0.0757663 0.306072 -0.931449 0.206089 0.107919 0.0717162
2023 1 23.4885 21.7386 33.2674 -0.485233 0.040997 0.0937108 -1.15255 -0.245651 -0.100215
2024 3 21.7439 23.368 34.1802 1.0542 0.560191 0.912283 -0.355731 -0.0366077 -0.0101575
2025 2 21.5452 22.8763 21.7576 1.8054 -0.21731 -0.161905 0.586707 -0.413758 1.36346
2026 1 21.5207 25.0984 20.5764 -0.491899 -0.692633 -0.793829 0.884385 -0.16929 -0.54481
2027 3 22.357 25.2822 18.4928 0.616299 2.56189 0.854024 -0.555794 0.430325 0.492971
2028 1 20.5599 26.2161 23.6206 -2.26619 -0.253428 -3.9498 1.27778 -0.495181 0.733905
2029 1 20.477 27.3698 26.899 8.55121 -0.673586 -0.312672 -0.938582 0.994473 2.04701
2030 3 21.1703 25.4009 27.301 1.59502 -2.33314 -0.223235 -0.993342 0.460838 0.426392
2031 3 21.8647 24.842 24.6255 1.58365 -0.822488 -0.769149 0.26332 -0.127812 -0.420202
2032 1 21.9181 25.5461 32.8212 -2.15571 -0.396631 0.153696 -0.183956 -0.826237 0.285325
2033 2 19.7175 27.4739 21.4887 -0.980242 -0.191917 -3.19377 -1.47682 -1.93021 -0.489199
2034 1 18.9592 29.8009 20.7965 -0.21197 0.755947 -0.634667 -0.958004 0.30045 -0.525063
2035 1 19.2537 29.2638 23.6208 -0.00183718 0.674778 1.2558 1.13572 -0.55251 0.475603
2036 1 17.9507 30.2123 26.7463 2.77788 10.6793 1.60222 -2.62136 1.07014 -0.955256
2037 3 20.0412 29.4615 27.7611 2.38079 -4.31334 -1.48357 -0.385343 -0.689908 -0.325981
2038 3 20.0438 27.6113 24.9149 0.522615 -0.648873 1.17438 0.92995 0.0832914 -0.998242
2039 2 -17.1967 30.3738 30.8994 0.6384 1.31589 2.99536 0.215191 -1.25645 -0.238103
2040 3 19.1249 29.9022 33.8701 3.30405 0.342863 -2.1334 -0.579766 -1.06898 1.06361
2041 2 17.3888 28.4029 22.099 1.66164 1.86719 -3.02137 0.309157 -0.404637 0.20085
2042 3 -17.5857 30.6499 18.9859 3.95941 3.62543 -4.49286 0.142447 2.60648 -0.570891
2043 1 36.5506 0.0382558 23.3036 -3.65164 -3.1277 4.03847 -1.87795 -3.16751 0.988653
2044 3 18.7205 30.8915 24.6648 -0.993766 3.32254 -3.15396 0.346526 -0.530254 0.773467
2045 1 17.5969 30.3414 35.072 -2.83921 -1.44697 5.47982 -2.93239 3.16405 1.49186
2046 2 -0.202449 0.543933 30.6436 -1.67911 0.611437 0.372316 -0.333218 -0.0960442 -0.0458765
2047 1 -18.1659 31.6965 32.9296 3.58216 -0.881334 0.876151 -1.29065 -1.29943 0.299399
2048 3 17.0712 31.9726 33.8336 -2.03691 2.21433 -0.483897 0.895104 1.04113 -0.454709
2049 2 0.970017 0.792844 38.8822 0.281354 -0.237148 -0.103767 -0.384659 -0.198409 0.291085
2050 1 0.387322 2.00753 36.6718 1.23529 -0.247835 0.922389 0.160639 -0.13221 0.136702
2051 1 0.166981 2.40017 41.0428 -0.00510726 -0.842624 -0.247052 0.387511 1.09195 0.315673
2052 1 35.3211 3.06532 43.2963 -1.15586 -0.733596 3.78348 0.685674 0.893991 -1.55999
2053 1 -1.05553 4.47015 36.5382 -0.926775 0.098376 0.383084 0.279813 -0.0579725 0.0582567
2054 1 0.176609 3.3451 46.2253 0.624247 -0.428443 -0.158501 -0.111534 -0.570284 -0.588425
2055 1 -2.75495 5.43381 43.1502 0.151117 -1.84986 1.35982 0.250371 0.131982 -0.300124
2056 3 -1.18493 4.5384 44.6056 1.1824 2.34498 2.14396 0.0732735 -0.280317 0.0307044
2057 1 -2.89086 6.66542 37.5125 0.00966996 0.0162253 -0.273489 -0.0220326 -0.122006 -0.165123
2058 3 -1.6545 6.31863 36.1147 0.754152 -1.19348 0.740119 -0.0840168 0.0417298 0.183426
2059 1 -0.752499 6.1485 45.9622 0.282127 1.83681 0.155849 0.831276 -0.058159 -0.261876
2060 2 -1.90194 8.29344 46.6153 2.71951 -0.149822 -1.39688 0.490047 -0.243814 0.0370043
2061 3 -2.97452 8.72837 36.0012 3.09536 2.48559 2.64013 -0.229383 -0.121382 -0.18174
2062 1 30.9228 10.7023 43.1345 0.66604 -0.393962 0.542686 0.13779 -0.180361 0.0821966
2063 3 -2.93458 8.29511 43.0156 0.20929 -0.870448 -0.791553 0.108444 -0.0328022 -0.123564
2064 1 -3.68018 9.11734 47.9726 -0.731996 -2.46201 2.71082 0.0904323 -0.534267 0.863573
2065 3 -4.52807 11.9624 35.6869 -0.349206 -0.0293946 0.239361 0.0300098 0.0548485 0.0684918
2066 1 29.4329 13.1089 42.7898 0.433718 -0.302241 0.327241 -0.0074439 -0.0882102 0.240647
2067 3 -6.45371 12.5097 43.9842 -0.978011 -0.675098 -3.83513 0.244516 -0.756946 0.00804483
2068 3 -4.75612 11.0124 41.9014 -0.575104 -3.00009 0.955827 0.165593 0.624969 -0.134815
2069 2 -3.71704 12.6305 46.6831 0.179213 0.0332005 -0.0180895 0.0404561 0.10803 0.0728029
2070 1 -4.99224 12.2624 48.631 0.00241383 0.0668811 0.164745 0.18462 0.00124732 0.135914
2071 2 -6.85417 13.3262 39.2783 0.0619812 -2.84739 -0.357161 0.204094 0.916358 0.145988
2072 1 -7.62635 15.0585 37.5412 -0.515549 0.144092 -0.0923391 -0.299575 -0.10725 -0.104769
2073 3 -6.39412 14.7419 35.5156 -0.498195 0.533378 0.105381 -0.0923195 0.0527467 0.0855505
2074 1 -7.31236 15.3574 41.1493 -0.316139 -0.604248 -0.382375 0.162652 0.167801 0.32015
2075 1 -9.0898 16.0741 43.9125 -2.21613 -1.11842 2.26444 0.320819 0.105685 0.232252
2076 3 -6.02545 14.2352 42.7783 0.727592 1.29319 -1.07772 0.270377 0.344241 -0.756389
2077 2 28.0429 15.5326 39.3917 1.02964 -1.83034 0.113918 -0.379351 0.47657 0.303478
2078 1 -9.36514 17.6909 37.6596 -0.0577612 0.183433 -0.134751 0.0340931 -0.0353151 0.0677823
2079 1 -9.29939 17.5999 41.0914 1.6223 0.416194 0.0872797 0.20906 0.453054 0.335753
2080 1 -7.49815 17.4353 45.1187 -0.865994 0.252404 1.51675 0.0698797 0.143814 0.0874201
2081 1 26.4075 18.5099 43.1878 0.232117 -0.291278 -0.209846 -0.136614 -0.0946625 0.125422
2082 3 -9.46092 18.0092 44.5585 1.10336 2.67259 -3.89383 0.123585 0.243425 -0.346863
2083 2 -8.35146 18.3645 47.4621 -6.49319 3.53521 -10.0527 -0.815391 0.43764 -1.26231
2084 2 26.4624 18.5535 39.4269 -0.0915271 0.25952 0.41273 -0.0275707 0.15292 -0.0224842
2085 1 -11.177 20.4874 37.9302 0.721789 -0.578235 1.12066 -0.0740444 0.540316 -1.67495
2086 1 -10.9137 20.5355 41.0671 -0.48124 0.262815 0.565412 0.0528501 -1.10744 -0.161428
2087 1 -9.33704 20.1341 45.5618 -0.226274 -1.79385 -0.307254 -0.519735 -0.214444 -0.802224
2088 1 -12.0059 21.5773 43.7842 -0.256529 -0.0653317 -0.214647 0.0856915 0.0371704 0.20994
2089 3 -11.0252 19.9989 44.4177 -4.99358 -1.35915 1.89075 -0.153579 -0.0811245 0.283881
2090 3 -9.35722 19.4245 42.2739 0.575848 0.49884 -0.0037042 -0.0279728 0.318586 0.127358
2091 2 -9.47628 22.6473 46.7908 -0.0269457 -1.37146 0.243113 0.0869578 -0.267325 0.334227
2092 1 -8.59694 20.8082 48.0938 3.10316 -1.28714 0.67759 0.853327 -0.327169 0.547295
2093 2 24.2984 21.6171 39.2582 -2.02688 0.0655206 0.193885 -0.621833 0.873936 0.475428
2094 1 -12.4972 23.1893 37.3438 -0.46995 -0.381213 0.775008 -0.197202 0.148716 0.531998
2095 3 -10.894 22.2547 36.5303 0.574028 -0.242588 0.359 -0.0306921 0.146299 0.0152621
2096 1 -12.0924 23.1822 41.0388 -1.43678 0.939459 -0.174325 -0.756695 0.425819 -0.157954
2097 1 -13.5834 23.8881 43.2693 0.388933 0.168446 -0.0149405 -0.126837 -0.283935 0.0910403
2098 3 -11.6668 23.2732 44.5642 -3.82587 -1.20084 3.65367 -0.440151 -0.167804 0.864336
2099 3 -11.0158 22.1729 42.2708 0.810197 -0.243101 -0.579466 -0.177867 0.18716 0.193758
2100 2 -13.7384 24.1246 39.4672 -0.548863 -0.453334 2.49811 0.697123 -1.03579 1.73848
2101 3 -12.5226 25.0357 36.2942 -0.75905 -2.35473 -1.95833 0.198003 -0.00113762 0.735188
2102 1 -13.9283 25.6641 41.3628 1.71091 -1.65078 -2.28039 0.226049 -0.099229 -0.103253
2103 3 -12.1248 25.0215 42.4706 0.888058 -0.295632 0.0163801 -0.0179454 -0.137877 0.240044
2104 1 -11.6463 24.8791 48.9786 -0.25357 1.35166 0.138219 -0.484944 0.579032 0.210241
2105 2 -14.0976 26.7069 39.011 -4.5143 2.14825 -4.80646 0.848751 -0.433388 0.946352
2106 1 -14.7525 28.8828 37.7265 0.0541221 -0.167759 0.606078 0.201 0.592165 0.304658
2107 1 -15.3459 28.0986 40.8999 -0.301384 1.39019 0.488761 0.167463 -0.654469 0.255681
2108 1 -13.0785 27.1764 48.8845 -0.208874 1.57324 0.522711 -0.456428 -0.539486 0.498582
2109 2 -16.2246 29.9136 39.451 0.697858 1.02552 -0.216025 -0.676494 -0.406862 0.0906969
2110 1 -16.8931 31.3204 36.9912 0.425435 -0.341549 -1.01855 -0.502079 -0.302751 -0.444715
2111 1 -16.6524 31.9657 41.0619 -2.34324 -1.01194 -1.05134 0.334184 -0.262474 0.155203
2112 1 0.264344 0.600304 43.1169 -0.928705 -1.02911 0.253573 -0.559379 -0.863658 -1.26123
2113 2 -15.8087 31.9192 46.8082 0.443452 0.0868224 -0.195783 -0.491703 0.00919983 0.33464
2114 1 -14.2442 30.2407 48.7007 0.160343 -1.97067 0.153258 -0.255015 -0.24222 -0.0989854
2115 2 -15.148 32.0179 38.7916 0.51645 4.75263 3.49989 0.386102 0.771918 -0.149489
2116 1 3.06072 1.81378 37.5005 -0.740678 -0.462424 0.200021 0.116252 -0.414921 0.175046
2117 1 2.89654 1.95389 40.3635 -0.450153 -0.131163 -0.522014 -0.0707367 -0.358438 -0.0763734
2118 1 4.35942 1.5449 46.2252 0.829601 0.972349 -1.21935 -0.146464 -0.432129 0.912443
2119 2 4.91936 3.23882 48.067 0.0668339 0.103491 -0.0646155 -0.118901 -0.36069 0.249654
2120 1 3.85585 0.970421 48.6811 3.35851 0.377725 -0.493756 -0.952234 0.00285009 0.616939
2121 2 1.45232 3.33939 38.6912 -0.212425 0.539984 0.202702 -0.0256717 0.0694044 0.0931842
2122 1 1.40018 5.47903 37.3492 0.290831 -1.26938 1.4798 0.00788867 -0.409157 0.22421
2123 1 1.36621 4.93615 40.5926 0.548738 -1.11491 2.50022 -0.118408 -0.019296 0.13865
2124 1 3.29166 4.14434 46.3712 0.766205 0.0297712 0.279535 0.207581 -0.56853 -0.266901
2125 1 0.389346 4.80599 43.5132 -0.534892 0.501344 -0.548088 0.18356 -0.172791 -0.698381
2126 3 1.72238 4.00142 44.8976 0.034973 -0.23521 1.07116 0.0829906 -0.107681 0.0149506
2127 2 3.45597 6.41716 47.4122 -1.39539 0.823285 -0.0114925 -0.352734 0.0670388 -0.221734
2128 1 4.66401 5.48579 49.3173 0.126701 -0.399955 0.284316 -0.194753 -0.224869 0.529371
2129 2 -0.721112 5.62465 39.1357 -8.59086 1.32975 6.71151 -0.115146 -0.158041 0.20532
2130 1 -0.394294 7.48453 37.4916 1.09077 -0.852092 1.65836 0.173759 0.0498901 0.148769
2131 1 -0.172686 7.84106 40.3238 1.04595 -0.679759 1.88603 0.019964 -0.0737354 0.214267
2132 1 1.99666 6.14247 45.321 -0.386168 0.182931 0.411982 -0.762288 -0.741206 -0.817626
2133 1 -1.14513 7.46079 43.158 -0.186799 -0.866209 0.403703 0.117105 0.108101 0.117804
2134 3 0.334348 6.74545 44.2479 2.37371 1.75936 -1.31939 0.043977 -0.030069 0.0940246
2135 3 2.66277 5.84059 42.0098 -0.0885412 -0.741453 -0.543415 0.0591801 -0.382173 -0.297496
2136 2 1.2923 7.67352 47.1362 0.62443 -0.963721 -0.423482 -0.126384 -0.158915 -0.146887
2137 1 1.53039 6.2523 49.0173 0.235992 -1.17979 0.939937 0.237022 0.0790883 -0.427106
2138 2 -2.48742 8.30516 39.3787 -0.029415 0.267219 -0.0648547 -0.0207234 -0.0231836 0.0331916
2139 1 -1.88503 9.69588 37.2233 0.893294 0.823682 0.127582 0.000227938 -0.124203 0.0514059
2140 3 -0.00787514 8.71627 35.9895 -0.837712 0.420621 1.26111 0.00394924 -0.18922 -0.033679
2141 1 -2.03842 9.89049 41.8293 -2.11548 -1.40955 -2.35185 -0.579402 -0.546107 -0.577146
2142 1 0.145603 8.61309 45.3938 3.48611 0.779645 -2.07441 0.289198 0.169073 -0.389994
2143 3 -0.155805 8.91593 42.2795 -3.01928 3.77773 9.81639 0.374415 0.0199965 -1.38636
2144 1 -0.288814 9.08854 48.2678 -0.473107 2.39807 1.24055 -0.194998 0.428915 0.496286
2145 3 -1.65699 11.4149 36.1033 0.939847 0.00221037 1.57402 -0.0304186 -0.0642845 0.103539
2146 1 -4.51839 12.5557 43.2244 1.04934 -0.658046 0.965156 -0.192232 0.0764599 0.0476132
2147 3 -1.92268 11.1508 43.2702 0.138504 4.47293 0.293556 0.405979 0.852891 0.126146
2148 2 -1.11729 12.6141 47.075 0.246089 -0.161187 -0.499394 -0.00499892 0.0850596 0.025043
2149 1 -2.22251 11.315 48.6961 0.343207 0.404428 0.100489 0.486248 0.0628018 0.0529636
2150 2 -4.54144 12.8688 38.7386 0.951677 -0.323777 0.573422 -0.723525 -0.220142 0.344591
2151 1 -4.82767 14.8881 37.0315 -0.239854 1.43413 1.80511 0.0525505 0.0860924 -0.127854
2152 3 -3.21546 14.4577 35.7576 -4.64764 1.42035 3.04832 -0.458166 -0.171253 0.456103
2153 1 -4.92869 14.2395 40.8262 -0.325968 -0.00451828 0.469059 0.290763 0.159364 0.240174
2154 3 -3.49041 14.1105 42.3358 -2.4465 0.948256 -0.318555 -0.0599568 0.0878853 -0.268626
2155 1 -2.65262 14.1195 48.4041 0.103182 -0.0814466 -0.282698 0.00582637 0.121195 0.276768
2156 2 -5.84617 16.0838 39.1888 0.323582 -0.532013 0.84327 0.0626541 -0.381582 -0.0141858
2157 1 -6.25415 17.8392 37.5301 -0.765234 -0.768287 1.06797 0.0631042 0.0214724 0.0331877
2158 3 -4.82312 16.8032 36.0852 0.118465 -0.328959 -0.93065 0.150312 0.0852669 0.186367
2159 2 -7.74406 18.7415 39.4033 -0.495332 0.197007 -0.0361319 0.079727 0.11087 0.061659
2160 1 -7.86768 20.4344 37.308 -0.0129007 0.13414 -0.146484 0.24309 0.139049 -0.501968
2161 1 -8.0614 20.6876 41.4173 1.14383 2.53634 -2.06495 1.07113 0.584013 0.260828
2162 1 -6.54832 19.489 46.0168 -0.244288 -0.151709 0.487351 -0.26517 0.0327368 -0.263694
2163 2 -6.17367 21.4291 47.9737 0.666818 0.259141 0.128947 0.114252 0.108705 -0.085182
2164 1 -6.30885 19.0172 48.6882 0.525137 0.791369 0.446749 0.145651 0.232499 0.298278
2165 2 -9.2184 21.053 39.2322 0.0174488 0.183663 -0.0502287 -0.0591018 -0.0595686 0.00716117
2166 1 -9.32245 23.259 37.2319 1.36546 1.04531 -1.16399 0.372883 -0.43848 0.927792
2167 3 -7.55756 22.4008 36.423 0.0754885 -0.566067 0.157691 0.174401 -0.162388 -0.0852139
2168 1 -10.3404 23.944 42.8186 -0.013554 -0.202375 -0.0523144 -0.190779 -0.192216 0.29969
2169 1 -7.50578 23.4877 48.1326 0.413115 -0.128347 0.828397 -0.251624 -0.0435471 0.421608
2170 3 -9.13365 24.7068 35.676 -0.110801 0.998568 -0.215016 -0.101637 -0.164416 0.209989
2171 1 -9.48399 25.5331 46.6773 -0.0188664 -0.190339 0.0930568 0.174836 0.177251 0.437936
2172 1 -12.1881 26.6518 43.7946 -0.533176 0.390717 0.0702527 -0.00394189 -0.055551 -0.110222
2173 3 -11.0948 26.2888 45.507 0.194193 0.274987 -0.4757 -0.0549308 -0.0898187 0.0964403
2174 2 -9.62521 28.597 47.7407 -1.26046 1.69409 -0.190685 0.0469984 -0.0980237 -0.111208
2175 1 -8.78822 26.4375 48.878 0.142899 -0.685217 0.461569 -0.273211 0.652619 0.553047
2176 1 -12.1949 29.1623 37.2951 -0.0469422 -0.17831 0.321465 0.0817955 0.370809 -0.861686
2177 3 -11.2663 27.832 35.9466 0.772889 0.207177 4.91986 -0.0983158 0.0369573 0.0160318
2178 1 -13.1448 28.5679 42.1798 1.68089 0.0779993 -0.406162 0.184035 0.301309 -0.461754
2179 1 -11.0205 28.196 45.8097 0.471667 0.6422 -0.492026 0.205386 -0.778303 0.443775
2180 3 -11.0955 27.8827 42.8123 -1.17859 0.0733319 0.619553 0.101227 -0.00751072 -0.0835078
2181 1 -10.8122 28.0011 49.7189 -1.13725 -0.797643 0.610212 0.186828 0.146933 -0.253963
2182 2 -12.8403 28.6093 39.6851 -2.82707 -1.24865 0.267923 0.524857 0.803428 -0.0210246
2183 1 -13.2138 31.7967 37.198 0.455887 -0.327001 -0.244177 0.348547 -0.218043 -0.161845
2184 3 -12.5265 30.5619 35.762 -0.0302166 -1.23581 -0.0731642 -0.301374 0.139879 0.0127168
2185 1 -13.5797 30.8339 40.3974 0.0177212 1.54789 -0.286053 -0.0377748 -0.391974 0.120647
2186 1 -12.1655 30.3863 46.084 -0.211022 -0.0217735 -0.33825 0.0352164 -0.215576 -0.0550618
2187 3 -12.5667 30.541 42.4267 -0.262207 0.411409 0.0107141 0.0808188 -0.0262479 0.109969
2188 2 -12.8934 32.091 47.6427 0.205082 -0.0422873 -0.269173 -0.0133502 -0.0667816 0.0674085
2189 2 -11.9309 32.2733 39.1896 0.0750176 0.404947 0.425904 0.0752996 -0.271935 0.1454
2190 1 6.35473 2.06298 37.3515 0.31387 0.0282942 0.00922675 -0.129676 0.0652467 0.0643507
2191 1 6.10573 1.79511 40.7479 0.607744 2.02897 -0.0163331 -0.151091 -0.17726 -0.194066
2192 1 7.08306 0.939846 45.7658 0.178344 0.732422 1.95343 -0.0592116 -0.222614 -0.0459296
2193 3 5.7218 1.85756 44.6574 0.0332046 0.0245647 -0.361383 -0.0505141 -0.03143 0.172578
2194 3 7.19439 0.915206 42.4379 0.323822 -0.00354844 0.0330425 0.058019 0.0276044 0.0161436
2195 2 7.8857 2.29369 47.6126 -0.292583 0.353012 0.913917 -0.105539 -0.237949 0.411755
2196 2 4.69773 3.0921 38.9611 -0.135459 0.426413 -0.148706 -0.102071 0.0302586 0.124832
2197 1 4.50701 4.71009 36.9147 -0.278678 -0.388311 0.0473765 -0.279813 -0.232135 0.335725
2198 3 5.8554 3.61692 35.9493 1.30018 -0.709055 1.44358 -0.0749711 0.0911565 -0.0526351
2199 1 4.12574 4.22958 41.111 2.16473 1.63244 0.125387 0.21997 0.488634 0.541207
2200 1 6.29337 3.66955 45.9355 -0.358361 -1.14783 0.963349 -0.349117 0.28834 0.00508517
2201 1 3.19717 4.57187 43.5064 -1.05881 0.209056 0.627831 0.068682 0.116346 0.0876329
2202 3 4.70502 4.24033 44.816 -1.27089 -2.29525 0.794517 0.186564 0.272591 0.0504982
2203 2 6.053 6.27769 47.4939 0.117776 0.881851 -0.854548 0.325232 0.129061 -1.5494
2204 1 7.1586 4.36283 48.6284 -1.57424 2.28613 1.31063 0.00821829 -0.757222 0.213423
2205 2 3.36625 5.53256 38.9297 -0.274352 0.617037 0.192446 -0.100873 -0.133607 0.145732
2206 3 5.09779 6.38647 36.2534 -0.121601 0.0323123 2.75295 0.0660562 -0.0463222 -0.139995
2207 1 2.84426 7.31224 40.6409 0.589723 1.18877 2.31932 0.232007 -0.19137 -0.321317
2208 1 4.83552 6.12224 45.272 -1.86271 0.790683 -0.582206 0.643577 -0.537727 0.358
2209 1 1.70133 7.82575 43.081 1.21078 -1.5562 -0.121184 0.275824 -0.322988 0.057005
2210 3 3.39671 6.42695 43.9433 -1.937 0.798117 -0.115291 -0.258153 0.140806 -0.115461
2211 2 1.83076 7.72576 38.4194 2.63625 0.814799 -1.31715 -0.0517513 -0.0163829 0.173597
2212 1 1.22898 10.0506 41.1232 -0.251468 -0.344355 0.536059 -0.304632 -0.160982 0.427
2213 1 0.0786369 10.5667 43.4498 -0.378517 -0.542642 -0.218509 -0.295033 -0.156432 -0.055459
2214 3 1.44227 9.71334 44.5081 -2.01587 -0.310658 -1.72769 -0.255942 -0.293371 -0.201084
2215 3 3.03394 8.91881 41.9097 -0.576996 -0.804806 1.31294 -0.112198 0.0222577 0.17666
2216 1 3.16733 8.87222 47.8386 -0.612213 -0.236935 -0.652475 -0.306679 -0.0904118 0.00324116
2217 3 1.80896 11.4236 36.5553 1.82552 0.630082 0.684127 0.622166 1.48885 0.174181
2218 1 -1.75134 13.1569 42.8613 0.539727 0.296002 0.103581 0.324044 -0.0204872 0.306374
2219 3 -0.329795 12.3558 44.0666 -2.67056 5.31907 3.90496 -0.83723 0.79152 -0.134833
2220 3 1.56578 11.6426 42.5629 2.11901 -0.377227 -0.558079 -0.190888 0.0473459 0.196471
2221 1 1.20716 11.3771 47.5659 -0.714802 0.390267 -0.228064 0.128168 -0.00925742 0.309177
2222 1 -1.57367 14.993 37.5794 1.96106 -0.0361229 -0.491203 0.142781 0.0833448 -0.00296308
2223 3 0.16854 14.61 36.3703 -0.543747 -0.244783 0.022928 0.180669 0.0228148 0.118928
2224 1 -2.21874 14.9639 40.7839 0.151927 0.848528 -1.55112 -0.312069 -0.200825 0.487473
2225 1 -0.388891 14.0687 45.2221 -5.0144 -0.392922 -0.151224 0.23545 -0.66453 -0.0938533
2226 1 -3.64027 15.9011 43.2527 -0.650192 -0.457931 0.929329 0.543254 0.239432 -0.416841
2227 3 -2.14751 14.7378 44.2519 -0.154611 0.0732019 0.922485 0.152818 0.000456017 0.202136
2228 3 -0.756064 14.189 41.6423 0.496459 0.270504 -1.31064 0.205831 0.0983789 -0.0975289
2229 2 -0.541868 15.2759 47.403 -0.910523 0.268445 -0.827126 0.0333273 -0.0464138 0.103638
2230 1 0.128908 13.5512 48.9865 0.200574 -0.249266 0.0305839 0.00519791 -0.168787 0.281076
2231 1 -3.60905 17.3699 37.7893 3.6541 0.857568 -0.897353 0.580874 -0.0596993 -0.190357
2232 3 -1.95335 16.8804 36.8369 0.690523 0.854175 -0.340084 0.190702 -0.11411 -0.236119
2233 1 -1.81148 16.6083 45.7511 -1.45712 0.624383 -0.210307 -0.453402 0.546226 -0.0297678
2234 3 -3.18774 17.4301 44.5119 0.485235 0.409247 0.830526 -0.122033 0.182087 0.100438
2235 3 -2.09284 16.8004 41.8977 -0.899533 -0.6628 -0.490019 0.0790604 0.13506 0.196121
2236 2 -2.4071 19.1821 47.5889 -0.0410253 2.85394 1.32485 0.310663 -0.341831 -0.281887
2237 1 -4.87764 20.4286 37.7581 -0.314653 1.25807 0.247307 0.130858 0.286725 -0.396742
2238 3 -3.46542 19.182 36.6691 -0.526737 -0.735618 -0.154653 0.0425903 0.345194 -0.1193
2239 1 -3.54175 19.2313 45.3108 -1.7193 0.778651 -0.781193 -0.368255 0.404745 -0.335617
2240 1 -6.75964 21.2981 43.7446 1.52166 0.344723 0.735057 0.270031 -0.274783 -0.191943
2241 3 -5.2037 20.1024 44.2796 0.121846 -0.0477007 -0.210847 -0.727308 -0.0858987 0.679782
2242 2 -3.63288 21.824 47.6999 0.107005 0.113819 -0.28372 -0.0291764 -0.100271 -0.0600841
2243 2 -6.51704 21.1793 39.4925 0.2589 0.13292 -0.0517547 0.0620002 0.164979 -0.143895
2244 1 -6.10166 23.3297 37.6492 -0.0928807 -0.346016 -0.540206 -0.00605144 -0.113244 -0.310527
2245 3 -4.51552 22.2799 36.6841 -1.11485 0.489345 0.00466862 0.0898406 -0.21862 -0.155951
2246 1 -5.87802 23.0106 41.0223 0.715561 0.560431 0.49782 0.30355 0.0288123 0.059646
2247 1 -5.08949 21.6482 45.6968 -0.0065048 0.240476 1.04645 -0.650821 0.342072 0.00407231
2248 3 -5.09398 22.5944 42.7589 -0.437364 0.316791 -0.879788 0.540139 0.0416045 0.885181
2249 1 -4.70324 23.699 48.8417 -0.296244 0.0899935 -0.329244 -0.246436 -0.332911 -0.290785
2250 1 -8.00569 25.722 36.9643 1.30633 0.630655 0.375869 0.765279 0.431829 0.167234
2251 3 -6.51959 24.7817 35.9723 -0.0816889 0.236598 -0.114846 0.00901394 -0.000365305 0.0241623
2252 1 -9.52146 26.8095 43.9991 -0.0280714 -0.025047 -0.139389 0.0403967 -0.100888 0.0169098
2253 3 -7.94101 26.0152 45.2539 0.459671 -0.161284 0.29994 0.346237 -0.143694 -0.0543294
2254 3 -5.98874 24.5635 42.6479 0.120864 0.0249833 -0.829721 0.153064 0.073284 0.221605
2255 2 -5.72755 28.2489 47.756 0.418576 1.06865 -0.498372 -0.10038 -0.038241 0.100516
2256 1 -6.49487 25.5939 46.7892 -0.435518 -0.220588 -0.00391544 0.0121581 0.209319 0.0331453
2257 3 -7.62105 27.5173 35.8549 0.795436 1.12573 0.845928 -0.056503 -0.0356353 0.0545937
2258 1 -7.67548 27.8358 46.0035 0.0344829 -0.299346 -0.23001 0.104263 0.250415 0.0972203
2259 1 -10.7981 29.7666 43.5102 0.0270519 0.246273 0.0345934 -0.0321687 -0.138357 0.460993
2260 3 -9.30668 28.7358 44.5828 -3.15891 -0.847691 2.1253 -0.313283 -0.187756 0.399103
2261 3 -7.78823 27.4475 42.8092 0.289374 0.338327 0.477808 0.0994823 0.131287 0.0515383
2262 2 -7.0772 30.1452 46.3806 0.348863 0.285478 -0.109946 -0.00958451 0.112921 0.286379
2263 1 -7.64702 29.1162 48.9631 0.518345 0.377871 0.101943 -0.587156 -0.261099 0.0235326
2264 1 -10.9442 31.6054 41.408 1.14984 -0.51937 1.15827 0.235652 -0.955392 -0.343075
2265 1 -9.44201 30.3996 45.9572 0.521244 0.00177275 -0.384993 -0.0513395 -0.0850761 0.412775
2266 1 5.80306 0.0721444 43.379 0.20294 1.15606 -0.0876845 -0.0172985 0.123786 -0.12693
2267 3 -11.1456 31.4349 44.7681 0.0640061 0.325465 -0.330952 0.05561 -0.0351278 0.151365
2268 3 -9.39001 30.712 42.8243 0.142067 -0.295468 -0.0289971 0.0568346 0.10393 0.0159853
2269 1 7.32722 2.64377 43.4103 -1.07299 1.271 -1.79217 0.0598336 0.00442831 0.152386
2270 3 8.73437 2.00993 44.568 1.09638 0.176349 0.989292 -0.429441 -0.0169609 0.0308417
2271 3 10.8881 0.709851 43.066 -0.575219 -0.785541 0.79198 -0.0476548 0.201449 0.297959
2272 2 7.68733 3.07924 39.297 -0.036684 0.4532 -0.134885 -0.0824906 -0.211919 0.183851
2273 1 7.36887 4.76558 37.2829 0.980619 -1.36959 0.71491 -0.0877192 0.135464 0.134891
2274 1 7.37043 4.78166 41.2473 -1.96039 -1.18512 -0.280594 -0.0503574 -0.131437 -0.0254834
2275 1 9.02519 3.7311 45.8326 0.175094 1.97182 3.24414 -0.0447588 -0.0532078 -0.10221
2276 3 8.84007 3.89148 42.4674 -1.17661 1.0756 -0.125671 0.426778 -0.438993 0.430882
2277 2 9.17607 5.31939 47.7725 1.301 0.285759 0.406775 0.582071 -0.104899 0.0276351
2278 1 10.2647 2.928 48.1088 -0.449874 -0.0479193 -0.471268 0.0623664 -0.025166 0.187228
2279 3 7.74144 6.01996 35.6481 3.26949 -4.38055 -4.15866 0.0852881 0.160263 0.1202
2280 1 7.7692 6.21877 45.8259 -0.495891 0.133317 -0.177854 -0.0983289 0.308602 0.375225
2281 1 4.52201 7.94552 43.3188 1.87298 -0.0868884 0.85213 -0.248757 0.300645 -0.107991
2282 3 6.07438 8.66082 35.6811 -0.343661 0.704926 0.479923 0.158339 0.0542305 -0.164733
2283 1 4.92298 9.50627 41.2558 0.628461 1.07127 -1.9539 0.136083 0.0895239 -0.0914543
2284 1 6.33583 8.86221 44.9322 2.70411 -2.23478 2.17699 -0.0291768 -0.129509 0.355028
2285 1 2.99684 10.2568 43.3318 0.451628 -0.438052 -0.873914 -0.267265 0.335766 0.238818
2286 3 4.47898 9.65738 44.706 0.0462878 -0.34341 -0.169165 -0.258933 -0.0558014 0.236991
2287 3 6.23863 8.85488 42.8596 1.69042 0.856428 3.07089 0.00795974 -0.0471729 0.289393
2288 3 5.06949 11.8989 35.4434 -0.722765 1.01912 0.00588761 -0.0161215 0.210515 -0.120065
2289 1 4.94524 10.9327 46.2799 0.865288 3.6929 1.24638 -0.76559 0.201879 -0.178224
2290 3 4.66553 11.241 42.3641 0.243541 0.358796 0.1289 -0.0394537 -0.0211583 0.221079
2291 2 4.9847 13.0563 48.1505 -1.22444 -0.678279 1.1576 1.09326 -0.832924 0.533667
2292 1 4.27157 10.8527 48.6736 0.805703 0.578333 0.0951951 -0.0135942 -0.299452 0.376707
2293 1 1.40905 14.023 37.971 -0.169448 0.529154 -1.00594 -0.209274 -0.429222 0.447817
2294 3 2.60125 13.4198 36.6679 1.16409 1.23466 0.20043 -0.33666 -1.32056 -0.336711
2295 1 -0.830531 15.7652 43.196 -0.574024 0.210772 0.379833 0.277934 -0.0183139 0.217295
2296 1 2.74818 13.6801 48.6 -0.240093 0.717253 0.703685 -0.51811 0.205993 0.16875
2297 2 0.708484 16.0288 39.1817 -0.235139 -0.414055 0.119691 -0.0901739 0.00592062 0.0746853
2298 1 -0.0790539 17.1341 41.1594 1.11656 -1.54687 0.946112 0.570321 0.668542 1.19287
2299 1 1.22027 16.9909 46.4988 -1.97248 1.15517 -0.231178 -0.242085 -1.25094 0.499064
2300 1 -1.68418 18.3631 43.3085 0.946975 1.40044 -1.09024 -0.142389 0.129518 0.348404
2301 3 -0.361315 17.4446 44.7961 0.0767611 -0.76907 0.609555 0.282847 0.300011 -0.239229
2302 3 1.07917 15.8683 42.5351 -0.902164 -1.08932 0.465924 -0.158541 0.097263 0.189016
2303 1 -0.775027 19.3555 45.7168 -2.05405 0.930479 2.45694 0.320909 1.03265 -0.665615
2304 1 -3.63665 21.1588 42.9866 -1.01735 -0.63629 0.328734 0.213369 0.185908 0.348173
2305 3 -2.24504 20.1578 44.2457 -0.193883 0.36792 -0.00342836 -0.116723 0.0551748 0.200977
2306 3 0.141947 18.7955 42.4344 0.854087 0.478539 -0.601161 -0.225871 0.183756 0.293049
2307 2 -0.900283 21.3499 47.5058 -0.370825 0.914342 0.049709 0.317 0.391042 -0.059273
2308 2 -4.01446 21.1943 40.1024 0.204455 -0.416078 0.394205 -0.085129 0.155384 -0.0882339
2309 1 -3.05112 22.6637 38.1672 1.17357 -1.71848 0.0468176 0.658446 -0.975195 0.9275
2310 3 -2.46592 23.0343 36.1625 -1.66392 -0.0744676 2.50533 0.189811 -0.134302 -0.615635
2311 1 -3.13095 23.2231 41.318 1.26348 -1.24335 1.27911 0.187963 -0.134105 -0.154427
2312 1 -2.35393 21.9175 45.589 -1.11613 -0.786724 -2.02714 -0.15292 0.209215 -0.134771
2313 1 -4.28875 24.2013 43.77 -0.355849 0.0674504 -0.316363 0.199919 -0.0135421 0.295006
2314 3 -3.907 22.432 44.5441 -0.601779 0.918953 0.435755 -0.0839462 0.0351155 -0.805685
2315 3 -1.71678 22.2053 42.3531 0.618451 -0.102938 0.266787 -0.100541 -0.0958249 0.110166
2316 2 -0.679308 23.7111 46.0307 -0.188263 -0.216202 0.316984 0.15014 0.0730157 0.400667
2317 1 -2.13845 23.6863 48.0006 -0.415187 -0.0168561 0.473372 0.148238 0.421858 0.012101
2318 1 -4.69191 25.6198 41.4266 0.713188 -0.114435 0.584817 0.215381 0.486797 0.0896169
2319 1 -6.27055 26.321 43.866 -0.0142984 -0.0887301 -0.164805 0.0821406 0.286978 0.0655659
2320 3 -5.17347 25.095 45.3382 -0.146293 -0.114243 0.389509 0.104948 -0.0557877 -0.1001
2321 3 -2.99201 24.7686 42.4401 0.187974 0.0662312 -0.0449239 0.18415 0.237031 -0.226935
2322 1 -6.00878 28.631 36.8851 0.0737277 2.90141 -0.263515 0.0848138 -0.206109 -0.0209391
2323 3 -4.87845 27.5074 35.5507 -0.150696 -0.275577 0.032857 0.0403895 -0.0892288 -0.208587
2324 1 -6.58295 28.4372 41.1811 -0.091502 -0.412227 -1.61342 -0.00826576 -0.124239 -0.290594
2325 1 -7.51537 29.3927 43.6833 0.370357 -0.460678 -0.531767 0.10003 0.046318 -0.157837
2326 3 -5.78918 28.2176 44.3196 0.0349337 -0.164803 -0.150807 -0.40036 0.261935 0.907141
2327 3 -5.23848 27.437 42.3942 -0.236404 -0.0365601 0.267484 0.234673 -0.329199 -0.639725
2328 2 -4.04757 29.8321 46.4822 1.06626 0.931231 0.395326 0.0729071 0.152564 0.434044
2329 3 -6.03942 30.5374 35.7388 0.155548 1.61443 0.869619 0.0794933 -0.111869 0.135847
2330 1 8.90795 0.21309 43.6564 -0.226434 0.316464 0.464819 -0.143091 -0.13676 -0.140558
2331 3 -7.00245 30.6462 41.9733 -0.0361468 -0.174151 0.065294 0.159159 0.037216 0.0205827
2332 1 -5.57101 31.0012 48.0779 -0.0152931 0.104833 0.367879 -0.0273486 -0.232859 0.084112
2333 2 12.8576 0.353575 39.1072 -7.37033 -7.49143 0.20279 -0.128792 0.233523 0.0848762
2334 1 12.7872 2.26866 37.1732 0.0611779 3.97506 -0.965913 -0.295346 -0.441186 -0.334924
2335 3 13.9475 0.960765 36.0468 1.09756 -0.491478 -0.730267 0.0608098 -0.416151 0.811498
2336 1 14.0752 1.16196 44.7388 0.23438 -1.49811 0.889462 0.200865 -0.014951 -0.133078
2337 1 10.4261 2.60113 43.5981 -0.633288 -0.0544879 1.35505 0.178778 -0.154642 0.0487292
2338 3 11.8809 0.9604 44.9553 0.621709 -0.016377 0.0562849 0.0830317 0.171881 0.233959
2339 2 15.1878 2.61252 47.062 0.667531 0.455059 0.208012 -0.0421285 -0.071047 0.348375
2340 1 13.9162 1.29052 48.6578 -0.188094 -0.258035 0.479421 0.078099 -0.0952787 0.167723
2341 2 10.9321 2.83641 38.9899 1.13322 2.76496 -0.310327 0.275421 -0.0459049 0.0991588
2342 1 10.976 4.51223 36.8833 0.353238 -0.610261 0.241615 -0.109208 0.213587 0.0696921
2343 3 12.6414 4.1777 35.9093 0.0694835 0.152443 0.402853 -0.23643 -0.156274 0.0911007
2344 1 10.7085 4.39211 41.1465 -0.0143838 -0.887803 0.531657 -0.265663 -0.165511 0.46237
2345 1 12.6536 2.98933 45.9623 1.64011 0.354756 -0.476428 0.0712861 -0.322241 0.225363
2346 3 11.2085 3.92626 44.8224 5.7076 -2.94921 -1.32353 -0.377813 0.0510187 0.415021
2347 2 12.8472 5.93266 46.6527 2.06975 1.85832 -1.98985 0.845726 1.12145 -0.851543
2348 2 9.37165 5.10773 39.1183 -0.167831 0.801374 0.554088 0.084164 0.08875 0.0608504
2349 1 8.96194 6.90135 37.41 -0.176096 0.253803 0.441321 0.0526924 0.50124 -0.192831
2350 3 10.2784 6.22511 36.2218 -0.755865 0.599486 0.490042 0.138276 0.437171 -0.00123897
2351 1 10.4803 6.10591 45.4635 0.937819 2.24182 -0.441392 -0.104044 0.186831 0.295547
2352 3 8.83147 6.73787 44.2939 1.30347 -2.57606 1.45273 -0.0342254 0.0132313 0.145533
2353 2 10.8325 7.59703 47.4665 0.0543246 -0.509269 -0.0401329 -0.0950798 0.139388 0.251466
2354 1 11.5678 5.54569 48.704 -0.0892209 0.523837 4.55285 -0.137398 0.0828082 0.314553
2355 1 7.04301 9.38823 37.3296 -0.399594 -0.560768 -0.167477 0.123763 0.532317 -0.301406
2356 3 8.92862 8.56279 36.2157 1.2982 -0.235368 -0.851756 0.156701 0.352434 0.0876802
2357 1 8.99853 8.79342 45.7516 -0.046074 0.759085 -1.57448 0.0663896 0.0583315 0.334743
2358 1 6.10148 10.9628 43.5606 -0.983989 -2.07321 0.799872 -0.49669 -0.0777177 0.63326
2359 3 7.6006 10.2779 44.7233 -0.197193 -0.163958 -0.0252981 -0.158221 0.040958 0.110636
2360 2 9.20037 10.8062 47.4202 -0.541727 0.467665 -1.02019 0.14807 0.179196 -0.21685
2361 2 4.87099 10.5406 38.9576 -0.0824108 0.704295 -0.0101777 0.42753 0.253682 0.0534274
2362 1 5.97763 12.1004 37.2905 1.6172 1.27245 1.08698 2.57825 2.07089 0.0955564
2363 3 7.60126 10.9747 36.5062 -0.466733 0.986296 0.921171 0.0858872 0.0891616 -0.0464177
2364 1 5.81498 12.0704 40.6702 0.71492 0.46975 -0.568391 0.377883 -0.0937614 0.383806
2365 1 7.37552 11.6643 46.0473 -2.64785 0.593794 0.133011 0.553293 0.235916 0.0199908
2366 3 5.68593 12.3953 45.0939 -0.851728 0.311528 -0.179276 0.209217 0.23629 -0.0930647
2367 3 7.56949 12.3972 42.4983 -2.18634 3.09811 0.611379 0.268229 0.420245 -0.202893
2368 2 7.72597 13.5287 47.7555 0.123532 1.94792 -0.489396 -0.256014 0.352066 -0.0703101
2369 2 3.53746 12.9433 39.6631 -0.652263 0.0498258 -1.20611 0.112979 -0.0967271 0.518813
2370 1 4.10245 14.3442 37.1895 3.41665 -0.929003 -1.57789 0.0628426 1.14559 -0.729812
2371 1 5.94384 14.054 46.225 -3.15327 0.749457 0.391466 0.18719 0.434297 -0.26814
2372 2 5.8809 16.1773 47.567 -1.16559 -5.34846 -4.52275 -2.01276 -3.97389 0.482238
2373 1 6.16176 14.6711 49.3746 1.19098 0.58438 3.51693 0.462117 -0.641615 0.541272
2374 2 3.15312 15.4237 39.1004 1.24212 0.912269 1.38492 0.382743 -0.558044 -0.45715
2375 1 2.19009 17.2211 37.4893 0.474596 -1.49777 1.47091 0.519796 -0.371992 0.411521
2376 1 2.46852 16.3215 41.1666 -2.38691 0.239686 0.404456 0.919527 0.734664 0.0236824
2377 1 4.33483 16.4571 45.4907 -0.270022 -3.38008 2.24121 0.258552 -2.42588 0.661609
2378 1 1.27563 17.806 43.6093 -0.656377 0.863665 0.788818 -0.161314 -1.09569 -0.192158
2379 3 2.66564 17.4568 44.9524 0.832444 0.0979698 0.475937 -0.0608056 0.529351 -0.191636
2380 1 3.64607 16.3498 48.7468 -0.45683 -0.824014 0.0766716 -0.104378 0.553223 0.2485
2381 2 0.238593 18.435 38.9602 -0.0801883 0.337139 -0.0395742 -0.322267 0.0859676 0.254312
2382 1 0.00519533 19.9193 36.9957 -2.56093 0.336681 0.676049 2.08682 0.936747 0.26576
2383 1 2.5764 19.227 45.5859 2.58323 -3.7032 0.248404 1.57586 2.08756 -7.06736
2384 3 0.952032 19.856 44.625 -2.72267 -1.37984 2.43214 -0.136663 0.353392 -0.229673
2385 3 2.57105 18.0577 41.9717 2.53384 0.640015 -0.118874 -0.236451 -0.56296 -0.00216678
2386 1 -1.06997 24.2534 37.1532 0.0764622 1.88918 5.21812 -1.50741 -0.0123163 0.804445
2387 3 0.715168 23.2335 36.2152 -0.878667 -0.0211004 4.01874 -0.935862 -1.10606 -0.654195
2388 1 1.00204 21.4788 46.1128 -0.425356 0.829321 2.48565 0.205801 -0.533934 -0.0377629
2389 2 1.29285 25.4467 46.2818 -0.774449 -0.457146 0.301239 0.282277 0.0200534 0.263689
2390 1 0.580493 23.2571 48.1923 -0.299411 -0.155869 0.484433 0.433362 -0.397389 0.353588
2391 2 -2.36836 24.9669 39.0826 -1.06292 0.39013 0.527535 -0.161452 -0.0740396 0.218497
2392 1 -2.22489 26.4214 41.723 0.855476 0.793773 -0.54248 -0.118261 -0.0763864 0.332927
2393 1 -0.364485 25.6663 48.0864 -0.351204 -0.0629436 0.475367 0.296241 0.0925757 -0.253284
2394 2 -3.63783 27.0722 39.5525 -1.25527 -0.105215 -0.638125 0.214771 0.00744099 0.134344
2395 1 -3.77116 28.5412 41.5251 -0.816248 1.20804 0.843075 0.0531659 -0.0120293 0.176877
2396 3 -2.28896 28.1333 43.1133 0.93321 -2.2168 4.26129 -0.153776 0.132009 -0.164199
2397 2 -4.75385 29.7316 39.2355 -2.40173 -0.89556 -0.594676 0.325056 -0.00486814 0.0591693
2398 1 -4.5088 31.4552 37.0909 -1.14625 -0.451799 -0.759222 0.141644 0.157749 0.124395
2399 3 -3.32192 30.5725 35.7227 -2.03414 -0.396382 0.0583313 0.00841405 -0.460799 0.191706
2400 1 -4.89308 31.2982 41.2311 -0.331275 -0.123547 0.319659 -0.17442 -0.238214 0.191554
2401 2 15.0279 0.061134 46.8573 -0.091059 -0.293949 0.393562 0.24537 -0.256005 0.0873629
2402 1 -2.83765 30.7067 48.4957 -0.0926729 -0.414625 0.496819 -0.0470993 -0.245168 0.485009
2403 2 15.5262 0.104215 39.1466 -3.91748 -2.72623 2.5143 -0.090514 0.0648141 0.102942
2404 1 15.9407 1.67132 36.8069 0.0272136 0.166994 0.239155 -0.301453 0.390465 0.183976
2405 1 17.0094 0.989768 45.5228 -1.00369 -0.583194 -2.01328 0.271536 0.0139306 0.482513
2406 3 15.8425 1.61858 43.7958 -0.212361 -0.764375 -0.991969 0.0238013 0.180514 -0.0951768
2407 2 17.7077 2.97215 46.6291 0.48949 0.46 0.124512 -0.180037 0.0750114 0.246842
2408 1 16.921 1.3299 48.4242 -0.271366 0.41367 0.524547 -0.403794 -0.0267239 0.197841
2409 2 14.6097 2.94467 38.6799 3.05332 -3.65636 0.92106 0.0431444 0.343694 -0.434704
2410 1 14.1977 5.01636 36.8138 0.725749 -0.25238 0.754538 -0.434669 -0.333607 0.000781378
2411 1 13.9743 4.4242 40.7642 0.554277 0.225879 0.000205429 0.0268332 0.375301 0.0690124
2412 1 15.7271 3.33345 44.7142 0.289857 0.431374 -1.44112 -0.156602 0.130021 0.0425662
2413 1 12.6357 4.83452 43.3879 1.25997 0.30601 0.748105 0.620977 -0.0681617 0.693559
2414 3 13.8543 3.81364 44.5154 0.639725 2.87245 -1.90759 -0.229485 -0.166194 0.351668
2415 2 12.396 5.43937 38.9199 -1.95407 5.43376 -0.141244 -0.221591 0.556012 0.217962
2416 1 12.9985 6.85156 41.1298 0.669481 0.572365 0.264546 -0.0373924 -0.29998 -0.0901972
2417 3 12.3608 6.49385 44.8018 0.834013 1.6495 -0.551082 -0.195086 -0.126258 -0.0120796
2418 3 14.4918 5.86825 42.5293 2.44925 1.62338 -1.32693 -0.244058 0.0671157 0.282327
2419 1 12.279 8.37484 45.5253 -0.18872 -0.624021 -0.940172 -0.349814 -0.0939202 0.219
2420 3 12.5825 8.61012 42.1851 -0.21636 -0.0421122 -0.811953 -0.0725188 0.143807 0.163342
2421 2 12.1854 9.86661 47.5523 -0.511289 0.423754 -0.144665 -0.0249774 0.524333 -0.270404
2422 1 13.6951 7.90168 47.7771 -0.0743864 -0.587591 0.14442 0.0680927 -0.131119 0.270985
2423 2 10.3464 10.2721 39.8782 3.29507 1.12248 -0.706924 0.485241 0.00728855 0.075037
2424 1 9.68002 11.5866 37.8494 0.35498 -1.47084 0.711463 -0.0447559 -0.710956 0.0302142
2425 3 11.3641 10.3183 36.5873 -0.257278 0.984544 -0.364969 0.13448 0.483352 0.189198
2426 1 9.4377 12.0724 41.3275 0.241941 0.400078 0.298352 0.534741 -0.0819856 0.171433
2427 1 10.912 10.7239 45.5006 -2.44547 -2.88973 2.39386 0.393712 0.262565 0.165423
2428 2 11.3609 12.3151 47.2464 -1.14311 -1.64642 -0.600171 -0.280987 -0.809497 -0.385875
2429 2 7.97371 12.589 39.3207 -1.35939 -0.399268 -0.466786 0.331025 0.487468 0.0457169
2430 1 7.86574 14.1701 37.1896 6.08512 4.60862 0.193477 -1.97812 -2.10864 -0.395397
2431 1 7.21657 14.1672 41.3268 1.16433 -0.429672 -0.174754 0.14008 -0.0683408 0.785764
2432 1 9.45761 13.3715 45.9629 -0.441597 0.505279 -0.153148 -0.295235 0.113691 0.369121
2433 2 8.90273 15.4472 44.4987 1.618 -7.14378 3.65872 -4.8067 -0.572555 0.833316
2434 2 5.78172 14.2292 39.1216 0.428436 -0.224328 -0.0323461 0.101529 0.126236 -0.279478
2435 1 14.819 27.1361 22.5248 11.6584 -8.83897 0.33897 -1.36812 -3.83261 1.7722
2436 1 4.59323 14.7439 41.3777 -0.065359 -1.35356 0.121703 -0.150333 0.226366 -0.0810876
2437 1 8.42679 15.7147 47.0871 0.938293 0.824944 -3.42004 0.215865 2.18823 1.74391
2438 1 4.13683 18.1178 43.4013 1.47796 -0.351466 -2.71583 2.52611 0.932128 -2.46033
2439 3 3.9358 30.4688 37.5083 15.526 -0.470596 -11.8493 0.675508 0.165701 -0.699955
2440 2 13.4937 24.6283 23.3056 -7.22732 14.5207 15.8265 -3.97667 10.1674 -11.502
2441 2 3.16863 24.4692 33.7712 13.7438 -16.3048 15.1174 0.0359554 -4.06015 4.39977
2442 1 11.9739 16.4974 32.5823 -12.3329 -1.58465 0.033821 0.956457 4.6687 -2.01102
2443 3 11.1014 15.4893 35.5154 0.0380429 -3.02442 -6.66168 0.129146 2.14038 0.389752
2444 1 1.33749 19.5171 41.0203 0.402918 -0.555572 -1.32172 0.758244 -2.13671 0.770357
2445 1 13.0406 18.5424 36.7043 -9.62477 -24.2018 -6.08623 -1.26345 -1.72973 -0.845942
2446 3 10.3572 15.7425 43.1926 -1.749 -1.49158 -2.26799 0.0771059 -0.757518 -0.360984
2447 3 4.48612 16.9526 41.5243 -6.39859 2.66137 -1.09902 1.05373 0.539339 1.03044
2448 2 16.2703 25.0459 25.7593 23.9938 4.16679 -1.33972 -1.17776 1.31332 3.72589
2449 1 7.64785 22.6659 21.7507 0.77978 17.5856 -2.52915 -3.58264 -3.12491 8.20799
2450 1 2.29608 19.8219 38.2259 0.00364578 -3.23512 -2.97723 -1.3827 -0.0556384 0.146874
2451 3 3.19306 17.1494 35.6111 1.37796 1.5698 0.973485 0.567975 0.864974 -0.521839
2452 1 1.45956 21.6957 43.6086 -3.9791 -2.99747 -0.702209 0.941933 -1.69691 -0.74187
2453 2 6.36079 17.7118 33.2 -14.6721 9.0077 3.49643 -3.14614 -4.5006 1.72544
2454 2 0.446168 24.8087 39.3474 -0.293387 -0.951284 0.0277294 -1.19065 -0.150565 0.805745
2455 1 0.566541 27.1247 37.6133 -0.191938 -3.18115 -1.86496 -1.28028 3.20109 0.888181
2456 3 4.7169 30.8549 40.6916 -10.7806 -4.22508 -6.154 0.927146 -3.66162 3.68517
2457 1 0.10611 25.6927 42.1866 -0.278803 -0.48222 -0.372323 0.160366 0.804809 0.213337
2458 1 -0.705857 27.5634 44.3258 1.78807 0.0621348 -0.655921 -1.07919 0.320042 0.776282
2459 2 14.665 20.9286 25.9447 12.9958 -0.422697 -4.48289 2.65897 -0.184209 2.3041
2460 1 16.7248 21.7719 19.6591 -9.61417 9.10382 8.82848 0.98073 0.540699 2.5327
2461 2 -0.548785 27.1504 40.0405 0.389806 -0.834097 4.15784 0.0703938 -0.0811885 -0.869927
2462 3 0.571154 28.9918 36.3263 -7.6537 -0.851965 4.30666 -1.66287 -0.45273 -0.716486
2463 1 -0.941397 28.8717 41.9156 1.42718 0.69059 -1.81885 -0.194514 0.259656 -0.0163092
2464 1 1.63174 28.0767 46.6621 1.25278 -0.559925 -1.49222 -0.0572468 -0.40705 0.132427
2465 3 0.361496 28.9965 45.3757 0.88379 -3.57595 -0.154117 0.569933 -0.47219 0.493998
2466 3 0.477868 27.7781 42.903 0.856721 1.95384 -0.535669 0.187919 -0.607935 -0.185746
2467 2 1.99118 30.2566 47.8345 2.21101 1.84474 -0.368305 -0.874115 0.614777 0.375288
2468 1 0.240211 28.1073 48.817 0.0905229 0.235436 -0.499317 0.64791 0.503893 -1.40685
2469 2 -2.06194 29.4941 39.7993 -1.24685 -0.70856 0.416134 -0.13162 0.0849344 0.0164124
2470 1 -1.59458 31.6804 40.9849 0.217981 -1.14593 1.91142 0.0890444 0.0180492 -0.85143
2471 1 0.474689 31.074 46.0178 -0.0435282 -0.671223 -0.114372 0.192243 0.20196 -0.0293984
2472 3 -0.107813 30.7369 42.239 1.05923 -0.122812 0.00775861 0.924122 0.202327 0.0152148
2473 2 19.1621 0.899696 47.5059 -0.421653 0.472829 -0.23877 0.387645 -0.991265 -0.16855
2474 1 0.0389359 31.1916 48.9316 0.293718 -0.19557 0.380228 0.234182 0.0503179 0.194944
2475 2 -0.3223 31.5569 38.8054 0.585396 -0.00139118 0.741099 -0.0706921 0.0777356 -0.00117014
2476 1 19.6341 1.24451 39.8163 -3.30352 -2.79673 -0.928868 0.0830946 1.02903 -0.716332
2477 3 19.812 1.33895 43.2968 -5.20368 1.55139 -0.97579 -0.75168 -0.324876 -0.113803
2478 2 17.7784 2.20091 38.5422 1.57031 3.12588 -1.4191 -0.0895541 -0.0562552 0.0648962
2479 1 17.2495 4.57877 37.4103 -0.186563 0.00362806 1.14483 0.22782 -0.0235462 0.0959397
2480 3 18.9486 4.71334 36.3729 1.79269 -0.0282445 0.691909 -0.385387 -0.414047 -0.00492454
2481 1 18.2535 4.69093 44.7269 0.359535 -0.245342 0.519571 0.0270668 0.0729433 0.195995
2482 2 18.3501 5.3723 47.4222 0.884229 0.233777 -0.324409 0.0695612 -0.00423975 0.269731
2483 1 19.5736 3.36927 48.4699 -0.537024 -0.0771402 1.68104 0.339792 0.0655984 -0.163677
2484 2 15.3079 5.63972 38.9541 -2.05923 -0.239059 0.525182 -0.111369 0.0524195 0.145258
2485 1 16.2801 7.49999 37.7558 1.05658 -2.3991 -1.50808 -0.163785 -0.0205667 -0.00403657
2486 3 17.609 6.62082 36.57 1.04342 -1.6094 -0.285838 0.0886924 -0.733366 -0.127039
2487 1 15.6599 7.1258 41.0347 -0.674395 0.366106 -0.702825 -0.0337752 0.19562 0.0326076
2488 1 13.8676 7.74222 43.5143 0.345175 0.24343 0.888218 -0.0967522 0.0886664 0.424912
2489 2 14.5233 8.64665 39.4277 1.02778 -0.303078 -0.0645763 -0.374157 0.0304293 0.221065
2490 3 15.6121 8.74362 36.2921 -0.455986 0.627262 0.211127 0.163594 -0.0803783 -0.273683
2491 1 14.0009 9.85492 41.6148 1.38311 0.359593 -0.503221 0.0834658 0.161108 -0.0925194
2492 3 15.0707 9.55247 43.401 -0.543256 0.0337251 -0.941986 0.0605662 0.100941 0.120906
2493 2 15.672 11.1861 46.056 -1.98077 -3.47766 0.362626 0.718164 1.35581 -0.219346
2494 1 16.6489 9.15656 46.88 0.742024 0.24621 0.41601 -0.113185 -0.25068 0.248518
2495 2 12.8855 10.6734 39.3762 1.45229 -0.191563 -1.56578 0.0462871 -0.497112 0.756065
2496 1 12.7487 12.1915 37.5197 -0.666049 -1.57668 0.300834 1.32255 -0.440409 -1.07697
2497 3 13.5377 11.6956 35.6689 -5.47173 1.41943 -2.32929 0.148067 -0.467788 0.0739286
2498 1 12.7821 12.4695 40.9154 0.838359 -0.578623 1.17563 -1.0413 0.285359 -0.788132
2499 3 13.506 11.6736 42.6067 0.388563 -0.297824 0.0949569 0.0798189 -0.244773 -0.109231
2500 2 13.8232 12.6102 48.0642 0.558085 -0.378045 -1.01748 0.254059 -0.731473 -0.51664
2501 1 14.6089 10.3231 47.9918 0.0599717 0.306232 -0.317794 -0.158554 0.0186482 0.340158
2502 2 10.8759 13.0491 39.4657 -1.48731 -0.832863 -1.91683 0.277206 0.753642 -0.205088
2503 1 11.2194 14.337 37.1632 -5.27816 -5.44052 3.36643 -5.52045 3.95164 -0.328573
2504 3 12.421 13.7414 35.5819 4.74363 0.895222 2.73058 1.41983 -1.23115 0.980631
2505 1 10.2651 14.8436 41.2036 -7.74937 1.31983 -0.794814 -0.73239 0.0366945 -1.21648
2506 1 12.6817 13.8191 46.0766 1.19803 -0.762629 0.396833 0.0441769 0.299721 -0.397704
2507 2 12.7945 15.492 48.1495 0.586151 0.4396 -0.671947 0.00586112 0.176363 -0.253757
2508 1 11.9311 13.5058 49.3092 -0.113915 0.0132873 1.63678 -0.394094 0.321377 0.298916
2509 2 8.49393 15.3494 39.4635 -2.16507 -1.34943 2.66622 1.30394 1.77013 2.2134
2510 1 2.90629 23.4687 29.6492 -9.96282 8.79435 1.92483 -4.35824 -1.15593 0.556712
2511 2 11.3582 16.6734 37.2576 -2.21722 -23.1955 17.6418 1.78984 1.21643 -8.45929
2512 1 10.608 15.4442 49.5873 -0.00382584 2.11733 -0.692129 -0.893805 0.524925 0.417199
2513 1 4.90738 17.1072 39.2356 0.639305 -0.928925 -0.0324012 1.30353 0.432939 -1.05625
2514 1 17.2668 25.8901 42.7819 -15.1201 5.52517 -0.230144 0.517041 -2.49602 -2.81767
2515 3 10.1365 15.8049 45.9263 0.396368 2.59099 4.26694 1.70824 0.0382822 -0.353518
2516 1 1.9637 21.4457 35.7651 2.55346 6.0061 -7.60548 -6.38927 -2.20591 3.18164
2517 3 16.9424 20.4088 38.858 0.820093 7.05938 -4.68236 1.02772 -1.79516 -0.0651472
2518 1 0.8456 22.7215 40.8431 -1.38643 -1.69043 -0.463116 1.32719 0.420405 0.00745183
2519 1 6.37835 20.5299 20.9768 3.78773 12.3659 2.17223 2.23894 2.08004 3.92373
2520 3 1.8201 21.3308 41.7459 5.19716 -7.01087 -6.14008 4.22531 0.0499933 2.19879
2521 3 9.66122 21.9067 24.5506 -11.9994 17.2887 -7.64082 -3.00176 -8.42876 3.7116
2522 2 11.571 24.9087 18.5909 -30.596 -15.2453 -0.0233193 1.89747 7.60791 -1.87833
2523 1 15.0106 17.5885 41.6541 -0.172275 -1.50551 -1.93843 -0.350628 -0.2483 -0.787634
2524 1 7.30526 15.4699 27.7327 -0.769253 -1.26143 0.259926 1.87084 -0.00979562 -0.399282
2525 1 15.3168 29.4752 28.2508 -1.1138 4.28644 0.930075 -4.20532 1.64126 -2.67977
2526 3 8.37493 15.8655 41.3605 -3.01347 1.28309 -0.681617 -0.433239 -1.60404 0.441421
2527 2 1.98998 27.934 39.4815 0.483176 1.47932 -0.410836 2.1592 0.520272 1.99214
2528 1 1.79845 30.1142 37.7833 -1.3201 -2.29815 -0.680456 -0.0530245 1.41978 -0.296359
2529 3 4.53637 30.8209 31.5835 -2.60064 4.92135 2.36777 -2.31364 0.76522 -1.44243
2530 1 2.42023 27.5972 42.3102 -1.96192 -4.1505 1.53912 4.37937 0.974269 -0.333132
2531 1 1.15266 29.6255 43.4889 1.43749 0.648031 0.165708 -2.74214 0.561235 0.184569
2532 2 8.53896 20.1087 25.5915 6.8685 3.34821 0.552742 4.80582 2.76708 -0.471809
2533 1 4.61009 31.6698 47.7259 -1.02605 -1.57164 -1.35819 0.240835 0.165512 -1.19033
2534 3 2.34506 31.3754 36.355 3.3757 1.42389 -1.41114 3.29992 -2.32759 -1.14166
2535 1 1.21514 31.1607 40.7224 1.35404 0.671731 0.847101 0.16648 -0.276553 -0.181274
2536 1 3.36572 30.2292 45.9065 -0.493528 2.31521 4.04037 -0.00209995 -0.391562 -1.67507
2537 1 -0.125354 32.118 43.6591 -0.887317 -1.14994 -0.708539 0.934662 0.221389 0.0139632
2538 3 1.6441 31.1894 44.6529 -2.65942 0.279842 0.381524 -0.521894 0.397291 -0.544636
2539 3 2.76023 29.8612 41.9209 -3.89582 2.09589 -0.0919614 0.531679 -3.40537 -0.838181
2540 3 22.6349 0.775416 35.9954 -2.70932 0.604615 1.08615 1.59894 -0.339827 -0.0502738
2541 1 21.0185 1.68989 41.9616 1.40944 2.87726 1.74282 -0.730191 -0.812552 -0.473171
2542 1 23.1246 1.66893 46.4566 1.42435 1.39368 1.46575 -0.329333 -0.756888 -0.218614
2543 1 20.0944 2.99418 44.1502 -0.541685 0.204704 0.0927447 0.134346 0.403683 -0.128779
2544 3 21.4361 2.15217 45.3482 0.443013 -0.732158 -0.502291 0.180481 0.633434 0.560918
2545 3 22.7016 0.981213 42.8509 3.90694 -1.68768 -2.72674 -0.245117 -0.40642 0.623329
2546 2 21.0606 2.68475 38.6154 3.0906 -1.45754 0.109466 -0.340207 0.900385 0.0715726
2547 1 20.6965 4.86208 37.4429 -0.706408 -0.193524 -1.97119 -0.130985 -0.570083 -0.284415
2548 3 22.0889 4.24438 35.543 -0.0641369 0.298617 -0.758087 -0.474457 -0.198196 0.163241
2549 1 20.5567 4.45133 40.4482 1.30049 0.899865 0.439388 -0.176234 -0.0217467 0.168459
2550 1 21.9293 3.97935 46.0276 -0.242815 0.108916 0.145922 -0.209651 0.562761 0.466231
2551 3 20.5869 4.76496 44.6216 -0.0466941 -0.0861499 0.516109 0.253508 0.635364 0.207151
2552 3 21.4976 3.74071 42.5403 -1.45721 -2.15053 2.73463 -0.33823 -0.219232 0.30311
2553 2 21.2651 5.46596 47.7893 -0.839956 1.02709 -1.04489 -0.0489071 0.0808761 0.0219657
2554 2 18.5593 5.56516 39.4408 -2.54334 -2.49048 0.129198 -0.125483 -0.0466999 -0.0639268
2555 1 18.9722 7.37608 37.8479 2.92733 -0.265794 3.0063 0.260738 -0.0783963 0.449639
2556 1 18.7729 7.18767 41.3562 0.0813793 -0.0786974 0.570082 0.0825824 -0.0677806 -0.0262456
2557 1 19.9921 6.23467 45.7903 0.430094 0.280583 -0.410272 -0.188171 0.0889681 0.101499
2558 2 20.1792 8.09813 47.2789 0.715258 -2.2235 1.2984 -0.081803 0.050908 0.161426
2559 1 19.6228 6.62911 49.1687 0.101368 0.240019 0.174244 0.0835234 -0.226954 0.101053
2560 2 17.3545 8.52746 39.8009 0.526272 -1.00033 -0.102686 0.0612601 0.0251943 -0.1376
2561 1 17.9455 9.75998 36.6754 0.495983 -2.31588 -3.59101 -0.0928301 0.0911815 -0.0856037
2562 1 16.6622 9.44439 42.2279 -0.909514 1.10191 0.701294 -0.0418473 -0.117561 -0.289632
2563 1 18.9409 9.32551 45.6443 1.92 -1.47465 0.371261 -0.319647 0.265077 0.218483
2564 2 18.2191 11.1864 47.0694 0.440571 0.271411 0.0810442 -0.133121 0.410459 0.493906
2565 1 19.2576 9.74758 48.7849 -0.649746 0.232564 0.180686 0.0665388 -0.0409782 0.306742
2566 3 16.8288 11.2479 36.482 1.22841 -0.593214 0.615833 -0.680675 -0.449112 0.145
2567 1 15.4053 12.1586 41.6428 -0.627192 0.610024 -0.254484 -0.278546 -0.022781 -0.246817
2568 1 13.604 13.508 43.553 0.593183 -0.0368861 -0.281823 -0.467919 0.785059 0.0672174
2569 3 17.1463 11.3562 42.524 -0.382749 0.312895 -0.136299 -0.119642 -0.30512 -0.19941
2570 3 16.0058 13.902 36.7481 -4.94813 -1.12962 0.720102 -1.15046 -0.152304 0.494788
2571 1 15.1875 14.5863 40.8688 -2.11862 -2.3591 -3.4627 0.0801503 0.95482 0.905205
2572 1 15.5972 13.6016 45.2725 -0.160545 -0.23561 -0.530282 -0.306255 0.172788 -0.199376
2573 1 12.5461 15.7988 43.564 -4.77241 3.47686 4.70503 -0.174085 0.384589 -2.3484
2574 3 14.0859 15.073 44.9245 -3.55424 -2.53181 2.14765 -0.275739 -0.0289658 -0.245675
2575 3 15.408 13.8837 42.9818 -4.69549 -1.71597 2.97158 -0.13002 -0.09794 0.191336
2576 2 13.2317 14.1994 39.1343 -2.79799 -0.609492 -1.62995 0.0883516 -0.877302 -0.140167
2577 1 9.58698 16.9521 35.1612 6.52453 -10.0742 3.66807 -0.67846 -3.0087 0.916141
2578 3 15.2472 16.16 36.9969 -2.61106 1.42739 1.29791 1.69767 -1.41545 1.64222
2579 1 4.76881 23.416 31.1119 -0.460641 -4.56233 -6.74456 0.746003 -5.14132 1.20248
2580 1 14.369 16.5935 46.3781 3.6561 -3.0639 -2.55937 0.011846 0.979042 -1.05137
2581 3 15.769 17.5401 45.3178 -2.79432 0.738693 -5.06388 1.28559 1.48057 0.169657
2582 3 14.2676 16.0392 42.2683 -1.70478 0.754636 -0.0474292 0.0297517 0.0806541 0.613221
2583 2 16.7789 17.474 47.0587 2.39612 4.85818 -2.32288 0.327818 -3.84799 1.2035
2584 1 15.3602 15.9753 48.735 -0.046335 -0.563632 0.561061 0.162198 0.462213 0.0905444
2585 3 5.29393 15.67 24.8652 4.16527 3.39977 -0.748118 -0.692915 -0.732746 -2.19342
2586 1 17.0363 19.1081 45.1457 -6.19545 1.62165 3.1482 -1.95548 -0.689458 -0.655164
2587 1 7.27831 19.2168 31.591 10.3683 14.554 14.7697 1.94881 1.05065 -0.776623
2588 3 16.3709 28.6084 34.6752 3.02301 -25.7176 7.26103 0.431558 -4.69729 0.253064
2589 3 7.71183 16.0893 29.8545 0.722827 1.46331 3.12504 -0.314326 1.31398 -2.88083
2590 1 8.06024 30.9928 20.8466 0.413422 -7.28049 -5.62865 -1.81383 1.40919 0.973631
2591 3 5.80867 25.6344 21.8887 -10.2188 18.9066 -10.3496 -0.410646 -0.852226 -1.26575
2592 1 1.67981 19.4557 80.5686 -7.50367 -0.342472 13.994 0.641419 0.0292748 -1.19622
2593 1 4.16743 17.6879 50.8745 1.71264 -2.5117 -1.6048 -1.44752 0.917735 2.0413
2594 3 1.98985 25.1992 35.259 2.01295 -5.80141 -15.0231 -5.01976 1.72278 -0.0986189
2595 3 6.51693 16.8761 26.1637 4.12075 -0.806824 -2.56696 1.08825 0.762485 3.61729
2596 2 13.7259 28.0814 29.5399 7.37219 -16.4345 -0.731422 2.0139 4.35242 1.0928
2597 1 9.27026 25.7633 22.6647 5.49214 1.4108 -7.17484 2.15388 -6.41829 1.49887
2598 2 6.23338 21.1224 30.868 13.7241 3.19816 0.0553908 -0.339063 3.60825 2.15373
2599 1 1.09614 22.6243 38.1029 -1.28383 -0.56903 0.222035 1.01999 -2.17187 -0.00911859
2600 3 13.0888 21.5153 22.1475 9.92606 14.0247 -18.9751 1.59327 -4.14363 0.01774
2601 1 3.98877 18.8019 36.019 -0.809581 -3.48574 -1.5337 0.106202 2.03478 0.0970199
2602 3 3.70628 18.488 37.9401 -3.93714 -2.10551 -2.3586 -0.269285 -0.849099 -0.365963
2603 3 16.4359 27.9365 38.4408 -7.04668 -3.99478 11.1355 0.355235 -1.60485 1.11036
2604 2 9.26102 22.6063 18.1958 2.38614 -2.7137 -0.185646 1.97292 1.25679 0.825674
2605 1 4.79834 21.605 29.0281 10.1022 -1.15874 2.27364 -4.76864 -4.65674 1.20124
2606 3 2.07122 25.9994 38.7321 1.88793 -3.6576 1.46702 0.169854 1.30787 0.339148
2607 1 22.3888 0.499247 38.0874 1.81536 0.529095 3.69751 -4.18024 1.95852 -4.58667
2608 3 4.90727 30.6776 38.5586 -5.1619 -4.29247 -2.37448 3.38351 -6.82682 5.8448
2609 1 11.9124 20.423 28.566 1.48882 -1.1529 -5.53244 1.75654 -1.16957 -6.16154
2610 1 21.4541 0.432955 44.4071 1.20263 -0.427076 0.164931 -0.0714626 -0.0986393 -0.769992
2611 3 4.40431 32.1023 45.6 0.207677 1.56328 -2.26341 1.00796 0.775601 0.994314
2612 2 25.4493 0.63943 48.4374 -0.175949 -1.42735 -0.842926 -0.130334 0.268884 -0.218384
2613 1 7.71416 31.0848 24.7366 -0.424729 6.53899 -10.4676 -3.43668 -0.796946 -3.67694
2614 2 24.0505 0.0717397 39.4946 -10.3162 3.04655 2.25111 14.9582 -6.78234 11.473
2615 3 27.1973 1.62089 36.3254 -1.34018 -4.25508 2.64628 -0.816019 1.46478 -0.454956
2616 1 24.0356 2.11218 41.504 0.409806 -2.0156 1.46953 0.893149 -2.8223 1.18282
2617 1 26.2963 2.28878 46.4811 -0.0666591 -0.0874471 -0.0706804 0.175891 0.235631 0.226148
2618 1 22.7427 2.64951 43.8985 1.77927 -0.0677901 1.22241 0.165413 0.679598 0.49332
2619 3 24.4574 2.20438 45.1459 0.542465 -0.534114 0.765159 -0.136807 -0.066547 -0.0151392
2620 3 26.1427 1.78174 42.5093 -0.162647 0.95566 1.22303 -0.319357 -0.162402 -0.370847
2621 2 27.9148 3.55812 47.8739 0.00741188 0.600826 0.453871 0.191658 0.159727 0.0381023
2622 1 27.161 1.8242 49.6498 -2.00434 -1.26489 -0.189462 0.358508 0.17973 -0.105406
2623 1 23.5762 4.55741 41.6899 0.394569 -1.11147 -0.680029 -0.786753 -0.16822 -0.154785
2624 1 21.0035 5.85282 43.0147 0.89426 -0.307179 -0.0395095 0.537709 -0.352194 0.236998
2625 1 25.1051 3.1455 48.6181 -0.84551 -1.20986 -0.867354 0.282811 0.182017 0.0768643
2626 2 22.736 5.08617 39.2917 -0.111497 0.790098 -0.0796913 -0.370598 -0.337024 -0.188254
2627 1 22.0102 6.98671 40.8091 -0.841897 -0.625665 0.658434 -0.471874 -0.301723 0.0673048
2628 1 23.2798 6.12347 45.7103 -0.286486 0.0801075 -0.665979 0.0391316 -0.0057053 -0.0521965
2629 3 21.6093 6.64491 44.8294 -0.0598316 0.0247412 -0.485502 -0.147288 -0.622986 0.0759905
2630 3 23.2535 6.34277 42.4603 0.214744 -0.533064 -0.384157 -0.0292074 0.0470135 -0.0280993
2631 2 23.0186 7.83864 47.4309 -0.133421 -0.0777526 -0.391434 -0.164934 0.133624 -0.0713367
2632 1 23.7763 5.54579 48.2291 -0.0433182 0.0949058 0.221269 0.0110604 0.0664895 0.0254167
2633 2 20.1862 8.51885 39.8017 2.73109 2.19849 0.72381 -0.0218489 -0.0127571 0.0657633
2634 1 21.8482 8.9846 45.6298 1.02503 -0.562802 -1.23561 -0.535788 -0.0492835 -0.45748
2635 1 18.9025 10.8407 43.4716 -1.10796 -0.0280933 1.22316 -0.454056 0.0851208 0.080662
2636 3 20.432 10.2202 44.6725 0.298231 0.0446132 -0.338487 -0.341693 -0.0519138 0.131855
2637 2 18.6856 10.4904 38.961 -1.77653 0.685366 -4.28013 0.1628 0.0729135 0.185108
2638 1 18.5579 11.9958 40.9521 0.43238 0.000718013 0.421447 -0.223651 0.106322 0.558164
2639 1 20.1778 11.9987 45.6103 -0.627828 -0.159808 -0.151974 -0.762892 -0.613802 -0.0903077
2640 1 17.3475 13.216 43.1372 0.261922 -0.162593 0.486363 -0.100128 0.300352 -0.230306
2641 3 19.0849 12.762 44.1556 -0.317305 0.726238 -0.781106 -0.264835 0.184501 -0.170156
2642 3 20.2021 11.4377 42.0016 0.534429 -0.656235 2.15266 -0.323921 0.317463 -0.96305
2643 2 20.7506 13.2825 47.6493 2.06112 -1.17807 -3.28601 -0.175567 -0.278214 -0.543633
2644 3 19.1681 13.2905 35.7526 0.895221 0.0229806 -0.34347 1.95828 -0.0367672 -0.327144
2645 1 18.7901 14.3903 45.6316 0.0312384 0.40285 0.837563 -0.11337 0.165159 0.120829
2646 1 15.7966 15.9847 43.7744 0.504707 -0.327589 -0.329727 -0.502018 0.317684 -0.0601926
2647 3 17.3461 14.7579 44.3078 0.393918 -0.434771 -0.90037 0.158243 -0.352053 -0.246734
2648 3 18.7031 14.014 41.9131 -0.318361 -0.906513 0.674674 0.0159001 -0.443273 0.0486251
2649 1 17.4131 16.4703 37.7058 -3.51786 0.58965 -0.990973 2.33713 -0.951374 -0.857814
2650 3 17.9597 16.6667 35.8329 0.0181961 -2.33202 3.3857 -1.52576 -5.44914 2.43399
2651 1 17.1977 16.452 40.3223 1.26133 3.23531 -1.36304 1.78198 -0.281765 -0.234242
2652 1 5.76113 17.2508 30.3103 -0.356498 4.09679 4.58504 -4.27633 0.564413 0.384508
2653 3 17.1599 17.1712 42.3784 -0.162115 3.71002 -4.03914 -0.115021 -0.297364 0.00294401
2654 2 17.0709 26.3428 32.4552 -1.78596 1.04906 -3.33707 -0.424575 -1.11828 -0.162378
2655 1 17.5857 19.5301 34.5043 -3.57961 -5.45189 2.33068 1.98621 -1.6026 -3.62386
2656 3 16.4451 17.8447 34.7476 4.97854 1.96839 -10.4157 -3.04095 1.75313 -0.884467
2657 1 6.98102 19.5138 28.3402 15.7388 -3.89489 5.85782 2.38467 2.05215 -1.18832
2658 1 9.26257 20.6467 19.5321 -10.1982 -1.03593 0.76477 -2.3537 -3.61894 -1.34402
2659 3 16.4217 19.5159 46.9457 5.6099 -3.49551 3.82973 0.655121 -4.28765 -2.06068
2660 3 16.8738 20.8973 44.3612 16.43 -9.28948 -4.6075 -1.15353 1.0125 1.72614
2661 2 20.219 20.6812 47.3748 -2.46667 0.244647 -1.39555 0.221594 0.0387361 -0.597237
2662 1 17.8355 21.2502 48.0284 -3.1745 -0.865874 -0.593235 2.2713 2.48241 -3.15512
2663 1 1.82867 25.206 43.826 0.00676355 0.269059 -1.3502 0.96997 -0.186498 0.185416
2664 3 17.6412 20.184 31.5815 0.688843 -6.78083 -3.66725 -1.64631 -3.61478 1.97405
2665 1 18.1773 24.8228 47.956 2.45925 -4.99283 1.07625 0.935037 -2.85168 -2.11968
2666 1 14.6721 25.4727 18.2291 7.46304 7.60683 2.20073 -5.49937 -1.45499 1.40002
2667 3 16.7074 27.5388 35.7628 -12.3532 10.3853 -33.4696 -1.56008 1.61231 -3.48497
2668 3 15.1628 16.5511 40.104 1.62824 0.833116 0.907965 -0.160498 -0.519504 0.345514
2669 2 5.97968 21.1641 23.4425 -9.84817 5.79101 11.1294 -1.07109 2.46046 -0.569994
2670 1 15.0741 18.581 27.6496 -1.46061 6.80752 -2.63275 0.982837 2.0856 -5.49145
2671 1 16.2795 27.4416 28.5007 -7.79791 1.97456 24.4721 5.95774 -4.55316 6.1745
2672 3 18.0945 24.2563 41.4541 11.4266 -0.607105 -0.640818 -3.06407 -0.38184 -0.118276
2673 1 12.685 25.4124 21.0878 0.286896 -1.31791 -7.94679 -1.0159 -2.00901 -0.344747
2674 1 16.9114 30.4224 38.9232 0.859997 -1.63675 -0.217592 -1.71916 -0.761922 -1.37835
2675 2 15.1821 19.3131 34.1915 6.98338 -6.36492 -3.20684 0.797489 -4.47693 1.1692
2676 1 5.433 29.4647 25.8382 13.8916 -6.23456 -6.65123 2.34814 -2.10667 4.47559
2677 2 11.2905 31.7449 24.1992 -4.96114 11.092 3.3072 -2.75531 -0.941676 -1.79727
2678 3 16.0746 28.4585 39.7093 4.63504 -11.3458 5.76796 -1.50821 1.67131 1.20872
2679 1 14.1466 26.155 25.4645 6.06071 17.4118 16.1957 0.0794576 1.7318 -2.47061
2680 1 13.0773 16.2887 40.3281 -2.37791 0.0258749 -8.69381 0.709174 -0.379221 0.406581
2681 3 3.48958 22.5532 34.6686 14.1715 4.68308 -2.6094 -4.27968 3.44592 0.826206
2682 2 30.5921 0.867225 47.7827 -0.199395 2.17551 1.54888 1.01322 -1.68443 0.717721
2683 1 3.70561 21.3386 42.2509 -0.0233698 7.76294 4.09145 -0.557285 0.239497 -1.63776
2684 1 25.6652 0.999012 37.8306 -1.38972 -3.02587 0.560417 3.4208 0.60979 -4.93589
2685 1 26.4083 0.160644 41.5905 -0.0771375 9.35442 13.6724 2.86647 1.24811 2.58695
2686 1 11.6546 28.6804 23.1334 0.0978379 -15.8861 -18.9698 2.84992 -3.97124 0.238334
2687 1 24.5596 0.677887 43.9965 -0.322964 -1.99489 2.31945 0.72891 0.522043 0.298036
2688 3 3.6391 30.9402 41.7027 0.0536012 -5.32976 -2.68564 -3.16593 -0.367858 -1.01107
2689 3 2.31722 28.1837 37.5925 -4.83894 0.170104 -1.15134 5.02432 3.04381 2.89972
2690 2 28.2118 0.833569 47.662 1.65182 5.835 -2.43057 0.534635 -0.437845 -0.0928505
2691 1 1.65711 3.03836 55.656 -6.06438 -6.12844 -2.33144 0.490076 0.525086 0.195763
2692 2 27.1095 1.25298 39.5482 -1.25333 -0.616495 1.36653 0.482308 0.313333 -0.0621726
2693 1 28.4705 2.34476 37.9474 -1.75566 -1.73943 -0.190252 0.507579 -1.75376 -0.728259
2694 3 30.022 0.767171 36.6451 4.12927 1.89307 3.30037 0.428524 0.127416 0.990726
2695 1 28.0694 2.80271 41.1705 1.2508 -2.09489 -0.480557 0.768219 -0.373919 -0.092744
2696 3 28.2261 2.27138 44.986 -1.37252 1.03334 -0.0437482 0.128309 0.037218 -0.419978
2697 3 29.6626 1.78712 42.0129 5.34326 5.02525 -8.32985 -1.79195 0.980604 -0.349084
2698 1 28.0263 4.17581 50.168 0.149755 1.02384 0.798029 0.0457916 -0.133998 -0.0861529
2699 2 25.1715 4.862 39.1724 -0.968273 -3.58024 0.0458888 -0.438535 0.412112 -0.152227
2700 1 24.9218 7.22877 37.536 -0.789988 0.127815 0.833431 -0.476303 0.122032 0.300401
2701 3 26.2892 6.6327 36.19 -0.170468 0.131775 0.516691 -0.0356347 -0.245308 0.0290595
2702 1 24.8024 6.83281 40.764 -0.627745 -1.63355 -3.65354 0.49392 0.656299 -0.922399
2703 3 24.654 6.80883 44.2594 0.513825 0.118592 -0.5109 0.0577425 0.19777 0.307558
2704 2 23.245 8.29962 39.0801 -0.549347 0.972221 0.580141 -0.251002 -0.423351 -0.202719
2705 1 23.9466 10.4425 37.4843 0.10225 0.22865 0.617172 -0.0715638 -0.117362 0.171576
2706 3 24.8977 9.06845 36.3316 0.187211 -0.118901 -0.0794509 -0.0461688 -0.00493642 0.0933888
2707 1 24.6874 8.43081 45.312 -0.208261 -1.28122 -0.517529 -0.19063 0.0344755 0.0509679
2708 2 24.8097 10.4395 46.5743 -0.263416 -0.0845336 0.263723 -0.0534733 -0.0653648 0.230662
2709 1 24.9372 8.70577 48.4752 0.102007 -0.00524167 0.116111 -0.0228395 -0.0354085 0.0258703
2710 2 21.6962 10.6916 38.5443 -0.0927982 0.179163 -0.206816 -0.124608 -0.0612829 0.138892
2711 1 22.6295 12.8174 37.4046 0.425074 0.253109 0.255092 -0.625169 -0.212529 0.0674719
2712 3 23.1337 11.8767 35.7821 0.0806016 -0.383275 -0.0139168 -0.157764 0.061261 0.103661
2713 1 21.9284 12.4224 40.641 -0.24334 0.00555709 0.650763 0.412155 0.0719282 -0.457261
2714 1 22.77 11.981 46.7312 -2.25047 -0.993678 -1.37088 0.4566 -0.257672 0.537305
2715 1 20.4657 13.2799 42.9862 -0.154161 0.185 -0.282656 -0.115464 0.233634 -0.19504
2716 3 21.8947 12.7613 44.7262 0.11525 -0.0754485 -0.783558 -0.101584 -0.146479 0.00798517
2717 2 23.7394 14.3709 47.006 -0.235403 -0.269247 -0.477079 -0.0536511 -0.408685 -0.0647277
2718 2 20.0716 12.6739 39.0418 -0.056112 0.269256 -0.300881 -0.0512012 0.0158575 0.327452
2719 1 19.9075 14.2571 37.3327 -0.103693 0.638053 -0.368144 -0.142772 0.509862 0.193808
2720 3 21.6431 14.0717 36.315 -0.293044 -0.22248 0.0737834 0.0973486 0.0160725 -0.313648
2721 1 19.8484 14.7567 40.5289 0.37853 1.52595 -1.6747 0.204194 0.461138 -0.378127
2722 1 21.8226 14.6382 45.6015 -0.0191922 0.361277 0.541624 0.0112573 0.0979076 0.332048
2723 1 18.7466 15.7806 42.9999 -0.653428 -1.98448 -0.496954 0.743949 0.459173 0.218327
2724 3 20.2276 14.8926 44.1383 0.116221 -1.23617 1.21767 -0.0209246 -0.0031252 0.175255
2725 3 21.9345 14.151 41.8788 0.332623 -0.840886 -0.883792 0.101981 -0.23224 -0.168267
2726 2 22.4255 16.9539 46.9893 -0.160612 0.161414 -0.762572 -0.105851 -0.0572919 -0.26026
2727 1 19.6196 17.7312 36.6419 0.112416 3.60304 1.65612 -0.514588 -0.0241003 0.644437
2728 3 20.8277 17.1065 35.2087 0.202686 0.225742 0.0336015 -0.110869 0.424754 -0.19523
2729 2 19.5097 17.958 48.0946 0.468521 -0.718062 -0.142602 0.234281 0.0285805 0.1536
2730 1 20.5758 15.7752 48.0042 -0.240528 -0.4394 -0.167451 0.093008 0.160067 0.278454
2731 2 18.2114 18.8091 39.0327 0.184272 -1.05068 -0.118319 -0.756569 0.70233 0.461558
2732 1 18.0068 20.508 36.8583 -2.31051 -2.03031 0.452613 -1.76258 3.90041 -0.681112
2733 3 19.4874 19.5749 35.5728 1.09356 -1.42367 0.921284 -1.47927 -0.432342 -1.56077
2734 1 17.752 20.7928 41.0969 -3.67579 5.5928 -3.82882 -4.03765 0.870592 0.483745
2735 1 13.6612 22.0432 24.0617 18.5036 -2.81476 7.32294 -0.63363 1.24359 -0.79143
2736 1 19.3462 19.9225 49.6358 -0.602824 -0.32082 -0.258601 -0.368097 0.291591 -0.141875
2737 1 15.4586 18.115 36.634 1.66623 11.0942 2.83167 -3.91912 -7.26904 -5.058
2738 3 18.0614 23.5591 38.9904 0.912029 1.20279 1.67022 -0.511358 2.95201 -2.20947
2739 1 18.4819 21.4283 45.5758 3.28275 -0.337358 -0.602487 -7.51711 -1.67476 -1.91377
2740 1 8.25732 24.9457 18.4944 -2.01856 -0.351967 6.19309 -0.961766 -3.31757 -1.68728
2741 3 17.6265 27.6692 41.4305 9.32644 13.9709 15.1954 -1.40873 -1.95938 -1.40905
2742 3 18.087 22.8875 42.0289 -3.5863 -5.30047 3.47424 3.80255 3.69525 -1.63609
2743 1 10.7509 22.1335 26.0445 -1.7229 -7.83206 6.98144 0.000342134 -3.03997 1.03136
2744 3 4.86835 16.6724 32.086 -6.32252 1.93326 -0.68529 2.68352 -0.975522 -2.10379
2745 3 18.3529 24.5464 40.0833 -1.39096 4.09805 2.91719 -1.81728 -1.1013 -4.64209
2746 2 10.9047 17.8715 28.7485 -9.39348 -30.8621 3.66768 0.881344 -6.27755 -0.923412
2747 1 5.83635 32.1269 33.2359 1.25657 -0.266316 -0.290212 -0.671817 -0.838125 -0.821605
2748 3 7.98079 24.5711 23.2538 12.1598 -7.92045 -11.5774 3.67886 -7.09267 -1.14313
2749 1 18.6946 26.8165 36.535 2.90927 1.55304 -3.11949 -3.63607 -1.0084 -1.48601
2750 3 16.2177 28.1164 33.1642 5.8744 -26.5265 5.35089 4.54605 -0.899897 3.98226
2751 1 32.0841 0.619631 45.5561 -0.997957 3.51857 -0.711909 1.03688 -1.51189 0.370551
2752 2 15.9523 21.2329 46.1358 -2.50266 -5.84693 4.55213 1.69274 3.80585 -5.74745
2753 1 15.2418 23.2497 26.5663 20.097 -18.0439 19.4993 -0.160474 -6.66406 7.20833
2754 3 15.8491 30.9091 37.334 2.21438 -0.883655 0.308051 -0.365533 -1.11407 1.38453
2755 1 29.0598 0.34679 40.551 -1.33545 1.58953 4.1608 1.36349 -0.0798364 1.8803
2756 1 28.1702 0.842362 43.2753 2.73856 2.18346 0.677208 -0.601129 -2.81033 -0.843661
2757 2 32.542 0.604713 39.2168 0.0818502 -0.246072 0.50954 0.353866 0.620281 -0.0297179
2758 1 31.5568 1.78927 37.0195 -0.893568 0.466283 -0.989329 -0.482513 0.420728 -0.590328
2759 3 32.8618 1.09662 35.4059 -0.0441265 1.36614 0.634558 -0.158853 0.01405 -0.417321
2760 1 31.4397 2.61159 41.1039 -1.00926 -0.847056 -0.0830566 0.633722 1.15063 -0.715709
2761 1 29.8607 2.57532 43.884 0.140241 -2.79311 -0.426604 -0.851902 -1.62079 -1.02561
2762 3 31.2735 2.26414 45.0741 0.223897 -0.0134748 0.685259 -0.156875 -0.623715 0.582017
2763 3 33.0975 1.51614 42.2307 0.26315 0.22068 -0.693742 -0.512491 0.650809 0.266523
2764 3 31.2185 3.4971 35.8497 0.474426 0.529937 -0.0947116 -0.201735 -0.564711 0.240685
2765 1 31.3968 4.0723 45.7241 1.69288 -0.725189 3.01695 -0.98541 0.365799 -0.46675
2766 1 28.4048 5.30043 43.4817 1.0469 0.634079 -0.317247 -0.0785242 -0.390609 0.120044
2767 3 29.8614 4.29352 44.426 0.836802 -4.18765 -4.36932 -0.0670046 2.0181 0.114389
2768 3 31.397 3.21936 42.8673 1.43203 -0.680317 0.925949 0.227588 -0.197715 -0.0688354
2769 2 30.9663 5.94453 47.1227 0.428453 1.6591 1.31582 -0.193988 -0.201518 0.0709663
2770 1 30.6049 3.79449 48.3039 -1.32307 0.585517 -0.829145 0.412388 -0.239687 0.14709
2771 1 27.9779 7.53321 36.9049 -0.0959058 0.0232531 -0.462877 0.183943 -0.00212701 0.424028
2772 3 29.418 6.23901 35.9037 -0.337691 -0.103734 -0.00257009 0.0750985 -0.102723 -0.0363542
2773 1 28.1335 7.04452 41.1325 0.303637 -0.228909 0.02226 -0.169763 -0.0308917 0.0900584
2774 1 26.6765 7.32459 43.6213 0.202714 0.479635 0.947492 -0.0793694 -0.708772 0.390663
2775 3 28.3597 6.93499 44.7475 -1.58685 -1.72121 -1.06428 -0.00918951 -0.030712 0.072854
2776 3 29.7361 6.13161 42.4663 0.122632 0.60712 0.378459 0.255587 -0.189597 -0.0145905
2777 2 26.5109 8.32604 39.3289 -0.602957 1.51501 0.255821 0.0037321 -0.634992 -0.0230719
2778 1 26.5787 9.97805 37.4116 -0.0763962 -0.363238 0.402516 -0.0852824 -0.217853 0.281723
2779 3 27.9582 8.8567 34.7336 0.529701 -0.601254 -0.540792 -0.00293231 -0.104373 0.257565
2780 1 26.3803 9.62457 41.5021 0.0489059 0.144189 0.0513772 -0.435716 -0.602768 -0.108063
2781 1 27.9471 8.91685 45.5286 -1.49409 -0.684159 2.00062 -0.141153 -0.183845 0.229947
2782 3 27.9125 8.67517 42.6025 1.02374 -3.80387 -4.01121 0.196402 -0.165376 0.129752
2783 2 27.7454 11.4845 47.1046 0.0997863 -0.00486157 0.339616 0.0868708 -0.0487462 0.141892
2784 1 23.2525 13.646 43.4418 -0.286462 -0.459984 0.275109 0.0531249 -0.0825072 -0.0952543
2785 2 25.6285 12.916 46.6982 -0.971782 0.377283 0.231267 0.347108 -0.0379381 0.0843605
2786 1 25.5216 11.4262 48.6399 0.840339 0.107064 2.34994 0.240576 -0.00109842 0.0668434
2787 2 24.3001 13.4978 39.1736 0.324075 -0.310761 0.0281043 -0.100715 0.0843473 -0.0250952
2788 1 22.9073 15.3725 38.1014 -0.0813078 0.346721 -0.616015 -0.240747 -0.156208 -0.0105885
2789 1 23.8434 15.0387 41.2932 0.0430007 0.26737 0.570127 0.0488375 0.117987 -0.108309
2790 1 21.574 15.923 42.8712 -0.466772 -0.153222 0.572274 0.19673 0.19736 -0.02499
2791 3 23.1273 15.6221 44.1658 0.860805 -0.121945 -0.344113 -0.0765808 -0.144446 0.0466935
2792 3 25.1255 14.1511 42.702 0.629885 -0.22924 -1.22761 0.00193353 0.108688 0.344994
2793 1 25.1415 14.2771 48.9274 -0.0843049 -0.0408562 -0.268458 -0.0972901 -0.158144 -0.0309751
2794 3 23.0821 16.8459 36.5805 1.81185 0.125531 -0.513178 0.402844 -0.0121699 -0.556818
2795 1 22.8212 17.7313 44.6755 0.971095 0.0171678 1.02745 0.093127 -0.178739 0.159717
2796 2 20.6466 18.4051 38.8953 1.27858 -2.5179 0.564424 -0.613146 -0.880005 -0.306255
2797 1 20.5291 20.5564 37.0901 2.60711 -0.0491527 0.861375 -1.68764 1.38347 -0.464184
2798 1 20.1628 20.5701 40.6779 -3.65501 6.03428 -0.564366 -0.683304 0.440843 -0.686474
2799 1 22.438 20.228 46.0986 -0.161768 -0.213227 -0.928491 -0.231678 0.296763 -0.426762
2800 1 19.4874 21.9778 43.1341 0.265316 0.716127 0.315549 0.6439 0.272179 0.66699
2801 2 22.3736 21.7138 48.175 1.31898 0.926813 0.0337766 0.08941 0.0838205 -0.00861172
2802 1 21.8566 18.9226 48.3786 0.425922 -0.0358244 0.730472 0.316486 -0.126908 0.484796
2803 2 18.6236 21.5271 38.9646 2.62169 -11.0917 -3.47998 2.15126 2.34633 0.297
2804 1 19.2298 23.4008 37.3401 0.0572678 -3.39858 1.86072 2.0311 -2.57744 1.84209
2805 1 21.2765 22.846 46.0984 1.77492 1.10707 0.978584 -0.212572 -0.106085 1.46851
2806 1 6.4334 21.0408 26.281 -0.674732 -12.3676 -11.1104 -2.6626 4.09371 -0.384445
2807 3 19.4879 22.8731 44.8427 -10.732 -5.82218 -0.280504 -1.95994 0.472592 1.1742
2808 3 20.9194 22.4782 42.2028 0.763737 1.07751 -3.25685 0.606342 -0.990286 0.882153
2809 2 20.5684 24.9243 47.5636 1.00596 1.12285 -0.21465 -0.324673 -0.68422 -0.0560915
2810 1 20.171 22.7312 49.1534 -0.594121 -0.83117 -0.500928 -0.296315 -0.480731 0.434468
2811 3 19.5542 25.06 36.2871 0.820957 0.728091 -0.197203 4.18202 -0.434497 -0.202784
2812 1 19.3741 24.6342 45.3245 1.16562 -0.382414 2.59956 0.556965 -0.940362 0.233452
2813 1 18.9795 26.848 39.701 2.92651 -1.97752 -2.63882 2.02399 -1.43743 0.0292378
2814 3 16.3595 28.0903 41.045 1.86536 2.42197 -0.410277 1.45214 -1.36927 -1.03348
2815 3 17.7802 27.4156 38.1856 10.5168 -6.68755 -7.63582 -6.35248 -3.58586 0.453514
2816 1 15.1365 29.0399 36.6326 2.69523 -2.1693 -14.7513 -2.8254 -2.66442 2.29011
2817 1 17.2695 28.4028 45.685 1.4067 -0.0192198 1.48401 -0.156862 -0.702062 0.368397
2818 1 2.17618 21.7078 32.8268 -0.163764 -0.944829 4.10625 -4.99859 5.56198 -2.67163
2819 3 15.9635 29.6051 44.4336 2.5022 4.75638 5.72688 -0.45762 -1.37623 -1.65683
2820 3 18.5647 28.4147 42.1486 4.53877 -4.78149 -2.36307 2.08437 1.90921 3.13213
2821 2 17.5078 30.6563 47.6397 0.164721 4.07696 -3.35783 0.409149 0.814703 1.00364
2822 3 16.4166 31.659 36.3119 0.516266 2.38846 -1.41857 0.36995 0.55786 1.37718
2823 1 14.1134 31.8917 42.002 -0.292328 1.10411 0.711102 -0.9691 1.44754 1.02312
2824 1 16.1688 30.9715 45.6861 -1.74815 1.50949 2.05552 0.555796 0.730076 0.947868
2825 3 16.0514 31.2814 42.3065 1.57674 0.0542724 -1.41309 0.373932 0.172025 -0.0939534
2826 1 16.8133 30.5016 49.9106 -2.812 0.782979 -0.00207578 0.129094 0.154204 0.0710155
2827 3 35.8075 1.31016 36.9207 -1.19905 -0.668905 -2.13459 0.0908526 -0.0552787 -0.578414
2828 1 36.1103 1.37518 45.681 1.74146 -0.685694 -4.77044 -0.7827 -0.760964 -0.693428
2829 1 32.8128 2.58355 43.936 -0.597536 1.08158 0.384902 0.527718 -1.2238 -0.57566
2830 3 34.5184 2.1203 44.782 -0.604311 -1.39339 0.508167 0.787652 0.234752 0.507425
2831 3 36.0643 1.47317 42.214 -0.878457 -2.48136 0.337154 -0.0272813 0.12711 -0.209052
2832 2 35.4191 2.43658 47.8466 -1.29822 -0.276516 -0.406345 -1.2971 -0.2406 -0.3441
2833 1 32.5725 4.38119 37.3695 -0.482242 -0.415549 0.135956 0.206249 0.0231718 -0.158192
2834 3 34.1335 3.99293 36.2245 -2.45261 0.570842 -1.42131 -0.104889 -0.132361 0.185419
2835 1 34.5347 4.10741 45.6641 0.0141068 0.00544966 1.48895 -0.211341 -0.0278452 -0.463348
2836 1 31.4667 5.1462 43.0978 -0.149854 0.0391928 -0.531537 -0.337892 -0.0614426 -0.0240149
2837 3 32.9902 4.61377 44.3745 0.484225 -0.0358299 0.635347 -0.273961 0.248589 0.239144
2838 2 -3.47794 6.36767 46.9289 -0.230467 0.122329 0.119414 0.123754 0.138689 0.394311
2839 1 33.2862 4.22998 47.9568 0.163995 0.111591 -0.868777 -0.652261 -0.39955 0.615517
2840 1 30.8344 6.97357 37.3713 0.299229 -0.27613 0.162192 -0.152908 -0.0741108 -0.0863441
2841 3 32.6292 6.1341 36.3699 -0.249432 -0.125875 -0.482351 -0.0085013 0.00722332 -0.000928124
2842 1 29.7783 7.94728 43.5395 0.434311 0.215139 1.05698 -0.914062 -0.0186313 -0.134738
2843 3 33.0449 5.98291 41.7087 4.04758 0.586571 -3.04555 0.246975 0.0809098 0.0488783
2844 1 32.2274 6.64345 49.0119 1.03531 0.631122 0.490489 0.181848 0.0838304 0.0180418
2845 2 29.5707 8.45102 39.0812 -3.57763 1.29886 -1.68183 -0.499689 0.184699 -0.174854
2846 3 31.1812 8.78633 36.3428 0.425116 -0.705776 0.0560445 -0.16742 -0.101995 0.0685163
2847 1 29.235 9.40068 41.2938 -0.0829366 0.342425 1.06459 -0.0445536 -0.0590085 0.386306
2848 1 28.1719 10.6177 43.3978 -0.962299 -0.167535 1.5793 0.0181962 0.00527006 0.220067
2849 3 29.5214 9.88102 44.5041 0.26164 2.51459 -2.59705 -0.102089 -0.489822 0.709772
2850 3 31.3761 8.90235 42.5704 -1.03354 -2.96989 5.55425 -0.0186108 0.0479518 0.307327
2851 2 -5.59204 10.3795 47.1098 0.582684 -0.658675 0.517782 0.213906 -0.0024399 0.189479
2852 1 31.5104 9.54828 49.4581 0.350226 0.0818325 -0.0575839 0.0922444 0.0248112 0.154873
2853 3 29.4424 11.5403 36.6826 0.420714 0.164208 0.0743345 -0.0223686 -0.0221376 0.0482971
2854 1 29.7299 11.7659 45.4669 -0.0051361 -1.5228 0.758857 -0.0210348 -0.365182 0.0428844
2855 3 28.194 12.5532 44.1539 -1.1068 1.56825 1.01443 0.0677536 0.0100516 0.167224
2856 3 29.3373 11.312 41.8285 0.560613 1.13365 0.0118098 0.133578 -0.007167 0.25112
2857 2 -6.90355 13.4127 47.139 -0.108618 -0.0118621 -0.511049 0.0422156 -0.052075 0.207366
2858 1 29.7915 11.3618 48.4665 0.274448 0.0842963 0.580474 0.0734995 -0.00600009 0.241916
2859 2 26.7242 12.9476 39.5234 0.356117 -0.962829 0.457775 -0.0174094 0.168749 -0.104586
2860 1 26.1815 14.9256 37.714 -0.729008 0.328631 0.587022 -0.0986791 0.204219 0.0447645
2861 3 27.854 14.4985 36.374 -0.757256 -0.175717 -0.323381 0.0457311 0.14425 0.187659
2862 1 26.7879 14.6773 41.405 1.05323 -0.209687 0.381638 -0.155331 -0.21853 -0.0396487
2863 1 27.8319 13.9296 45.7263 -0.278947 2.68201 0.597526 0.0161004 0.0290251 0.191579
2864 1 25.2149 15.9292 43.6486 -0.193983 -0.11194 -0.26009 0.0208995 -0.00206608 0.12359
2865 3 26.5806 15.5616 45.1082 0.592202 1.11127 1.73837 -0.0830684 -0.00704735 0.274442
2866 3 28.6431 14.8187 42.4606 -2.82885 0.17688 0.446031 -0.124136 -0.419916 -0.538012
2867 1 27.8024 13.7459 48.2332 -0.054631 0.274467 -0.0304273 0.0660576 0.000113054 0.16033
2868 2 24.872 16.2073 39.5074 1.01699 -0.538835 -0.12051 -0.197733 0.237716 0.0209951
2869 1 24.7153 17.7272 37.666 -1.19621 -0.157905 -0.51593 -0.312853 0.110563 -0.0347509
2870 3 26.1639 17.207 36.5335 4.73367 -0.683984 -0.552615 -0.244315 -0.683658 0.130673
2871 1 26.5454 17.3453 45.9248 -0.828142 0.428816 1.37708 -0.159196 -0.273006 0.371519
2872 3 24.9014 17.8346 44.3032 -0.11391 0.16398 0.211295 0.133015 0.0330149 0.0319004
2873 3 26.9031 16.4871 42.6359 -0.838199 -0.0964552 0.718058 0.180079 0.0309538 -0.183189
2874 2 -10.743 19.5913 47.5551 3.40392 0.537117 6.04548 0.683168 -0.117352 1.19022
2875 1 27.0486 16.9514 48.4046 -0.190839 -0.113992 -0.642704 0.0942797 -0.0706533 0.062919
2876 1 23.3432 20.1299 36.9362 -2.0457 0.768255 1.36578 1.15417 0.100842 -0.59293
2877 1 24.9592 19.326 45.7218 -1.40147 0.00918766 -0.725971 -0.0730117 0.00973793 0.00575351
2878 1 22.4507 21.7018 43.9192 -0.263396 -0.270717 0.387728 0.24247 0.256019 0.248747
2879 3 24.03 21.1147 45.299 0.317064 1.04377 -0.275102 -0.111668 0.232028 0.160292
2880 2 22.0499 20.3107 39.0873 0.860486 -0.808866 0.90204 1.37245 1.64841 -0.156807
2881 1 22.4406 22.4225 37.5975 -1.37647 0.20955 -1.10685 0.0986272 -0.727761 1.2027
2882 1 22.3099 22.3229 40.8111 -0.925673 0.0500219 1.70998 0.0719837 -1.1102 0.410464
2883 1 -13.0999 22.7929 46.3343 0.342906 -0.0359358 -0.438988 0.672879 0.00697981 -0.220291
2884 3 22.9034 23.3902 45.0458 -0.663776 0.0626259 -1.38167 0.158946 -0.0564578 0.387671
2885 3 23.7662 22.0428 42.4321 1.44083 -0.0807085 1.34655 -0.208745 -0.0361355 0.433382
2886 2 -13.4722 25.3059 47.41 1.00247 1.08196 -0.354848 0.188347 -0.240869 0.211131
2887 1 22.4643 24.0528 49.0055 0.51632 1.6085 -0.552955 -0.126954 -0.414321 -0.0581276
2888 2 21.1932 23.8336 38.9295 -0.861761 0.391299 0.56999 0.249452 0.410549 0.260317
2889 1 21.2684 26.056 37.2026 1.46049 0.855753 0.697506 -1.53836 -1.59351 -0.416091
2890 1 18.9976 27.0647 43.8994 -0.0536584 -1.68706 -0.222541 -0.481943 -1.95628 0.0633248
2891 2 -14.8444 27.6921 47.2302 -0.96287 -0.25007 -0.72673 0.0123593 0.177289 -0.0281068
2892 1 21.8777 26.3832 49.1785 0.727977 0.253351 -1.10935 0.0435066 0.0618435 -0.445011
2893 2 21.189 25.9216 40.1025 -1.513 -1.5462 1.43891 0.635161 1.74232 -0.660937
2894 1 19.2124 29.1438 37.8979 2.16365 2.18555 -3.13062 -0.3996 0.612056 -2.28233
2895 1 19.7701 29.629 41.4737 -2.19994 -0.145518 1.19084 -1.0233 -0.775494 -0.757499
2896 1 20.6389 27.8318 45.6113 -0.891518 -2.04321 1.55702 -1.5413 -0.929072 0.340886
2897 1 17.6188 30.1988 43.3683 -1.62844 0.934623 -0.480808 0.175368 0.366557 1.57323
2898 3 19.0229 28.9854 44.6277 -1.3741 3.36197 -0.719748 -0.210813 0.45701 0.936836
2899 2 -16.34 29.5046 47.7035 -0.853306 0.16796 -0.22326 -0.19532 0.0436384 0.194443
2900 1 19.6354 27.3564 48.1572 -0.489908 -1.88863 1.84333 0.714231 -0.123079 0.348516
2901 3 19.1872 29.8402 36.1089 0.3222 -3.47285 7.30397 2.02848 -0.130798 0.86901
2902 1 17.2643 32.2057 40.8617 -1.60224 4.44429 -1.31895 -1.92709 -0.429885 -1.92224
2903 1 19.1778 31.0326 45.8483 -0.881333 -0.879548 -0.927348 -0.374742 -0.148798 -0.118998
2904 1 34.7384 0.581674 43.4704 -1.61506 0.0166133 -0.549799 0.474577 0.390013 -1.63826
2905 3 17.7564 31.9476 44.5234 -1.86827 1.91425 3.70313 -0.955782 -1.40162 -0.402212
2906 3 18.6662 31.3762 41.847 1.63399 2.9146 1.92796 0.903475 0.0594656 0.349114
2907 2 0.373063 0.934171 47.3932 -0.612261 0.135715 -0.942883 -0.528415 0.176218 0.166446
2908 1 -17.4791 31.3695 48.6754 -1.63417 1.50538 0.630086 -0.95432 0.453391 0.103569
2909 4 3.64282 3.094 2.18196 0 0 0 0 0 0
2910 4 1.74018 5.04005 2.3127 0 0 0 0 0 0
2911 4 -4.29901 17.3011 2.34779 0 0 0 0 0 0
2912 4 -8.04026 22.5941 2.46133 0 0 0 0 0 0
2913 4 -9.38221 24.9649 2.4081 0 0 0 0 0 0
2914 4 6.29471 2.49211 2.35346 0 0 0 0 0 0
2915 4 4.92399 5.4973 2.26592 0 0 0 0 0 0
2916 4 2.94256 10.6357 2.7064 0 0 0 0 0 0
2917 4 0.529642 12.4517 2.45853 0 0 0 0 0 0
2918 4 -3.65828 19.9655 2.27585 0 0 0 0 0 0
2919 4 -9.71335 30.3927 2.6464 0 0 0 0 0 0
2920 4 -3.40048 24.9598 2.15546 0 0 0 0 0 0
2921 4 10.8215 0.0620446 2.13113 0 0 0 0 0 0
2922 4 -0.686096 24.9467 2.39251 0 0 0 0 0 0
2923 4 -1.74637 27.3008 1.52153 0 0 0 0 0 0
2924 4 13.55 1.02051 2.83841 0 0 0 0 0 0
2925 4 11.2486 7.95313 2.58037 0 0 0 0 0 0
2926 4 10.3042 10.4548 2.05685 0 0 0 0 0 0
2927 4 8.98622 12.7999 2.4901 0 0 0 0 0 0
2928 4 7.59524 15.1428 2.47179 0 0 0 0 0 0
2929 4 6.1871 17.4736 2.3801 0 0 0 0 0 0
2930 4 4.82806 19.9263 2.48908 0 0 0 0 0 0
2931 4 3.43051 22.5266 2.27659 0 0 0 0 0 0
2932 4 2.06437 24.937 2.37391 0 0 0 0 0 0
2933 4 16.2043 0.693966 2.3167 0 0 0 0 0 0
2934 4 17.8184 2.83865 2.7847 0 0 0 0 0 0
2935 4 13.5228 9.91095 2.35561 0 0 0 0 0 0
2936 4 11.9399 12.6219 2.28557 0 0 0 0 0 0
2937 4 10.5665 15.0189 2.43537 0 0 0 0 0 0
2938 4 9.14774 17.5598 2.28778 0 0 0 0 0 0
2939 4 18.8906 0.340223 2.60433 0 0 0 0 0 0
2940 4 6.4314 27.5316 2.01572 0 0 0 0 0 0
2941 4 20.7018 7.53347 2.24048 0 0 0 0 0 0
2942 4 19.247 9.99535 2.49893 0 0 0 0 0 0
2943 4 17.6578 12.3985 2.53443 0 0 0 0 0 0
2944 4 13.1524 19.6502 2.64646 0 0 0 0 0 0
2945 4 10.6346 24.983 2.50376 0 0 0 0 0 0
2946 4 9.1897 27.6045 1.43198 0 0 0 0 0 0
2947 4 7.67147 29.9537 1.87393 0 0 0 0 0 0
2948 4 26.555 2.70214 2.63569 0 0 0 0 0 0
2949 4 23.4189 7.67881 2.09677 0 0 0 0 0 0
2950 4 20.3792 12.5323 2.52863 0 0 0 0 0 0
2951 4 15.8499 19.8989 2.35304 0 0 0 0 0 0
2952 4 14.25 22.09 2.10085 0 0 0 0 0 0
2953 4 27.5948 0.143749 1.88993 0 0 0 0 0 0
2954 4 29.276 2.62458 2.51531 0 0 0 0 0 0
2955 4 27.795 4.98489 1.81356 0 0 0 0 0 0
2956 4 23.0459 12.1562 2.11453 0 0 0 0 0 0
2957 4 18.5705 19.7695 2.42957 0 0 0 0 0 0
2958 4 30.6211 5.03079 2.54004 0 0 0 0 0 0
2959 4 23.7693 17.5345 2.62327 0 0 0 0 0 0
2960 4 18.9878 25.108 2.6386 0 0 0 0 0 0
2961 4 17.8709 28.2806 1.73097 0 0 0 0 0 0
2962 4 15.9717 30.137 2.34018 0 0 0 0 0 0
2963 4 33.5257 4.99748 2.52058 0 0 0 0 0 0
2964 4 30.9353 9.96641 3.20245 0 0 0 0 0 0
2965 4 29.2073 12.2559 2.23272 0 0 0 0 0 0
2966 4 24.9456 19.9869 2.46148 0 0 0 0 0 0
2967 4 21.966 25.3594 2.29715 0 0 0 0 0 0
2968 4 20.361 27.5454 2.56153 0 0 0 0 0 0
2969 4 -1.06262 4.71874 2.25786 0 0 0 0 0 0
2970 4 -5.3049 12.4465 2.30204 0 0 0 0 0 0
2971 4 -6.89287 14.7065 2.11966 0 0 0 0 0 0
2972 4 -9.60745 19.8654 2.8465 0 0 0 0 0 0
2973 4 -10.7492 22.3244 2.57496 0 0 0 0 0 0
2974 4 -13.6739 27.5236 2.12233 0 0 0 0 0 0
2975 4 3.37284 4.00662 4.73509 0 0 0 0 0 0
2976 4 -1.10228 11.6965 4.62401 0 0 0 0 0 0
2977 4 -3.664 16.7724 4.94423 0 0 0 0 0 0
2978 4 -4.92437 19.8056 4.68328 0 0 0 0 0 0
2979 4 -7.74459 24.2355 4.61601 0 0 0 0 0 0
2980 4 -9.13169 26.8225 4.38563 0 0 0 0 0 0
2981 4 -11.0281 28.7353 4.79696 0 0 0 0 0 0
2982 4 -12.168 31.6589 4.35641 0 0 0 0 0 0
2983 4 3.41734 9.0434 4.8659 0 0 0 0 0 0
2984 4 2.09092 12.1429 4.8105 0 0 0 0 0 0
2985 4 0.196998 14.0914 4.60909 0 0 0 0 0 0
2986 4 -1.0247 16.5098 4.32023 0 0 0 0 0 0
2987 4 -2.28973 19.1236 4.81679 0 0 0 0 0 0
2988 4 -9.71871 31.0516 5.38413 0 0 0 0 0 0
2989 4 6.13563 8.85625 4.87347 0 0 0 0 0 0
2990 4 -2.11282 24.0549 4.55157 0 0 0 0 0 0
2991 4 -4.45422 26.4812 4.15526 0 0 0 0 0 0
2992 4 12.0282 4.16084 4.71571 0 0 0 0 0 0
2993 4 10.3133 6.84191 4.88572 0 0 0 0 0 0
2994 4 8.8338 9.11445 5.15181 0 0 0 0 0 0
2995 4 0.693678 23.7764 4.45059 0 0 0 0 0 0
2996 4 -1.19748 26.4508 5.47158 0 0 0 0 0 0
2997 4 -3.57235 31.4231 4.37362 0 0 0 0 0 0
2998 4 14.8547 4.08702 4.85861 0 0 0 0 0 0
2999 4 13.5669 6.47961 4.65555 0 0 0 0 0 0
3000 4 12.1972 8.80523 5.02927 0 0 0 0 0 0
3001 4 1.82759 26.2113 4.9085 0 0 0 0 0 0
3002 4 -0.886061 31.5204 4.8193 0 0 0 0 0 0
3003 4 16.2511 1.74748 4.82909 0 0 0 0 0 0
3004 4 16.2676 6.43225 5.01331 0 0 0 0 0 0
3005 4 1.98208 31.6236 4.88928 0 0 0 0 0 0
3006 4 19.1779 1.75411 4.91663 0 0 0 0 0 0
3007 4 15.4733 14.1817 4.52781 0 0 0 0 0 0
3008 4 10.3956 21.6673 4.11048 0 0 0 0 0 0
3009 4 9.3775 24.109 4.85666 0 0 0 0 0 0
3010 4 22.037 1.71113 4.85045 0 0 0 0 0 0
3011 4 19.1958 11.515 4.76393 0 0 0 0 0 0
3012 4 18.1924 14.0452 4.63848 0 0 0 0 0 0
3013 4 16.3225 16.7697 4.45735 0 0 0 0 0 0
3014 4 14.8094 19.0591 4.72713 0 0 0 0 0 0
3015 4 13.0888 21.626 4.5217 0 0 0 0 0 0
3016 4 12.1477 24.1648 4.82733 0 0 0 0 0 0
3017 4 10.7672 26.489 5.16851 0 0 0 0 0 0
3018 4 24.761 1.97516 4.91998 0 0 0 0 0 0
3019 4 26.4131 4.14144 4.96627 0 0 0 0 0 0
3020 4 20.9063 14.0777 4.87873 0 0 0 0 0 0
3021 4 17.8346 19.1573 4.98515 0 0 0 0 0 0
3022 4 29.3876 3.975 4.93623 0 0 0 0 0 0
3023 4 14.656 29.0685 4.79935 0 0 0 0 0 0
3024 4 32.1025 4.17173 4.81555 0 0 0 0 0 0
3025 4 27.7693 11.3905 4.70386 0 0 0 0 0 0
3026 4 25.005 16.3431 4.73937 0 0 0 0 0 0
3027 4 23.5012 19.1627 4.89116 0 0 0 0 0 0
3028 4 20.4196 23.8013 4.55346 0 0 0 0 0 0
3029 4 19.7422 26.3571 5.21187 0 0 0 0 0 0
3030 4 17.3711 28.888 4.40705 0 0 0 0 0 0
3031 4 16.5584 31.4785 4.63813 0 0 0 0 0 0
3032 4 -2.21691 4.40833 4.96347 0 0 0 0 0 0
3033 4 -3.56019 6.77252 4.78901 0 0 0 0 0 0
3034 4 -6.6088 11.8713 5.1335 0 0 0 0 0 0
3035 4 28.9297 13.8408 4.43224 0 0 0 0 0 0
3036 4 -15.0153 27.0158 4.43901 0 0 0 0 0 0
3037 4 -13.6636 29.3793 4.54448 0 0 0 0 0 0
3038 4 1.98845 8.56781 7.52062 0 0 0 0 0 0
3039 4 0.565178 10.6622 6.51453 0 0 0 0 0 0
3040 4 -2.28413 15.9507 7.14536 0 0 0 0 0 0
3041 4 -3.72051 18.2971 7.20172 0 0 0 0 0 0
3042 4 -8.19475 25.864 6.75788 0 0 0 0 0 0
3043 4 -9.43324 28.3288 7.04256 0 0 0 0 0 0
3044 4 8.30496 3.05674 7.38644 0 0 0 0 0 0
3045 4 6.55715 5.80986 7.33182 0 0 0 0 0 0
3046 4 4.70106 8.62994 7.27135 0 0 0 0 0 0
3047 4 3.77837 11.1278 6.69364 0 0 0 0 0 0
3048 4 -0.550297 17.9722 6.56975 0 0 0 0 0 0
3049 4 11.0034 3.28264 7.08344 0 0 0 0 0 0
3050 4 9.27868 5.86342 7.21086 0 0 0 0 0 0
3051 4 7.41418 8.39611 7.3638 0 0 0 0 0 0
3052 4 12.0001 5.90448 6.80931 0 0 0 0 0 0
3053 4 7.54782 13.3997 7.31045 0 0 0 0 0 0
3054 4 6.15448 15.7409 7.26981 0 0 0 0 0 0
3055 4 4.7571 18.0749 7.11504 0 0 0 0 0 0
3056 4 1.19038 25.7211 7.51195 0 0 0 0 0 0
3057 4 -2.42309 30.7263 7.04691 0 0 0 0 0 0
3058 4 7.48138 18.1235 7.12859 0 0 0 0 0 0
3059 4 5.94653 20.5257 7.05833 0 0 0 0 0 0
3060 4 3.72131 26.6794 7.19525 0 0 0 0 0 0
3061 4 1.58547 28.3406 6.87418 0 0 0 0 0 0
3062 4 0.469461 30.8325 7.0806 0 0 0 0 0 0
3063 4 17.6501 1.05933 7.06368 0 0 0 0 0 0
3064 4 13.6346 13.3205 7.37585 0 0 0 0 0 0
3065 4 12.3772 15.7206 7.66369 0 0 0 0 0 0
3066 4 9.08433 21.5123 6.49395 0 0 0 0 0 0
3067 4 4.98123 28.9946 7.88562 0 0 0 0 0 0
3068 4 20.4262 6.11184 6.94877 0 0 0 0 0 0
3069 4 19.1251 8.49048 7.21969 0 0 0 0 0 0
3070 4 16.4303 13.4705 7.53891 0 0 0 0 0 0
3071 4 14.9524 15.629 6.77684 0 0 0 0 0 0
3072 4 11.7421 20.9996 6.80607 0 0 0 0 0 0
3073 4 10.7987 23.5384 7.11031 0 0 0 0 0 0
3074 4 23.4909 0.889121 7.12929 0 0 0 0 0 0
3075 4 24.6618 3.7197 7.01067 0 0 0 0 0 0
3076 4 22.0398 8.33906 7.2119 0 0 0 0 0 0
3077 4 17.9292 15.9889 6.52976 0 0 0 0 0 0
3078 4 16.1856 18.0574 6.85474 0 0 0 0 0 0
3079 4 12.3373 25.7742 7.35743 0 0 0 0 0 0
3080 4 10.8781 28.0752 7.38119 0 0 0 0 0 0
3081 4 9.16031 30.6364 7.15835 0 0 0 0 0 0
3082 4 26.3526 0.924789 7.2144 0 0 0 0 0 0
3083 4 24.7724 8.83708 7.12943 0 0 0 0 0 0
3084 4 14.5883 25.905 5.82761 0 0 0 0 0 0
3085 4 13.7267 28.111 7.175 0 0 0 0 0 0
3086 4 12.2414 30.4245 7.16705 0 0 0 0 0 0
3087 4 27.5544 8.67373 7.35299 0 0 0 0 0 0
3088 4 26.4047 11.125 7.04724 0 0 0 0 0 0
3089 4 23.6 15.4978 7.72614 0 0 0 0 0 0
3090 4 22.4888 17.973 7.47599 0 0 0 0 0 0
3091 4 18.7307 23.6211 7.99497 0 0 0 0 0 0
3092 4 17.7837 26.0039 7.07297 0 0 0 0 0 0
3093 4 32.4184 5.80369 6.97451 0 0 0 0 0 0
3094 4 29.1186 10.9041 7.14832 0 0 0 0 0 0
3095 4 26.3062 15.8127 7.76583 0 0 0 0 0 0
3096 4 25.1332 18.0867 6.82927 0 0 0 0 0 0
3097 4 20.9753 25.1188 7.61652 0 0 0 0 0 0
3098 4 17.3299 31.0533 7.22541 0 0 0 0 0 0
3099 4 35.0157 1.19856 6.46756 0 0 0 0 0 0
3100 4 -2.15205 5.92708 7.22476 0 0 0 0 0 0
3101 4 -3.78476 8.30049 7.10794 0 0 0 0 0 0
3102 4 -8.26184 15.7079 7.9277 0 0 0 0 0 0
3103 4 -9.65914 19.1157 7.21295 0 0 0 0 0 0
3104 4 -16.2027 30.7107 7.6676 0 0 0 0 0 0
3105 4 0.56493 0.722377 7.46403 0 0 0 0 0 0
3106 4 -1.02532 8.39311 7.49565 0 0 0 0 0 0
3107 4 -6.32882 17.5911 7.55171 0 0 0 0 0 0
3108 4 -10.6713 26.0501 7.87864 0 0 0 0 0 0
3109 4 -13.8061 31.2722 6.49921 0 0 0 0 0 0
3110 4 3.27278 1.01982 7.40651 0 0 0 0 0 0
3111 4 3.2003 2.99149 9.81216 0.567435 1.63165 -2.52857 21.3364 -22.7097 -5.38056
3112 4 0.893349 7.29463 9.226 -1.54747 -0.955717 -1.40591 -22.3932 -9.24724 29.4232
3113 4 -1.617 11.2966 9.72088 -1.56477 0.765409 -0.845595 6.38003 17.7384 17.9276
3114 4 -3.30438 14.6902 9.28216 -0.426263 0.810557 -0.320344 -17.2087 -14.6418 6.14618
3115 4 -5.40748 18.3747 9.86546 0.446489 -2.04849 0.075059 -12.0592 1.77536 0.0480792
3116 4 -11.6854 23.6914 8.58023 0.286636 0.298659 0.246397 27.0916 -0.394084 0.699371
3117 4 -13.5121 31.9988 9.63101 0.479115 -0.633638 -0.409076 -8.64067 9.4364 -16.1043
3118 4 -2.16251 17.1935 9.64338 -2.40827 -1.62333 1.04524 -17.4156 5.35068 -15.7543
3119 4 -6.91124 23.6359 8.76315 -0.667181 -0.498088 0.449922 -2.50792 0.590126 9.76919
3120 4 -8.27602 27.4677 9.0191 -0.889617 2.62003 -0.760506 1.99489 25.7317 -18.9659
3121 4 10.6321 1.73188 9.21208 -0.32459 -1.59277 0.366814 23.6445 -9.82874 7.87084
3122 4 6.70047 4.23783 9.09944 1.12734 -0.305069 0.600977 -2.77992 -2.3179 3.80771
3123 4 10.8733 5.12761 9.15028 -1.58685 -0.850446 -2.94616 -4.59856 -21.6233 -14.0905
3124 4 -4.902 29.395 8.78534 -0.0301961 -0.819643 -1.53349 17.1864 22.0321 17.2728
3125 4 7.95256 15.3246 10.0151 0.668005 -0.678305 -0.690218 -25.8831 6.93714 -17.9694
3126 4 6.18177 17.1132 9.53236 -0.670692 0.179875 -0.501179 -22.2555 19.4081 14.5666
3127 4 3.68948 19.4757 9.20045 -1.78783 2.10008 -1.96041 -25.3617 8.10944 2.73275
3128 4 3.66506 22.8369 9.51635 1.03518 2.19417 -1.07542 2.52404 -18.3084 2.30095
3129 4 1.38036 23.4883 8.64529 -2.6002 -0.287066 1.32161 -27.1933 -20.1471 21.4756
3130 4 -0.877524 29.4171 8.85792 -1.74766 1.21077 0.0371337 -24.4662 13.7827 22.011
3131 4 11.185 13.0759 8.7624 0.690168 0.911202 -0.653806 0.197607 6.78225 0.101629
3132 4 10.4776 15.5505 8.97298 -0.809676 0.803708 1.11468 -17.0024 -8.25724 17.1136
3133 4 8.63928 18.9275 9.46444 -0.451566 -0.518391 -1.0322 9.05328 -11.9148 8.25902
3134 4 6.18862 22.5667 9.20081 -1.31767 -1.56962 -1.72809 -5.8433 -9.48261 -24.7332
3135 4 5.10756 24.9412 8.88912 0.588826 -1.06872 -0.676211 -22.4565 20.7744 -14.4837
3136 4 3.2503 28.7639 9.72479 0.572621 -1.03547 -3.18158 24.7871 -9.60977 11.6626
3137 4 19.7459 4.40493 9.01162 1.25819 0.142318 2.06226 -5.30536 -14.3987 22.1181
3138 4 14.5839 15.0714 11.17 4.5834 -1.2321 0.158544 -11.0261 16.8353 -10.797
3139 4 10.8201 20.4063 9.25226 3.52663 3.39503e-05 -1.16363 -21.1819 -19.4918 -1.75999
3140 4 8.99361 22.5047 8.86805 -0.655018 1.16118 1.04683 7.68735 -10.7024 -14.9447
3141 4 21.0442 7.32821 9.54919 -0.929157 -2.19534 -2.0093 16.0459 0.300092 25.7581
3142 4 17.7168 14.4272 9.46637 -0.454624 -2.54787 -1.82739 16.5797 -7.40671 -17.639
3143 4 13.9506 17.4273 8.51508 -1.78052 1.09454 2.12834 22.3823 25.8667 -4.71336
3144 4 7.14551 29.2573 8.75819 1.14751 1.42465 0.641194 18.2054 16.2379 -22.8924
3145 4 5.62962 32.0131 9.05614 1.1049 -0.597278 1.34886 -23.9834 -3.86926 -21.598
3146 4 26.2372 2.25367 10.5545 -0.409941 -0.328415 0.867808 -0.314417 17.7615 6.31934
3147 4 20.6929 11.7683 9.32598 0.160546 0.880288 0.916168 22.1681 16.8695 19.9588
3148 4 11.1771 26.8175 9.58285 0.832226 -2.33544 -1.45391 4.06232 15.3687 16.3568
3149 4 9.263 28.491 9.61842 0.480627 0.253791 -0.425804 22.4116 -5.47485 2.34365
3150 4 28.1536 1.32368 8.94491 -0.616874 -0.862694 -2.39212 27.9715 -2.70685 14.7813
3151 4 26.0558 7.18774 9.11609 -2.19675 0.928594 1.39117 -16.7866 -19.1074 25.3449
3152 4 22.223 15.1863 9.99669 1.78159 -2.06781 -2.13803 -8.04739 -12.5901 -16.8537
3153 4 16.6398 25.1337 9.22729 -0.353914 0.684521 1.7403 0.0243761 6.73038 -20.5993
3154 4 13.3821 30.0112 10.4014 -2.19385 -1.35205 0.98123 6.16888 -12.3107 21.9238
3155 4 11.7321 32.1148 9.92619 -4.50757 2.26381 -1.47211 3.44534 -4.71361 3.47016
3156 4 30.138 7.81129 8.84972 -0.063957 2.1863 -2.62411 -16.0162 17.9836 12.1405
3157 4 29.5678 10.2375 9.84524 -0.847744 -1.09884 -0.82998 -23.1525 13.958 -0.0481095
3158 4 24.2587 17.1551 9.88232 -0.903488 0.461391 -0.378452 -13.4647 8.11907 -21.0134
3159 4 21.2931 18.9565 10.5839 0.469403 -1.71392 0.880264 -17.3911 8.89627 26.5822
3160 4 21.4198 23.2469 9.5213 1.13682 1.66357 2.63612 -15.3456 15.9407 13.8982
3161 4 20.3296 26.3925 9.59991 2.38433 -2.58535 1.9656 -9.0082 -12.7339 -21.5715
3162 4 34.6656 3.78979 9.44158 -1.19123 -0.943517 2.48146 9.34678 -2.78762 9.62459
3163 4 -10.3958 18.9653 9.6871 1.7888 -2.43756 -1.65177 0.865249 -17.4448 -20.1805
3164 4 22.9438 20.0334 9.00652 -0.702236 0.776927 -0.836032 5.86333 7.97978 -6.17923
3165 4 17.2318 31.5878 9.72504 -0.689886 -3.4794 0.853017 15.9814 -9.67248 -23.5945
3166 4 0.0969842 3.03089 9.35379 -0.381262 0.48679 -1.1794 0.869749 7.83709 25.8759
3167 4 -3.66224 6.41336 9.20669 1.3541 -0.252575 -0.659316 -5.78031 20.8267 14.8792
3168 4 -8.00695 18.3801 10.866 2.62548 0.795373 0.562043 -6.41349 -23.2599 -1.40568
3169 4 -13.2537 29.6057 8.56332 -0.627625 0.454141 -1.543 17.8277 -20.233 -1.64852
3170 4 2.21681 0.578172 9.8203 -2.90168 -2.60222 0.154742 19.0459 5.87383 -0.0790893
3171 4 3.59135 5.20877 10.6333 2.00939 1.24615 -1.17503 -16.818 23.2994 -26.21
3172 4 -0.0151508 12.1836 11.9882 -1.09181 -1.23278 1.86824 28.8582 19.7149 21.1352
3173 4 -1.75298 13.5116 10.865 -0.401864 -3.61598 1.57272 -19.417 20.319 -0.140348
3174 4 -3.34974 17.5193 13.3016 -0.924362 -0.521992 -0.634013 10.4536 -22.6107 -12.6689
3175 4 -6.58489 21.8875 10.7105 -0.888031 1.81632 -1.53055 5.85232 13.0378 23.4093
3176 4 -7.97334 24.8677 13.4741 0.477249 0.0747005 0.473155 -18.5598 -2.4413 -6.9761
3177 4 5.6502 6.79107 11.3613 -0.242773 0.393273 0.581614 2.11015 -12.9727 -19.5289
3178 4 -3.70066 21.2466 11.3311 -0.331977 1.65481 1.54226 9.88787 -25.0111 -1.00012
3179 4 -4.53568 23.4699 10.321 -0.892207 0.504978 -1.27452 -4.10355 22.3008 5.96757
3180 4 5.18959 9.45026 12.7015 -1.10125 -0.209264 -0.208916 12.2714 -16.2088 17.0069
3181 4 3.83254 12.3003 12.4838 -2.04367 -1.18709 -0.886832 6.87915 13.7967 -0.538072
3182 4 1.39049 16.7108 10.0642 -1.81029 -3.8991 -1.53648 2.24509 -11.6626 19.4919
3183 4 -2.00852 23.3974 10.7844 -0.836951 0.840703 2.17098 -3.28839 16.7384 10.0352
3184 4 -6.06181 28.8473 11.9236 -1.16281 2.21949 -0.742357 16.3344 -5.03697 21.858
3185 4 -7.25741 30.9247 11.4772 1.9444 -2.63945 1.40942 7.76771 -21.0878 -9.1269
3186 4 11.1776 3.16319 12.7632 -0.231044 1.09497 0.360725 -7.65769 11.4063 1.0957
3187 4 7.70821 9.85942 11.5322 2.97472 3.48791 0.304188 -19.8165 -4.19717 16.9851
3188 4 5.02378 13.569 10.579 -0.195344 2.05192 -3.02022 -10.9104 15.8104 -20.0477
3189 4 4.84402 16.0914 11.4434 0.101625 -0.217856 -0.294222 -16.8953 -19.5568 12.8734
3190 4 1.60717 18.9145 10.9364 2.02737 0.799147 -0.877206 4.15394 -4.65586 -11.2421
3191 4 -4.73333 27.3397 10.5094 2.41343 -1.00136 0.677662 5.53437 -1.55382 17.3485
3192 4 -2.68562 31.9934 10.8763 -1.14189 -1.53026 0.311701 7.74472 14.4295 -19.6552
3193 4 13.3084 6.18809 10.9112 -3.3464 1.70105 -0.875187 -14.8182 -9.03472 -1.93721
3194 4 10.8384 9.73686 11.8152 -0.455353 -3.94461 1.24689 -12.5042 -21.9981 19.6865
3195 4 9.65844 13.7176 10.997 1.95209 -1.65092 -0.109264 -19.0084 -12.2659 11.1092
3196 4 3.06903 20.9623 11.2498 0.992917 0.47058 -1.15115 0.407208 3.94718 8.85247
3197 4 2.34861 24.7879 10.5968 2.03041 -2.03906 0.0833714 -17.9004 -4.25148 -26.9753
3198 4 2.0067 26.6238 13.9536 0.923857 0.0248007 -2.30321 2.05699 15.7125 11.1895
3199 4 17.389 3.48219 10.4075 0.498962 -0.239285 -1.88936 -10.9991 -23.5899 -18.1247
3200 4 15.787 5.6644 10.9877 0.97227 -1.54629 -2.65764 6.15341 -13.0503 5.07397
3201 4 13.8951 9.38668 12.0687 -1.18648 -2.56595 0.380267 6.17684 -3.56521 -9.81092
3202 4 12.7066 10.8457 10.4395 -2.01659 0.48109 0.388471 -5.45046 25.1676 -19.557
3203 4 11.9099 14.594 11.8363 -0.0819116 0.0348721 1.5451 15.2266 24.1074 -0.413923
3204 4 7.34524 19.6264 11.8294 -0.224027 -0.722573 1.75766 7.67449 -19.7241 19.3552
3205 4 5.65952 23.8475 11.6222 -4.09335 1.28741 -3.04447 -15.7177 22.0932 16.3065
3206 4 5.91065 26.4282 10.6901 2.43629 -2.60482 2.04048 20.5945 -4.85286 1.95285
3207 4 4.71259 29.1055 11.9596 1.905 -1.92872 -1.47819 -9.18855 10.4607 -24.6642
3208 4 19.5805 2.6025 11.4202 -1.55763 1.21881 -0.420401 -25.479 15.5943 -10.3952
3209 4 21.794 5.22829 12.9999 -2.15721 1.13776 -1.22911 14.1529 -10.1073 -8.56844
3210 4 17.6083 7.56986 10.5757 -0.422438 -1.10274 0.79904 6.31157 -20.2878 18.7418
3211 4 9.18467 24.2213 11.9791 -4.21209 1.34709 1.41878 -20.0113 10.0196 -16.0738
3212 4 27.0947 4.12426 11.8771 2.09732 -0.909877 -1.73875 -4.94731 -2.22824 -14.3935
3213 4 20.7014 10.7791 11.5316 -0.403567 0.328791 -1.95595 25.574 -4.25737 12.3345
3214 4 19.7466 13.6861 10.6819 -1.64207 -0.721147 -3.5723 0.130675 -19.4609 5.52812
3215 4 18.8735 17.3534 11.9281 -0.355221 0.977231 -0.796423 16.609 -25.0105 -23.9739
3216 4 13.6571 27.5151 10.8088 -0.0753311 1.27541 0.468406 8.60492 -0.12175 -19.0058
3217 4 11.5745 30.6723 12.0569 1.74108 5.05526 -1.75276 -1.47834 0.557181 1.66349
3218 4 9.26735 31.9963 13.2823 -4.00563 -3.51443 3.75382 0.749336 -0.16302 -0.302596
3219 4 29.3588 2.59753 10.6976 0.332663 -0.246143 -0.598974 2.7559 -14.1823 -10.4022
3220 4 27.9398 6.08297 10.4751 -1.01518 -2.11177 4.21164 -8.32766 -6.7278 -13.2862
3221 4 26.522 9.87314 13.0939 1.21135 2.013 0.615525 -17.8204 5.04752 -16.2154
3222 4 19 21.9125 10.5291 -2.53658 0.636985 0.0404812 7.75792 23.2336 -12.5201
3223 4 16.0725 21.9192 10.7544 1.75503 -2.16543 -1.27362 -25.4826 6.03685 6.1748
3224 4 29.2765 9.91493 12.974 2.80277 -0.55871 -3.28408 -24.3277 17.8742 6.37629
3225 4 22.558 21.4292 13.5651 0.948271 0.452703 0.416322 -18.6661 0.279285 -17.0626
3226 4 20.6283 24.4126 13.6898 -1.55073 -0.287954 1.36121 -10.3022 -13.2134 13.3204
3227 4 34.2375 0.555612 11.7013 1.09531 -1.00388 1.79241 8.53774 -8.66305 -21.9091
3228 4 24.7453 21.1247 11.9324 -1.42513 1.18583 2.01059 -14.8945 -14.9946 10.9502
3229 4 20.1117 29.118 9.45756 0.833602 -0.287461 1.87414 19.241 -6.41852 -8.8076
3230 4 35.8236 2.5007 11.5375 -0.519756 -1.10076 0.421407 20.4729 19.3244 -6.99408
3231 4 1.28568 3.96938 11.6154 -1.93151 -0.560559 2.63936 -7.59971 26.4786 3.47013
3232 4 -3.95612 8.55921 10.6725 -1.63992 1.19713 -0.191633 -22.6855 25.7435 21.1786
3233 4 -3.47594 11.5618 12.0073 0.420314 -1.47782 -0.336914 6.15576 -19.433 -8.0809
3234 4 -5.2416 13.0314 10.8994 -1.15017 0.575756 1.62826 24.5958 18.7999 25.4788
3235 4 -5.95891 18.0132 13.5444 -0.334081 -0.0789477 1.24777 17.5501 23.6924 2.46867
3236 4 -10.6146 25.0838 12.0122 -0.62895 -1.02862 -0.122183 -5.14488 -8.73692 9.91337
3237 4 -12.8684 28.7314 12.3988 3.46307 -0.599359 0.277435 1.43884 20.0032 -10.2519
3238 4 -14.4727 31.1576 12.1319 1.30702 -0.746439 -1.24966 -3.37869 -8.15272 20.7453
3239 4 1.81585 1.3656 12.4829 0.351153 -1.7924 -1.44571 -9.35373 15.6718 -10.1699
3240 4 4.21045 2.48823 15.2276 -0.387453 1.26514 2.15335 -7.52358 -4.22469 -4.44294
3241 4 3.18661 4.71743 14.3207 -0.383948 -1.36387 -2.63292 9.47844 -10.2303 1.57867
3242 4 -4.34639 21.7342 14.9781 0.444537 0.274104 2.24933 26.4851 21.6516 -10.1002
3243 4 -7.08284 22.5556 15.3317 -0.282714 -0.370145 0.829412 -9.14121 -17.6876 -18.6073
3244 4 9.77339 4.66679 15.077 0.0333446 -1.10427 2.37724 0.962239 23.884 13.5231
3245 4 4.84226 6.76157 15.1313 -2.6409 -0.450671 -0.92968 -4.04159 8.59035 -18.9856
3246 4 0.570974 15.8245 14.7637 -1.58425 -0.680678 1.42358 24.8518 2.32573 -0.822284
3247 4 -2.37938 20.9114 13.6378 2.55655 0.15072 -0.846619 9.5907 20.3416 -22.393
3248 4 -4.02972 24.1946 14.4362 -3.61887 -0.492202 1.59334 -9.80686 20.6485 -14.1392
3249 4 -7.3893 30.2175 15.613 1.39691 -3.31863 1.5805 -18.8092 21.9387 5.69092
3250 4 10.3754 0.847419 15.5221 -0.390447 0.445435 2.14708 14.4691 22.8111 -22.2232
3251 4 6.71518 10.6937 14.6194 1.56486 2.13083 0.489499 -8.5724 4.95275 16.4925
3252 4 4.18569 13.3033 14.9833 1.58641 -0.16679 -0.439153 0.718118 -17.1171 23.2185
3253 4 2.5689 15.6601 12.9648 1.56397 -0.748171 0.236401 -0.649824 -24.1593 21.0633
3254 4 0.528952 18.2787 14.1734 -1.24579 1.45267 0.243305 -18.2408 2.92026 18.9764
3255 4 -4.57832 31.6301 15.6181 0.256718 2.90097 2.31752 -11.9038 21.1052 -20.6959
3256 4 12.3847 0.914623 13.0088 1.15725 2.95771 1.64506 8.26228 24.4373 -12.759
3257 4 9.05918 11.144 15.4976 -0.20527 1.75534 1.98959 21.154 -15.1835 -17.1973
3258 4 8.159 14.0885 14.0431 -0.617904 -0.485914 2.45938 -12.7985 27.4813 1.98304
3259 4 -2.36811 31.7059 13.4883 1.15826 0.770351 -0.937148 -22.5161 -6.88383 -19.1366
3260 4 15.7149 1.76738 12.8908 0.777495 -0.914029 -2.20602 -22.825 5.61738 -26.1332
3261 4 13.9532 5.76901 15.1929 0.210691 0.12036 1.26316 -0.488069 5.88956 12.4364
3262 4 11.8818 8.37704 15.2627 -0.131699 -2.81516 2.05956 11.5783 -2.88843 -11.8011
3263 4 11.9585 10.7333 14.7901 0.286765 0.451054 -0.980059 -2.82389 -5.41103 -18.9018
3264 4 10.9554 12.989 14.4243 0.075602 2.16715 0.135712 17.2973 24.756 -8.81147
3265 4 19.9565 3.61108 13.8989 -3.19937 -0.32974 -1.05908 -4.70973 9.02388 -1.90547
3266 4 18.0587 5.46829 14.6273 1.69337 2.22995 -0.657958 16.7853 1.54963 -18.056
3267 4 16.4782 7.72592 13.0287 -0.0997653 -2.91224 0.140123 -16.7247 -24.6838 10.6274
3268 4 10.2871 15.4806 15.0452 -0.161015 -4.22558 0.947068 -23.3078 -5.55963 -13.5723
3269 4 4.76122 23.8812 15.1466 0.0211554 5.16862 1.60096 -2.36599 -2.37476 1.05737
3270 4 3.26469 29.0067 14.4048 -0.0926709 -1.55774 0.0577658 26.8734 -23.3518 -22.7762
3271 4 21.317 1.08655 15.3725 0.565464 2.17135 -0.398816 -11.0205 4.15636 -10.3947
3272 4 11.3095 24.8264 10.904 0.475966 1.62787 0.344903 -4.22916 -0.301016 -16.9154
3273 4 12.6959 30.2466 14.309 2.0436 -3.61317 -4.17936 -0.595928 1.28092 -0.941937
3274 4 20.1247 8.56752 15.2211 1.81254 1.3873 1.42249 16.1443 -18.8631 10.3096
3275 4 18.9031 12.8458 14.5633 -0.0137977 3.79993 -0.387509 -11.2752 6.72395 10.5398
3276 4 16.5882 15.3753 15.5663 1.24233 -0.289642 0.786494 0.927985 4.21397 -23.281
3277 4 9.03693 17.5888 15.8222 0.26261 4.08851 0.749217 -3.04563 3.32685 0.919622
3278 4 16.9115 17.8805 14.59 -1.7721 -0.515066 1.24762 14.1607 16.2419 13.6691
3279 4 27.1762 3.34065 14.54 1.52042 3.93623 1.88636 17.8193 5.32897 -26.8321
3280 4 25.8562 5.87485 15.8367 0.458214 0.869949 0.963428 -20.6653 5.96835 21.5266
3281 4 22.6379 9.99829 13.0943 -0.167813 -0.438468 -0.801959 20.6561 -0.684616 4.34633
3282 4 21.2522 12.2384 13.9897 2.09245 1.26444 0.515503 -9.43048 -8.26153 -22.8503
3283 4 20.9667 15.8669 12.5025 -2.33959 1.45949 -2.29276 10.4285 24.1743 17.2976
3284 4 19.7291 18.6249 14.9156 0.639425 -1.33188 -0.25705 1.22227 -4.30781 -18.241
3285 4 18.1733 21.0161 15.1793 -2.13109 -1.88711 -1.82758 -21.4842 10.9167 -7.92239
3286 4 16.6702 23.1003 15.1904 -4.51472 1.16445 -7.61216 -2.52025 2.03113 3.07923
3287 4 29.3827 4.11563 15.3083 -2.85067 0.571336 1.30932 3.61385 -18.2407 -17.8425
3288 4 25.9829 7.91531 14.6156 0.577809 -0.960888 0.30788 -24.3513 -17.2856 0.811493
3289 4 19.9005 20.7095 13.3022 1.30245 1.62521 -0.534943 -7.24465 17.6736 -4.63686
3290 4 18.4692 23.4162 13.819 0.887169 2.80719 -0.884442 -1.18152 -12.36 3.68586
3291 4 16.3694 31.9554 14.1288 0.828877 1.65588 -0.540171 -3.22992 23.1495 27.5528
3292 4 31.3542 1.39056 14.6218 1.00697 0.569775 1.62733 21.6849 -12.55 -1.82588
3293 4 33.5228 3.78716 13.591 -1.06951 0.737662 -0.886766 12.7934 -23.2335 -1.47456
3294 4 27.0147 17.2465 13.87 -1.84967 -1.0765 -3.69299 -21.1549 -13.38 -13.7724
3295 4 36.7524 0.61494 15.793 -0.855285 -2.48518 0.229949 22.4891 -22.589 23.4611
3296 4 0.284219 3.72649 15.6622 -1.25354 1.94266 0.817113 -4.51088 3.57565 -5.99396
3297 4 -7.62786 14.4738 15.3993 -2.0121 0.447511 1.1712 -11.7187 -24.7237 -8.65263
3298 4 -10.9592 21.2614 14.0107 1.18466 1.96377 0.113963 -7.47508 -11.3992 12.7687
3299 4 -12.1838 23.5016 12.8768 -2.08485 1.9205 1.66311 -24.325 -19.2413 -3.05721
3300 4 -15.2801 29.2818 13.8706 2.8521 1.53332 0.142074 4.36172 -16.8594 16.4514
3301 4 2.40024 3.71502 16.7571 1.37708 3.05244 2.17841 8.80759 -7.20834 -16.3731
3302 4 -1.95239 12.5485 15.4785 0.624941 2.99167 -0.408987 11.9023 11.531 23.487
3303 4 -5.39365 12.229 14.4008 -1.2396 -0.480442 -0.0896676 -23.8097 24.2552 -4.59343
3304 4 -5.25782 14.6338 15.17 -1.62108 1.59741 -0.0369556 -25.3678 -7.84016 -15.3675
3305 4 -9.85552 23.4988 14.4965 1.09901 -0.265788 -2.80254 -4.55461 18.8762 -1.89162
3306 4 -0.105416 10.0609 16.6467 1.93292 -0.0780231 -0.756043 -10.2724 -18.4407 2.33385
3307 4 -3.15303 12.3254 17.5916 0.95391 -0.0668374 -1.52467 10.073 -15.6675 21.9754
3308 4 -9.06601 24.2147 17.3169 2.34099 -0.90243 -0.0521059 -20.3551 -14.3555 -14.6712
3309 4 -10.7758 26.7088 16.4707 0.428127 0.464538 0.422088 -12.4923 21.5893 16.632
3310 4 -11.6548 29.5878 16.1282 0.861069 1.29553 1.05567 20.673 -24.1024 10.4881
3311 4 3.32437 6.00209 17.1144 -2.88847 -0.483185 1.34697 -5.95285 -15.4359 -18.5594
3312 4 -8.65306 31.2787 17.4906 1.23505 0.183456 2.1233 -0.340804 13.2746 -1.93942
3313 4 -11.573 31.8172 14.8973 1.50377 0.628747 4.7979 7.187 -14.2165 7.33738
3314 4 7.27243 1.77678 18.4864 0.0849475 0.429186 0.395822 -0.238388 0.866658 0.142269
3315 4 8.00375 5.39268 16.8506 0.449938 1.4666 -0.935517 -6.9232 -26.4717 1.47909
3316 4 -0.96264 15.5452 18.3828 -1.50883 -0.0641183 -0.228943 -0.651755 0.382853 -0.309804
3317 4 -1.26272 18.718 16.2816 3.89675 0.697957 -0.599664 -8.38716 -5.63822 5.64537
3318 4 -1.93183 22.7293 17.328 -0.526212 -1.09531 2.09523 -21.8081 -16.6135 19.5105
3319 4 -4.76743 24.799 17.4959 0.633766 0.577452 0.622356 20.9517 -12.7471 5.24194
3320 4 12.185 2.13862 16.9205 -3.97483 -1.71653 0.0782023 -1.06697 8.85011 -4.91955
3321 4 11.8544 4.96687 16.6633 0.657829 -0.187831 0.490934 16.3392 3.63345 -7.03576
3322 4 3.53315 16.7739 15.5734 -1.94856 0.417061 -0.410548 5.90977 -1.46978 -4.81901
3323 4 2.18173 17.8803 17.3555 -0.0791505 -1.54915 2.34576 12.9338 1.10673 13.7601
3324 4 -0.397341 25.0857 17.0311 -2.11892 -2.9281 -2.0536 -5.21009 -4.03891 -1.86039
3325 4 -4.0501 27.8287 16.2352 -0.388986 -0.258319 -0.543637 7.91939 3.20922 4.1893
3326 4 -5.14422 30.2406 17.4825 1.74612 -1.28777 0.805995 -4.53508 13.8837 -3.75487
3327 4 12.7107 9.1701 17.9971 0.106014 -0.45241 1.50318 -22.2761 -14.494 -25.4329
3328 4 9.01329 9.86964 17.5125 -0.415821 0.982614 2.08746 -22.6524 -13.3548 -24.3753
3329 4 6.90703 13.3191 17.1948 1.48867 -0.144251 3.38607 -12.7638 5.72514 -6.51936
3330 4 1.47054 27.6967 17.4007 -0.38884 -1.0202 0.0494441 16.4441 -18.0864 -0.420574
3331 4 -1.88097 30.1334 17.1872 1.02011 -2.04524 -1.9496 -20.9584 -17.8311 7.14541
3332 4 17.75 3.19846 15.4228 -0.226673 -1.14085 0.147333 -18.1144 5.38624 2.60538
3333 4 14.5694 7.67687 16.8414 1.11652 -2.34166 3.90221 20.1868 27.9601 9.27307
3334 4 11.5638 13.4038 17.1018 -3.18485 -0.565435 1.4607 15.7717 -1.20963 -12.8681
3335 4 8.02053 15.771 17.868 1.532 -1.31667 1.97542 -11.9468 5.85799 -3.09397
3336 4 6.05831 16.446 15.2154 1.09604 0.514535 2.27086 -22.8295 12.8399 -18.6501
3337 4 0.791338 30.0441 16.791 -1.00941 0.983491 -0.106259 -12.1623 -4.49408 19.7384
3338 4 17.7167 0.173979 16.8163 2.98148 0.0840734 1.8268 -6.87285 0.118768 21.8271
3339 4 21.2334 3.20483 16.9253 0.138232 0.923095 0.732508 -5.81505 -6.48258 0.405463
3340 4 17.3066 8.00996 17.219 1.65036 1.24434 0.918809 2.91227 -28.9049 12.872
3341 4 16.3724 9.33861 15.3082 -1.70147 1.62878 -0.478934 -12.2816 11.0127 11.1672
3342 4 12.9003 16.6176 15.5149 0.598098 -2.02755 0.657664 -21.6428 -20.4483 15.2223
3343 4 3.16073 22.0741 13.7584 1.21554 5.57693 1.40169 2.08066 -1.92978 -0.676851
3344 4 5.99289 20.3254 13.8385 1.71103 -4.59186 -5.3962 3.68667 6.68959 0.614042
3345 4 4.56135 26.4565 14.5855 4.63903 0.0991476 7.84788 1.27171 -1.31985 -0.473286
3346 4 4.86747 28.2661 17.0777 4.05348 0.676295 6.53002 0.080605 2.70795 2.16983
3347 4 3.01219 31.256 17.2184 -2.90165 -0.206573 0.554203 15.0378 -5.94457 14.678
3348 4 19.9093 6.82132 17.1959 -1.61471 2.88025 0.779805 12.6874 -7.68846 -10.0166
3349 4 16.3447 18.2597 18.2347 -2.30214 -0.280194 -4.0827 -0.337343 -1.24894 -0.566767
3350 4 14.7123 18.5184 15.2796 5.53031 0.650665 4.60855 -3.12557 6.83122 3.4706
3351 4 7.73872 26.2128 13.8842 -6.60103 1.33573 0.290915 0.925889 -2.97171 4.16705
3352 4 26.8184 0.398755 16.6657 -0.202277 0.469929 -1.84629 25.5282 -10.6921 -21.1367
3353 4 23.8218 0.391879 17.1887 -0.889181 -1.66103 0.609534 -15.032 -3.25911 12.1088
3354 4 25.6643 2.63664 17.4455 2.3783 2.95587 1.98266 -19.5678 -1.87913 -14.333
3355 4 23.2322 6.64607 17.1745 -0.526669 0.694792 -0.961715 11.6177 -9.14914 22.48
3356 4 22.2995 9.69885 15.7848 -1.31545 1.28404 -0.308924 12.7654 17.2107 -1.17893
3357 4 19.0695 14.4212 16.5403 2.96509 0.506534 -0.295053 -3.10113 -16.1372 3.22404
3358 4 17.7524 16.3779 17.6414 -2.23801 -0.906412 2.08265 -8.47945 -1.34538 -22.5799
3359 4 29.4233 0.926159 16.597 -0.397605 0.0241255 2.93216 7.53706 18.1425 17.5948
3360 4 20.2235 16.5956 16.5252 1.86365 -1.03828 0.0440315 4.63083 -7.37008 -2.50528
3361 4 18.5336 19.0982 17.1354 2.42303 0.807917 0.051146 -0.132573 -24.9536 24.0272
3362 4 16.2417 27.706 16.297 -0.721588 -1.87641 -4.35148 -3.8617 -2.47161 2.16615
3363 4 14.4792 31.9067 17.1877 0.131161 -0.690324 -1.42316 5.31343 3.52974 12.1084
3364 4 30.9634 4.80417 16.966 -0.867566 0.277744 -1.33496 -10.8323 16.853 2.3885
3365 4 28.9908 7.89149 16.8237 -0.360622 0.531604 -1.02934 26.4219 -20.3415 -3.83728
3366 4 24.7017 15.1764 15.6161 0.0332249 0.948382 1.09139 -2.7537 18.7557 0.726577
3367 4 18.5069 26.4932 16.8443 -0.34917 -1.23706 -0.875852 -2.43159 -21.469 23.8359
3368 4 16.5453 29.6372 15.0995 -3.9612 -0.398814 -0.460753 -16.8587 -1.84626 2.36224
3369 4 33.9116 1.94781 16.6609 1.75182 3.05602 2.53604 -18.7799 -1.85422 5.15921
3370 4 33.7307 4.60959 15.9687 2.17338 -0.85098 2.94518 26.2517 -18.2154 19.0126
3371 4 32.0993 7.07332 16.4122 -0.995965 -2.12254 -1.63371 9.28413 -18.2262 -12.5978
3372 4 28.0841 14.754 18.3722 0.481357 0.082455 0.313939 0.400294 -1.12945 -0.704239
3373 4 25.6576 18.4516 15.7603 3.28338 -1.11381 0.675615 -2.89983 -21.5262 5.9999
3374 4 20.1912 28.426 16.9276 0.0733154 -0.56764 -2.39012 -8.43554 20.977 -5.93301
3375 4 -7.99311 18.2646 15.2255 0.573773 0.48584 -0.0565321 -9.71563 -4.97481 -17.0662
3376 4 -11.7204 22.9341 16.2442 0.0269815 -0.0538808 -2.97778 19.87 26.1017 9.53406
3377 4 -12.7319 25.9052 18.0618 -0.294102 0.53736 0.278191 -0.1055 -0.617776 1.32514
3378 4 -13.5713 27.6992 16.3738 0.163195 -0.550603 -0.234042 5.88327 -9.68099 -20.9466
3379 4 -15.4651 31.5932 15.3071 -0.155708 2.62276 0.201999 20.1066 -16.5963 -20.8118
3380 4 -0.81543 11.618 18.6252 -0.558026 0.112332 0.00671093 0.756397 -0.362861 -0.148539
3381 4 -3.05022 16.4529 19.7203 -0.372188 -0.337288 -0.179098 0.159433 -0.0613366 -0.108063
3382 4 -8.27922 27.0297 17.3854 1.50511 -1.66396 1.71425 7.58357 -15.4233 5.13838
3383 4 -9.78355 28.7859 18.7619 -0.0830528 -0.1253 -0.172021 0.546965 -0.479974 -0.217572
3384 4 -12.1479 31.9238 17.4214 -3.31554 0.116773 -0.042264 -12.9546 5.0653 23.6254
3385 4 4.36543 8.88234 18.7759 0.148796 -0.0329952 -0.0294442 -0.454168 0.595457 -0.253194
3386 4 1.15074 8.12983 17.5448 0.22779 1.44537 -0.547417 -4.33102 -15.6558 -14.481
3387 4 3.29881 12.1516 18.6545 -1.37653 0.799266 0.161164 0.0486747 0.44692 -0.263803
3388 4 -2.95588 20.0583 17.5663 0.156732 -1.57753 0.418819 -11.0286 6.49169 -25.6899
3389 4 -2.83196 21.8356 19.7315 -0.585512 -0.558477 0.608379 0.269774 0.130292 -0.111019
3390 4 -4.45019 24.1614 20.0309 0.422544 -0.220798 0.0420262 -0.108694 -0.0713306 -0.0796373
3391 4 8.93048 4.58179 19.5757 -0.396375 -0.424574 -0.136012 -0.272686 -0.164251 0.371296
3392 4 -0.0368467 18.4933 18.5031 -0.558947 -0.0140625 -0.792986 -0.839436 0.377057 -0.462667
3393 4 -1.81802 24.6465 19.5205 0.703933 0.676225 0.139644 -0.165091 -0.256214 0.0813108
3394 4 -4.94366 26.819 19.4348 -0.157792 -0.067296 0.0298616 0.0833799 0.311583 -0.152614
3395 4 13.3846 3.89592 18.4893 -0.0153251 0.129115 -0.856567 0.625431 -1.52507 -0.767703
3396 4 9.87108 6.43261 18.0539 -0.011566 1.34682 -0.949254 0.983409 1.79153 0.243756
3397 4 3.48737 18.9302 19.1827 1.81 -2.022 -0.103365 -5.03843 -2.44158 2.07519
3398 4 0.0730287 20.5814 19.6071 1.43227 0.704394 -1.47625 2.34614 0.535628 -1.52941
3399 4 -0.486563 26.8956 19.5961 1.55518 -0.458857 -0.187076 -0.0588283 -0.69346 0.120391
3400 4 -3.64966 29.527 19.7292 -0.25511 0.609537 0.0822036 -0.0238086 -0.193002 0.0452025
3401 4 14.7003 6.00562 19.5453 -0.05837 0.734422 0.322858 0.166197 0.184389 0.0318168
3402 4 9.16119 11.2021 20.1952 -0.266218 0.446498 -0.303491 0.369768 -0.163743 -0.127398
3403 4 8.96404 13.4287 19.093 0.162278 0.279869 -0.189736 0.0200351 -0.353915 0.306189
3404 4 4.56535 19.0546 14.9677 0.73086 -2.00168 1.37295 0.500095 -2.79371 2.22262
3405 4 1.36588 21.2151 16.0133 -1.6689 2.33505 0.0772875 -14.2507 17.3007 -21.1575
3406 4 16.7588 7.21367 20.766 -0.114327 0.0209861 0.164509 0.00868013 0.0516317 -0.184874
3407 4 15.2079 8.83988 19.1999 -0.497959 1.25028 0.286049 0.371356 0.14436 -0.069714
3408 4 11.8368 14.9762 19.6934 3.43429 -1.74016 -1.6017 -1.83272 -0.685135 0.611883
3409 4 10.1098 18.2687 11.6669 2.91177 3.16533 -0.69796 -0.265419 3.41739 10.6087
3410 4 6.15462 24.4013 17.8733 -0.773321 -5.72036 5.34856 0.296598 0.189389 -3.15442
3411 4 2.83576 25.3312 16.9406 -3.07507 4.06249 3.38585 -1.81279 4.6262 -0.849017
3412 4 1.65115 30.8859 19.301 0.697283 0.509493 -0.843016 -0.0734999 -1.65457 -1.29193
3413 4 17.855 3.22148 19.3963 4.99164 3.83721 -1.18239 -1.12183 -1.12265 0.455346
3414 4 17.779 9.34588 19.3518 0.763018 -0.225156 0.144857 0.116508 1.14516 1.8403
3415 4 16.0539 11.6625 18.3302 0.3564 -0.00905217 -0.219583 0.45452 0.496982 0.728484
3416 4 14.3205 18.4666 19.6174 -2.65199 10.6305 3.56415 -7.18504 1.91682 -2.12469
3417 4 7.41508 29.4945 16.6328 -4.58679 -10.5998 6.72699 0.572989 -2.27461 0.721885
3418 4 21.2743 5.78273 19.5969 -0.0892108 -0.0891991 0.158414 -0.0333421 0.136118 -0.283698
3419 4 20.0177 9.69667 17.5859 1.13867 0.155477 0.30332 -23.1592 -0.701938 -9.17096
3420 4 16.6232 15.3142 19.6717 -0.563895 0.016932 -0.125111 1.10622 0.935791 0.183394
3421 4 16.2513 24.2026 11.6879 -0.92867 0.313877 -0.90244 -1.61196 25.582 3.59808
3422 4 5.92558 29.245 14.6394 -2.688 -0.937231 1.11514 0.119112 0.736761 -3.78021
3423 4 23.1867 2.09491 19.5613 -2.37371 -0.45246 -1.00171 -0.115688 -0.588847 -0.0547325
3424 4 26.2326 4.89423 19.6407 -0.0695696 -0.101204 0.0481631 0.0128284 0.0350436 0.119999
3425 4 25.4027 7.25682 18.7881 -0.214112 0.185444 0.771639 -0.983184 0.306544 -0.475865
3426 4 23.7195 9.15077 17.8034 -0.443638 1.83562 2.48474 -20.6164 18.7911 5.82245
3427 4 20.2512 17.3768 19.0956 0.442972 0.160602 -0.295053 -1.0519 0.35189 1.46007
3428 4 9.43437 28.0111 11.9348 2.75324 -1.01557 -1.09671 11.4237 -10.0753 5.34217
3429 4 12.6832 32.1216 18.9488 -1.9159 2.84431 0.576193 -3.15039 6.35381 -3.05998
3430 4 27.8674 2.12666 18.5399 0.397746 -0.64427 1.1554 -0.138086 -0.790189 0.455879
3431 4 28.8825 4.8164 18.9367 -0.144633 0.303909 -0.434073 -0.447735 0.548192 0.831159
3432 4 26.1523 9.71883 18.1735 -1.09586 -0.124928 -0.115482 0.497433 0.252218 -0.315482
3433 4 23.7335 12.1104 18.7305 -0.705342 -0.720939 -1.01761 -0.21438 0.156743 0.408039
3434 4 18.6036 27.722 19.5012 3.0176 3.83299 -1.59966 1.25434 0.155078 -1.20507
3435 4 6.16581 31.8945 15.1235 1.24331 -0.109595 0.460782 -14.9898 19.7782 23.4577
3436 4 31.358 6.1624 19.1413 0.344502 -0.194268 -0.123808 0.0717719 0.0605702 0.159981
3437 4 25.2241 14.0425 18.8929 0.0458533 -0.341069 -0.153636 -0.0589451 -0.0554256 0.242725
3438 4 23.9951 16.7965 17.4083 1.4448 1.8671 -0.880961 -7.62821 -13.7953 -24.3778
3439 4 20.5388 26.1886 18.6436 -0.0696256 -0.128874 0.440574 0.40916 -0.373831 0.612886
3440 4 18.2718 30.373 17.465 -0.777112 -2.1274 0.339278 15.4992 4.99551 -24.6069
3441 4 -2.89366 7.45618 18.7122 1.07724 1.84335 1.671 -0.280106 -0.664298 0.277062
3442 4 29.9745 9.64598 18.1655 0.160228 0.207414 -0.458949 0.0879791 -0.401946 -0.217259
3443 4 -9.5736 17.4114 18.3211 -2.79901 0.280367 1.05994 -0.273799 -0.00889301 0.153747
3444 4 24.0824 21.2963 17.3683 0.584595 0.312521 -1.49833 -12.5684 -3.57723 -1.543
3445 4 -13.5767 24.0896 19.8319 0.391114 0.361649 0.690707 -0.0559652 0.0973716 0.137899
3446 4 -9.94852 21.4073 18.1284 0.571654 0.182827 -0.292001 -0.57299 0.439737 0.111581
3447 4 -10.3359 24.8324 19.5412 -1.0901 0.416119 -0.265596 0.496684 -0.202308 -0.795305
3448 4 -13.9107 30.1748 18.3062 -0.0643474 0.280486 -0.34934 0.631024 0.716273 -0.623348
3449 4 4.90919 4.71092 19.1421 -0.267664 -0.222472 -0.096668 0.181217 -0.649716 -0.0417677
3450 4 3.10652 6.70396 19.7544 0.405358 -0.808094 -0.0919498 -0.283022 0.0225259 -0.121191
3451 4 -0.90437 13.5527 20.8895 -0.129541 0.704723 -0.438694 -0.0260162 -0.038406 0.325289
3452 4 -1.95555 15.9037 22.108 0.00259049 -0.23625 0.555051 0.170439 0.0467693 -0.0746189
3453 4 -4.03347 18.7984 19.5153 -0.695381 -0.227441 0.496788 -0.375661 -0.111696 -0.577098
3454 4 -11.4428 31.2409 20.3225 0.167736 0.131885 -0.187682 -0.170589 -0.128247 0.103978
3455 4 6.17375 8.88205 20.7987 0.183662 0.784154 -0.348945 -0.196348 -0.505003 0.297737
3456 4 5.17985 10.9937 19.939 0.833507 -0.566925 1.36078 -0.02559 -0.109163 -0.69099
3457 4 1.64502 13.5755 21.6117 0.504872 0.522001 -1.27543 -0.00666166 -0.181709 0.120586
3458 4 -6.65801 26.1914 20.9431 0.062205 0.0575317 -0.204129 -0.0674163 -0.0205326 0.141318
3459 4 9.9128 3.44367 22.5626 0.282107 -0.196889 -0.152834 -0.0735032 0.0461607 0.078555
3460 4 5.98673 13.6352 21.062 -0.415292 0.466089 0.31616 0.207042 0.50554 0.190774
3461 4 -1.6081 27.1188 22.5794 -0.156371 0.307966 0.113792 0.885965 -0.207697 -0.134005
3462 4 14.5856 3.72502 20.7648 0.107804 0.0401861 -0.0289221 -0.091268 0.053378 0.0878505
3463 4 11.1402 6.10653 20.449 0.139465 -0.159208 -0.0555797 0.00691307 0.0136223 -0.0147623
3464 4 2.28029 19.5258 22.6075 3.40463 -3.1682 0.796641 -12.022 0.856759 3.62322
3465 4 0.633004 22.9203 21.282 -1.13093 -0.344476 5.15285 -0.00289482 3.96399 3.49365
3466 4 12.016 10.4113 21.7704 0.0735147 -0.280833 0.220666 0.136153 0.115362 -0.172087
3467 4 10.5932 12.8888 22.0116 -0.297719 0.25204 0.568221 -0.250074 0.484831 -0.061692
3468 4 2.93724 21.9833 17.3211 2.95859 8.55994 -4.407 3.25016 0.549805 1.03238
3469 4 1.15273 23.9077 19.1637 7.48027 0.959694 -0.845952 6.30031 -1.29512 -3.41179
3470 4 2.12671 27.8979 20.1676 -0.245899 -1.51813 -1.42364 -3.78055 -0.54805 -5.28229
3471 4 -0.189756 30.3709 21.0019 1.10576 0.00890345 0.833651 0.0870901 -0.13564 1.02982
3472 4 17.3713 0.981885 20.6581 0.493467 1.22545 -0.844553 -0.0396898 -0.151787 0.252155
3473 4 18.75 3.51048 22.4319 -0.0505833 0.109379 0.235625 -0.0976254 -0.1193 -0.000986235
3474 4 14.1433 12.3818 19.6768 -0.204852 -0.113241 -0.164262 0.0187911 0.513815 -0.0959412
3475 4 5.73578 16.4172 19.4215 2.65977 -1.71884 3.28273 0.351703 3.49716 4.39874
3476 4 3.77245 30.3772 20.487 1.10595 8.80754 -3.37724 0.920661 5.21809 -3.415
3477 4 20.7321 1.64141 22.519 0.810111 -0.253194 -0.08472 -0.158694 0.091542 0.514831
3478 4 16.7198 13.1355 21.0703 -1.16599 -0.219346 -1.33268 -0.399676 -0.31985 -0.22948
3479 4 14.8576 15.5966 21.5539 2.32992 -2.51052 -0.356534 -0.0661577 3.22097 -1.09899
3480 4 24.815 4.05702 22.2549 1.05197 3.03456 0.0183369 -0.300349 1.58357 0.772618
3481 4 23.0539 6.40192 21.4679 0.446633 -0.301088 0.32566 0.143026 -0.00854679 -0.0941776
3482 4 21.5592 8.60617 20.7505 2.04828 -0.640794 -4.1251 -0.280538 -0.508403 -0.315458
3483 4 19.2073 15.7327 21.2673 -0.77625 -0.21324 -2.97633 -0.600606 1.16883 0.523735
3484 4 25.2029 1.87074 21.1564 -1.5277 2.01895 -7.49985 1.24978 0.366568 -0.76701
3485 4 27.453 3.54972 22.155 0.24362 0.370258 -0.98521 -0.628378 0.382262 0.146391
3486 4 25.5054 8.48747 21.9131 0.278018 1.49429 -17.2904 0.0218496 0.393439 0.569159
3487 4 23.0744 11.8373 22.2173 -0.434096 0.0827865 0.90487 0.227254 0.0165104 -0.00550711
3488 4 21.2473 14.9463 19.9162 0.353807 -0.446542 -0.369041 -0.00825995 0.0329769 0.288789
3489 4 20.1195 18.0432 21.7807 -0.490465 0.384372 0.0625174 -0.471954 -1.00142 -0.31053
3490 4 16.0413 21.4403 17.3266 -2.26263 1.05443 -5.14388 3.93784 -2.2809 -1.49896
3491 4 29.8044 0.880383 20.4872 2.55608 -3.52383 -1.35767 -2.98365 -5.18596 -2.34461
3492 4 26.2171 11.2467 20.324 0.0999878 -0.684487 0.02779 0.134181 -0.0369211 0.0250115
3493 4 21.7102 20.2299 22.0058 -0.33419 -0.199469 0.0232773 0.30034 0.237753 0.184924
3494 4 19.2703 25.236 20.8098 4.168 0.391406 -3.06608 4.27329 1.87538 -0.921591
3495 4 32.3012 6.22226 21.5995 1.40883 -0.846188 -0.31089 -0.161845 0.148305 0.0344402
3496 4 23.387 19.9742 19.7018 -0.0145146 -0.114025 -0.205569 -0.157726 0.0813103 0.0932472
3497 4 21.6699 23.3333 18.8486 0.265054 -0.511111 -0.54515 -0.0598953 0.564354 0.300797
3498 4 18.4301 31.998 20.126 0.754904 -0.0709909 0.651585 1.22695 -0.441758 0.357634
3499 4 34.9289 0.790354 21.5823 0.109522 -0.581478 -0.991925 -0.499744 0.466564 0.202484
3500 4 -1.92579 5.93418 20.4228 -0.658411 -0.304032 0.0856919 0.275645 -0.0469008 0.109799
3501 4 -3.54823 8.62517 20.887 -0.258477 -0.167072 0.00754257 0.119211 0.154709 0.107195
3502 4 -10.606 19.9091 20.0829 -0.179434 -0.105528 0.419028 -0.293884 0.0622361 0.325029
3503 4 -12.7255 22.3956 21.6024 5.49345 2.33997 -0.552434 -0.80448 -0.261941 -0.297358
3504 4 -14.8404 32.0644 21.7619 -0.228501 0.53437 -0.0241292 -0.143951 -0.219196 0.0319097
3505 4 -0.337463 2.04654 18.8657 -0.382472 0.695325 0.242201 0.142476 -0.46277 1.08387
3506 4 2.20002 2.81412 20.5286 -0.075512 -0.264033 -0.236877 -1.49328 -0.506822 -1.39406
3507 4 -4.97852 14.9747 19.1761 0.431241 0.539048 0.556031 0.170022 0.522807 0.264329
3508 4 -8.71461 22.8295 20.0764 -0.103622 1.02291 -1.12113 -0.170574 0.0422306 -0.130763
3509 4 3.56518 1.37364 19.2038 -0.413592 -0.162807 0.118711 0.331182 0.194702 0.298959
3510 4 4.49974 2.28931 23.3925 1.25775 -0.812276 -1.96045 0.187468 0.0197048 -0.41513
3511 4 1.04461 4.83568 24.9314 0.158113 -0.149255 -0.370307 -0.0677964 0.178047 0.174354
3512 4 -4.74006 15.6755 24.8543 -0.0168724 0.150197 0.0545031 0.103777 -0.110454 -0.0661749
3513 4 -6.84447 17.9698 24.4696 -0.0800227 0.0824775 0.0136642 0.107026 -0.0544899 0.0440928
3514 4 -8.49583 21.7426 24.0224 -0.190123 0.113301 1.74623 0.187311 0.0715047 -0.175024
3515 4 -9.99275 24.2115 24.2402 -0.0467279 0.0491627 -0.0249191 0.0499336 0.114063 -0.0560597
3516 4 5.81594 3.96528 24.7504 1.03328 -1.4994 -0.0823743 -0.213546 0.391177 0.150928
3517 4 -0.877617 15.258 24.6742 0.0742837 0.0197111 -0.0526122 -0.0734558 0.00611944 0.114388
3518 4 -2.93766 17.3767 24.0543 0.0126333 0.688967 0.454856 0.0876276 -0.0649362 -0.110596
3519 4 -4.64157 19.2706 23.5366 -0.375103 0.102302 -0.12001 0.236792 -0.040443 -0.0598875
3520 4 -6.10156 25.9779 24.2287 0.348393 0.225604 0.0628934 0.120524 -0.145006 -0.27503
3521 4 -8.47499 26.8384 24.6367 0.157455 0.529324 0.373937 0.0723154 0.182418 0.0217519
3522 4 7.6568 7.54669 24.2103 0.308777 -0.657182 1.2004 -0.0433138 0.236292 -0.318815
3523 4 2.83263 11.6237 23.836 -0.406654 0.137295 0.195993 0.111939 0.0924188 0.25127
3524 4 2.91636 13.4995 25.525 0.995113 -0.312841 0.315102 -0.395354 0.343868 -0.372397
3525 4 -5.14975 28.8278 23.6395 0.97416 1.67559 0.0276349 0.0509074 -0.292365 0.0309538
3526 4 -7.34918 29.6318 26.1036 -5.00312 -3.64508 2.95419 -1.18189 -0.934371 0.830605
3527 4 -8.81724 31.8028 23.5117 0.0632644 -0.118484 -0.0704028 -0.113188 0.0424532 0.036395
3528 4 11.4976 2.58748 24.3286 0.0373341 -0.165552 -0.0318233 0.0116783 0.046848 0.0077961
3529 4 5.1722 14.3669 23.2913 0.524299 0.0496822 -0.34306 0.48886 0.180055 -0.734432
3530 4 -3.2958 30.1372 22.2303 0.702247 -0.106355 0.0134729 -0.205127 -0.194897 -0.13609
3531 4 14.5759 0.0795565 23.7832 0.0878498 0.0797792 -0.0994535 0.0728452 -0.107701 0.328935
3532 4 0.251622 24.8585 23.5607 -2.70819 2.62317 -1.57948 -3.95656 0.929873 -3.09862
3533 4 17.7818 2.71195 24.7257 -0.52219 -0.652604 0.196092 0.212891 -1.05268 -0.654604
3534 4 11.7287 11.8515 24.0246 0.365736 -1.01529 0.429483 -0.244307 -0.294013 0.0529646
3535 4 1.70806 26.2947 22.4968 -5.32912 4.4618 -0.725743 0.375091 0.39971 0.463766
3536 4 23.6917 0.606352 23.5925 1.51037 0.975724 -2.14628 1.47335 -1.80621 0.542058
3537 4 1.05199 31.0272 23.085 -3.63612 -0.140437 2.2374 -3.78591 0.0899638 0.450718
3538 4 18.2989 0.7673 23.3841 -0.066153 -0.601926 -0.754686 0.42397 -0.359287 -0.248905
3539 4 13.6137 14.2096 23.8689 0.834011 -3.37421 0.441625 -1.91812 -0.807313 0.425607
3540 4 12.0981 17.3288 18.7963 -4.72072 -5.80873 5.00263 0.795 1.04476 -4.46165
3541 4 3.06991 29.718 23.4823 -1.49393 2.19569 -0.0716911 -5.5285 11.0359 -3.80411
3542 4 21.4967 6.34972 23.8311 0.443485 0.1073 0.104721 0.0658627 -0.236303 -0.134238
3543 4 16.1946 15.0133 24.1334 1.91327 1.27102 1.26239 -0.526407 -0.454256 0.688476
3544 4 16.8379 19.4451 20.4149 -0.940784 2.19955 4.97809 5.33641 4.27532 2.86922
3545 4 15.5898 17.9503 12.3174 0.674036 -1.7531 -1.73556 -4.39746 -5.73873 23.6108
3546 4 12.5965 26.954 13.5316 -3.94183 0.946022 1.17297 -1.20098 1.83659 -0.143083
3547 4 24.6987 6.82298 24.1325 1.0057 -1.39519 -0.896885 -0.94102 1.44538 -0.540151
3548 4 18.4531 13.8033 24.5131 1.67876 -0.184962 0.211299 -0.0594836 0.387546 0.0134595
3549 4 18.8474 21.2579 19.7714 -7.09862 1.40053 0.341952 1.21176 2.18245 -2.29023
3550 4 16.4776 31.6634 18.5931 1.23527 0.32124 -0.734113 -1.71315 0.892016 -1.12241
3551 4 16.9762 30.6776 22.1078 -3.11288 -2.09404 0.0380228 0.302858 0.922585 -0.315703
3552 4 9.91423 29.6467 15.0976 3.43716 -4.28435 0.325483 -1.19968 1.91722 1.14931
3553 4 26.996 2.58865 24.4581 -1.53519 3.73682 -0.949531 2.13804 -2.23493 0.903892
3554 4 24.3687 10.5698 23.8701 0.206745 0.0174334 -0.162004 -0.0313596 -0.0315193 0.0631784
3555 4 19.7882 19.3667 23.8218 0.790268 -0.436888 -0.707646 -1.08165 0.652253 0.303705
3556 4 20.0402 21.6763 23.1898 -0.272287 -2.00462 1.08412 1.24006 -2.7103 2.79422
3557 4 18.5877 27.1207 23.5333 3.34329 6.10894 -3.44736 -1.52041 4.80921 0.344804
3558 4 30.8867 1.09601 22.8134 1.10639 -0.15913 3.34356 -1.08282 -0.743904 3.92691
3559 4 30.0791 3.22006 24.0284 0.925155 -0.377313 0.544553 -0.595934 0.884912 -0.993414
3560 4 31.0195 5.6028 23.8457 0.191626 0.469648 -0.688692 -0.0568554 -0.396259 0.0391899
3561 4 26.6076 9.60185 24.3168 -0.359374 -1.77542 -3.4869 0.12032 0.0894165 -0.026857
3562 4 27.2661 12.7798 23.0695 -0.0791048 -0.464624 -0.25537 0.0506153 0.0201979 0.0506442
3563 4 22.032 22.7605 24.2963 -0.797136 0.188665 -0.100171 0.169457 -0.770345 -0.454376
3564 4 33.3319 1.38112 23.8199 -1.01853 -0.640469 -0.805063 1.5417 -0.8071 1.01659
3565 4 34.2882 4.45837 23.7595 -0.693416 -1.70467 0.350538 0.0898248 -0.243028 0.00385317
3566 4 30.1507 8.05397 23.9972 -0.601449 0.699969 -0.129963 0.171893 -0.0878173 0.026617
3567 4 29.8135 12.3817 24.3848 -0.150693 0.173001 -0.285464 0.102817 0.00398806 0.12967
3568 4 -17.6002 31.299 22.5847 -1.15822 -0.784045 -0.94303 -0.817093 0.311668 0.307648
3569 4 35.8055 1.98875 24.2188 -4.19843 0.465319 -0.0152495 1.64913 -0.452703 0.401932
3570 4 1.12417 2.68453 23.7759 -3.64502 -1.74794 0.45696 0.442504 0.772728 -0.440417
3571 4 -2.05347 6.89853 23.6203 0.767651 -4.15943 -3.97323 0.113209 -0.71836 -0.636934
3572 4 -7.06454 15.822 23.163 -0.208873 0.156327 0.0453089 0.144187 -0.0883121 -0.0259784
3573 4 -15.8005 30.7358 24.5363 0.00948765 2.01092 -1.57122 -3.46213 -0.974912 1.94527
3574 4 2.80937 0.874167 24.2835 0.79397 3.24827 2.29595 0.943044 1.18312 1.1419
3575 4 0.744405 10.4525 26.0771 -0.59222 0.205819 0.520337 0.0757279 0.0171732 -0.0190732
3576 4 -0.941527 12.0587 25.2142 0.0165496 0.163843 -0.0961355 0.0338264 -0.0934651 -0.0235481
3577 4 -6.76141 20.6662 25.904 0.106117 0.018167 0.0358345 0.0090769 -0.00389368 -0.0187131
3578 4 -8.71265 24.7286 26.6669 0.241228 -0.455539 0.44247 -0.0964224 0.169447 -0.222172
3579 4 7.91408 2.66787 25.4819 0.808858 -0.58181 0.538878 -0.219837 0.126814 -0.0448591
3580 4 4.806 6.38572 25.8698 0.273668 -0.42386 0.184656 0.0967253 0.0716727 0.665516
3581 4 -3.30159 18.7481 26.1789 -1.0805 0.193042 0.925012 0.152888 -0.0377688 -0.203087
3582 4 -4.40126 22.4989 25.9863 0.207556 0.12432 0.212263 0.0741053 -0.115808 0.011622
3583 4 -6.84326 23.5264 24.9321 -0.200064 0.8042 -0.249486 0.248147 -0.279567 -0.0204719
3584 4 -10.2344 31.7551 27.0449 0.00783569 0.0522876 -0.0729597 0.0257883 -0.0553887 0.0614328
3585 4 8.96451 1.92749 27.4942 0.840345 -0.207306 0.867389 -0.119777 0.0165947 -0.188238
3586 4 8.65466 8.01711 26.501 -0.0234947 0.106453 0.362316 0.093486 0.0864097 -0.162282
3587 4 1.34111 12.665 27.2019 0.502648 0.638476 -1.16237 0.0584942 -0.273426 -0.14069
3588 4 0.0419741 18.5514 25.1585 -3.50824 -2.69832 -0.0516799 0.983658 0.859603 0.384908
3589 4 -1.88098 23.3976 24.9755 0.336014 -0.653529 0.070413 0.302191 -0.225111 -0.128803
3590 4 -3.20193 24.7327 27.0367 0.206788 0.192158 -0.0681689 0.0107091 -0.0366928 -0.0849753
3591 4 -5.92575 32.0221 26.4077 -0.665877 -1.60129 -1.67444 -0.00212827 -0.198937 -0.0825098
3592 4 10.2773 0.623918 25.7328 -0.0802485 0.036552 -0.0404422 0.056345 -0.0531479 0.0819746
3593 4 5.75189 13.3404 26.0702 0.114674 -0.686519 3.14231 -0.27163 0.197028 -1.47936
3594 4 3.27693 15.8956 24.6478 -0.425425 1.05291 -1.49171 0.600208 -0.898443 0.65571
3595 4 2.29967 18.0058 26.1669 -0.168837 -0.858633 1.19498 -0.144964 0.186351 0.604919
3596 4 0.0965273 21.6674 24.9745 2.99261 0.874117 -1.90665 -5.01323 -5.7519 -0.953069
3597 4 -1.30422 26.0103 25.3993 -0.398043 1.24131 -0.585286 1.59819 -1.0783 -0.454191
3598 4 13.9144 2.33988 25.2313 0.0995591 -0.0680718 0.0402936 -0.0330616 -0.0339026 -0.0251561
3599 4 14.285 4.39276 26.7099 -0.0797772 0.00470223 -0.057934 0.0204129 0.0280482 -0.0831292
3600 4 11.1297 8.46402 25.7352 -0.0198652 -0.258519 -0.184855 -0.00377366 0.234493 0.137523
3601 4 7.46214 15.1577 25.4277 1.47379 -1.82233 0.934763 -0.582043 -1.42612 -0.562634
3602 4 3.64812 22.2559 22.924 3.18988 -6.77357 -3.8654 -1.32732 -2.13044 -0.906916
3603 4 0.466475 29.2899 25.071 2.98527 -4.67308 -0.648544 -5.02264 2.49789 -1.09146
3604 4 16.163 1.66468 26.3399 0.240498 -0.130002 -0.153304 -0.0805823 -0.191677 0.397234
3605 4 14.9431 8.223 26.3092 -0.278492 -0.0506551 -0.0766993 0.137457 0.146602 0.0446695
3606 4 13.3378 10.9278 25.633 -0.402592 -0.6191 0.0162058 0.0586797 0.176724 -0.112141
3607 4 8.70452 20.1423 17.0401 1.63206 1.21717 5.18821 -1.49709 1.39077 2.74179
3608 4 17.8657 5.72365 26.8151 0.21987 0.0507775 -0.0697013 -0.217126 -0.231683 -0.0352979
3609 4 16.9881 8.8289 25.2319 -0.0833315 -0.0687552 0.168856 0.0706778 0.049885 -0.0558496
3610 4 14.8707 13.5519 25.8516 0.106879 -0.749426 0.922591 0.360121 -0.717448 1.06046
3611 4 11.4311 16.7924 26.6293 -0.556725 -10.2774 -5.92821 4.24691 1.36619 2.25119
3612 4 7.32368 26.5861 17.3751 1.78685 1.43501 3.32543 -3.84051 -2.0523 -0.302408
3613 4 5.89395 31.6186 20.3857 -3.08149 0.330244 -0.730315 -1.23312 0.317324 -2.22061
3614 4 20.1795 5.54219 25.9761 -0.0551472 0.334176 -0.0151833 0.0902145 -0.101968 0.0163381
3615 4 20.2934 10.0886 27.0901 -0.0807432 -0.387369 0.113515 -0.0458921 0.22968 0.0321032
3616 4 17.2519 12.5241 26.4455 -0.300337 0.282218 -0.0868638 -0.0681073 0.346042 0.187385
3617 4 20.1435 24.1489 23.39 0.235626 1.16278 -0.704053 -0.551929 -1.7092 0.095991
3618 4 10.3988 24.3079 16.7372 7.73591 -6.07392 -4.73237 -0.490699 -0.0784337 1.3711
3619 4 27.9317 0.198461 25.025 0.0130171 -1.3797 -1.20097 0.105911 -3.09385 2.20827
3620 4 24.8749 2.32888 25.9681 1.13433 3.216 -1.37525 2.90398 -0.644235 2.3038
3621 4 26.4384 4.3735 25.9667 -2.95766 0.862215 1.2346 1.74895 0.351272 1.28088
3622 4 19.5297 16.0785 25.7293 -0.239617 -0.0852841 0.384451 0.18842 -0.326652 0.149975
3623 4 18.5127 28.2238 27.2133 -3.53635 -2.06997 -0.437866 4.18384 3.75473 0.227234
3624 4 21.8254 16.6524 25.0708 0.181606 0.27278 -0.245278 -0.0379643 0.0160345 0.0364855
3625 4 19.8588 21.2221 25.5389 -1.9319 -0.557619 -1.97891 -0.437694 -0.240187 -0.337412
3626 4 19.8899 25.7232 25.6081 2.88729 0.446592 3.60552 -2.70792 -0.437626 -1.01137
3627 4 29.4051 2.57177 26.3271 -0.0168489 -0.0961607 0.0278846 -0.576676 3.43901 2.61215
3628 4 32.0857 3.83719 25.5224 -0.543691 -0.128465 -0.495496 -0.156366 0.0301736 0.162299
3629 4 28.6561 10.3635 25.9384 -0.441609 0.106068 -0.21264 0.0946077 -0.0733443 0.00243602
3630 4 26.6436 13.7717 25.1886 -0.1914 -0.608116 -0.180008 0.0597365 0.0175801 0.0264067
3631 4 26.7528 16.4898 24.7888 2.62583 -1.37774 0.0929905 -0.432652 -0.0291861 0.112594
3632 4 23.0907 20.1287 25.8485 0.304241 -0.0793078 -0.296498 -0.320069 0.20938 0.0834765
3633 4 36.21 0.00363635 25.6519 0.113076 -0.464075 -1.07006 1.94205 -1.17146 0.388314
3634 4 33.5204 2.36349 26.9189 0.502004 0.563882 0.401841 -0.146701 -0.555435 -0.371916
3635 4 31.7053 8.67625 26.385 -0.131052 0.38829 0.142585 0.103124 -0.2988 0.0846204
3636 4 -7.05014 14.1007 26.6012 0.101899 0.0995144 0.0396382 0.0248765 -0.0696166 -0.0113925
3637 4 -8.89342 16.6964 26.7747 0.94836 0.176303 0.452532 -0.167383 0.0368768 -0.221385
3638 4 -9.88088 19.5547 26.3249 0.0318415 0.31583 0.00457487 0.0642196 -0.0781576 -0.0137986
3639 4 -15.126 26.5641 25.7121 0.956283 -0.848848 0.715927 0.196743 0.138808 -0.419604
3640 4 20.0304 29.4245 25.7304 2.31398 0.283464 0.236391 -3.15408 -0.650424 1.14026
3641 4 -17.5912 31.6647 26.5342 1.14009 0.760639 -0.184721 1.42197 1.09817 -1.92199
3642 4 0.619799 1.87446 27.3605 0.734181 -0.189202 0.228493 -0.272585 -0.111114 -0.0588402
3643 4 -0.70707 7.35213 26.0926 0.00127642 -0.0893246 -0.0325786 0.000329007 0.027603 0.0157345
3644 4 -4.35116 11.575 26.0517 -0.141499 0.0665725 0.0260108 0.0773545 -0.0803346 0.0483979
3645 4 -11.6578 26.5832 25.5679 0.0344183 -0.0335792 -0.0586711 0.111298 0.0740314 0.00417827
3646 4 -12.3905 30.6923 25.4551 0.193454 -0.0195087 -0.135013 -0.0793176 0.0374878 0.0481985
3647 4 0.0941369 9.48871 28.3588 2.30877 -2.04742 2.48747 0.33562 -0.198809 0.145825
3648 4 3.82142 5.94574 28.2536 -0.0910765 -0.223172 -0.184282 -0.102334 0.105788 0.274428
3649 4 -1.26493 17.5981 27.5009 -0.0866816 0.0823008 -0.631769 0.0738323 -0.128883 0.155279
3650 4 -2.30422 21.2202 28.7217 -1.25388 1.33585 0.166407 0.0543719 -0.0458704 0.0426915
3651 4 8.85752 6.19861 28.5386 0.226011 -0.43743 -0.112699 -0.157618 0.153467 -0.0199043
3652 4 3.79247 11.7722 28.3344 6.77961 3.86103 -4.50872 -1.55992 -0.793142 0.844799
3653 4 2.48661 15.6947 26.9122 -0.241506 -1.44312 -0.645112 0.237684 0.0237882 -0.329559
3654 4 1.58085 18.2171 29.4376 1.40073 -0.571671 -0.103713 -0.263138 -1.44331 0.160506
3655 4 -0.0793742 20.1229 29.9061 0.253127 -1.10087 -0.693767 -1.47932 -0.437945 -0.589785
3656 4 -1.1559 23.6534 28.2356 -0.512705 -1.7738 -0.0626417 0.309833 1.01427 0.632283
3657 4 12.0264 3.43308 27.8654 -0.230271 -0.197916 0.104037 0.0942796 0.0873292 -0.0284892
3658 4 7.21773 14.0453 29.3605 0.386695 0.0914161 0.386136 -0.0182827 -1.99645 -1.07161
3659 4 2.01301 23.825 31.983 3.57663 -6.01185 24.8422 5.7446 -6.43357 -3.57425
3660 4 -0.0975367 25.9415 28.306 -4.36034 1.97657 1.14914 4.11098 0.287948 -1.07079
3661 4 -1.57675 28.3147 27.251 -1.39179 -0.185722 0.678801 -0.0143524 0.316319 0.197147
3662 4 16.4179 2.84454 28.5509 0.230202 0.0390876 0.180137 -0.119393 -0.001589 0.0726429
3663 4 15.1578 6.52691 28.4209 -0.237376 -0.00652595 -0.0951405 0.0878047 -0.0742194 0.0573465
3664 4 12.539 7.4838 28.061 0.0610111 0.13531 -0.647121 -0.108145 -0.0163502 0.217645
3665 4 10.2014 9.72048 27.8006 0.288633 0.368643 -0.159323 -0.0146264 -0.126751 0.132626
3666 4 10.8957 11.9362 28.4697 -1.57005 0.477056 0.280587 -0.00415345 -0.276441 -0.411263
3667 4 1.38796 20.6386 26.7082 3.28235 0.349531 0.555622 0.630648 1.57298 -3.80561
3668 4 0.318905 28.6492 28.673 -0.242813 1.25288 -0.938495 -0.503939 -0.699978 -0.316251
3669 4 0.104591 31.0306 26.6825 -2.35675 2.00548 0.0769402 -1.19394 -0.794617 -1.1305
3670 4 14.7121 10.4051 27.9153 -0.036334 0.456213 -0.0652868 0.0642671 0.140492 0.109462
3671 4 13.0955 12.7516 27.3892 0.518507 0.338069 -0.021559 -0.0810209 0.532856 0.732322
3672 4 12.4256 15.4468 28.8604 5.60119 6.1825 0.101335 0.292884 1.02357 2.2724
3673 4 3.8023 26.6445 21.19 -3.33712 12.3348 -3.18598 2.91801 -5.62451 4.81183
3674 4 2.24989 31.1999 27.861 2.51623 -0.842692 0.0972761 -0.264819 0.249985 -0.174484
3675 4 19.3585 1.02095 27.8023 -1.34036 1.11272 0.928627 -0.677966 0.410154 -0.239194
3676 4 21.1364 3.06206 27.4268 -0.305079 -0.0839956 0.514796 0.125975 -0.0492321 -0.0425358
3677 4 20.2585 5.25766 28.684 0.46384 -0.236065 0.197532 -0.139788 0.0769269 -0.0724017
3678 4 18.1348 9.59208 28.2973 -0.256732 -0.79083 -0.80778 0.121737 0.119592 0.126054
3679 4 22.8401 1.21249 27.385 -0.425385 -0.881692 1.28028 0.696934 1.78749 2.32521
3680 4 24.6191 4.22695 28.0784 0.231709 0.114199 -0.0608345 0.192005 -0.33989 -0.286084
3681 4 22.5764 5.50263 27.1408 0.0286478 0.498703 -0.0486634 -0.0724242 -0.116767 0.236092
3682 4 22.8137 7.77818 28.2947 -0.132911 0.364588 0.107031 0.109262 -0.0893 0.124787
3683 4 18.4381 13.1324 28.7266 0.0182864 0.0221187 -0.0651685 -0.207033 0.131496 -0.0688863
3684 4 17.8012 15.3579 27.2679 0.496144 0.753706 -0.0635816 0.569037 -0.489993 -0.385726
3685 4 26.3167 2.12279 28.6402 -0.623605 0.554538 0.403609 -0.758401 -0.875192 -0.0552278
3686 4 26.4631 6.25745 27.5695 -0.634256 -1.51666 0.0654875 -0.198451 0.321011 -0.282377
3687 4 21.233 14.6265 27.2087 0.325107 -0.123585 0.0807801 0.0407001 -0.0495455 -0.0141776
3688 4 15.5794 21.3194 23.8668 -7.22486 4.2363 1.54727 0.600278 -9.32114 1.02693
3689 4 28.9388 4.4585 27.7491 0.266984 0.787247 -0.374132 0.187866 -1.06513 -1.51009
3690 4 26.9165 8.87127 28.0983 0.545666 1.96038 -1.33478 -0.0834459 -0.374517 0.420767
3691 4 25.1427 10.9199 28.3806 -0.311396 0.315383 -0.0249835 0.15771 -0.0841487 0.0106448
3692 4 23.4531 13.8718 28.3841 0.298013 -0.229163 -0.00548891 -0.0411974 0.135844 -0.0138268
3693 4 16.5202 24.6668 22.163 -11.5567 0.404757 4.07675 2.52742 2.71081 0.304242
3694 4 16.2684 31.3974 28.18 -2.38898 -8.34597 -0.202097 -1.24268 -2.10974 -0.502394
3695 4 32.3367 1.8746 29.1019 0.0876117 0.801568 0.152957 0.199602 -0.0571414 -0.372303
3696 4 28.7419 10.7443 28.9122 0.115553 0.803109 -0.669979 -0.154316 -0.00974397 -0.257602
3697 4 28.988 13.7743 28.8168 0.130014 -0.344643 -0.188393 -0.00442079 0.141567 0.0322109
3698 4 27.7179 16.3394 29.2353 -0.202113 0.370576 0.249807 -0.0333169 -0.0220384 -0.137681
3699 4 26.0444 18.454 28.7335 -0.0688388 0.160482 0.286557 0.0531378 -0.042667 -0.0802189
3700 4 22.0169 23.4813 27.9004 0.686763 -0.103147 0.196712 -0.27392 0.11195 -0.575627
3701 4 20.8244 26.715 28.9677 1.40312 0.0325641 -0.148775 2.03847 0.836584 -1.97923
3702 4 19.0055 30.8962 28.7979 1.51945 0.31192 -1.1262 -0.808286 -0.510289 -0.135547
3703 4 35.5325 1.77432 28.8502 0.748207 0.399388 0.101392 -0.61987 -0.369076 0.0661168
3704 4 -12.9091 25.2443 27.276 0.035846 0.0894418 0.202232 -0.0796176 -0.153032 -0.0471816
3705 4 -16.0185 29.0495 29.4201 -0.124756 -0.385314 -0.331726 0.510581 0.0311081 -0.00381753
3706 4 2.55673 0.310913 28.5217 0.579005 0.45303 -0.172612 -0.424265 -0.407542 -0.247771
3707 4 2.07305 2.69974 29.5321 -0.0725235 0.699669 1.20442 0.165764 0.140988 -0.274452
3708 4 -1.92963 6.92258 29.2527 0.365038 -2.33152 -1.18927 -0.226554 -0.543726 -0.736086
3709 4 -2.41911 10.8419 27.261 0.0927831 0.176983 -0.284299 0.0677785 0.010386 0.115218
3710 4 -10.204 22.0658 27.3089 0.0420145 0.0819989 0.0444129 -0.0315893 -0.00192562 -0.019295
3711 4 -11.0524 24.1378 28.6652 0.107425 0.0801909 0.126944 -0.0461705 -0.0562301 -0.0662035
3712 4 -11.5431 28.3425 27.1131 -0.0333939 0.0170258 -0.130038 0.0917426 -0.0360963 0.0771958
3713 4 0.22507 6.72713 30.6795 -0.0782882 -1.63858 -1.08103 -0.284577 0.333684 -0.0121894
3714 4 0.226267 9.16626 31.1499 -2.72999 -5.30047 7.20803 0.914759 0.753596 -0.245883
3715 4 -2.06376 12.7055 28.7874 -0.115236 -0.0551 0.00564787 0.0224163 -0.0298402 -0.0847601
3716 4 -4.51687 15.4463 29.9889 0.144603 0.329207 0.167166 0.0750107 -0.159489 -0.0856259
3717 4 -5.89365 18.7096 29.7673 0.122624 -0.0188507 0.0230041 -0.100415 0.0862552 0.118624
3718 4 -7.17724 23.0017 29.477 -2.0367 0.956413 2.12863 0.916589 -0.437687 -0.901806
3719 4 -9.09863 24.9665 31.1377 -6.8495 -0.706977 -1.02243 1.00058 0.2621 0.483654
3720 4 -3.75087 17.7067 30.6471 -0.0862047 0.119797 -0.135018 -0.310305 -0.214461 0.100819
3721 4 -8.73363 27.7272 30.2573 -0.491305 1.07618 0.175123 0.185524 -0.347099 -0.179392
3722 4 7.24849 7.61604 30.4384 0.146662 -0.932608 -2.18833 -0.0671655 0.289367 0.268361
3723 4 4.61531 8.8989 30.7564 0.293492 -0.355526 0.329031 -0.200077 0.0996106 -0.0959246
3724 4 -6.06614 26.731 28.9446 -0.194185 0.196298 -0.665797 -0.00112963 -0.111661 0.29496
3725 4 -6.26512 29.1299 29.7975 -0.417398 0.0491692 -0.080788 -0.390172 -0.00805531 0.0491543
3726 4 9.66164 7.33836 31.3813 -0.213697 0.0640311 0.0122356 0.0153643 -0.0495177 0.0472594
3727 4 7.80822 10.0498 30.7228 0.0789867 -0.417291 -0.0103349 -0.0531296 0.160737 -0.0352001
3728 4 -2.75721 27.1988 29.6971 -4.34622 0.468757 8.20455 0.260412 -0.11963 -0.766815
3729 4 -3.85758 29.9798 29.9764 -1.04603 0.727482 -0.914463 -1.0745 0.741647 -0.480075
3730 4 15.866 2.15393 31.0399 -0.102329 0.109838 -0.20355 0.0607158 0.0113872 -0.00521314
3731 4 15.0949 5.75189 31.3097 -0.0659532 -1.38228 2.24713 -0.0678679 -0.123786 -0.0101111
3732 4 -0.472278 26.3597 31.3366 -3.72655 -1.61151 -1.94753 -0.279019 2.93039 -1.87327
3733 4 16.9728 4.47457 30.3501 -0.113302 0.116198 0.00272416 0.013728 -0.0470791 -0.0776093
3734 4 13.6916 9.51654 31.5902 0.290825 -0.677026 0.26137 -0.0101339 0.305246 -0.133693
3735 4 12.2572 11.7053 31.5014 -1.18589 -2.06653 1.02384 -0.0554151 0.149741 0.0317874
3736 4 10.3393 13.1405 30.5173 0.0683785 -1.29107 -1.31481 -0.430422 -0.172257 -0.103224
3737 4 4.51983 24.2681 28.1426 6.24281 -5.92724 -3.13197 -3.73446 0.871399 0.31286
3738 4 1.11648 30.1644 30.8621 5.06254 -1.90247 1.15527 -1.20641 -0.652281 1.66754
3739 4 19.8324 3.68514 31.9678 -0.37558 0.1624 -0.0952019 0.224402 -0.221939 0.134259
3740 4 7.1966 26.6142 23.3722 4.68099 -1.50811 -2.70673 -1.96498 1.11081 -0.773989
3741 4 20.3175 0.34726 31.4438 2.35831 -2.60704 1.07754 2.16475 -3.36559 2.37545
3742 4 23.4913 4.09581 31.7988 1.58083 0.508351 -0.0319611 -0.0155722 0.0547871 0.345199
3743 4 19.8803 9.35908 30.114 -0.490185 -0.205391 -1.00582 0.152958 0.0645336 0.1436
3744 4 18.175 13.2962 32.7701 1.27584 -1.70314 2.16764 0.354462 -0.509573 1.29369
3745 4 6.04473 18.3576 20.8554 2.4978 8.00461 -1.46463 4.01073 1.86072 1.10489
3746 4 14.7325 25.6833 15.1656 -1.37423 -3.55846 -3.95452 1.06794 -1.39943 -0.523047
3747 4 23.9991 0.497623 29.6687 -1.06136 1.8375 -0.442852 1.14975 0.605062 1.42487
3748 4 21.3643 13.0577 29.536 -0.164833 0.116051 -0.218139 0.120333 -0.0215216 0.128364
3749 4 19.0737 15.6346 32.8949 2.68134 -1.68636 -1.61582 -1.23247 -0.21406 0.346577
3750 4 18.0493 18.6351 30.2558 7.82452 -6.98737 2.15848 9.81552 -0.515101 1.32027
3751 4 15.7464 17.5024 25.5605 -2.95822 -1.59827 -4.15919 1.67725 -2.33953 -6.98687
3752 4 27.5654 5.48261 30.4055 -0.0104679 -0.0731743 -0.0342554 -0.087055 0.0505231 -0.0117287
3753 4 25.0136 7.2293 30.9404 0.0379001 0.0475658 -0.142453 -0.0106589 -0.0399136 0.0753088
3754 4 22.3933 15.084 32.3537 0.0318255 0.0826905 0.124199 0.0273466 -0.0801243 -0.122188
3755 4 19.6944 22.686 27.4976 -0.668584 2.85023 -0.501852 -1.28239 0.0315774 0.0082309
3756 4 17.154 29.9587 33.037 -2.83753 4.97565 -0.868644 2.26355 3.57701 4.27898
3757 4 29.2572 1.51366 32.3748 -1.50008 3.08795 -1.4007 -1.26768 -4.52594 0.123186
3758 4 31.6309 4.85644 29.4317 -0.0317805 -0.0846654 -0.189773 -0.0525506 0.0989431 0.263425
3759 4 29.3987 8.28348 28.8015 -0.165616 -0.167413 -0.0432511 0.0364335 0.154785 0.081148
3760 4 26.2427 9.60024 30.6749 -0.133824 -0.0754236 -0.35539 0.156074 -0.0131192 0.0932298
3761 4 25.5166 12.3321 32.0357 -0.664552 -0.953319 1.09898 0.315779 0.0617127 0.0617874
3762 4 17.799 30.57 30.8002 -0.151241 3.65055 -2.32403 -1.15494 -1.69197 2.98967
3763 4 34.399 1.68907 31.5293 -0.766492 -1.47353 0.244475 -0.53522 -0.0431867 0.549131
3764 4 23.1028 23.7896 32.6706 -0.41336 0.276411 0.264598 -0.0201651 0.218905 -0.0136964
3765 4 -16.56 28.8035 32.9122 -0.520668 -0.348367 -0.190682 -1.29017 -1.32375 -1.62261
3766 4 0.842398 2.28461 31.7947 -0.140384 -0.293912 0.704386 0.0478282 0.249525 -0.12423
3767 4 -3.18364 7.64794 31.6602 0.585958 -0.0780578 0.062658 -0.0885169 -0.0812925 -0.0581595
3768 4 -12.5637 23.0007 31.0335 0.511371 -0.31888 -0.255457 -0.063318 0.0906111 0.0870646
3769 4 -13.3423 26.5547 31.9234 3.02384 1.58818 1.7821 0.101627 0.107636 0.13479
3770 4 3.21591 3.3395 32.5437 -0.0619109 0.123585 -0.247194 0.0187477 -0.0380805 0.0377387
3771 4 0.233603 9.13988 33.7986 -0.406578 0.21001 1.63937 -0.0279316 -0.0031552 0.0264351
3772 4 -1.18675 11.0909 33.9694 -0.108744 0.46682 -0.158955 0.10778 0.184328 0.0588227
3773 4 -3.01457 12.8743 34.1251 0.0820362 0.105491 -0.197449 -0.0116232 0.0396983 0.098392
3774 4 -4.31754 15.4936 33.8371 -3.18119 1.52215 3.5541 -0.63033 0.400988 0.783925
3775 4 -4.9433 18.1802 33.088 -0.0505915 -0.0963291 -0.0284463 0.021535 0.0962608 -0.0336933
3776 4 -7.19284 23.5331 32.4138 -0.689866 0.462967 -0.607101 0.106818 -0.177735 0.0856109
3777 4 4.09396 5.92442 32.5608 -0.00349777 0.156445 -0.0731213 -0.0365594 -0.00981386 0.0476005
3778 4 -1.54374 17.1374 32.879 -0.0568733 0.146056 -0.21699 -0.376213 -0.299257 -0.187359
3779 4 -7.07576 27.1244 32.3895 -1.37427 0.224127 0.584263 -0.0165343 0.0114685 0.0152175
3780 4 -8.23618 29.404 32.4176 -0.0538219 0.470685 0.111459 -0.0759694 -0.0158104 -0.014691
3781 4 -10.775 29.9371 32.8155 0.0836064 0.287189 0.00367664 -0.243912 0.00333545 0.0772799
3782 4 6.06992 2.84598 33.8716 -0.129693 -0.269769 -0.158207 0.0887703 0.108234 0.0124114
3783 4 7.56114 6.40373 33.3049 0.116928 0.0521969 -0.292647 0.0322841 0.128853 0.128788
3784 4 6.56329 9.17558 32.9366 0.563996 -0.233515 -0.3421 -0.10352 -0.0332273 0.0327633
3785 4 4.33198 11.0087 33.4168 0.20018 0.264397 -0.0101129 -0.260215 -0.139621 0.0709037
3786 4 1.52254 16.2805 32.4219 1.46418 -3.24194 -6.11572 0.0171134 -0.561407 -0.210062
3787 4 -0.305339 19.1563 33.9225 -0.397033 -0.148475 -0.433433 0.642069 -0.851778 0.333234
3788 4 -3.78452 24.1461 32.5631 -0.148266 -0.242461 -0.0842734 -0.0873993 0.318259 0.0626854
3789 4 -4.30343 27.3287 33.5464 -4.05947 1.11387 -0.66909 0.658094 -0.327498 -0.0604615
3790 4 -4.72645 29.3321 32.2838 0.0628466 0.573537 -0.609721 0.18487 -0.255266 0.0604342
3791 4 11.8735 2.08561 32.7204 0.930353 -2.08081 1.13518 -0.293437 0.26975 0.0373951
3792 4 3.69193 17.4845 33.5839 -0.736697 -0.305634 -1.54951 -0.443129 2.27615 -1.34044
3793 4 -1.42055 27.872 33.3068 -0.185486 1.22533 -1.53779 0.252894 1.01578 -0.227247
3794 4 -1.44192 29.8291 31.6428 0.0681904 0.898762 -0.567696 0.60511 -0.439075 0.645698
3795 4 13.9806 5.53473 34.1894 0.0507294 -0.202727 0.154305 -0.00528865 0.0342935 -0.197563
3796 4 10.2005 11.3147 33.3424 -0.190995 -0.226781 0.811224 0.292021 0.397473 0.14717
3797 4 8.25122 13.4778 32.6871 -0.49002 1.0366 -0.222259 -0.510749 -0.218601 0.0539055
3798 4 5.04904 15.0616 29.1055 0.0191522 1.02573 -1.38467 1.86705 0.961077 -1.00525
3799 4 16.9721 28.2498 47.8445 0.159931 -1.48296 1.14155 2.39577 7.6022 2.41944
3800 4 15.7913 2.53488 33.6416 -0.173162 0.701721 -0.29666 0.00184995 -0.321407 0.147779
3801 4 13.0605 12.7163 33.6726 1.01614 1.67873 1.77356 -0.542617 5.66376 2.38464
3802 4 9.7766 15.5937 23.9884 1.5656 3.57103 -1.56864 1.4451 7.82427 4.2883
3803 4 1.16959 23.3112 34.1811 2.59918 5.13264 6.1474 -8.33919 -7.92946 3.82169
3804 4 2.49916 27.1131 32.9368 -1.31498 -12.0153 -1.80734 -13.0501 9.23228 -7.56087
3805 4 17.2174 25.3181 38.0144 -0.671897 -7.03634 -6.17894 0.00785003 0.96563 -0.536835
3806 4 11.492 17.7947 23.9579 -1.14085 1.60799 1.85241 -1.31064 -0.60516 1.19008
3807 4 14.2022 22.3707 15.0444 -5.09813 7.65561 3.93831 -2.5942 2.69476 -2.05559
3808 4 22.1104 0.406893 34.008 -0.461197 -1.41594 -3.1977 2.83828 -4.70054 -1.68794
3809 4 21.884 2.3674 32.4716 -0.205372 -0.995883 0.214974 -0.469245 -0.626517 1.60567
3810 4 22.6877 8.26949 32.9894 -0.0493103 0.0332716 -0.0380706 0.0715004 -0.0375992 0.00367564
3811 4 18.375 11.1991 34.8469 -0.220605 -0.0822797 -0.622606 -0.0686297 -0.00421544 0.279588
3812 4 16.8816 16.2122 33.5736 -0.737135 -0.301847 1.25358 -1.27456 -1.84481 0.764566
3813 4 9.80467 15.7303 28.8401 -1.09486 -5.22065 -0.217024 -5.25637 -10.0977 4.39113
3814 4 17.5797 18.4805 36.5738 -1.23848 1.83791 -0.367607 0.864639 0.160495 2.15574
3815 4 14.7588 30.7614 24.4688 -0.265057 0.299322 -6.7227 3.50786 4.71675 -6.36348
3816 4 17.3955 25.6023 44.9982 2.87131 0.0436651 6.80112 -4.05186 -0.973124 -2.27633
3817 4 26.81 0.725542 34.5318 6.47188 0.862305 4.82383 -1.78866 -9.55691 -0.394793
3818 4 24.7311 1.9239 31.8796 -0.864375 1.59962 -0.246355 -0.208126 0.275335 0.667668
3819 4 21.5995 10.8923 33.846 0.906048 1.37136 3.5573 0.306987 0.0245677 0.0496305
3820 4 22.7854 13.584 34.3466 0.267276 0.0138268 0.220007 -0.0920575 -0.120344 -0.126848
3821 4 18.9577 17.7249 34.4768 0.132856 0.1353 -0.563954 -2.3466 2.94171 -0.301711
3822 4 19.3984 21.9503 35.5313 0.630108 0.128552 -1.0623 -4.53205 1.33814 -0.337143
3823 4 19.6318 23.0634 31.1634 -1.19575 -1.26288 0.242916 -1.91727 -0.438679 -1.39323
3824 4 29.1841 4.53401 34.4548 0.258663 0.649191 -0.552804 -0.0477583 0.308754 0.0186497
3825 4 27.7966 6.7377 34.5458 0.0741431 0.12303 -0.10809 -0.172869 0.0412157 0.0692977
3826 4 26.7468 8.37947 32.9821 0.142805 -0.113521 -0.0747679 0.0115914 -0.0888898 0.0682659
3827 4 23.5668 19.4484 32.6963 0.298847 0.00654587 0.00355916 -0.120443 -0.031817 0.111174
3828 4 19.6728 20.7903 33.4075 -0.658137 -0.283408 1.27214 0.666581 -1.54623 -0.762208
3829 4 33.5906 0.057011 33.6603 0.0617588 -2.00182 0.902775 -0.355482 2.43262 0.36671
3830 4 30.9684 1.64695 34.7005 -1.01213 0.0872692 0.149483 0.324398 -0.191367 -0.40464
3831 4 31.5198 3.30096 32.9788 -0.511388 0.343023 -0.349691 0.0748648 -0.452718 -0.291038
3832 4 30.5196 5.70853 32.5545 -0.269061 0.190623 0.286668 -0.125105 0.306719 -0.153461
3833 4 29.8616 8.41602 32.6828 -0.0247728 -0.00744582 0.0986239 0.00748359 0.0677877 -0.0428064
3834 4 28.2148 10.3985 33.152 0.0449647 0.0301113 -0.130086 -0.0407361 0.0456913 0.0653691
3835 4 0.251764 4.88656 33.3761 -0.394601 -0.0642337 -0.0762425 0.025546 0.0465637 0.0431619
3836 4 -3.18546 8.93682 33.7906 -0.0341769 0.0134428 -0.0548756 -0.0194136 0.0152017 -0.044913
3837 4 -5.14138 11.3012 33.6865 0.0127033 0.0331803 -0.0799591 0.0268526 0.00199438 0.0218933
3838 4 -6.09682 13.6444 32.8895 -1.6029 0.960864 1.07396 -0.22666 0.149476 0.214049
3839 4 -6.86948 16.005 32.5833 1.15083 1.36743 -2.02803 -0.243197 0.1205 0.200629
3840 4 -9.39041 18.95 32.8263 0.346752 1.56581 0.528623 -0.19561 -0.126918 -0.0550025
3841 4 -10.4366 21.4413 33.8821 -1.50213 3.70792 -0.572235 -0.177277 0.316815 -0.288675
3842 4 -9.63926 24.5241 33.6234 -0.10437 -0.283015 0.0825911 -0.0997979 -0.0382834 0.16813
3843 4 2.34131 0.703829 33.3206 0.143631 0.832779 0.957877 -0.0992237 -0.238807 -0.443834
3844 4 3.00159 6.37937 36.0488 0.029871 0.170419 -0.0576469 0.0833616 -0.0768584 -0.113482
3845 4 2.1787 9.26839 36.5102 0.227075 -0.128156 -0.104147 -0.01102 0.0441102 0.0573193
3846 4 -10.8253 30.926 36.8849 -0.197102 0.431184 -0.0927893 -0.130715 0.0799394 0.104963
3847 4 5.743 0.279237 34.9175 1.42667 -1.87297 -1.26811 -0.203609 0.262076 -0.028509
3848 4 7.83901 3.79413 35.3419 -0.103777 -0.123686 -0.191265 0.143798 0.141007 -0.0167348
3849 4 5.17496 7.35494 34.3654 0.169712 0.120206 -0.290374 -0.0439548 -0.0478577 0.125649
3850 4 -0.752652 15.7872 34.9838 -0.300148 -0.142619 -0.208076 0.376675 0.0475328 0.0851339
3851 4 -3.85094 22.6241 34.568 -0.0271022 -0.202084 0.08954 -0.0166189 -0.109284 0.159659
3852 4 -4.80865 25.2602 34.8673 -0.296809 0.225936 -0.446763 0.127977 -0.0888689 0.10146
3853 4 11.6978 2.22879 35.2506 -0.099459 0.322283 0.482729 -0.0935268 -0.0843821 -0.00563736
3854 4 2.13436 15.3745 36.158 -0.184587 -0.236521 -0.434365 0.290797 -0.133212 -0.0902453
3855 4 1.72253 18.8378 35.9527 -1.60854 -1.70418 2.746 1.35138 -0.645091 -0.965518
3856 4 -2.15763 24.9392 35.2702 -1.03586 0.157551 -0.406305 1.25362 -0.60129 0.148551
3857 4 -3.11003 28.4579 35.8872 -0.459607 0.340446 0.252704 0.282991 -0.0817757 -0.111717
3858 4 14.4148 3.03343 35.7269 0.140391 -0.0515307 0.187663 -0.155766 0.0119135 -0.108964
3859 4 11.3835 5.44753 34.6004 -0.160643 -0.186537 -0.325568 0.0356466 0.127277 0.194008
3860 4 7.52028 12.1338 34.774 -0.732163 -0.0359691 -0.256508 -0.291682 0.245907 -0.61968
3861 4 3.93035 13.6368 34.9244 -0.496454 -0.463081 0.653464 0.00704921 -0.10349 -0.125497
3862 4 29.0758 1.7772 56.7905 2.60395 9.67456 5.99128 0.257158 -0.437455 -1.57714
3863 4 -0.382882 27.2171 35.5243 -0.512067 -0.176855 -0.237656 0.309588 -0.222407 -0.0571069
3864 4 -1.39375 30.0285 35.0657 0.234635 -0.052835 -0.541357 0.398975 0.0873276 0.123933
3865 4 17.388 3.84939 35.2191 -0.0440896 0.189981 -0.759139 0.151095 -0.564356 0.405022
3866 4 15.8834 6.08794 35.661 0.136663 0.35119 0.122832 -0.0352207 -0.0830888 -0.086548
3867 4 12.4827 9.00095 35.2554 0.360221 -0.510419 0.297232 -0.299237 -0.146449 -0.048908
3868 4 10.9615 12.2838 36.0125 -0.540384 5.54768 -1.47386 2.01995 -0.690758 1.42381
3869 4 9.51344 14.0759 35.2167 -2.07166 -7.37769 -1.18055 1.65352 6.02627 1.71117
3870 4 4.23133 16.496 37.2582 0.999827 -0.0901808 0.584519 0.588978 0.065763 0.0238328
3871 4 18.3451 0.213737 34.4249 0.478587 -0.28422 -0.458199 0.164119 -0.140983 0.157906
3872 4 15.1819 0.0936242 34.5092 -0.293079 0.169858 -0.592979 0.391647 0.0942088 0.478546
3873 4 17.2051 21.6207 22.0605 0.369007 13.0553 0.560402 1.34863 2.92102 -1.5753
3874 4 7.89168 19.3396 23.3596 -5.37863 9.1818 -3.79059 -5.97105 -3.47422 3.21984
3875 4 20.4605 5.58591 35.1847 0.331131 0.0833954 0.0423509 0.0998943 -0.0427409 -0.0190899
3876 4 19.0428 7.84096 35.6119 0.144661 0.359117 -0.160554 0.0265586 -0.157624 0.0350411
3877 4 5.61241 31.7323 37.0092 -15.4937 11.6782 7.07461 -9.85461 16.811 11.7262
3878 4 25.0039 3.44316 35.2315 -0.921282 0.930978 0.713832 0.088893 -0.85499 -0.389412
3879 4 22.8419 6.09074 34.5032 -0.0576346 -0.0115253 -0.158908 -0.0400198 -0.0639744 0.0884047
3880 4 22.4231 9.90258 35.9921 0.248728 -0.679387 1.44621 -0.028618 -0.0257893 0.0208137
3881 4 20.6821 12.0144 36.6889 0.136199 0.123829 -0.0087123 -0.167253 0.0206935 -0.063056
3882 4 17.946 17.5005 24.0654 3.10344 -2.37899 1.93098 1.40439 -0.849546 -0.230619
3883 4 4.59268 30.8728 24.6992 -2.48716 -0.220326 -6.85141 -5.49366 4.60978 -3.32944
3884 4 29.2509 2.71885 36.0444 0.59864 -0.570597 0.124167 0.646003 -0.493672 -0.827212
3885 4 25.6873 10.2848 34.6871 -0.38403 -0.0987508 -0.836998 0.117189 0.0161948 0.191864
3886 4 23.8946 14.646 36.2543 0.398565 0.167523 0.249524 -0.0640457 -0.0561311 -0.0276457
3887 4 22.7849 17.6295 34.5671 0.0219051 0.133884 -0.024061 -0.12798 0.311937 0.191041
3888 4 21.5745 20.0553 34.8003 -0.714253 3.26211 0.157852 -1.07363 -0.0795608 -0.248111
3889 4 24.7577 18.7196 35.7241 0.159592 -0.146978 0.0667582 -0.219099 0.16541 -0.0655426
3890 4 23.0998 22.1346 35.4748 1.01287 0.43546 -0.0222626 0.0244633 -0.193264 -0.187078
3891 4 21.1676 23.6973 36.2119 1.49101 1.2636 0.583203 -0.92594 -1.08628 0.907384
3892 4 20.3203 25.0078 34.2208 -0.759941 0.257999 -0.40777 -2.77751 0.540495 0.240117
3893 4 20.5887 28.2487 36.1945 -0.256824 0.637505 0.782396 1.30612 -0.334476 0.396525
3894 4 35.2959 3.27069 34.6885 0.112418 -0.128931 -0.440456 -0.305976 -0.132825 -0.155137
3895 4 26.7393 17.3412 34.4926 0.124467 0.146545 -0.0951701 -0.0820355 0.00868101 0.0481059
3896 4 -10.1376 19.4946 36.1539 -0.185528 1.14 -0.828717 -0.0838997 0.187804 -0.0275057
3897 4 -14.9633 26.4966 35.1186 0.852029 0.94477 -0.139072 0.243876 -0.279781 -0.215908
3898 4 -13.4928 28.617 35.5059 0.879527 0.763753 -0.666815 -0.865978 -0.0563926 0.706119
3899 4 -16.6093 30.8533 34.7617 -0.510841 0.262461 0.104734 -0.812112 -0.734939 -0.507355
3900 4 -0.13168 0.313059 35.1357 -0.671148 -1.65374 2.95354 0.467205 -0.0275086 0.622613
3901 4 2.53143 3.73588 36.3269 -0.119748 0.051782 -0.195996 0.0857837 0.000495578 0.0689808
3902 4 0.275782 6.29839 35.5057 -0.0703263 0.0933593 -0.229928 0.0360985 -0.00482574 0.0845376
3903 4 -6.68381 18.1237 35.2601 0.196539 -0.475208 -1.30558 0.0905022 0.0256928 0.352632
3904 4 -7.8214 20.6951 34.9277 -1.42481 2.18011 -0.77372 -0.069242 0.232146 0.0266521
3905 4 3.52873 0.199944 36.0224 0.55643 1.93657 -1.75541 0.131595 -0.713287 0.0959981
3906 4 0.268788 10.0157 37.7388 0.086866 -0.463954 0.025149 -0.0553491 0.0941407 0.0620613
3907 4 -3.01645 12.8175 36.9278 -0.130639 -0.124415 -0.196059 0.0292092 0.0733337 0.110125
3908 4 -10.5991 25.9483 36.363 0.0740131 -0.00508065 -0.113175 -0.108748 0.121473 0.0102584
3909 4 4.2788 7.55038 37.9558 0.663759 0.379498 0.00812257 -0.186188 -0.0530096 0.0114552
3910 4 3.75216 12.0005 37.435 -0.308586 0.0734135 -0.187389 -0.480541 -0.0447584 0.45009
3911 4 0.0840185 12.5512 36.7392 0.0433139 -0.0514408 -0.114329 -0.0440966 0.116304 0.116115
3912 4 -1.58387 16.7032 39.3106 -0.147465 -0.149939 0.116921 0.138991 0.224391 -0.223765
3913 4 -9.37139 28.6026 36.0446 -0.0871394 0.055477 -0.182904 -0.00215385 -0.0278826 0.0582218
3914 4 8.35545 1.08198 37.9942 0.429159 0.599318 0.124044 -0.158093 -0.0974906 0.219768
3915 4 9.14675 3.40257 37.4493 0.0127085 0.718845 -0.247327 -0.0240459 -0.248308 0.114919
3916 4 6.83994 7.23665 36.966 -0.113813 -0.0963129 0.283533 -0.0103227 0.276606 0.0658454
3917 4 5.02726 10.0931 36.6803 -0.296562 -0.157535 0.0274828 -0.0930344 -0.291636 0.0377664
3918 4 0.0660039 16.8154 37.0973 0.157574 0.166723 0.363812 0.464341 -0.225908 0.127894
3919 4 -1.78035 18.8109 37.8086 -0.0951871 0.196406 0.710439 0.00507894 -0.348782 0.0754757
3920 4 -4.01906 24.3273 37.0689 -0.495467 -0.0439546 0.0585055 -0.0746397 0.23234 -0.242903
3921 4 -5.82723 26.3944 37.0482 -0.150637 -0.289223 0.113348 -0.184749 0.0368383 3.8294e-05
3922 4 12.0993 0.105637 36.7932 0.0227891 -0.0320942 -0.0783215 0.00600727 -0.100873 0.0807245
3923 4 -1.74419 27.2211 38.0154 0.259925 -0.660297 -0.23828 -0.0542612 -0.197972 0.0978909
3924 4 12.3802 6.32905 36.4368 0.232562 0.93306 -1.7987 0.0179923 -0.34269 0.483572
3925 4 10.8896 8.27867 37.1948 0.0305901 -0.708221 0.035538 0.0732545 0.13864 0.0636144
3926 4 0.0766901 29.1059 38.7064 0.544555 0.800312 0.644955 -0.986662 -0.235148 -1.23215
3927 4 -2.38393 30.5757 37.6986 -0.0301971 -0.33951 -0.121684 0.157798 0.307342 0.179443
3928 4 14.1619 7.43201 37.4843 -0.0185155 -1.82121 1.01939 -0.0809483 0.551467 -0.310795
3929 4 13.633 10.0366 37.0927 0.90665 -1.1192 -0.330043 -0.273259 0.599783 0.209405
3930 4 10.1528 29.1944 25.8358 -0.715114 1.83568 7.17733 0.345429 0.28756 0.24122
3931 4 0.231083 31.1532 36.538 0.368837 0.305673 0.554861 -0.299355 0.393425 0.0854922
3932 4 18.52 1.89373 36.3316 -2.97455 -0.492851 -1.68597 2.05671 0.0927051 1.44877
3933 4 16.1645 9.81818 38.041 0.530964 -0.0563608 0.377713 -0.282824 -0.099923 0.0186559
3934 4 15.0863 12.0864 36.9761 -1.6635 2.50012 0.225715 -0.842442 1.37767 -0.029053
3935 4 13.8838 14.2484 37.0025 0.0172616 3.59842 1.28216 -0.226527 -3.79701 -0.481227
3936 4 1.62902 23.4647 24.7227 -1.11807 -9.15797 -1.10346 9.14823 -6.40003 -3.10422
3937 4 21.3696 2.45401 36.3543 1.76285 0.352886 0.869894 0.172543 0.317506 -0.122528
3938 4 23.6778 2.23821 37.0912 0.141179 -3.23357 0.609433 0.386604 3.74692 -0.786094
3939 4 21.116 6.75043 38.6156 -0.0952097 -0.0510589 0.11829 -0.0660307 0.115642 0.0290149
3940 4 20.131 9.29359 37.4966 -0.0848822 0.098872 0.0593021 -0.0244215 -0.0621743 0.0474919
3941 4 18.2424 12.373 37.5131 0.184331 -0.5222 0.231884 -0.0456158 0.160938 0.364002
3942 4 17.8829 14.6843 36.6058 -0.729983 0.720526 -0.189354 -0.442337 0.748526 -0.459165
3943 4 30.2948 1.59129 38.9219 0.996532 -1.12506 -0.881674 -1.30394 1.34787 1.20435
3944 4 5.91513 29.475 21.0621 1.743 -2.23638 -7.92761 -3.41735 3.05275 -0.10706
3945 4 26.3139 3.16129 37.4962 -0.177912 -0.686892 0.824915 0.240699 0.0273616 -0.201434
3946 4 23.6797 5.16756 36.8673 -0.677116 0.442312 0.0686048 0.0383365 -0.405293 -0.0669866
3947 4 27.5611 5.01514 36.3057 -0.165583 0.265698 0.776372 -0.0677173 -0.443279 -0.0906013
3948 4 21.0614 16.0735 37.0216 0.403948 1.6972 -0.547836 -0.596579 -0.161082 0.110935
3949 4 19.4995 25.2828 38.4045 -2.6283 -0.326014 -0.522597 0.466162 -0.906068 -0.324272
3950 4 17.2668 29.0695 36.875 -1.07941 0.764393 1.17447 -3.39834 3.5896 1.62017
3951 4 14.295 32.1648 36.9951 -0.0289861 1.32977 -1.84413 -0.561585 -0.250872 -0.438808
3952 4 29.1751 9.37546 36.5174 0.243833 0.247447 0.126906 -0.0162113 -0.0765482 0.0533137
3953 4 25.9201 12.5225 37.221 -0.821325 0.535373 0.362194 -0.535708 -0.422955 0.266842
3954 4 22.7975 17.4904 38.7909 0.0213922 0.112363 -0.18834 -0.360358 -0.0365348 0.101718
3955 4 21.7084 18.5558 36.7539 -0.441676 -1.26194 0.399076 0.184558 0.334344 -0.439652
3956 4 18.179 31.4297 37.2828 3.60002 -3.57264 -1.073 -0.334212 4.4559 0.0904423
3957 4 33.8212 2.1467 36.9324 0.217228 -0.00648759 0.0502389 0.129406 0.232701 -0.00546838
3958 4 -4.49008 8.09076 37.4957 -0.0474125 -0.0640917 0.105649 -0.0431828 0.0717547 -0.0764032
3959 4 30.827 10.4449 37.9669 -0.237699 0.465172 -0.0287567 0.0346312 -0.0790236 -0.0197727
3960 4 28.4881 13.085 37.843 -0.0356184 0.0289373 0.0959903 -0.144911 -0.0303162 -0.143123
3961 4 -14.2652 24.7228 37.3993 0.655548 0.173174 0.748138 0.608889 -0.295588 0.161753
3962 4 20.8051 27.7153 38.7008 0.320729 0.195544 0.418699 -0.403641 0.0510139 0.12528
3963 4 -4.12358 10.3349 36.8386 -0.197031 -0.146295 -0.099805 0.0878472 0.0758637 0.035689
3964 4 -6.12699 12.9469 36.7559 0.0170169 -0.0310709 -0.0619591 -0.0450901 0.036993 0.021462
3965 4 -11.8213 25.0315 38.5272 0.277661 -0.0281196 -0.427025 -0.248892 0.146941 -0.19685
3966 4 -12.8493 26.9927 37.1711 -0.36227 0.486522 -0.587057 -0.31093 -0.127246 0.0193589
3967 4 -0.439061 11.7916 41.7153 -0.112285 -0.157931 -0.137647 0.107253 0.0597196 0.123151
3968 4 -3.57067 15.1535 38.8527 -0.172855 -0.448206 -0.0569901 -0.00544142 0.254847 0.0261629
3969 4 -5.36855 19.0439 39.5443 0.102198 -0.853141 -0.6815 0.00194427 0.125182 0.0551349
3970 4 -7.87882 22.9784 38.9728 0.0636404 -0.410572 -0.623241 -0.212821 -0.0161227 -0.0194175
3971 4 -9.61206 26.7076 41.8002 -1.05757 -3.19632 0.765392 -0.0283768 -0.10577 0.0781002
3972 4 -11.1724 29.3738 41.3083 -0.984845 0.193148 -0.371321 0.254234 0.0997585 0.2515
3973 4 4.78695 6.38625 40.8333 -0.929587 1.92693 2.49876 0.348776 -0.290935 -0.0626004
3974 4 3.02575 9.3177 39.7252 -0.232901 -0.120197 -0.300301 0.124698 0.00531368 0.127956
3975 4 3.11295 11.2143 41.1624 0.193944 -0.213916 -0.178395 0.00866573 0.0813133 0.176611
3976 4 0.501034 13.8725 40.0473 1.12244 0.425424 0.625234 -0.0913978 0.00134917 -0.0718943
3977 4 -1.47808 18.8653 41.0203 0.181777 0.185448 -0.438228 -0.250817 -0.362518 -0.0397623
3978 4 -6.78415 26.1958 41.4798 -0.192544 -0.0517703 0.0567107 0.107269 0.0433237 -0.0645816
3979 4 -8.69418 29.095 41.8461 -2.36518 -1.90563 1.9555 0.137707 -0.0538201 0.00865941
3980 4 -8.63501 31.965 41.4335 0.0441791 -0.248772 -0.340389 0.0379202 -0.0424979 0.24723
3981 4 7.14265 5.93042 39.191 -1.97366 -1.69463 0.138333 0.0684325 0.0898093 -0.0116749
3982 4 6.23468 8.66798 39.4102 0.964181 0.826127 0.372865 -0.230371 -0.304751 0.0313861
3983 4 2.47565 14.0676 41.5341 0.981007 -0.428256 0.735153 -0.077333 -0.189569 -0.00362638
3984 4 -4.46566 23.9029 39.5551 -0.367715 -0.280858 -0.371472 0.229008 0.117632 0.216588
3985 4 9.02884 1.83132 42.0686 -0.0410295 -0.105974 -0.580889 0.089461 0.0162843 0.257564
3986 4 10.7766 6.5567 40.4497 0.309104 -0.14002 -0.454664 -0.0223695 0.0246517 0.0625481
3987 4 9.03443 9.45834 38.1076 0.576082 1.95482 -1.85462 0.111164 -0.134918 0.454245
3988 4 0.264754 20.7341 39.3557 -0.136778 0.567508 0.95778 2.46024 0.364022 0.604266
3989 4 12.1863 8.62543 40.0541 0.318824 -0.453231 -0.793165 -0.189571 0.41436 0.319365
3990 4 5.51321 15.2457 33.4506 -0.905378 11.3869 -1.92994 4.8978 9.87053 1.96371
3991 4 7.66952 29.8492 35.2943 3.50415 -25.6095 -11.5838 -0.747597 1.88616 -0.453539
3992 4 15.8524 17.9898 29.5095 -1.67462 1.23921 -0.979902 -0.311536 -5.19321 -1.20809
3993 4 16.672 18.4357 32.5437 1.52197 -4.33822 -0.626206 -0.898089 -0.791198 0.88554
3994 4 18.0991 23.5378 49.8884 -2.94677 -9.21488 -12.0231 0.361937 -0.241704 -2.5259
3995 4 1.03943 29.0132 41.2148 4.6668 -0.515142 -1.93004 0.19903 -1.43923 1.48004
3996 4 20.2575 0.426734 37.8295 1.24653 1.50732 -1.06838 -3.86149 -1.28855 0.380677
3997 4 16.6678 10.7706 40.4087 0.00326678 -0.0882272 0.0600057 -0.0511805 0.0808121 0.00897312
3998 4 14.6017 12.3435 39.5173 0.477467 0.643466 -0.238299 -0.0324003 -0.0271488 -0.132016
3999 4 7.55826 15.89 35.5637 -3.7416 2.94548 -0.520168 6.26752 -1.16358 -1.02491
4000 4 3.98074 19.5883 24.3788 -0.323535 -3.48397 2.33667 1.93284 -0.104809 -0.833731
4001 4 12.2349 29.5122 39.8253 7.68635 4.78715 -8.06106 1.03955 1.08513 0.17067
4002 4 22.2057 0.541638 40.6044 -5.24754 4.66271 -0.215541 1.96398 -0.729679 -0.987691
4003 4 22.2576 3.05012 40.6429 -2.52841 0.407711 -1.24412 2.05734 0.025237 1.04971
4004 4 17.5178 13.842 40.1779 -1.60843 -1.00535 1.53249 0.0364013 -0.00900216 -0.495428
4005 4 16.8559 15.1365 42.1285 -0.28591 -0.442242 -1.02582 -0.610288 0.641797 0.252915
4006 4 16.0554 17.8271 38.7255 -0.728958 0.337539 3.23976 -1.48008 1.60064 2.41112
4007 4 10.1351 29.0189 17.4715 -2.03191 5.121 -0.100902 0.06918 1.50795 0.62347
4008 4 29.9789 0.378215 50.4554 -1.6384 3.85342 7.20087 -0.166976 0.225263 -0.442943
4009 4 24.6928 2.24327 39.3995 -0.383493 0.178446 -2.81378 0.12138 0.872716 2.94011
4010 4 25.8931 3.53647 41.133 0.891953 -0.426372 -0.879476 -0.723517 -0.11077 -0.0566008
4011 4 19.3173 16.3758 38.818 0.562342 -1.14698 -0.605205 -0.304569 0.314061 -0.18184
4012 4 15.8095 15.0267 38.6896 -1.25561 1.38897 -1.02862 -0.985589 -0.360135 -0.336658
4013 4 15.2834 29.1835 22.3476 -5.78168 -5.26733 -1.83345 -0.822716 2.11862 -0.577325
4014 4 1.88803 20.8058 49.5192 1.52706 -5.37578 0.181188 -0.701593 0.913516 -1.09409
4015 4 29.6702 4.00049 42.187 0.760024 -0.861051 -0.108176 0.0610988 -0.584071 0.275217
4016 4 25.3277 10.9523 39.3033 2.04852 -2.32702 -0.255237 -0.382971 0.152211 0.274698
4017 4 21.8979 15.7048 40.3936 0.743793 -3.43416 -3.36233 -0.0132773 0.0709194 0.267512
4018 4 19.6426 22.9469 40.572 0.77558 -0.775493 -0.515926 -0.133999 -1.32774 -0.49388
4019 4 19.0185 31.0196 39.6976 0.935462 -0.532516 -0.535472 0.294201 0.0810191 0.769674
4020 4 5.91407 17.2256 28.1262 3.00591 -0.835608 -2.34626 -0.583751 -2.67017 -1.79944
4021 4 31.3589 5.03431 40.8506 0.388095 -0.708216 -0.162203 0.0371627 -0.0785485 0.0223667
4022 4 30.542 7.5527 41.2262 0.369901 -0.135619 -0.161772 0.0125936 0.0340941 0.0502587
4023 4 27.8714 10.4369 39.7815 1.56079 0.893627 0.0517522 -0.252478 0.0327316 0.182786
4024 4 28.6943 13.5326 40.7202 -0.00170324 0.288933 -0.237029 -0.13875 -0.120477 0.287547
4025 4 24.3261 19.4053 39.0566 0.216086 0.245397 -0.116302 -0.271244 -0.227056 0.207681
4026 4 34.9845 0.363362 38.6032 1.69605 0.719476 -0.307915 -0.40342 -0.763322 0.123316
4027 4 33.7834 2.26933 40.4035 1.14428 -1.15472 0.376888 0.827589 -0.774405 0.354552
4028 4 34.7914 4.22838 38.22 -0.25626 1.83476 -0.698317 -0.352053 0.165182 0.110285
4029 4 33.5438 6.03003 39.5155 0.073094 0.676728 0.336896 -0.77038 0.556463 -0.181776
4030 4 31.0685 10.2463 40.6821 -0.0932862 0.277729 -0.312833 0.00664906 -0.0188738 0.134099
4031 4 -6.15367 12.5383 41.5852 -0.0326873 0.125779 -0.113874 -0.0892244 -0.0370783 0.192467
4032 4 -4.12153 8.78847 41.3081 0.170285 0.740619 -0.141983 0.0392554 -0.173999 0.116806
4033 4 -3.09254 12.2067 41.4137 -0.269577 0.311875 -0.371987 0.0593936 -0.079908 0.121766
4034 4 -10.918 22.6004 38.8297 -0.140653 -0.173555 -0.407047 0.0633125 0.261562 0.105153
4035 4 -12.0848 26.8179 41.2213 -0.378757 0.220406 -0.0662238 -0.0836392 -0.102571 0.0176333
4036 4 5.18739 2.50089 42.7179 -0.364415 1.70154 0.0742293 0.250193 -0.0840514 0.117037
4037 4 -3.77927 18.9278 42.9925 -0.0384093 -0.124143 -0.22394 0.0529068 0.0571756 0.197237
4038 4 -5.64547 20.7403 41.8318 -0.0769519 -0.141181 0.0386008 0.0218371 0.0631742 0.000756636
4039 4 -7.53361 22.8576 42.4001 -0.436849 -0.184257 -0.264051 0.05342 -0.0410446 0.00542721
4040 4 -8.06024 25.1761 43.3118 0.24087 -0.232222 0.226397 0.0442586 0.0140558 0.0837632
4041 4 5.28509 5.10946 42.99 -2.00648 2.82413 0.498085 0.213496 -0.185304 -0.01828
4042 4 0.607459 13.8539 43.1293 -0.251937 0.0367765 0.538827 0.0707808 0.0359008 0.0574164
4043 4 10.1932 5.06026 43.4879 -0.093246 -0.0277598 -0.277894 -0.0283764 0.0309326 0.243929
4044 4 7.05684 7.25076 41.6625 0.909132 0.364949 -0.870496 0.215428 -0.140373 0.392719
4045 4 5.62345 13.1072 42.7061 0.0130882 0.03583 -0.40509 0.043562 -0.0916161 0.45993
4046 4 3.08326 16.2494 43.2547 -0.122309 0.360211 0.731419 -0.642695 -0.443029 0.118184
4047 4 -0.151221 20.8092 42.1267 0.373218 -1.3619 0.678433 0.346157 0.996344 0.279073
4048 4 -1.26349 24.3772 41.0306 0.39591 -0.519978 0.516064 0.034998 -0.0541821 0.0655923
4049 4 -5.41593 29.5236 42.7193 0.202658 0.491902 0.128419 0.0799209 -0.0186364 0.0451352
4050 4 12.2363 0.996594 41.3447 -2.2502 3.69746 -1.79825 0.0304195 0.0396709 0.208135
4051 4 12.551 2.46184 43.6715 -0.192929 0.385378 -0.595781 0.625779 0.0431416 0.578922
4052 4 11.6249 6.96661 42.9852 -0.0705006 -0.0389392 -0.0316873 0.0477009 -0.0647548 0.0648515
4053 4 5.78945 16.0264 43.0032 -3.96422 1.34178 -0.740828 -0.264188 -1.65303 -0.317947
4054 4 2.33222 19.7067 43.0522 2.16936 1.50438 -2.92608 -0.735244 -3.85662 2.33932
4055 4 0.0758278 23.3988 42.8797 -0.419771 0.830183 1.04893 -0.469781 0.0219639 -0.299453
4056 4 -2.66795 30.2795 42.2742 1.37572 0.0332662 2.86781 0.540805 -0.35203 0.416756
4057 4 15.2516 0.583455 42.0276 0.267796 -0.322138 0.304527 0.0538925 0.413273 -0.363707
4058 4 14.6838 3.34381 42.6587 0.0276044 -0.31157 -0.0106223 -0.0016465 0.00897182 0.179427
4059 4 11.8079 10.6243 41.696 0.186252 0.0378793 -0.595763 0.162828 0.615646 -0.0113461
4060 4 11.2458 13.1624 42.3275 -1.44754 1.06581 0.650489 -1.37285 -0.843984 1.3504
4061 4 8.91374 14.063 42.7115 3.34226 0.908999 -1.60406 -2.18297 -0.767377 1.36145
4062 4 0.994784 19.3567 46.9808 -0.409431 1.47536 2.04901 1.72248 1.43372 -0.839719
4063 4 13.1697 14.4626 41.6392 -1.00773 -2.21598 -1.28391 1.10107 1.09174 -1.44419
4064 4 16.4869 27.4585 20.3108 8.5757 4.55346 1.41991 -4.4773 1.94783 4.81241
4065 4 18.6425 0.736053 41.6676 -0.15077 0.810085 0.934085 0.233733 -0.119625 0.806613
4066 4 19.4295 3.2707 42.0532 0.231565 0.327883 0.265873 -0.276724 0.191531 -0.216022
4067 4 16.2896 4.96057 40.9564 0.856594 -0.600673 -1.27595 -0.132913 0.178287 0.3223
4068 4 16.0314 7.57561 43.2568 0.00595505 -0.211739 0.0567525 1.65295e-05 0.0302905 0.0532072
4069 4 16.8579 18.7137 40.9297 0.48508 -1.25766 -1.15596 -0.905522 -2.3741 -1.32444
4070 4 2.43293 17.8767 39.6389 0.117534 0.844233 -1.23979 0.212566 1.07824 -0.636708
4071 4 11.7682 17.0667 41.9132 9.93146 0.109764 -4.79542 0.371248 -1.54043 0.843877
4072 4 1.96081 31.7704 42.6495 0.142944 -0.313584 0.487758 0.588606 -0.946532 -0.430959
4073 4 18.793 9.77026 41.4228 0.152182 -0.0496582 -0.069554 -0.0513449 0.0336525 0.0534158
4074 4 24.2567 0.0614777 41.8975 11.5463 -13.7674 1.35149 -2.66801 -3.23417 -0.672436
4075 4 24.7739 3.17635 43.3725 -0.158662 -0.0136089 1.29849 1.53381 0.521778 -1.25589
4076 4 22.8283 7.88083 43.8711 0.0304775 0.148041 0.0268565 -0.0109663 -0.0785965 0.156596
4077 4 8.57659 18.6247 29.9078 -8.95845 -5.44751 -7.63155 -0.56189 -2.3449 0.227211
4078 4 27.6396 3.16076 43.2732 -0.225654 0.16165 -0.480493 -0.573928 0.661369 0.258245
4079 4 25.3706 5.63789 42.6712 0.417062 -0.196633 -0.086229 -0.0713969 0.0595006 0.323727
4080 4 24.8634 8.17424 42.565 0.159013 -0.0553214 -0.0923297 -0.00298053 0.131729 0.292204
4081 4 22.066 11.7448 42.91 -0.154446 -0.102653 -0.0290265 0.0579869 0.0156633 0.145596
4082 4 19.1687 17.1548 41.2623 0.502084 -2.00767 -0.931321 -0.383759 0.291641 0.424703
4083 4 18.0609 28.6892 39.6573 2.82512 -0.153078 -3.79612 3.55809 4.06435 3.59643
4084 4 31.3558 1.04027 43.3356 0.2139 0.312983 -1.36315 -0.481243 1.22861 0.924631
4085 4 27.2369 12.1781 42.0979 0.0759483 0.427879 -0.306481 -0.0139715 -0.257383 0.216395
4086 4 24.0443 12.7923 41.4706 -0.0577421 0.00547818 -0.0274494 -0.0453754 -0.0109032 0.121713
4087 4 23.6003 17.0173 42.6317 0.0754744 -0.0813147 -0.162148 -0.00605921 0.0312678 0.149262
4088 4 21.7842 20.5135 42.2531 5.01387 0.886094 -2.94539 -0.130703 0.357862 -0.069533
4089 4 19.3494 26.3084 41.6943 1.27243 0.0714169 -2.1253 1.02643 2.02341 2.87481
4090 4 33.2963 3.85587 42.2684 -0.00307733 -0.19016 -0.506946 0.100633 -0.267398 -0.175534
4091 4 25.6227 17.4589 41.3597 0.0983725 -1.03519 -0.116139 -0.0780568 0.40614 0.156032
4092 4 21.6543 24.2856 41.5683 1.07332 -0.576237 -0.0215998 0.0145394 -0.29443 0.841921
4093 4 -0.975733 4.42969 41.7222 0.0209032 0.112732 -0.077992 0.0133788 -0.130404 0.222405
4094 4 -2.18872 6.94341 41.3476 0.0531638 0.5521 0.0385848 -0.130405 -0.301218 0.0318288
4095 4 -14.374 26.8851 43.1947 0.171208 -0.970541 0.798533 -0.0657848 0.0133558 -0.0563298
4096 4 -17.6318 30.8178 43.5456 1.46676 -0.202342 -0.492118 -0.704672 0.0950507 0.109079
4097 4 1.88248 3.44512 42.2082 -0.987445 0.181861 0.382152 0.33233 0.0366299 -0.12557
4098 4 0.513105 6.46465 41.9764 -0.125955 -0.034933 -0.281624 0.0732985 -0.102395 0.112057
4099 4 -6.08623 16.2739 42.9187 2.40841 0.301334 -2.06827 -0.124982 -0.0663504 0.228821
4100 4 -7.30673 18.5009 41.737 0.240383 -0.302214 -0.508924 -0.131678 0.0501206 0.109252
4101 4 -7.91667 19.3731 43.9826 0.225756 -0.414507 -0.187605 -0.210856 0.121876 0.130414
4102 4 -9.55284 22.5427 40.9566 -0.257266 0.562468 -0.464597 -0.0526616 -0.102966 0.278009
4103 4 -14.9502 30.1444 42.0726 -2.66157 0.660859 -2.81973 -0.0849904 -0.367013 0.212093
4104 4 4.39197 0.379175 41.4817 1.12678 0.291116 -1.18246 -0.451125 0.102673 0.848236
4105 4 3.37859 2.59621 44.5499 -0.5028 -0.139944 0.0867577 0.210481 0.145557 -0.00703538
4106 4 -1.56462 9.32594 44.2383 0.0192112 0.00128511 -0.108898 0.00932958 0.0348299 0.0126658
4107 4 -2.33652 12.5409 44.8209 -0.143896 0.00733785 -0.106975 0.0289492 -0.0474059 0.000156954
4108 4 -4.51937 14.2931 44.5156 -0.546468 0.193259 -0.283046 0.0869779 -0.0720642 0.161626
4109 4 -5.32975 18.0002 44.6868 0.13717 -0.135915 -0.207864 0.0525375 0.0977513 0.105932
4110 4 -9.60885 21.2607 43.4798 0.218651 -0.959586 -1.07878 -0.127044 0.29796 0.430633
4111 4 -10.0641 24.6898 44.7613 -0.523417 0.543201 -0.313045 0.20354 -0.0201877 0.231962
4112 4 -12.6839 29.1079 44.269 0.544299 -0.598766 0.00833753 -0.0104378 -0.0451678 0.0905644
4113 4 -13.4812 31.9979 45.3713 -0.315081 0.758611 -0.99152 0.0758904 0.204998 -0.0368288
4114 4 -6.0901 23.3345 44.4449 0.651629 0.0426886 -0.35057 0.12662 0.220023 0.180146
4115 4 7.7568 4.63668 44.2169 -0.36769 0.156237 -0.534703 -0.00901897 -0.0167771 0.231468
4116 4 6.53391 6.91834 44.0877 0.602253 0.492301 -0.373279 -0.136062 -0.0147973 0.331016
4117 4 3.94004 11.8217 44.2869 0.0192849 -0.330037 -0.148377 0.179648 0.120838 0.261135
4118 4 0.961401 15.8178 44.6842 -0.339609 -0.625243 -0.849391 0.252324 0.138208 0.143623
4119 4 -8.01922 31.3554 44.4292 0.614422 0.122177 -0.566619 0.000710086 -0.134713 0.249255
4120 4 8.27191 8.69166 43.5736 0.315915 0.42746 -0.360381 -0.0492546 0.0282916 0.18386
4121 4 4.446 14.3235 44.571 -0.0995455 -0.20016 -0.25452 -0.239104 -0.489341 0.919007
4122 4 -0.573427 21.3705 44.4959 -0.883338 0.0333856 1.35868 -0.218476 0.443278 -0.978391
4123 4 -2.2122 23.4645 43.8842 0.405083 -0.430553 -0.14374 0.525241 0.239536 0.240363
4124 4 -3.88419 26.4066 43.5394 0.00570465 -0.172935 -0.220745 0.00394936 0.012633 0.0973559
4125 4 -3.72843 28.8378 44.395 0.767345 -0.0226236 -0.660681 0.134886 0.0670309 -0.0182088
4126 4 -5.82878 31.9715 43.3478 0.0979712 2.27837 -2.65027 -0.0522466 -0.229968 0.172697
4127 4 7.49878 13.3352 44.6028 -0.586345 -1.35155 0.638741 0.528588 0.599524 -1.05528
4128 4 6.70714 15.8837 45.348 0.759638 -1.52504 0.279756 -0.112015 1.3739 2.16125
4129 4 -0.355801 25.4232 44.4342 0.0578249 -1.0539 -0.21577 -0.368659 -0.18295 0.174362
4130 4 -0.968971 29.9209 44.0955 -8.16001 4.31492 -5.05423 0.172649 0.169145 -0.681877
4131 4 -2.94448 31.727 44.6032 0.415635 -1.46632 -0.616381 0.769326 0.140288 -0.850616
4132 4 17.8483 2.46528 44.0071 -0.0529287 -0.0471598 -0.259228 -0.257911 0.0716041 -0.0787287
4133 4 16.3738 5.08486 43.448 0.562966 -0.511815 -1.27262 -0.123583 -0.00518478 0.287447
4134 4 14.3271 5.87216 44.7734 -0.161888 -1.03425 -0.69142 -0.108801 0.569592 0.251582
4135 4 13.0351 9.86221 43.848 -0.358976 0.460763 0.245666 0.0585852 0.270677 0.288492
4136 4 12.1722 12.1566 44.3941 -0.885925 0.283019 1.38267 -0.54706 -0.417009 -0.545886
4137 4 11.0072 14.3503 44.601 1.16304 -3.7545 -0.990732 -0.162359 -1.93259 1.14099
4138 4 13.1385 19.3509 26.502 -8.70448 -22.1375 3.78445 -0.612878 -1.62418 0.186095
4139 4 1.61534 27.4339 44.553 0.881771 0.218972 -2.29946 0.0788122 -0.897005 0.425499
4140 4 20.1906 8.05345 44.1898 0.396725 0.295556 -0.316774 -0.188585 -0.0150003 0.0736533
4141 4 17.0113 10.0092 44.4458 0.136541 0.177926 -0.222108 -0.017442 -0.150912 0.0836162
4142 4 15.3212 11.8132 43.7862 0.0314176 0.0722779 0.68084 -0.0174183 0.0705425 -0.14239
4143 4 12.2747 16.0748 45.8573 2.3286 2.53337 0.312202 -0.305772 -0.846743 0.491087
4144 4 14.663 16.9592 34.9821 -4.44672 3.87264 -0.620264 0.974071 2.27734 2.68119
4145 4 4.55255 31.3207 43.7639 4.94794 -1.05795 -5.92022 0.210868 1.96547 -0.568788
4146 4 22.7407 4.87779 43.9738 0.028696 0.0346598 -0.0889111 -0.223988 0.119335 0.0779316
4147 4 17.7843 16.9617 44.6005 1.24976 -0.203049 -0.335148 0.468546 -0.975523 -1.89135
4148 4 15.9419 18.4917 43.4231 -0.490265 0.345721 -1.11448 1.08578 -1.63804 0.605514
4149 4 14.0874 16.4784 27.094 -2.64539 2.69806 0.168829 1.58388 -2.65239 3.75161
4150 4 26.5032 1.30656 44.556 -0.238818 -0.597828 -0.380961 -1.79531 -0.276385 -0.322917
4151 4 28.1155 4.46875 45.6119 -0.222382 1.08908 0.0835507 -0.380574 0.00174094 -0.00585972
4152 4 26.3544 9.5311 44.0597 -0.13656 0.301572 0.181793 0.11104 -0.0332398 0.0551794
4153 4 23.9203 11.9057 44.8361 -0.280931 -1.43514 -1.39218 -0.150778 0.430809 0.631279
4154 4 20.9033 16.5654 45.0645 0.199483 0.0682062 -0.547139 -0.0313127 -0.0613674 0.165603
4155 4 20.5679 20.9939 44.9284 0.534274 0.0987731 0.0412064 1.29719 -1.0425 -0.194332
4156 4 17.332 29.9616 41.2881 -5.60627 -3.9261 -1.39225 0.936537 -0.0803498 -1.27976
4157 4 14.7059 31.3689 44.0952 -1.05518 -0.476129 2.47324 -0.379489 -3.53386 -0.426288
4158 4 29.6952 0.744628 45.2852 0.432109 -0.114338 0.0548357 -2.50345 -1.4029 0.647471
4159 4 27.0225 14.227 43.5966 0.0699728 0.19125 -0.0652726 0.0136432 -0.0975196 0.241802
4160 4 24.0198 19.7267 43.6699 0.914562 0.0496956 -0.744374 -0.160556 -0.0774876 0.23549
4161 4 32.5295 7.10739 43.4129 -0.442316 0.385266 -0.500123 0.148179 -0.0455381 0.239167
4162 4 21.2528 23.5626 43.969 1.72586 -0.227329 0.302677 -1.07334 0.273787 -2.77071
4163 4 20.5909 28.3822 43.1405 -0.318849 -1.36579 -1.20706 0.710873 0.899623 0.767068
4164 4 0.00440909 2.66336 44.0179 -0.666021 0.396007 0.563555 0.377978 -0.216173 -0.0617924
4165 4 -2.51007 6.80147 44.8164 -0.235498 -0.366163 0.0668405 0.0984342 0.305371 0.12038
4166 4 -3.86823 10.2027 43.5252 -0.0442806 0.065338 0.0358698 -0.0137813 0.025115 0.0547238
4167 4 -13.0302 27.2005 45.9457 0.234382 -0.0633823 0.518979 0.0916102 -0.0441945 0.0242842
4168 4 -16.2374 29.9948 45.3019 0.879225 -0.374246 -0.298658 -0.898815 -0.157623 0.478663
4169 4 1.0598 0.796681 45.2031 1.16873 -0.165967 0.162618 -0.472467 -0.0992207 0.280191
4170 4 -0.0323281 10.9562 45.6675 0.092703 0.104739 -0.127193 0.0228784 -0.0630413 0.159572
4171 4 -2.42777 14.5668 46.2624 0.0486166 -0.45514 0.0961033 0.116922 0.151144 0.0346017
4172 4 -3.69528 17.3434 46.6501 0.444866 0.399278 -0.079315 0.0136134 -0.287959 0.079101
4173 4 -7.4999 21.5034 45.9973 0.0294816 -0.0346068 0.155619 0.0229455 0.139463 -0.085099
4174 4 -7.90983 24.0811 45.9569 0.184871 -0.440434 -0.510507 -0.0486499 0.105252 0.360959
4175 4 4.73293 8.13343 46.2454 -0.245011 -0.0622935 -0.478639 0.176681 0.117933 0.449009
4176 4 2.74693 8.14458 44.9368 0.142394 -0.144893 -0.622354 0.213976 0.192669 0.261419
4177 4 2.69438 10.2214 46.0737 0.0130689 -0.425465 0.144049 -0.0325905 0.202235 -0.0475718
4178 4 1.06133 13.5872 46.8461 0.578206 0.187131 -0.0546326 -0.125645 -0.300564 0.0281893
4179 4 -5.6167 23.477 46.8717 -0.56411 -0.282986 0.0518677 0.20739 0.179402 -0.11878
4180 4 9.10835 0.315679 45.9462 0.4126 0.2211 -1.20302 -0.0239643 -0.0521049 0.233586
4181 4 7.06404 9.59885 46.8086 0.149838 -0.630048 -0.796587 -0.0906424 -0.0659617 0.182487
4182 4 3.35898 12.4894 46.6995 0.200307 -0.425736 0.578568 -0.420121 -0.190645 -0.374983
4183 4 1.52318 15.6298 48.352 0.080355 -0.0644246 0.364257 0.0219411 -0.130627 -0.125495
4184 4 -3.4138 23.8646 46.0468 0.395121 -0.321842 -0.690909 0.0390045 -0.125345 -0.0841849
4185 4 -5.0909 27.1041 45.8774 -0.459114 -0.247847 -0.00648567 0.0751871 0.211849 -0.0343834
4186 4 -5.46791 31.5816 45.7565 1.26308 -2.6953 -3.65657 -0.144517 -0.132808 0.57136
4187 4 10.5063 2.2064 45.8144 0.394091 -0.11068 0.4554 -0.014363 -0.0118514 0.136081
4188 4 3.9646 14.9193 47.0954 -0.85589 -0.338403 -0.853674 0.745989 0.201399 0.235471
4189 4 -0.404603 27.1845 46.4761 -0.285984 -0.26772 0.683836 0.128695 -0.00182892 0.124044
4190 4 -1.36031 31.7745 47.1199 0.0870948 0.118676 -0.195138 0.142467 -0.116577 0.0914845
4191 4 16.3893 4.83299 46.1819 0.173808 -0.240802 -0.264788 0.0612867 0.184525 -0.0392586
4192 4 14.5761 8.92293 45.6828 0.786173 -1.05478 -1.73249 -0.276824 0.305147 0.498793
4193 4 13.3899 11.3235 46.2163 -1.02229 -0.338203 -1.48184 0.406087 0.360829 0.590482
4194 4 14.0195 17.2218 44.1759 0.927346 0.50135 -0.772952 0.236436 0.148846 0.0843226
4195 4 1.66853 26.1524 40.8155 0.483904 -0.792871 -0.423609 0.293664 0.298068 -0.556471
4196 4 2.54731 32.1781 46.5703 -0.635345 -0.238379 0.00183818 0.74708 0.102194 -0.342427
4197 4 19.4598 1.08589 45.3025 0.148018 -0.190624 -0.00643951 0.214471 -0.00473525 0.127668
4198 4 17.4944 12.4522 45.2524 -0.138195 -0.0132052 -0.287756 0.176702 -0.141717 0.244978
4199 4 14.5217 14.5206 47.0357 0.442955 -5.03663 1.85498 1.00682 -1.97585 0.495489
4200 4 13.3726 20.2707 35.1803 1.64136 -2.59397 7.71522 0.812657 1.13328 1.93732
4201 4 3.10632 29.0299 31.5508 -4.62695 7.74814 -3.39559 -5.39136 11.1885 5.98972
4202 4 11.0493 18.2091 38.8385 -10.0975 5.90205 2.57865 1.23807 0.501537 0.496754
4203 4 21.1642 2.218 47.3987 0.105507 -0.235551 0.895132 -0.0414053 0.493669 0.315613
4204 4 24.1405 3.80427 46.5199 0.108069 0.0962452 -0.192472 -0.0540985 -0.0536882 -0.157951
4205 4 16.3954 15.525 45.9656 -0.234288 -4.84179 -2.48228 0.243645 0.353324 0.152669
4206 4 2.96666 20.1873 34.3302 -0.134082 1.86074 0.816425 5.66973 0.201826 -3.12904
4207 4 26.1775 5.11551 47.9928 -0.848208 -0.422488 -3.61759 -0.123957 -0.053615 -0.552434
4208 4 18.4926 19.4533 46.6103 0.103843 -0.793698 -0.898852 -3.62564 1.44252 0.98374
4209 4 8.39513 18.5382 33.5209 9.98899 7.43914 11.8007 2.89244 0.500702 1.95798
4210 4 2.73519 21.0796 39.9033 -6.76674 -8.21758 1.52805 0.518337 0.759654 2.30077
4211 4 24.9211 0.418345 46.2596 -0.0263602 -0.359586 -0.279831 -1.00833 -0.20621 1.01458
4212 4 28.0756 6.97796 46.8202 2.24416 0.479969 0.474039 0.865982 -0.175499 0.0268999
4213 4 20.9061 18.6419 46.2896 0.683154 -0.196029 -0.279113 0.286737 -0.0432587 -0.0950395
4214 4 19.2005 24.3266 43.1102 0.83051 -3.58563 -1.82136 2.60614 2.01145 1.11907
4215 4 13.4778 16.3166 50.2202 0.0283016 3.38116 -1.82139 -0.0428482 -0.137629 0.144413
4216 4 33.0136 2.66367 46.1987 1.19172 -2.22061 2.24211 0.778593 -1.29104 0.968123
4217 4 29.7316 2.77417 46.4964 -0.0799015 0.673482 -1.12593 -0.268376 -2.21836 -1.66626
4218 4 30.4004 6.22474 44.7935 -0.0554377 0.213152 -0.110562 -0.0258957 -0.154762 0.0768043
4219 4 29.4887 9.90012 46.7057 -0.447382 0.679702 -0.436746 0.15701 0.0654605 0.150829
4220 4 24.8159 14.2126 44.9218 -0.306034 -0.423571 -0.122195 0.166464 0.0788284 0.0707157
4221 4 24.4033 16.4726 45.8014 -0.0168207 -0.206725 -0.32537 -0.0455788 0.00704506 0.195547
4222 4 31.3774 9.04754 44.8378 -0.155202 0.00761471 0.0893921 0.147952 -0.0464387 0.0900956
4223 4 -12.8534 24.9054 45.0252 -0.0221066 0.0889174 -0.187586 0.190511 0.0565929 0.149948
4224 4 21.9413 25.3118 45.779 -0.169162 -0.961968 -0.179144 0.110295 0.576539 0.671129
4225 4 1.1442 5.14942 46.9795 0.192803 0.389915 -0.0882214 -0.20227 -0.216932 0.0436308
4226 4 -2.57504 10.568 46.514 0.393271 0.0995424 -0.534492 -0.0453235 0.0976318 0.200112
4227 4 -5.19811 11.5877 45.229 -0.0398206 -0.0479759 -0.0237952 0.111809 -0.0316701 0.225212
4228 4 -7.53125 14.3696 44.5209 -0.0980188 0.120392 -0.276857 0.0574797 0.0724344 0.103845
4229 4 -6.30082 17.3419 47.0946 0.0342678 -0.514865 -0.274156 0.302575 0.220827 -0.0482312
4230 4 -11.2339 21.4699 45.8851 0.0709935 0.278323 -0.563475 -0.00156002 -0.0542616 0.24682
4231 4 -11.3505 24.1641 46.7874 -0.0228255 0.0320638 -0.465628 -0.0376324 0.0185762 0.169259
4232 4 -11.1002 26.6936 47.6882 0.339908 0.172341 0.171869 -0.277115 0.058397 0.133074
4233 4 -14.2534 29.9236 46.5587 -1.17596 -1.53423 0.0690838 0.363022 0.165334 0.479921
4234 4 2.30301 2.21759 46.9942 0.334117 0.0771648 0.344395 -0.15787 -0.0403866 -0.134468
4235 4 -4.67393 19.8133 47.1097 -0.0766405 0.109044 -0.24067 0.13448 -0.0315875 0.150979
4236 4 -10.7235 31.0333 47.7003 -0.0570079 2.79406 -1.56306 -0.0957453 -0.236812 0.220546
4237 4 6.99295 6.43437 49.5776 1.94975 0.0202573 -0.735596 -0.190786 0.128922 0.126585
4238 4 5.33524 8.34547 48.6305 -0.396083 -1.75046 -0.354853 -0.366794 0.185043 0.498897
4239 4 -0.682395 17.6101 47.5392 -3.09223 0.021525 -10.3757 0.41051 -0.620232 2.19903
4240 4 -5.20396 25.9973 48.5471 2.24836 0.12262 -1.77905 0.362135 -0.143096 0.0474024
4241 4 -8.06013 31.1554 48.0929 -0.77135 -0.099244 -0.912249 -0.14915 -0.0893821 0.233331
4242 4 9.35524 0.908195 48.6936 0.772647 0.0969301 -0.967931 -0.130193 -0.0294039 0.174911
4243 4 11.0959 4.49198 46.7723 -0.131486 -0.192268 -0.133858 -0.150019 -0.168857 0.199365
4244 4 8.36011 7.4998 47.5715 0.460727 -0.360909 -0.866686 0.0227365 0.184795 0.17778
4245 4 6.6799 11.509 48.2395 -0.726093 -0.356716 -0.815946 -0.0943819 0.407217 0.243265
4246 4 2.04978 17.7242 49.8044 0.668351 0.373682 -0.28606 0.365845 0.69947 -0.890482
4247 4 -0.563883 19.8276 49.1953 -0.0399053 -3.56319 -3.18691 -0.527309 0.426886 1.18875
4248 4 -2.74834 25.866 47.5825 2.12003 0.188538 -1.93251 0.256863 -0.011143 -0.0461475
4249 4 -3.36625 28.3642 48.185 2.02377 -0.353662 -1.72824 -0.257677 -0.058584 0.446366
4250 4 12.2004 1.04609 47.2135 4.76581 -2.02964 -4.02333 -0.384542 0.118191 0.399062
4251 4 13.1648 3.73852 48.0103 2.40084 2.77922 -2.00103 -0.390401 -0.509439 0.426372
4252 4 8.41223 9.60062 49.2808 0.941734 -2.2308 -0.778018 -0.212589 0.361987 0.217008
4253 4 3.2729 17.7301 47.0471 0.78055 -0.710802 -0.141219 -1.01773 0.256435 -0.996507
4254 4 2.97946 30.8061 39.4934 -0.356948 3.70172 -0.451305 5.45332 0.404653 -4.55929
4255 4 -0.411278 29.5426 47.2939 -1.20081 0.0847729 0.15662 0.492638 -0.369856 0.303632
4256 4 14.8227 5.84273 47.8258 1.9423 3.03487 -1.54527 -0.342233 -0.391089 0.0390918
4257 4 9.63578 12.7286 48.6881 0.395045 0.695032 0.11245 -0.239796 0.362074 0.0950316
4258 4 8.35322 15.3045 49.2247 0.53095 -1.43884 0.755655 0.184018 0.125406 -1.04671
4259 4 19.7547 3.86093 46.2488 0.148975 -0.343338 0.0376607 -0.0109348 0.031469 0.25126
4260 4 10.7583 14.5375 47.437 0.091632 -0.162377 0.0667752 -0.648326 0.402769 -0.459396
4261 4 -2.05898 21.9354 49.4648 0.642551 -1.8446 -0.829181 -0.45539 -0.216268 0.129928
4262 4 2.30517 28.6776 49.5239 -2.82529 4.04687 3.17057 0.279717 0.0167712 0.786748
4263 4 3.21622 31.3867 49.4658 -1.59682 0.924051 1.19016 -0.19099 0.497012 -0.591192
4264 4 20.0397 0.83637 49.5775 -2.55341 1.47122 1.20352 0.71803 0.269305 -0.345571
4265 4 22.1397 3.81633 49.0973 -4.64765 -1.12112 2.27224 1.18463 -0.0515935 -0.837558
4266 4 16.3029 12.7874 47.5944 -1.15415 0.922557 -0.374068 -0.870578 0.586467 -0.181497
4267 4 14.3847 14.091 49.7048 -0.94669 1.8617 -0.200053 -0.51299 -0.353228 -0.21809
4268 4 19.973 25.2633 49.7424 -3.19512 -4.08885 -1.06179 0.779994 -0.0121388 0.309695
4269 4 9.27947 31.2764 45.1595 10.0516 -7.26784 -6.26624 -0.696014 1.55326 -0.506636
4270 4 4.01375 20.6081 31.0919 10.7271 10.5616 3.26795 3.14689 9.69557 -1.20231
4271 4 23.3209 1.50083 48.6999 -0.00994249 -0.328639 3.00934 -0.158341 0.156251 0.180267
4272 4 21.4146 8.34091 49.1475 0.393562 -0.179941 -0.423182 -0.168916 0.231571 0.176603
4273 4 20.6637 10.3982 47.0101 0.0822232 0.0372155 -0.126211 -0.182948 -0.00989823 0.0313721
4274 4 18.6787 12.8248 48.6494 0.377159 0.481796 -1.1226 -0.278259 0.470215 -0.0468773
4275 4 17.8477 16.2603 48.8604 1.39617 1.46032 -0.533728 -1.42436 0.440158 -0.0667777
4276 4 17.4528 19.0821 48.6904 -1.92913 -0.0419725 3.09958 0.632581 -0.0639944 0.398428
4277 4 22.9991 10.1152 48.0544 0.152879 -0.00345471 -0.772188 -0.143394 -0.060062 0.238887
4278 4 23.061 12.9806 48.7366 3.32092 -1.38777 -0.314931 -0.12656 -0.409159 0.0943681
4279 4 18.4004 19.7555 43.356 1.67094 -1.54465 0.428251 0.324873 1.43542 -0.388849
4280 4 3.64937 24.8632 23.1754 -0.568058 4.165 2.64113 6.75902 12.7869 4.58872
4281 4 3.15034 23.656 51.1631 -13.532 -8.38844 32.4217 1.48451 0.132392 -0.403793
4282 4 29.3171 2.32244 49.2283 0.5083 -1.28185 0.288427 -0.21589 -0.437109 -0.256424
4283 4 29.1879 5.49734 48.6844 1.85357 0.124448 1.36427 -0.146388 0.234439 0.511793
4284 4 26.8155 9.41252 47.4396 -3.66289 -0.0733281 -5.91845 1.22955 -0.283165 1.61757
4285 4 23.0442 15.598 48.7914 -1.88029 -1.12913 0.216629 -0.0628561 -0.451727 -0.11241
4286 4 19.0439 29.0686 46.7272 -1.08466 -0.00978804 0.501046 0.482238 -0.540308 -0.365234
4287 4 18.8549 29.4857 49.2817 0.134467 -1.15721 -2.34729 1.16294 1.40649 0.756165
4288 4 34.3081 0.612465 46.7093 -0.549029 1.94827 -1.17748 -0.952308 0.819808 -0.814857
4289 4 32.3137 2.18709 48.5535 2.84923 -1.02856 0.997698 -0.679061 -0.00120431 -0.86629
4290 4 30.4817 8.03014 48.0887 4.5747 1.9421 -4.70374 0.578559 0.274363 -0.16827
4291 4 26.1993 15.1691 47.1223 -0.0673165 -0.190996 -0.174758 0.0200813 0.0334309 0.111064
4292 4 24.7529 18.1784 48.4345 -0.452405 7.10469 11.6707 -0.188774 -1.26236 -2.29143
4293 4 24.2518 20.5705 47.4306 0.164659 0.475083 -0.394213 -0.0804376 -0.0621839 0.160875
4294 4 -1.63339 4.70298 47.4133 0.00226001 -0.442953 -0.314034 -0.0702776 -0.0753572 0.271298
4295 4 -8.89973 16.1472 46.3001 0.144239 -0.194706 0.0777492 0.0226249 0.108547 0.00132481
4296 4 -10.691 21.7428 48.5549 -0.573726 0.321914 -0.824165 0.0418638 -0.205204 0.265596
4297 4 -12.9154 23.0262 48.5423 -0.203888 0.153848 -0.193799 0.17701 -0.0745327 0.12228
4298 4 1.64988 1.21371 49.3111 -1.07013 1.56035 -0.282347 0.319927 -1.11634 -0.110592
4299 4 2.83584 4.2825 48.5951 0.135021 0.246667 0.0455117 -0.0844909 -0.046637 0.02499
4300 4 -0.592501 6.84584 48.0963 0.058837 0.189725 -0.244941 -0.0123178 -0.082322 0.144066
4301 4 -2.79761 7.27804 48.9612 -0.416865 0.446355 -0.353519 0.112376 -0.0142746 0.0563668
4302 4 -4.8073 14.594 47.3312 -0.137749 -0.138124 -0.312413 0.0668826 0.0185981 0.143567
4303 4 -7.85206 17.0657 49.2413 -2.40366 -3.74166 -1.91534 0.710093 -0.430309 0.0462147
4304 4 -9.53224 24.2644 48.5965 0.110294 0.0504148 -0.329905 -0.0222542 -0.0148818 0.0921257
4305 4 -12.2063 28.9751 47.8753 1.6905 0.0304077 0.537062 -0.396954 -0.036988 -0.0342207
4306 4 11.1739 15.4049 39.2315 -1.14007 1.96715 -0.147166 -0.00107635 -0.619864 1.7577
4307 4 0.979666 24.9916 37.175 2.27548 1.62545 -0.434816 2.81177 -1.29288 -2.89003
4308 4 9.22577 10.5159 51.8742 -2.45189 -11.9417 0.542817 -0.670643 0.76798 -0.410688
4309 4 6.63836 15.9649 37.9523 -0.542072 -0.140679 -1.17721 -0.109268 -0.0223575 -0.0105396
4310 4 -1.03717 13.9096 59.8229 -12.2257 -7.83296 6.12216 1.41912 0.967754 -1.05542
4311 4 18.392 23.7138 58.1887 10.4055 0.574465 9.22655 0.174719 0.263381 -1.05912
4312 4 1.96706 27.7707 25.0992 -2.24364 0.387548 2.73107 2.15593 -0.814234 4.71639
4313 4 5.2059 22.2484 21.0113 -0.755177 0.61142 7.6837 0.565717 1.07906 7.078
4314 4 12.5382 15.0224 33.9214 -0.809115 1.83957 0.303934 1.6529 -4.23678 2.07372
4315 4 15.2422 29.3221 42.1656 1.0803 2.21315 2.81467 -0.145915 2.17288 3.03538
4316 4 30.1459 0.464493 29.033 -1.6046 -7.0628 -3.74285 -2.56034 -7.48571 -4.25316
4317 4 4.68799 17.3391 23.0809 2.23383 0.615108 -2.48274 1.20446 -5.1167 1.23232
4318 4 6.68552 18.3944 16.9131 4.39048 7.72064 -2.19849 0.00832834 -2.39933 0.738797
4319 4 8.43666 21.1013 14.494 -10.8697 1.53541 -0.191577 -1.84466 1.58704 -0.696945
4320 4 13.9597 20.0446 11.9098 0.369619 -2.02035 -0.451697 -0.465194 -15.5192 -18.635
4321 4 8.9673 26.8636 28.5986 18.7723 -11.77 -17.2039 3.18096 -3.87452 -4.38189
4322 4 12.6962 19.2266 16.9162 1.43808 -7.75875 -4.62513 -2.06178 -6.1189 -3.24865
4323 4 18.3881 23.1569 18.2225 -3.76787 3.83592 -4.61143 -1.72488 3.13031 -1.26386
4324 4 19.3692 26.4272 53.1039 15.3544 5.59092 8.4833 -0.884581 -0.814704 -0.728508
4325 4 13.2319 16.4498 23.0144 -2.67807 2.65469 -2.83448 -6.66798 3.15154 6.80671
4326 4 5.36629 20.2829 17.5952 1.14549 8.25791 5.09668 -1.55844 2.2543 -2.1257
4327 4 13.4744 16.4306 38.053 -1.621 1.24155 -6.07498 4.0778 -3.80596 4.99909
4328 4 7.70039 21.4347 29.3011 -5.64907 -7.83346 14.1281 2.26099 -4.03619 1.48614
4329 4 9.3337 23.854 24.9561 -5.09334 -10.3751 -3.64251 6.17136 2.98811 2.31682
4330 4 1.98538 25.6727 27.0007 5.9975 -1.44087 2.72241 -1.01393 -1.60002 -4.41215
4331 4 7.30073 29.7825 12.4871 3.89111 -7.36027 3.40487 -1.96335 -0.687935 -1.16856
4332 4 9.2172 21.2684 11.7567 -0.174782 -0.405301 -0.557476 -11.0403 -20.4864 2.84015
4333 4 11.015 16.644 21.1556 7.22407 0.17594 -5.37405 -1.73284 -0.42672 2.76017
4334 4 17.2043 22.3868 37.4707 4.36229 6.45328 8.15204 -2.35157 2.17938 -0.614103
4335 4 7.98196 16.8448 20.2675 12.1803 0.113291 -1.3808 3.87449 5.01762 -0.699876
4336 4 18.0131 24.1111 33.0612 8.47989 -2.74716 -1.37003 -3.32172 2.68234 -4.92542
4337 4 9.47631 15.7094 37.4038 -3.25913 -2.4032 2.29703 -1.71791 -1.86845 -4.31327
4338 4 4.49813 17.8728 60.4016 -0.879253 -32.331 49.5095 -0.884597 3.86872 -5.68638
4339 4 4.48525 28.1151 19.6954 0.536279 4.09862 -0.160466 4.44554 3.31278 -3.75482
4340 4 18.3055 28.1604 34.6846 5.78122 -3.73353 -0.38873 2.58192 0.230709 1.58894
4341 4 19.4178 22.8575 47.1021 2.30434 0.950103 3.0095 -1.6768 0.454685 0.889353
4342 4 11.8426 21.0411 15.3803 -2.67873 1.08273 2.044 0.914889 -1.8099 -1.37276
4343 4 17.0037 26.1137 40.4075 1.53918 0.570369 -2.57321 -2.21478 -0.933659 -1.61911
4344 4 3.9978 24.0167 25.2328 1.9315 6.64894 11.6909 3.09914 -0.0228862 3.00557
4345 4 8.10954 23.5021 16.4991 -5.24266 -5.8273 -0.562525 0.39406 1.95299 0.065503
4346 4 8.55037 27.3212 21.6043 7.22536 6.90304 -0.926478 -2.61198 -2.42297 -1.83251
4347 4 8.49397 21.8223 27.1001 -2.47136 10.1189 -10.4226 2.50138 1.53953 -2.82622
4348 4 13.2286 25.0188 12.0612 -2.76046 0.405734 0.985537 3.47179 1.48742 -0.867798
4349 4 34.0696 1.45737 50.746 -4.08044 -0.900323 13.9835 -0.0748591 -0.45037 -2.22706
4350 4 34.7713 2.15486 54.7787 10.7598 10.0484 -1.15583 -1.20184 -0.359083 0.404039
4351 4 18.8598 26.5481 46.287 -3.13807 -2.49044 2.55622 1.10208 1.4833 1.36052
4352 4 13.0074 30.1117 22.8538 6.39514 -2.84088 5.00433 1.06537 8.83199 -2.96243
4353 4 18.3306 24.762 27.1104 -3.36811 -0.776836 2.63349 0.778136 -1.92186 -1.65113
4354 4 2.82552 29.2886 35.8807 2.29501 -1.68515 -0.331937 -3.58923 -0.247424 1.39994
4355 4 15.594 28.0396 26.6865 -2.08785 4.22815 -4.0332 0.159772 1.61876 -5.43471
4356 4 13.6908 18.5887 39.8967 -7.35747 -8.46412 27.753 1.20479 -2.55786 0.22245
4357 4 5.54655 28.9826 23.5227 12.4778 -6.44379 2.77256 -1.73476 -3.6969 0.555417
4358 4 8.61309 17.8419 25.1023 7.38594 -2.13046 4.78923 2.20793 -3.54964 -0.935521
4359 4 -0.199077 21.4057 58.2815 -9.54833 -8.95817 30.4386 1.40672 0.526913 -2.85689
4360 4 1.35572 15.2058 57.5621 -10.7437 -3.50358 1.85059 0.456097 -0.00889048 -0.184898
4361 4 16.6464 19.6791 26.257 -3.39147 -1.0721 4.8561 -3.19565 3.53504 1.05304
4362 4 36.2934 0.257037 49.1492 -3.53939 1.24376 -3.08347 0.472401 -0.105139 0.590482
4363 4 14.711 15.1454 31.4946 2.65588 -5.34271 1.43285 -4.74123 3.55026 -3.81697
4364 4 4.03719 20.6916 36.9394 4.15025 -11.9466 10.0233 -1.63046 2.37593 0.837922
4365 4 11.3901 19.9193 13.1435 2.14811 3.24138 1.11172 1.02459 -1.08414 4.14302
4366 4 20.3626 22.0017 65.0475 11.6685 -10.0288 13.7466 -0.981429 0.715788 -1.42538
4367 4 7.21487 19.8677 19.1947 -11.4505 4.11398 -4.71539 1.35415 -1.814 -4.34107
4368 4 14.4248 25.5122 39.1471 1.70477 9.66216 14.7206 1.34614 0.307174 1.70281
4369 4 18.7608 26.4095 30.2793 1.15441 -1.3658 -2.43849 -1.0825 0.0911161 2.68676
4370 4 13.2268 23.7098 19.1393 0.452239 -10.6711 -0.70291 4.24966 0.957624 0.463149
4371 4 8.40375 30.8791 18.5667 0.166767 1.43793 0.923681 -1.24793 -1.65654 0.665176
4372 4 10.2453 18.8391 21.9246 1.06436 -0.959415 -9.26971 -1.54605 0.578661 8.71158
4373 4 3.62185 16.3473 52.8288 8.30088 -6.27676 -3.6683 -0.643176 0.580069 -0.387047
4374 4 19.5306 24.4968 55.7746 5.01356 -5.34829 11.4588 -0.865184 -0.0256637 -0.151757
4375 4 1.05905 22.0333 30.8603 -0.0664343 4.23294 2.06697 1.66116 7.69088 5.7347
4376 4 12.2139 21.9257 11.5923 0.505253 -0.165476 -2.24946 -3.41259 0.631788 13.1932
4377 4 10.1547 27.3137 14.8719 2.92291 -7.30183 7.06296 1.45373 2.88771 1.09054
4378 4 15.099 22.0478 12.7991 -2.96855 -5.72164 4.92961 -2.63931 1.0522 2.63079
4379 4 1.46977 23.3916 45.1403 -1.43355 1.23975 1.85445 -1.89975 0.388164 -0.511657
4380 4 6.30877 15.9892 40.5158 0.790521 -2.24064 0.680087 1.54888 1.25372 3.67177
4381 4 7.41373 23.4959 13.4769 -2.02636 2.46603 -2.98442 1.2562 1.48789 1.7258
4382 4 13.798 29.3986 16.8649 -2.58063 -5.4057 -5.01892 3.45005 1.82232 -4.8944
4383 4 4.06801 21.6936 25.9543 2.1102 0.247921 5.94402 2.15019 -2.76673 -0.986621
4384 4 12.3744 31.9281 32.8288 2.07264 2.83054 0.494966 5.89456 -1.046 -0.383856
4385 4 32.0999 0.033344 26.276 0.637401 11.8218 1.33042 0.228904 6.99035 0.881026
4386 4 2.66691 23.9251 39.4693 3.26897 6.86035 -9.16813 -1.99892 0.308395 0.692498
4387 4 11.9013 20.9445 30.7571 5.82984 -10.5768 -6.11111 9.52119 1.76376 -0.837644
4388 4 6.4431 18.9854 26.0678 13.1449 -15.9003 -1.96196 0.118713 -4.20956 -2.5899
4389 4 15.2476 16.1537 83.1141 5.84948 -8.78172 29.4889 -0.406534 0.610321 -2.04945
4390 4 7.76711 29.0259 20.4485 -3.474 -6.62851 10.9513 5.26639 -3.25652 -9.89951
4391 4 9.90817 24.4664 14.3059 -1.92076 0.0911298 -8.81793 1.27548 -4.05607 2.57485
4392 4 5.93053 24.01 23.198 2.70134 8.85007 6.4228 1.6282 -2.86921 -1.89476
4393 4 17.1502 20.4059 50.8157 2.1928 1.66962 0.688304 1.00863 -0.291044 -0.996916
4394 4 19.4248 21.6894 51.1464 3.34261 0.274568 1.96595 -1.02083 0.131509 -0.774581
4395 4 12.8765 26.9566 16.7749 10.2267 0.776928 0.561661 0.216061 0.126148 2.50144
4396 4 16.1288 23.6283 18.804 -0.098238 5.47126 -6.97979 -2.75883 1.73426 -2.33674
4397 4 13.1305 18.5551 28.779 -0.29458 -0.0136301 15.2026 -0.711497 -1.07588 1.93124
4398 4 18.9773 23.8578 52.9748 7.43886 9.69394 -4.25392 1.04612 -0.905598 -0.247852
4399 4 2.60261 21.2853 19.4745 8.01548 1.5969 -0.803362 -7.44111 0.861367 -1.92549
4400 4 1.90852 19.193 59.7079 4.11822 -16.0312 16.6954 -0.155243 0.15117 1.03341
4401 4 13.4926 21.429 17.597 -10.9771 1.07247 -8.86157 2.14507 2.24613 3.62432
4402 4 11.0232 26.9081 21.5916 3.52477 -7.56233 6.89282 -0.036744 2.27432 -1.48567
4403 4 17.1421 22.291 25.5658 17.6371 4.36673 -6.24016 0.205878 0.731165 0.79025
4404 4 32.1553 0.914052 57.052 9.75144 14.9269 13.4168 -1.43157 -0.247936 -1.60657
4405 4 17.2143 28.1958 43.4273 3.07045 0.313122 2.25135 -5.25999 -2.94825 7.70311
4406 4 9.69286 26.2214 19.3869 -1.48667 -1.4533 11.2139 0.903659 4.46217 0.243742
4407 4 8.37503 18.6065 36.8947 -1.48521 5.29972 6.70491 3.2149 -1.5296 -1.06152
4408 4 10.9476 20.7471 18.0207 5.67819 -4.38792 0.0399076 -5.00731 2.28836 -2.34798
4409 4 18.5705 20.7898 29.0851 6.65938 0.44097 -1.53404 2.9469 -2.17027 1.12107
4410 4 14.7158 26.8685 46.9469 -30.2117 8.81126 -5.73862 0.794423 0.312358 -0.542181
4411 4 6.13989 22.5669 27.8932 -5.93656 -13.1444 -4.18023 1.59248 -1.03131 -10.2788
4412 4 7.21778 18.0044 41.0884 -16.8424 9.77201 -9.90136 -3.81697 3.13631 -1.67098
4413 4 6.5836 32.0026 74.7304 2.90053 5.79657 10.4082 -0.201584 -0.402856 -0.723361
4414 4 0.0105132 27.0768 50.7418 -45.1615 10.786 1.72788 2.40912 -0.777653 -0.739268
4415 4 3.57722 24.9308 19.3454 0.00241174 8.83993 -0.0631667 1.75914 3.32178 -1.85972
4416 4 11.1942 20.0051 25.078 -4.94215 4.52137 1.67273 -0.205549 0.791099 6.63194
4417 4 17.1013 28.3006 30.6596 -2.239 -4.96409 -1.68605 -1.03746 -6.29158 2.79948
4418 4 -2.3746 28.7124 58.7356 -21.1099 12.0404 16.9152 2.56974 -1.05212 -1.15405
4419 4 16.365 15.0888 51.5843 1.02673 -3.53854 12.6832 -0.787237 0.499844 -2.49514
4420 4 7.45316 25.0596 25.1566 3.33686 5.19733 6.97153 -3.99295 1.54142 2.89751
4421 4 1.88418 16.2432 55.2104 -7.17642 -9.39559 2.88967 1.03065 0.632266 -0.0266766
4422 4 9.73405 13.3937 51.0465 -3.89719 -8.71877 3.20869 0.443237 1.22822 -0.64927
4423 4 3.0542 29.6782 51.8636 -6.14452 -1.42644 4.33786 2.05008 0.698531 -1.04278
4424 4 14.4415 18.2785 22.0979 3.06582 -5.23953 -2.92408 0.135151 3.78089 -2.00405
4425 4 30.542 4.67764 51.2688 12.6206 15.473 20.9833 -1.83971 -0.326788 -1.91711
4426 4 9.39281 29.9946 23.6188 -9.51584 -4.22671 -7.84675 1.03154 -15.7211 6.2136
4427 4 10.933 19.9556 34.5337 14.4526 -3.10089 1.12958 -1.82228 0.383893 -0.196454
4428 4 8.47052 20.5368 21.7164 8.82526 -7.60908 -5.72401 0.851388 3.87908 -4.24068
4429 4 7.44258 22.4041 19.6963 -11.5213 -12.0462 -4.53144 -3.03248 0.163706 -3.61302
4430 4 15.2698 31.1255 40.3307 1.49643 0.817228 3.60538 0.0892759 1.77228 2.42036
4431 4 16.3142 27.7551 24.4692 -1.40428 -7.02442 -5.71268 1.40735 -2.90654 -2.5342
4432 4 13.3483 19.9069 23.9701 4.99638 -12.7473 3.31824 1.77914 -1.36524 -1.046
4433 4 16.518 21.6473 34.9151 8.01409 -9.15921 6.95546 2.22593 -1.15702 -0.236483
4434 4 16.6159 26.4243 18.4171 2.96984 -5.06542 7.73249 0.452589 -7.94171 -3.94041
4435 4 9.5398 19.8243 28.1072 3.63633 4.72821 -3.83401 -1.72757 8.47592 5.11526
4436 4 6.81033 16.1702 51.0313 0.294257 0.496373 -0.0463166 -3.2031 1.95742 -3.02626
4437 4 5.00441 28.9967 30.1027 1.81161 -13.4545 -1.58859 0.396413 2.89835 -1.13116
4438 4 7.20379 32.2575 22.5313 -1.65466 11.0417 -5.81324 2.70966 -4.43987 5.53886
4439 4 16.8136 19.2786 22.8465 -7.25076 4.02283 3.83922 4.62525 1.8777 -2.91504
4440 4 11.1239 20.6113 20.6 -0.573744 1.47794 -6.10854 4.23179 2.03953 1.3012
4441 4 -1.74609 25.9208 52.0015 -51.8606 -8.58968 -26.7392 3.63594 0.511112 0.733795
4442 4 12.7527 29.6235 18.8117 2.69107 0.296452 0.813226 -1.81409 -1.74191 2.71833
4443 4 13.5208 27.9941 20.8053 -1.51389 -10.0227 2.77237 -0.706144 -11.504 -0.460383
4444 4 7.27393 32.1678 31.2585 1.4127 2.06232 -2.97043 -0.675583 -2.24374 1.25793
4445 4 14.9729 20.6107 42.3239 8.26561 0.68449 1.40051 1.99823 -0.356383 -0.186942
4446 4 1.97588 25.4914 29.9133 3.2473 0.736251 2.57202 3.74493 2.91278 2.67724
4447 4 6.73249 20.2203 42.5434 8.60427 -8.35549 18.1151 -1.35668 -0.655335 -0.111519
4448 4 11.2235 18.2111 31.075 -4.1546 1.78188 4.05625 -0.26581 -3.35719 2.43451
4449 4 14.5043 23.8891 24.8049 -3.33793 8.11869 24.8009 0.915892 -0.231262 7.60858
4450 4 7.58315 9.72464 54.3409 -2.40279 -25.9543 9.41653 0.370059 2.50128 -1.32684
4451 4 7.0968 31.144 26.9188 11.3936 -7.24713 5.02649 -2.48173 1.5469 -2.73222
4452 4 13.06 24.3797 16.5581 0.526159 3.12267 0.709233 0.00439285 1.56716 0.1583
4453 4 17.5199 24.9378 24.1171 -12.1597 -9.33309 -2.60402 6.96182 -1.13606 -1.26799
4454 4 10.6134 30.2275 19.8296 5.52836 4.36337 0.802926 -1.67763 -0.177143 -2.94239
4455 4 20.2273 20.5534 55.5077 12.4641 -10.0329 17.6807 -1.63089 1.06677 -1.58864
4456 4 9.28242 31.5197 22.6159 -2.9359 11.786 -2.30278 2.95741 8.46495 -10.358
4457 4 5.12774 18.4126 45.2135 -7.44554 -14.1086 -0.568852 -5.26111 4.18274 -4.42926
4458 4 4.51401 30.2981 33.8423 4.525 -18.6891 2.52539 -16.7237 -11.8932 -15.6855
4459 4 11.6013 17.5291 35.0253 -1.94162 2.35279 5.14296 3.72059 -2.09044 1.22844
4460 4 12.5261 31.2549 48.2524 -6.62157 0.482118 -0.978777 2.12455 -6.36499 1.57606
4461 4 14.3268 27.7534 40.4869 8.51761 -4.85684 6.3597 -0.876955 -1.25755 -0.206123
4462 4 10.1505 15.5474 33.0833 0.250832 0.196476 -0.595097 2.78288 5.35984 7.16552
4463 4 6.02096 18.4007 37.0858 -11.6082 0.967999 8.84231 -3.134 2.26289 4.47888
4464 4 15.9693 20.8939 32.3784 6.09505 -8.61195 -4.64845 0.369922 3.09176 2.80726
4465 4 6.30611 27.8982 32.6158 15.333 9.92862 5.56565 -1.73329 0.851616 -0.927572
4466 4 15.3189 30.4766 35.0953 -0.907832 1.45437 1.35946 2.22906 1.9832 -2.80619
4467 4 14.8244 29.5632 38.68 6.99113 1.2477 11.1384 -2.08004 0.548785 -2.33277
4468 4 27.9273 0.483806 27.8526 -0.261795 -2.19102 -2.80779 0.264275 1.05151 -5.2711
4469 4 16.9374 17.4204 52.8003 8.2098 -4.56698 -3.76888 -0.370555 1.79528 -0.121309
4470 4 18.0335 27.1277 49.8313 2.90973 -1.47257 4.43336 0.458619 -0.238034 -2.43034
4471 4 18.0671 20.289 53.3577 -3.9361 3.09735 5.01819 1.26354 -0.761336 -1.92003
4472 4 23.9925 0.617701 51.219 -24.3137 -12.3833 25.3336 -1.4143 -0.0698709 -0.751288
4473 4 12.2688 23.199 21.6093 4.67198 1.35165 -7.59237 -1.53452 2.58283 -2.36665
4474 4 5.08504 18.7403 31.7634 -1.72152 -0.325532 8.43516 7.62058 -0.639723 -1.3265
4475 4 12.9863 22.2512 26.5435 7.56906 -2.33023 14.0775 0.0924263 1.97536 -3.85457
4476 4 3.12427 29.8161 43.8691 2.00175 3.07517 -3.1481 -1.74271 -5.87961 -1.22703
4477 4 13.9426 28.3342 24.3885 3.25172 8.15356 -4.87376 -2.64442 -1.57965 0.818525
4478 4 26.0632 3.85257 58.1216 19.1069 31.5663 -0.165444 -0.594321 -3.2005 -0.329451
4479 4 4.37174 19.5765 27.2808 6.45261 5.9611 11.1438 0.869489 -0.667163 1.08875
4480 4 6.57576 26.581 20.0318 0.508492 3.21839 -1.92717 2.40832 -4.89009 -4.28152
4481 4 5.00236 22.4665 33.3756 -2.60589 10.898 -5.70772 -0.426931 1.89556 -3.86134
4482 4 13.8142 21.4483 19.9459 10.9206 0.747902 -1.65219 -1.80548 -1.20612 2.15814
4483 4 15.7329 24.2995 32.8202 4.35189 6.01204 -0.0693744 -2.48008 0.691063 -0.314975
4484 4 13.8798 22.6756 30.6704 1.82184 8.87024 5.17317 1.79952 0.39666 0.532926
4485 4 11.8955 26.6965 24.6365 13.3088 -4.79938 -4.4995 0.186384 0.501533 0.346
4486 4 25.2082 0.329821 53.5398 17.1369 10.8731 2.97241 -1.02543 -0.265436 -1.17511
4487 4 2.55156 23.6718 42.1915 -8.18723 -6.2197 -8.62642 -0.182644 -2.21163 0.306228
4488 4 -14.896 27.9466 62.3648 25.7015 10.6942 3.3195 -1.78623 -0.743236 -0.230702
4489 4 15.4266 27.2249 31.5116 -6.53759 -3.78259 -2.91009 -9.1084 0.688905 -1.36314
4490 4 18.8197 22.005 60.5965 13.8908 2.52135 35.3753 -0.99653 -0.163681 -3.28719
4491 4 13.1011 30.6018 30.6659 5.43294 4.55953 2.02069 8.03756 -8.27485 0.190198
4492 4 10.2417 14.8378 56.0107 -0.602004 -8.78273 1.07675 -0.412069 0.685323 -0.449902
4493 4 12.4552 28.9601 33.2644 26.9125 -6.31719 -21.5066 -2.58062 -0.293305 0.434742
4494 4 4.73037 24.2962 35.9507 18.5037 -7.7422 3.18744 0.511505 0.84928 -3.72056
4495 4 14.7906 25.6914 20.6837 2.07247 0.836646 4.79969 -0.376986 -0.10324 -1.94308
4496 4 0.868569 23.1785 51.2333 6.22142 10.5296 19.6636 -1.92856 -2.42058 -0.604523
4497 4 29.2964 1.31398 53.9369 0.897811 0.651501 -0.189791 -0.606255 0.463961 0.582135
4498 4 3.82153 31.1485 54.0122 -3.13108 -3.31012 -1.21327 -0.51907 1.28111 -1.40278
4499 4 0.677936 28.5367 58.6108 -11.8323 7.91553 18.3696 1.07271 -0.844888 0.208654
4500 4 9.49053 14.8643 58.3979 -5.11342 -15.2501 -0.657579 0.466054 1.12744 -0.136489
4501 4 15.1238 31.3845 48.6537 -1.62754 4.09986 3.50677 1.51024 0.11055 -0.0935571
4502 4 4.84709 22.3857 18.9151 6.04561 4.95224 -0.825493 -0.102602 -0.309924 -3.67961
4503 4 11.2984 26.1119 29.4443 -3.95958 -8.18565 1.37384 1.91396 0.109248 -0.366498
4504 4 11.5466 14.9043 67.6359 4.41798 -13.2052 22.315 -0.307046 0.917747 -1.55087
4505 4 9.53359 22.5148 20.6069 3.80574 -1.81731 7.51566 3.27951 3.75727 2.40255
4506 4 12.4301 30.6096 25.9571 7.87489 8.97686 -5.02183 -9.49487 -5.06898 -3.98237
4507 4 8.04101 24.5204 21.0758 5.23498 -6.43715 8.35781 0.157301 8.01661 -1.61864
4508 4 8.29278 22.0307 31.8335 -0.702272 5.28855 -0.35357 -3.25531 1.31215 1.55363
4509 4 7.68625 22.2046 24.7511 -5.12949 16.518 4.20131 -3.45501 -0.867483 -3.59841
4510 4 27.9744 0.201083 37.4214 9.2094 4.91493 4.89971 9.33465 -4.90294 6.87049
4511 4 0.715099 25.3711 63.6415 -5.72705 2.40898 8.46186 1.15255 1.50155 -3.47659
4512 4 9.57442 17.5518 40.8242 -9.02058 -3.26266 7.27118 2.19836 -2.5179 -2.1716
4513 4 33.1529 4.20912 56.4053 -0.0209559 28.7115 13.6078 0.304952 -3.23011 -1.28145
4514 4 2.40164 20.8945 28.9391 0.537907 -6.78502 1.28659 -2.86273 5.40683 7.08203
4515 4 16.5425 1.11929 53.935 -16.6538 31.1299 13.7594 1.13235 -2.16145 -0.892943
4516 4 2.67136 22.2516 47.5476 0.740287 -0.336561 3.88193 -1.28611 0.186673 -0.840521
4517 4 8.39877 17.1248 42.8901 -15.7379 0.311953 0.232522 1.71182 -1.28271 7.00377
4518 4 17.4993 23.0868 44.1307 -0.0843015 5.75128 14.8647 -0.293457 -3.23793 1.76801
4519 4 13.2916 27.1184 27.4789 19.423 -8.92256 -3.26826 0.00453047 1.62285 -1.10258
4520 4 9.72849 14.9656 53.0755 -12.5485 -3.06295 -1.07201 0.827618 0.337498 -0.0630149
4521 4 3.48808 30.5617 59.0063 -11.1448 9.02903 16.1461 0.671218 -1.71984 -1.27279
4522 4 10.5406 17.0036 48.1508 3.73254 -1.3271 -8.85369 -0.388951 0.537874 -3.88741
4523 4 5.42826 17.2836 35.2182 -1.31489 -2.99063 -4.83538 1.65079 -2.09045 -3.56554
4524 4 16.0289 23.1544 42.0882 6.92697 1.85103 -19.7028 1.07552 2.00713 0.586542
4525 4 31.1274 0.519466 41.0308 -1.35018 0.0820464 -0.768697 0.796623 0.25858 1.06494
4526 4 15.3173 23.098 21.1281 2.19468 -3.77112 -4.08136 -2.0893 -3.28933 0.210534
4527 4 7.0956 31.4813 40.1222 43.6191 46.018 -37.3942 2.06563 -10.5716 -9.58568
4528 4 4.97328 18.3871 48.7939 -11.3758 2.88559 -5.78594 -0.221135 -1.40206 0.581622
4529 4 16.2183 17.6064 50.2986 -7.27261 -2.84607 -2.16203 2.27941 0.0736038 0.225076
4530 4 7.84534 16.9856 31.7128 0.222931 -16.9295 5.18369 0.048801 -1.39227 -2.32805
4531 4 13.3305 16.8258 30.6064 1.79893 -3.23919 0.585679 0.179101 3.89506 -0.864665
4532 4 5.91721 20.4462 34.2006 -8.22895 1.83309 5.32161 -0.0763379 -3.35505 -0.256642
4533 4 9.70702 31.3708 33.4534 -23.488 -11.043 14.3807 -0.00264322 1.22828 -0.231445
4534 4 7.38096 28.802 24.8841 -8.24856 -2.78373 4.59093 3.35819 0.879403 -0.811899
4535 4 15.4566 21.0245 48.3757 5.07321 5.50577 -0.0267498 1.92031 -0.929764 0.197664
4536 4 1.10333 22.2179 55.6259 -9.95214 3.01588 13.6163 0.777674 -0.741612 -0.410301
4537 4 8.61 17.472 46.0067 -6.3568 6.5146 4.92257 4.72076 1.62624 -3.50316
4538 4 16.1854 21.9872 40.0424 -4.65956 9.48998 -2.61071 2.69493 0.892917 -2.3074
4539 4 14.1619 25.943 29.8839 2.01117 -19.1254 -2.60784 -0.599771 -3.53662 -1.80033
4540 4 4.012 18.7587 29.6196 3.72118 -0.333527 2.99749 0.829908 6.65285 4.12461
4541 4 2.78528 26.3728 36.7413 1.74568 1.59693 -7.45354 1.36105 2.05152 -0.352125
4542 4 17.0587 23.1912 47.0138 -2.95916 3.45561 -3.88805 -1.05049 -2.04485 -2.03964
4543 4 14.6003 29.6157 32.8358 0.266436 -1.87432 29.4223 4.65271 0.0646665 -1.3957
4544 4 4.50928 26.8573 25.149 -5.52358 6.39182 -0.337994 6.14161 -4.08556 0.721663
4545 4 13.0432 25.3057 32.7811 -0.707898 6.19494 -0.434486 1.00594 0.0384182 -0.568118
4546 4 16.9139 22.619 30.8074 -2.49879 8.97398 2.87615 -5.98406 -2.38233 4.51961
4547 4 6.67803 23.6306 29.6825 -0.516724 -17.8325 12.4228 -0.206236 3.42056 7.04606
4548 4 16.8228 22.2318 28.1516 0.135337 1.47277 12.1923 -2.99649 -0.525912 -2.65894
4549 4 8.34993 17.9214 27.443 -2.76968 -1.4878 -6.45959 -0.972002 -5.38312 0.869217
4550 4 3.86226 29.3906 27.407 7.54467 -1.75158 -2.69704 -5.31135 0.334359 -6.04597
4551 4 16.6559 25.2016 29.3777 -1.6625 -5.15844 -7.05402 1.35507 -0.0443286 -0.827029
4552 4 11.2646 24.7851 23.1 -7.23455 9.21747 -11.827 -1.84108 1.5689 -0.720164
4553 4 14.4472 19.2629 31.8602 3.23982 0.605493 1.56477 0.26418 -1.70839 -5.23524
4554 4 14.7341 25.7307 36.7549 26.9184 14.382 -3.35414 1.40117 -1.24891 1.50457
4555 4 2.97229 23.3591 37.0027 3.47652 10.7973 9.36079 -4.62067 -2.21164 -2.36261
4556 4 11.6586 21.9847 23.8458 9.74136 2.55325 0.190382 -5.73787 2.57812 -2.24162
4557 4 17.2511 30.7979 74.3482 10.7849 4.42719 32.8862 -0.749543 -0.307685 -2.28556
4558 4 12.4365 29.9108 28.3456 -0.704805 10.214 -6.10238 2.64879 -1.54683 -1.90625
4559 4 4.22339 26.8037 28.9005 -8.72166 10.8547 2.80959 -2.88999 0.93995 0.279523
4560 4 1.77796 26.8972 60.4327 -18.3993 6.90502 23.206 0.0265737 -1.09362 -0.148801
4561 4 12.2495 31.5827 37.5659 4.23123 -5.81924 -7.48414 -1.96223 -2.73492 2.85497
4562 4 8.24422 22.4653 34.6955 18.545 -21.1355 -5.62244 -0.637484 -0.727968 -0.901847
4563 4 4.92203 19.676 39.289 2.9978 7.48864 -4.23475 1.75682 0.57731 -5.20966
4564 4 17.0875 25.5902 35.3793 -5.63895 10.6719 9.03772 0.513046 2.00707 -1.78053
4565 4 22.3103 24.7093 51.7933 23.9232 -6.06156 32.1863 -4.44222 0.440932 1.45472
4566 4 17.4539 29.4339 53.8764 7.92555 8.09679 2.03809 -0.288903 -0.783289 -0.169331
4567 4 14.5636 20.8495 28.4236 -9.89289 3.96623 -2.13531 -0.41011 -0.556319 -0.899784
4568 4 11.2543 31.0911 42.9607 7.04563 14.0239 6.7856 -0.0801394 2.41665 -0.497827
4569 4 6.47752 18.0619 46.7167 -6.69158 -21.6244 6.14582 4.19403 2.13912 6.19033
4570 4 8.02344 28.2948 29.8175 9.27737 19.1805 -3.21907 -3.8558 5.50195 4.41707
4571 4 14.8104 27.2485 35.1242 0.916861 -6.73617 -1.86772 -0.52985 3.75326 -5.32835
4572 4 12.9194 18.6708 33.3663 -1.74832 -2.91113 -9.29485 -0.998762 -3.53573 0.723916
4573 4 12.251 22.6366 28.6928 -7.27096 11.0864 2.71962 -1.32214 2.02167 0.91623
4574 4 5.13073 23.3103 43.6753 3.62623 -2.00357 -3.2717 -1.7136 -0.855631 -1.00206
4575 4 13.2886 9.4235 53.5124 9.16907 -44.2041 12.287 -0.0860523 2.98169 -0.614793
4576 4 13.2656 29.0734 43.5693 -19.6511 9.3694 -12.3633 -0.394662 0.208267 1.04205
4577 4 4.01514 25.2494 31.807 4.9667 4.10757 3.97713 -1.08047 0.0521824 0.127132
4578 4 6.6048 27.2596 26.8149 -0.351687 -5.23818 9.10999 -1.34989 0.567712 0.42922
4579 4 9.94482 20.5159 31.2164 0.840901 -3.47654 -16.8618 -7.88854 -3.66391 1.53867
4580 4 10.9555 30.4668 30.1745 3.79539 -0.712971 -5.30675 -5.30336 0.864105 3.47324
4581 4 12.5443 22.0863 33.0877 -1.48159 -1.88618 -14.6243 0.383354 -0.273423 0.356654
4582 4 8.22493 24.6245 27.6174 11.9457 6.55121 -7.81095 -0.00161243 -1.24238 -0.177423
4583 4 12.3627 26.0507 44.3017 -14.7865 4.50889 3.87388 0.881509 0.990087 0.0956725
4584 4 15.4995 27.644 44.5263 -4.82722 -5.55766 -4.16261 -6.31589 -4.16896 2.64786
4585 4 4.97889 27.9853 40.2173 -34.7805 -32.8648 -60.3482 -2.59845 2.45074 -0.152215
