32
Lattice="8.1799999999999997 0 0 -0.040899999999999999 8.1799999999999997 0 0 0 8.1799999999999997" Properties=species:S:1:pos:R:3:PW_PBE_forces:R:3:local_new_id:I:1 pbc="T T T" PW_PBE_energy_eV=-91.40022662486264 config_type=Ag_shear_m005_k8x8x8_v19
Ag 0 0 0 0 0 0 1
Ag -0.010225 2.0449999999999999 2.0449999999999999 4.105662278607482e-06 3.3008338969641517e-06 7.2853157561282699e-06 2
Ag 2.0449999999999999 0 2.0449999999999999 3.078153716043329e-06 4.1392779130876376e-06 7.293578772157336e-06 3
Ag 2.0347749999999998 2.0449999999999999 0 6.2527862762092183e-06 6.5061736853845993e-06 0 4
Ag 0 0 4.0899999999999999 0 0 0 5
Ag -0.010225 2.0449999999999999 6.1349999999999998 4.105662278607482e-06 3.3008338969641517e-06 -7.2853157561282699e-06 6
Ag 2.0449999999999999 0 6.1349999999999998 3.0781537160433294e-06 4.1392779130876384e-06 -7.293578772157336e-06 7
Ag 2.0347749999999998 2.0449999999999999 4.0899999999999999 2.8139280369074097e-05 2.8522670702272833e-05 0 8
Ag -0.020449999999999999 4.0899999999999999 0 0 0 0 9
Ag -0.030675000000000001 6.1349999999999998 2.0449999999999999 -4.105662278607482e-06 -3.3008338969641509e-06 7.2853157561282699e-06 10
Ag 2.0245500000000001 4.0899999999999999 2.0449999999999999 3.2161992946480266e-05 -5.0213367106874435e-06 2.7662405761260583e-05 11
Ag 2.0143249999999999 6.1349999999999998 0 8.5854257365552303e-06 -8.7938915112657659e-06 0 12
Ag -0.020449999999999999 4.0899999999999999 4.0899999999999999 0 0 0 13
Ag -0.030675000000000001 6.1349999999999998 6.1349999999999998 -4.105662278607482e-06 -3.3008338969641509e-06 -7.2853157561282699e-06 14
Ag 2.0245500000000001 4.0899999999999999 6.1349999999999998 3.2161992946480266e-05 -5.0213367106874435e-06 -2.7662405761260583e-05 15
Ag 2.0143249999999999 6.1349999999999998 4.0899999999999999 2.7885577370549006e-05 -2.800390477055509e-05 0 16
Ag 4.0899999999999999 0 0 0 0 0 17
Ag 4.0797749999999997 2.0449999999999999 2.0449999999999999 -5.1894983587412083e-06 3.2301032838671047e-05 2.7666670731775082e-05 18
Ag 6.1349999999999998 0 2.0449999999999999 -3.078153716043329e-06 -4.1392779130876376e-06 7.2935787721573343e-06 19
Ag 6.1247749999999996 2.0449999999999999 0 -8.5854257365552303e-06 8.7938915112657676e-06 0 20
Ag 4.0899999999999999 0 4.0899999999999999 0 0 0 21
Ag 4.0797749999999997 2.0449999999999999 6.1349999999999998 -5.1894983587412083e-06 3.2301032838671047e-05 -2.7666670731775082e-05 22
Ag 6.1349999999999998 0 6.1349999999999998 -3.078153716043329e-06 -4.1392779130876376e-06 -7.2935787721573343e-06 23
Ag 6.1247749999999996 2.0449999999999999 4.0899999999999999 -2.7885577370549006e-05 2.800390477055509e-05 0 24
Ag 4.0695499999999996 4.0899999999999999 0 0 0 0 25
Ag 4.0593250000000003 6.1349999999999998 2.0449999999999999 5.1894983587412083e-06 -3.2301032838671054e-05 2.7666670731775082e-05 26
Ag 6.1145500000000004 4.0899999999999999 2.0449999999999999 -3.2161992946480266e-05 5.0213367106874435e-06 2.7662405761260583e-05 27
Ag 6.1043250000000002 6.1349999999999998 0 -6.2527862762092183e-06 -6.5061736853845985e-06 0 28
Ag 4.0695499999999996 4.0899999999999999 4.0899999999999999 0 0 0 29
Ag 4.0593250000000003 6.1349999999999998 6.1349999999999998 5.1894983587412083e-06 -3.2301032838671054e-05 -2.7666670731775082e-05 30
Ag 6.1145500000000004 4.0899999999999999 6.1349999999999998 -3.2161992946480266e-05 5.0213367106874444e-06 -2.7662405761260587e-05 31
Ag 6.1043250000000002 6.1349999999999998 4.0899999999999999 -2.8139280369074097e-05 -2.8522670702272833e-05 0 32
