49
Lattice="28.0 0.0 0.0 0.0 28.0 0.0 0.0 0.0 28.0" Properties=species:S:1:pos:R:3:lammps_id:I:1:lammps_type:I:1:central_pair:I:1:PW_PBE_forces:R:3:magmoms:R:1:forces:R:3 config_type=AgTi_widespan_registry_acq_v16_01 dataset_role=unlabeled_training_acquisition_proposal parent_config_type=AgTi_registry_probe_v13_01_periodic_PW_PBE_energy_force_v14_train parent_file_sha256=3323cdbd3081fc8d91673662c5f83c8da93ba3b4d7a23428f6b70d0e7a4c9faf parent_geometry_sha256=b78ee569d0bafe0cbb68dc693ce5a47df03eff043b70e2ea8ca96c5bca7e8964 sampling_axis=registry sampling_offset_A=0.45 not_validated_training_data=T geometry_screening_decision=GEOMETRY_PASS_A_REVIEW requires_A_review=T geometry_review_flags=none PW_PBE_energy_eV=-177.1781522428808 source_method="GPAW 26.7.0 PW-PBE 500 eV Gamma single point" free_energy=-177.80421775719114 energy=-177.1781522428808 dipole="0.4411125610097788 0.14431167945087248 0.16949441372199137" magmom=0.0 pbc="T T T"
C       13.89902107      12.90667166       9.57093308   478831        3        0      -1.56728454       2.33548436       0.26951700       0.00000000      -1.56728454       2.33548436       0.26951700
Ti      12.62304525      14.70227784       8.74620905   478840        1        0       1.35925210      -0.80621472       4.04660507       0.00000000       1.35925210      -0.80621472       4.04660507
Si      16.74663914      14.99666412       9.05588053   478841        2        0      -1.06460669      -0.65832825       1.33141751       0.00000000      -1.06460669      -0.65832825       1.33141751
C       13.77615718      16.76659830       9.46205532   478844        3        0      -3.97693088       0.10933130       0.72249160       0.00000000      -3.97693088       0.10933130       0.72249160
Ti      12.49439364      12.82858132      11.26096292   479021        1        0       0.83906436      -1.09908866      -1.33172965       0.00000000       0.83906436      -1.09908866      -1.33172965
Ti      12.74652762      14.24815681      13.89771094   479027        1        1      -0.35138208       1.47144197       1.42245301       0.00000000      -0.35138208       1.47144197       1.42245301
Ti      13.27333691      17.52276133      13.67525409   479028        1        0       0.02403751       0.35168447      -1.88612861       0.00000000       0.02403751       0.35168447      -1.88612861
C       12.19406070      16.00730532      12.98699267   479030        3        0      -0.75271006      -1.16377922       0.42994562       0.00000000      -0.75271006      -1.16377922       0.42994562
C       11.92979276      17.83928667      10.04608242   479031        3        0       3.50542504      -2.32889999      -0.91642891       0.00000000       3.50542504      -2.32889999      -0.91642891
C       11.14030857      11.60980287      10.51944505   480798        3        0      -1.23589495       0.74617343       2.11402342       0.00000000      -1.23589495       0.74617343       2.11402342
Ti       9.67365027      11.73672021      12.52949502   480801        1        0       4.30194977      -0.89021091       0.06209035       0.00000000       4.30194977      -0.89021091       0.06209035
C       10.41266283       9.58775109      13.76894219   480802        3        0       0.26840643       1.40114438       2.80837887       0.00000000       0.26840643       1.40114438       2.80837887
C       11.34811906      12.99570560      13.31832051   480805        3        0      -1.33608413      -0.57586896      -0.32305802       0.00000000      -1.33608413      -0.57586896      -0.32305802
C       11.26779912      14.20441406      10.34350882   480807        3        0       0.93063516       0.38500628      -0.45093255       0.00000000       0.93063516       0.38500628      -0.45093255
Ti      10.63277880      14.68120764      12.23793466   480810        1        0      -0.79691803      -0.25222840      -0.41140881       0.00000000      -0.79691803      -0.25222840      -0.41140881
Ti      11.15181567      17.42898892      11.87855887   480811        1        0       0.03252183       0.44904832      -1.25169032       0.00000000       0.03252183       0.44904832      -1.25169032
Ti      10.57490139      16.47263116      14.34546801   480812        1        0       1.46995497      -0.15313591       0.14754069       0.00000000       1.46995497      -0.15313591       0.14754069
C       11.98467917      18.76062403      12.89743879   480813        3        0       0.52132180      -0.83913681       0.95862720       0.00000000       0.52132180      -0.83913681       0.95862720
C       10.74527181       9.34898918      15.92141080   480974        3        0       0.57360291       1.66106197      -3.58869176       0.00000000       0.57360291       1.66106197      -3.58869176
C       10.58950093      11.90905331      16.64358691   480975        3        0      -0.18140557       1.83934619      -1.39503278       0.00000000      -0.18140557       1.83934619      -1.39503278
Ti       9.93014220      13.54071165      15.28648610   480980        1        0       2.21086806      -2.10861368      -0.13346396       0.00000000       2.21086806      -2.10861368      -0.13346396
Ag      13.13231783      11.48722176      14.08448967   682693        4        0      -0.64814144      -0.33902191      -0.11422821       0.00000000      -0.64814144      -0.33902191      -0.11422821
Ag      19.22414387      15.61417707      16.14325276   685396        4        0      -0.38016991      -0.13697055      -0.17649745       0.00000000      -0.38016991      -0.13697055      -0.17649745
Ag      17.18372171      15.59989151      14.08084112   685467        4        0       0.07622630       0.39205643      -0.13771171       0.00000000       0.07622630       0.39205643      -0.13771171
Ag      15.17338946      11.47564373      16.13660310   686309        4        0      -0.09762145      -0.13775808       0.35041953       0.00000000      -0.09762145      -0.13775808       0.35041953
Ag      17.19386113      13.55056514      16.15267925   686324        4        0       0.34861653      -0.10828659       0.23110237       0.00000000       0.34861653      -0.10828659       0.23110237
Ag      15.15854028       9.43292434      14.08505358   686418        4        0       0.05329161       0.08726624      -0.00322808       0.00000000       0.05329161       0.08726624      -0.00322808
Ag      19.22110367      13.55676666      14.08329543   686622        4        0      -0.39057805       0.19042883       0.17518703       0.00000000      -0.39057805       0.19042883       0.17518703
Ag      17.19297541      15.59475229      18.18247801   686899        4        0      -0.11873111      -0.01105058      -0.18173810       0.00000000      -0.11873111      -0.01105058      -0.18173810
Ag      17.18963003       9.44422775      16.14439265   687243        4        0      -0.28046505       0.33640162      -0.17535346       0.00000000      -0.28046505       0.33640162      -0.17535346
Ag      15.26568300      13.53172599      14.09960194   687247        4        1       0.02814356       0.04755972      -0.06363015       0.00000000       0.02814356       0.04755972      -0.06363015
Ag      15.17530088      15.60382938      16.15723208   688096        4        0      -0.45305697       0.15683922      -0.22616734       0.00000000      -0.45305697       0.15683922      -0.22616734
Ag      17.20483318       9.43498348      12.04485225   688280        4        0      -0.28920290       0.49074119       0.06968594       0.00000000      -0.28920290       0.49074119       0.06968594
Ag      15.16185999      13.53973633      18.19713620   688689        4        0      -0.14296915      -0.11943800      -0.10437739       0.00000000      -0.14296915      -0.11943800      -0.10437739
Ag      17.16584196      17.64826166      16.15000652   688707        4        0      -0.11140817      -0.22218467      -0.06989775       0.00000000      -0.11140817      -0.22218467      -0.06989775
Ag      17.20454131      11.48483030      14.08784430   689682        4        0       0.30171233      -0.29313164      -0.01917383       0.00000000       0.30171233      -0.29313164      -0.01917383
Ag      13.13480983      15.59421497      18.17151177   690927        4        0       0.02503181      -0.33210241      -0.20463338       0.00000000       0.02503181      -0.33210241      -0.20463338
Ag      15.15945045      17.64822701      18.20004601   691757        4        0       0.06268478      -0.32062767      -0.29908415       0.00000000       0.06268478      -0.32062767      -0.29908415
Ag      13.12928020      11.51043614      18.19172182   694331        4        0      -0.13006045       0.25630920      -0.60833720       0.00000000      -0.13006045       0.25630920      -0.60833720
Ag      17.19270744      11.48417922      18.18219469   696686        4        0      -0.29441555       0.12568954      -0.41300474       0.00000000      -0.29441555       0.12568954      -0.41300474
Ag      13.12975111       9.43550006      16.15300997   700223        4        0      -1.00334110       0.32711226      -0.29698324       0.00000000      -1.00334110       0.32711226      -0.29698324
Ag      11.10972472      13.54058209      18.20237906   701905        4        0       0.11305976      -0.49583196      -0.91760253       0.00000000       0.11305976      -0.49583196      -0.91760253
Ag      17.17456242      17.65227165      12.03659182   703736        4        0      -0.33151390      -0.61480392       0.19220318       0.00000000      -0.33151390      -0.61480392       0.19220318
Ag      15.15676928      15.60681396      12.04745982   704767        4        0      -0.13071092      -0.05538333      -0.43586167       0.00000000      -0.13071092      -0.05538333      -0.43586167
Ag      17.19708549      13.53931717      12.02973371   716228        4        0       0.09647802       0.12057085      -0.77065208       0.00000000       0.09647802       0.12057085      -0.77065208
Ag      15.16908678      11.50530596      12.02298661   720990        4        0      -0.20679208      -0.02119772      -0.47322905       0.00000000      -0.20679208      -0.02119772      -0.47322905
Ag      13.12886676      17.65348273      16.12750949   721910        4        0      -0.34299371      -0.30385029       1.24972200       0.00000000      -0.34299371      -0.30385029       1.24972200
Ag      17.19875729      11.48905595       9.97615916   728014        4        0      -0.28766527       0.47772696       0.48375678       0.00000000      -0.28766527       0.47772696       0.48375678
Ag      13.12862302       9.43657834      12.01790751   741114        4        0      -0.23926022       0.62725913       0.31601285       0.00000000      -0.23926022       0.62725913       0.31601285
