52
Lattice="6.14 0.0 0.0 -3.0699999999999985 5.317395979236453 0.0 0.0 0.0 34.06232" Properties=species:S:1:pos:R:3:spacegroup_kinds:I:1:lammps_id:I:1:central_pair:I:1 config_type=AgC_new_hex_slab_parent_v19_proposal dataset_role=UNAPPROVED_NEW_PARENT_PROPOSAL source_method="ideal P63/mmc prototype; assumed parameters pending crystallographic source review" new_ids_not_historical=T pbc="T T T"
Ti       0.00000000       0.00000000       7.16688000        0 19000000        0
Ti       0.00000000       0.00000000      16.00688000        0 19000001        0
Ti       0.00000000       1.77246533       9.55368000        1 19000002        0
Ti       1.53500000       0.88623266      18.39368000        1 19000003        0
Ti       1.53500000       0.88623266      22.46008000        1 19000004        0
Ti       0.00000000       1.77246533      13.62008000        1 19000005        0
Si       0.00000000       0.00000000      11.58688000        2 19000006        0
Si       0.00000000       0.00000000      20.42688000        2 19000007        0
C        0.00000000       1.77246533      17.19144000        3 19000008        0
C        1.53500000       0.88623266       8.35144000        3 19000009        0
C        1.53500000       0.88623266      14.82232000        3 19000010        0
C        0.00000000       1.77246533      23.66232000        3 19000011        0
Ti      -1.53500000       2.65869799       7.16688000        0 19000012        0
Ti      -1.53500000       2.65869799      16.00688000        0 19000013        0
Ti      -1.53500000       4.43116332       9.55368000        1 19000014        0
Ti       0.00000000       3.54493065      18.39368000        1 19000015        0
Ti       0.00000000       3.54493065      22.46008000        1 19000016        0
Ti      -1.53500000       4.43116332      13.62008000        1 19000017        0
Si      -1.53500000       2.65869799      11.58688000        2 19000018        0
Si      -1.53500000       2.65869799      20.42688000        2 19000019        0
C       -1.53500000       4.43116332      17.19144000        3 19000020        0
C        0.00000000       3.54493065       8.35144000        3 19000021        0
C        0.00000000       3.54493065      14.82232000        3 19000022        0
C       -1.53500000       4.43116332      23.66232000        3 19000023        0
Ti       3.07000000       0.00000000       7.16688000        0 19000024        0
Ti       3.07000000       0.00000000      16.00688000        0 19000025        0
Ti       3.07000000       1.77246533       9.55368000        1 19000026        0
Ti       4.60500000       0.88623266      18.39368000        1 19000027        0
Ti       4.60500000       0.88623266      22.46008000        1 19000028        0
Ti       3.07000000       1.77246533      13.62008000        1 19000029        0
Si       3.07000000       0.00000000      11.58688000        2 19000030        0
Si       3.07000000       0.00000000      20.42688000        2 19000031        0
C        3.07000000       1.77246533      17.19144000        3 19000032        0
C        4.60500000       0.88623266       8.35144000        3 19000033        0
C        4.60500000       0.88623266      14.82232000        3 19000034        0
C        3.07000000       1.77246533      23.66232000        3 19000035        1
Ti       1.53500000       2.65869799       7.16688000        0 19000036        0
Ti       1.53500000       2.65869799      16.00688000        0 19000037        0
Ti       1.53500000       4.43116332       9.55368000        1 19000038        0
Ti       3.07000000       3.54493065      18.39368000        1 19000039        0
Ti       3.07000000       3.54493065      22.46008000        1 19000040        0
Ti       1.53500000       4.43116332      13.62008000        1 19000041        0
Si       1.53500000       2.65869799      11.58688000        2 19000042        0
Si       1.53500000       2.65869799      20.42688000        2 19000043        0
C        1.53500000       4.43116332      17.19144000        3 19000044        0
C        3.07000000       3.54493065       8.35144000        3 19000045        0
C        3.07000000       3.54493065      14.82232000        3 19000046        0
C        1.53500000       4.43116332      23.66232000        3 19000047        0
Ag       0.81355000       0.55832658      26.06232000        0 19000048        0
Ag      -0.72145000       3.21702457      26.06232000        0 19000049        0
Ag       3.88355000       0.55832658      26.06232000        0 19000050        1
Ag       2.34855000       3.21702457      26.06232000        0 19000051        0
