52
Lattice="6.14 0.0 0.0 -3.0699999999999985 5.317395979236453 0.0 0.0 0.0 34.26232" Properties=species:S:1:pos:R:3:spacegroup_kinds:I:1:lammps_id:I:1:central_pair:I:1 config_type=AgSi_new_hex_slab_parent_v19_proposal dataset_role=UNAPPROVED_NEW_PARENT_PROPOSAL source_method="ideal P63/mmc prototype; assumed parameters pending crystallographic source review" new_ids_not_historical=T pbc="T T T"
Ti       0.00000000       0.00000000      10.40232000        0 19001000        0
Ti       0.00000000       0.00000000      19.24232000        0 19001001        0
Ti       0.00000000       1.77246533      12.78912000        1 19001002        0
Ti       1.53500000       0.88623266      21.62912000        1 19001003        0
Ti       1.53500000       0.88623266       8.01552000        1 19001004        0
Ti       0.00000000       1.77246533      16.85552000        1 19001005        0
Si       0.00000000       0.00000000      14.82232000        2 19001006        0
Si       0.00000000       0.00000000      23.66232000        2 19001007        1
C        0.00000000       1.77246533      20.42688000        3 19001008        0
C        1.53500000       0.88623266      11.58688000        3 19001009        0
C        1.53500000       0.88623266      18.05776000        3 19001010        0
C        0.00000000       1.77246533       9.21776000        3 19001011        0
Ti      -1.53500000       2.65869799      10.40232000        0 19001012        0
Ti      -1.53500000       2.65869799      19.24232000        0 19001013        0
Ti      -1.53500000       4.43116332      12.78912000        1 19001014        0
Ti       0.00000000       3.54493065      21.62912000        1 19001015        0
Ti       0.00000000       3.54493065       8.01552000        1 19001016        0
Ti      -1.53500000       4.43116332      16.85552000        1 19001017        0
Si      -1.53500000       2.65869799      14.82232000        2 19001018        0
Si      -1.53500000       2.65869799      23.66232000        2 19001019        0
C       -1.53500000       4.43116332      20.42688000        3 19001020        0
C        0.00000000       3.54493065      11.58688000        3 19001021        0
C        0.00000000       3.54493065      18.05776000        3 19001022        0
C       -1.53500000       4.43116332       9.21776000        3 19001023        0
Ti       3.07000000       0.00000000      10.40232000        0 19001024        0
Ti       3.07000000       0.00000000      19.24232000        0 19001025        0
Ti       3.07000000       1.77246533      12.78912000        1 19001026        0
Ti       4.60500000       0.88623266      21.62912000        1 19001027        0
Ti       4.60500000       0.88623266       8.01552000        1 19001028        0
Ti       3.07000000       1.77246533      16.85552000        1 19001029        0
Si       3.07000000       0.00000000      14.82232000        2 19001030        0
Si       3.07000000       0.00000000      23.66232000        2 19001031        0
C        3.07000000       1.77246533      20.42688000        3 19001032        0
C        4.60500000       0.88623266      11.58688000        3 19001033        0
C        4.60500000       0.88623266      18.05776000        3 19001034        0
C        3.07000000       1.77246533       9.21776000        3 19001035        0
Ti       1.53500000       2.65869799      10.40232000        0 19001036        0
Ti       1.53500000       2.65869799      19.24232000        0 19001037        0
Ti       1.53500000       4.43116332      12.78912000        1 19001038        0
Ti       3.07000000       3.54493065      21.62912000        1 19001039        0
Ti       3.07000000       3.54493065       8.01552000        1 19001040        0
Ti       1.53500000       4.43116332      16.85552000        1 19001041        0
Si       1.53500000       2.65869799      14.82232000        2 19001042        0
Si       1.53500000       2.65869799      23.66232000        2 19001043        0
C        1.53500000       4.43116332      20.42688000        3 19001044        0
C        3.07000000       3.54493065      11.58688000        3 19001045        0
C        3.07000000       3.54493065      18.05776000        3 19001046        0
C        1.53500000       4.43116332       9.21776000        3 19001047        0
Ag       0.81355000       0.55832658      26.26232000        0 19001048        1
Ag      -0.72145000       3.21702457      26.26232000        0 19001049        0
Ag       3.88355000       0.55832658      26.26232000        0 19001050        0
Ag       2.34855000       3.21702457      26.26232000        0 19001051        0
