52
Lattice="6.14 0.0 0.0 -3.0699999999999985 5.317395979236453 0.0 0.0 0.0 34.26232" Properties=species:S:1:pos:R:3:spacegroup_kinds:I:1:lammps_id:I:1:central_pair:I:1 config_type=AgTi_new_hex_slab_parent_v19_proposal dataset_role=UNAPPROVED_NEW_PARENT_PROPOSAL source_method="ideal P63/mmc prototype; assumed parameters pending crystallographic source review" new_ids_not_historical=T pbc="T T T"
Ti       0.00000000       0.00000000       8.36912000        0 19002000        0
Ti       0.00000000       0.00000000      17.20912000        0 19002001        0
Ti       0.00000000       1.77246533      10.75592000        1 19002002        0
Ti       1.53500000       0.88623266      19.59592000        1 19002003        0
Ti       1.53500000       0.88623266      23.66232000        1 19002004        0
Ti       0.00000000       1.77246533      14.82232000        1 19002005        0
Si       0.00000000       0.00000000      12.78912000        2 19002006        0
Si       0.00000000       0.00000000      21.62912000        2 19002007        0
C        0.00000000       1.77246533      18.39368000        3 19002008        0
C        1.53500000       0.88623266       9.55368000        3 19002009        0
C        1.53500000       0.88623266      16.02456000        3 19002010        0
C        0.00000000       1.77246533       7.18456000        3 19002011        0
Ti      -1.53500000       2.65869799       8.36912000        0 19002012        0
Ti      -1.53500000       2.65869799      17.20912000        0 19002013        0
Ti      -1.53500000       4.43116332      10.75592000        1 19002014        0
Ti       0.00000000       3.54493065      19.59592000        1 19002015        0
Ti       0.00000000       3.54493065      23.66232000        1 19002016        1
Ti      -1.53500000       4.43116332      14.82232000        1 19002017        0
Si      -1.53500000       2.65869799      12.78912000        2 19002018        0
Si      -1.53500000       2.65869799      21.62912000        2 19002019        0
C       -1.53500000       4.43116332      18.39368000        3 19002020        0
C        0.00000000       3.54493065       9.55368000        3 19002021        0
C        0.00000000       3.54493065      16.02456000        3 19002022        0
C       -1.53500000       4.43116332       7.18456000        3 19002023        0
Ti       3.07000000       0.00000000       8.36912000        0 19002024        0
Ti       3.07000000       0.00000000      17.20912000        0 19002025        0
Ti       3.07000000       1.77246533      10.75592000        1 19002026        0
Ti       4.60500000       0.88623266      19.59592000        1 19002027        0
Ti       4.60500000       0.88623266      23.66232000        1 19002028        0
Ti       3.07000000       1.77246533      14.82232000        1 19002029        0
Si       3.07000000       0.00000000      12.78912000        2 19002030        0
Si       3.07000000       0.00000000      21.62912000        2 19002031        0
C        3.07000000       1.77246533      18.39368000        3 19002032        0
C        4.60500000       0.88623266       9.55368000        3 19002033        0
C        4.60500000       0.88623266      16.02456000        3 19002034        0
C        3.07000000       1.77246533       7.18456000        3 19002035        0
Ti       1.53500000       2.65869799       8.36912000        0 19002036        0
Ti       1.53500000       2.65869799      17.20912000        0 19002037        0
Ti       1.53500000       4.43116332      10.75592000        1 19002038        0
Ti       3.07000000       3.54493065      19.59592000        1 19002039        0
Ti       3.07000000       3.54493065      23.66232000        1 19002040        0
Ti       1.53500000       4.43116332      14.82232000        1 19002041        0
Si       1.53500000       2.65869799      12.78912000        2 19002042        0
Si       1.53500000       2.65869799      21.62912000        2 19002043        0
C        1.53500000       4.43116332      18.39368000        3 19002044        0
C        3.07000000       3.54493065       9.55368000        3 19002045        0
C        3.07000000       3.54493065      16.02456000        3 19002046        0
C        1.53500000       4.43116332       7.18456000        3 19002047        0
Ag       0.81355000       0.55832658      26.26232000        0 19002048        0
Ag      -0.72145000       3.21702457      26.26232000        0 19002049        1
Ag       3.88355000       0.55832658      26.26232000        0 19002050        0
Ag       2.34855000       3.21702457      26.26232000        0 19002051        0
