32
Lattice="8.1799999999999997 0 0 0 8.1799999999999997 0 0 0 8.1799999999999997" Properties=species:S:1:pos:R:3:PW_PBE_forces:R:3:local_new_id:I:1 pbc="T T T" PW_PBE_energy_eV=-89.88113540881875 config_type=Ag_baseline_k2x2x2_v19
Ag 0 0 0 -2.0769207497386067e-26 -2.7692276663181421e-26 -2.7692276663181421e-26 1
Ag 0 2.0449999999999999 2.0449999999999999 2.8356891303097775e-23 5.3017703558385119e-05 5.3017703558385133e-05 2
Ag 2.0449999999999999 0 2.0449999999999999 5.3017703558385119e-05 0 5.3017703558385133e-05 3
Ag 2.0449999999999999 2.0449999999999999 0 5.3017703558385133e-05 5.3017703558385133e-05 0 4
Ag 0 0 4.0899999999999999 0 0 0 5
Ag 0 2.0449999999999999 6.1349999999999998 7.0892228257744438e-24 5.3017703558385119e-05 -5.3017703558385133e-05 6
Ag 2.0449999999999999 0 6.1349999999999998 5.3017703558385119e-05 0 -5.3017703558385133e-05 7
Ag 2.0449999999999999 2.0449999999999999 4.0899999999999999 -0.000115584415852768 -0.000115584415852768 -2.8356891303097775e-23 8
Ag 0 4.0899999999999999 0 0 6.9230691657953553e-27 0 9
Ag 0 6.1349999999999998 2.0449999999999999 -7.0892228257744438e-24 -5.3017703558385112e-05 5.3017703558385133e-05 10
Ag 2.0449999999999999 4.0899999999999999 2.0449999999999999 -0.00011558441585276802 0 -0.000115584415852768 11
Ag 2.0449999999999999 6.1349999999999998 0 5.3017703558385133e-05 -5.3017703558385119e-05 0 12
Ag 0 4.0899999999999999 4.0899999999999999 -4.3269182286220971e-28 0 0 13
Ag 0 6.1349999999999998 6.1349999999999998 0 -5.3017703558385112e-05 -5.3017703558385133e-05 14
Ag 2.0449999999999999 4.0899999999999999 6.1349999999999998 -0.00011558441585276804 -7.0892228257744441e-23 0.000115584415852768 15
Ag 2.0449999999999999 6.1349999999999998 4.0899999999999999 -0.000115584415852768 0.00011558441585276798 0 16
Ag 4.0899999999999999 0 0 6.9230691657953553e-27 0 0 17
Ag 4.0899999999999999 2.0449999999999999 2.0449999999999999 -2.8356891303097775e-23 -0.00011558441585276802 -0.00011558441585276802 18
Ag 6.1349999999999998 0 2.0449999999999999 -5.3017703558385119e-05 8.8615285322180551e-24 5.3017703558385133e-05 19
Ag 6.1349999999999998 2.0449999999999999 0 -5.3017703558385119e-05 5.3017703558385133e-05 -5.3169171193308332e-24 20
Ag 4.0899999999999999 0 4.0899999999999999 0 0 0 21
Ag 4.0899999999999999 2.0449999999999999 6.1349999999999998 -3.1901502715984998e-23 -0.00011558441585276804 0.00011558441585276802 22
Ag 6.1349999999999998 0 6.1349999999999998 -5.3017703558385119e-05 0 -5.3017703558385119e-05 23
Ag 6.1349999999999998 2.0449999999999999 4.0899999999999999 0.000115584415852768 -0.000115584415852768 -1.772305706443611e-24 24
Ag 4.0899999999999999 4.0899999999999999 0 0 0 0 25
Ag 4.0899999999999999 6.1349999999999998 2.0449999999999999 -6.0258394019082785e-23 0.000115584415852768 -0.00011558441585276802 26
Ag 6.1349999999999998 4.0899999999999999 2.0449999999999999 0.000115584415852768 -3.0129197009541392e-23 -0.00011558441585276802 27
Ag 6.1349999999999998 6.1349999999999998 0 -5.3017703558385119e-05 -5.3017703558385133e-05 0 28
Ag 4.0899999999999999 4.0899999999999999 4.0899999999999999 3.4615345828976776e-27 0 0 29
Ag 4.0899999999999999 6.1349999999999998 6.1349999999999998 0 0.000115584415852768 0.000115584415852768 30
Ag 6.1349999999999998 4.0899999999999999 6.1349999999999998 0.000115584415852768 -8.5070673909293332e-23 0.000115584415852768 31
Ag 6.1349999999999998 6.1349999999999998 4.0899999999999999 0.000115584415852768 0.000115584415852768 0 32
