52
Lattice="6.1150000000000002 0 0 -3.0574999999999988 5.2957453441418432 0 0 0 34.205876500000002" Properties=species:S:1:pos:R:3:PW_PBE_forces:R:3:lammps_id:I:1:central_pair:I:1 pbc="T T T" PW_PBE_energy_eV=-390.47456597655025 config_type=AgSi_COD9009647_pilot_k6x6_sigma0p20
Ti 0 0 10.388251500000001 0.00014744561331408036 -0.00010077558997654098 0.16403680525496939 19101000 0
Ti 0 0 19.200001499999999 0.00022742155975961334 -0.00032137061138278681 -0.019520869662700321 19101001 0
Ti 1.5287652899999999 0.88261540000000005 12.77623575 0.00070002938544371353 -0.00041551396087905623 -0.18215463885570446 19101002 0
Ti 0 1.7652308000000001 21.587985750000001 0.0091562383809239544 0.0078024679486330788 -0.033666186182727702 19101003 0
Ti 1.5287500000000001 0.88264187999999999 16.81201725 0.0011519411830280143 -0.0013722106591664942 -0.0017703347442854823 19101004 0
Ti -1.5290000000000001e-05 1.76525727 8.0002672500000003 -1.9042124037167109e-05 -2.5815578572189994e-06 0.52187960887880147 19101005 0
Si 0 0 14.794126500000001 -0.00011446371832269651 0.00017041525718760237 0.049088727149804126 19101006 0
Si 0 0 23.605876500000001 0.042305763646596016 0.02167000931076116 0.91138464983594536 19101007 1
C -1.5290000000000001e-05 1.76525727 11.6606682 -0.00067948307658421232 0.00041943624044277558 0.13372062980869673 19101008 0
C 1.5287500000000001 0.88264187999999999 20.4724182 -0.0017472893325680015 -0.002116863796770947 0.080422451521745431 19101009 0
C 0 1.7652308000000001 17.927584800000002 -0.00079627513734553115 0.0016285607617574263 -0.086105902646191654 19101010 0
C 1.5287652899999999 0.88261540000000005 9.1158348 -0.00011015196690418055 6.9427010554291624e-05 -0.89466020134380353 19101011 0
Ti -1.5287500000000001 2.6478726699999999 10.388251500000001 0.0001474627782459709 -0.00010076336964071446 0.16403685686314801 19101012 0
Ti -1.5287500000000001 2.6478726699999999 19.200001499999999 0.00022747851019066579 -0.0003211639993733347 -0.019520976079035884 19101013 0
Ti 1.5290000000000001e-05 3.5304880700000001 12.77623575 0.00070008104045409891 -0.00041556473824231835 -0.1821546926918273 19101014 0
Ti -1.5287500000000001 4.4131034700000003 21.587985750000001 0.0091561803025577721 0.0078024023303197272 -0.033666176382018222 19101015 0
Ti 0 3.5305145499999999 16.81201725 0.001151837534330138 -0.0013721142451274689 -0.0017703825751504468 19101016 0
Ti -1.5287652899999999 4.4131299500000001 8.0002672500000003 -1.9125537821565885e-05 -2.7962535108035047e-06 0.52187978937926138 19101017 0
Si -1.5287500000000001 2.6478726699999999 14.794126500000001 -0.00011448810568446466 0.00017044463928231614 0.04908873070708137 19101018 0
Si -1.5287500000000001 2.6478726699999999 23.605876500000001 0.042305812920823957 0.021670140076587057 0.91138458615569062 19101019 0
C -1.5287652899999999 4.4131299500000001 11.6606682 -0.00067945910527551854 0.00041930255478972792 0.13372055860468895 19101020 0
C 0 3.5305145499999999 20.4724182 -0.0017471691803917085 -0.0021166845050641309 0.080422271275520998 19101021 0
C -1.5287500000000001 4.4131034700000003 17.927584800000002 -0.00079641899809398443 0.0016285756110688771 -0.086105881265285067 19101022 0
C 1.5290000000000001e-05 3.5304880700000001 9.1158348 -0.0001102169303802882 6.9322960945606248e-05 -0.89466040940928981 19101023 0
Ti 3.0575000000000001 0 10.388251500000001 0.00014744102134996157 -0.00010077639148130413 0.16403680913785457 19101024 0
Ti 3.0575000000000001 0 19.200001499999999 0.00022742006920125824 -0.00032136944909766412 -0.019520871957499058 19101025 0
Ti 4.58626529 0.88261540000000005 12.77623575 0.000700027955498445 -0.00041551533996451323 -0.18215464975073764 19101026 0
Ti 3.0575000000000001 1.7652308000000001 21.587985750000001 0.0091562473892312594 0.0078024664748758236 -0.033666178702596139 19101027 0
Ti 4.5862499999999997 0.88264187999999999 16.81201725 0.0011519406477762722 -0.0013722120356760685 -0.0017703352794318974 19101028 0
Ti 3.0574847100000002 1.76525727 8.0002672500000003 -1.9049450030895284e-05 -2.6009873768711176e-06 0.52187970909955439 19101029 0
Si 3.0575000000000001 0 14.794126500000001 -0.000114466125427605 0.00017041549136840472 0.049088728646551047 19101030 0
Si 3.0575000000000001 0 23.605876500000001 0.042305761917313965 0.021670010024274884 0.91138464806160524 19101031 0
C 3.0574847100000002 1.76525727 11.6606682 -0.0006794878681180811 0.00041943704406600929 0.1337206304111713 19101032 0
C 4.5862499999999997 0.88264187999999999 20.4724182 -0.0017472966783417165 -0.0021168621843882652 0.080422450545064444 19101033 0
C 3.0575000000000001 1.7652308000000001 17.927584800000002 -0.00079627768268714821 0.0016285581830346382 -0.086105901047979369 19101034 0
C 4.58626529 0.88261540000000005 9.1158348 -0.00011015280052018225 6.9429627205375123e-05 -0.89466020021676218 19101035 0
Ti 1.5287500000000001 2.6478726699999999 10.388251500000001 0.00014746663230940496 -0.00010076459950664368 0.16403684752810649 19101036 0
Ti 1.5287500000000001 2.6478726699999999 19.200001499999999 0.00022747963488654036 -0.00032116796461198038 -0.019520970424635874 19101037 0
Ti 3.05751529 3.5304880700000001 12.77623575 0.00070008148884609096 -0.00041556466845836727 -0.18215470340714957 19101038 0
Ti 1.5287500000000001 4.4131034700000003 21.587985750000001 0.0091561845745949857 0.007802401266145207 -0.033666180020356026 19101039 0
Ti 3.0575000000000001 3.5305145499999999 16.81201725 0.001151838046993118 -0.0013721152832071423 -0.0017703807796863686 19101040 0
Ti 1.5287347099999999 4.4131299500000001 8.0002672500000003 -1.9181114523962587e-05 -2.7897310760550946e-06 0.52187981161002839 19101041 0
Si 1.5287500000000001 2.6478726699999999 14.794126500000001 -0.00011448841587202974 0.00017044386258656435 0.049088730191174011 19101042 0
Si 1.5287500000000001 2.6478726699999999 23.605876500000001 0.042305815899212833 0.02167013766026419 0.91138458531499467 19101043 0
C 1.5287347099999999 4.4131299500000001 11.6606682 -0.00067945675883924767 0.00041930096713682971 0.1337205571628492 19101044 0
C 3.0575000000000001 3.5305145499999999 20.4724182 -0.0017471661560558589 -0.0021166889933467558 0.080422273515619286 19101045 0
C 1.5287500000000001 4.4131034700000003 17.927584800000002 -0.00079642368698194983 0.0016285741701806812 -0.086105879894139634 19101046 0
C 3.05751529 3.5304880700000001 9.1158348 -0.00011021758115647625 6.9324145860421617e-05 -0.89466041335116631 19101047 0
Ag 0.81023750000000005 0.55605325999999999 26.205876499999999 -0.049986884584489098 -0.027180792920595331 -0.6417164119579617 19101048 1
Ag -0.7185125 3.20392593 26.205876499999999 -0.049988474059747767 -0.027180991258492375 -0.64171776760333665 19101049 0
Ag 3.8677375000000001 0.55605325999999999 26.205876499999999 -0.049986904735431055 -0.027180935512213022 -0.64171640220482684 19101050 0
Ag 2.3389875 3.20392593 26.205876499999999 -0.049988021450619639 -0.027180953731998147 -0.64171725675915625 19101051 0
