51
Lattice="27.859999999999999 0 0 0 27.859999999999999 0 0 0 27.859999999999999" Properties=species:S:1:pos:R:3:PW_PBE_forces:R:3:lammps_id:I:1:central_pair:I:1 pbc="T T T" PW_PBE_energy_eV=-207.72883766371373 config_type=AgSi_residual_mode_m_03_v19_acq
C 18.59997229 12.48568832 11.108442070000001 -2.2546882102766159 -0.61335329683265782 -0.69708194355319042 365143 0
Ti 17.68639525 11.50950205 17.417878819999999 -4.0537463490260235 -0.31788301971894883 -2.5778118612291703 365320 0
C 16.41880913 11.237453329999999 9.7803035299999994 1.23531351066663 1.4482498538597521 1.335191439373675 366772 0
C 16.478966960000001 14.685177599999999 9.5922069600000004 -0.89831466415650962 0.20926011916112189 0.45527343418964272 366778 0
Si 13.032475460000001 10.81256428 11.54588199 0.82305159529854843 0.97178290919288124 -0.51680205659418088 366929 0
C 16.85595198 10.574574159999999 13.54804023 -1.5215611805374722 1.0015274068345261 1.3034099117023856 366931 0
Si 13.247565829999999 10.092995009999999 13.89543918 0.34782021193600815 0.63962358781314033 1.3562990272793065 366933 0
Si 13.550127522558524 12.727274612738251 14.334887096706481 -1.3917599982960354 0.28696080857124656 -0.35306784338968417 366934 1
Ti 15.299810750000001 11.234897670000001 15.30672895 2.8026130195512584 -1.885192433634393 0.10383273020314251 366935 0
Si 14.07452393 13.07440001 11.8452746 -0.43647673065226072 -0.083681051453980096 -0.68972867762166978 366936 0
C 16.322936380000002 9.7822819699999997 16.333246079999999 -0.08665945661524467 1.7737141888913226 2.8518819243471785 367109 0
Si 13.15366079 10.135954330000001 16.638712309999999 -0.15087869501072704 0.13732659175526404 -0.51597693837629777 367110 0
C 16.481002499999999 12.764453339999999 16.245680780000001 0.037660467326682275 0.078361164600263516 1.0473886242031052 367111 0
Ti 15.25461263 9.9918816899999996 18.18059921 1.0016339599123989 0.43960148150376743 -2.9648377729458804 367112 0
Ti 15.21048961 12.941533639999999 18.034872119999999 0.067420958711847265 0.77878779661604225 0.46373873182580816 367113 0
Si 13.177417650000001 13.143242150000001 19.70608455 -0.25117953934617515 0.45754038009621895 -1.0973088089728122 367115 0
Ti 15.405881219999999 14.54471635 15.86904406 0.61137679994459782 0.52268077436630911 2.7349413028098932 367117 0
Si 12.78455653 15.188549220000001 16.368344059999998 0.79433226073823582 0.23581253955387507 0.18371877237127504 367118 0
Si 12.95712017 18.302952789999999 16.704423169999998 -0.34239180133070785 -1.3445998071489427 -0.17841666470025944 367120 0
Ti 14.512712130000001 16.54892641 18.01865841 0.05232483446189562 -2.2309198407822244 -0.26489754667864646 367121 0
C 15.688292710000001 14.87916034 18.37964165 -1.3847723237256915 0.13040309350653512 -1.8060717738370315 367122 0
C 9.9064900399999996 12.774317460000001 10.77224184 1.2939669473388298 0.59187010041858257 -0.11384801316686224 368645 0
Ti 11.05639828 9.1029122699999991 15.131174189999999 0.004273322528502134 2.5106892113342956 1.6781263405975342 368823 0
Ti 11.06514563 10.5797282 12.9420933 -2.3361020618433104 0.46630574815450682 -0.88670823900036311 368827 0
C 9.5886966099999995 11.969592909999999 13.50714254 0.88480721273204144 0.23810422795833891 0.32188092739552049 368829 0
Ti 8.4192510699999996 13.28695754 14.632294569999999 0.46233949482708553 0.3291722526660133 0.02583223669311591 368832 0
Ti 10.9504135 12.38211774 15.00689863 0.026529428833557099 -0.99911775299183159 1.8830561174059841 368833 0
C 9.5613686199999997 16.944323959999998 11.266810680000001 1.4280987204881574 -0.68310298293645211 -0.78067342750818858 368838 0
C 8.7499672999999998 15.073830770000001 14.18303296 1.3577994686815549 0.38923782262989032 0.99241262839756506 368841 0
Ti 10.217244490000001 15.52569843 15.45789755 -1.2149710484804022 -1.6537192888031145 -0.32137673051929455 368844 0
C 10.101421780000001 10.766866 15.98766623 2.147586286925466 -1.0490329146500528 -2.0216047896597629 369024 0
C 9.7364540399999999 13.620083409999999 16.260333899999999 1.2172863285214981 0.69793682043451855 -0.076550856114410953 369026 0
Ti 11.111867869999999 13.46402473 17.9765771 -0.13037039061554193 0.93645405029860385 -1.9252426453195108 369031 0
Ti 11.68602437 16.298325349999999 18.342902729999999 0.81273966828926236 -0.17452955451689492 -0.81681201723292807 369042 0
Ag 13.841978559999999 15.502326979999999 13.71795822 -0.35575737697237514 -0.060532556659985512 0.081477160330044832 683609 1
Ag 15.872316797441476 13.441377367261749 13.72476971329352 1.5085624967914282 -0.68809788684386963 -2.1776647482470595 685172 0
Ag 11.838543789999999 17.54725852 13.71397964 0.0045953269940093803 -0.061336547740622027 0.28295334233470676 696217 0
Ag 11.836190179999999 17.54660466 9.6305498499999995 -0.2920645742939218 -0.13782379440789008 0.47929187276873508 700029 0
Ag 15.88567093 17.546792780000001 13.715031829999999 0.075844657736435922 -0.063376517960691658 0.18470562538949942 701518 0
Ag 15.86715484 17.540759269999999 9.6347370399999992 0.059336463045589954 -0.80806241339138341 0.4970531224945125 703887 0
Ag 9.80728489 15.50219953 9.6370214700000005 -0.0030312170593121881 0.051722881070073556 1.1781696564066797 707313 0
Ag 13.87054979 15.493170320000001 9.6390996300000005 0.9345960838694648 -0.38100265156537211 0.32151972806862006 710704 0
Ag 17.881075939999999 17.5489985 11.674426820000001 -0.50381962243100153 -0.25278623820990181 -0.00095063595636559806 714846 0
Ag 11.82877319 19.583072600000001 11.681169280000001 0.12548609258160426 -0.37373145742900488 0.10858043721420141 729574 0
Ag 11.84901372 15.4955608 11.6784505 -0.53702879906849144 -0.060235340238400978 0.1179282210235523 730721 0
Ag 11.837804889999999 13.47467486 9.6114181999999992 -0.66931377113714152 -0.49168683244641376 1.0628441534404862 735549 0
Ag 13.86516063 17.53751707 11.67590227 0.18570218345458103 0.24327298347260956 -0.034973443198656633 737082 0
Ag 15.88201046 19.596238530000001 15.763158000000001 -0.28146521782313466 -0.70831372787432567 -0.11878737060264816 737200 0
Ag 13.85514044 19.607669940000001 13.71347117 -0.056400562413661835 -0.4298131827981006 0.13992540054244271 744883 0
Ag 17.894195360000001 15.513833740000001 13.70696502 -0.56225599781651614 0.089418715779593538 0.10609005372347152 752169 0
Ag 17.894284119999998 17.553052529999999 15.764262840000001 -0.59571151751397089 -0.10368862785628939 -0.36037949872318814 755982 0
