51
Lattice="27.86 0.0 0.0 0.0 27.86 0.0 0.0 0.0 27.86" Properties=species:S:1:pos:R:3:lammps_id:I:1:lammps_type:I:1:central_pair:I:1:PW_PBE_forces:R:3:magmoms:R:1:forces:R:3 source_config_type=AgSi_registry_strain_acq_v14_01_periodic_PW_PBE_energy_force_v14_train source_dataset_path=research/mace-v12-transfer/periodic_interface_v4/mace_periodic_v14_interface_energy/data/train.extxyz source_dataset_sha256=3323cdbd3081fc8d91673662c5f83c8da93ba3b4d7a23428f6b70d0e7a4c9faf source_frame_geometry_sha256=4a5540c7fd824a01df8fcb6155e62c7ff045ec36d637ac5f405247c9b5dbe4e5 proposal_mode=transverse_Ag proposal_sign=-1 proposal_displacement_A="0.14643386214098034 -0.03251344365760658 -0.0" candidate_role=proposed_training_acquisition_geometry_unassigned config_type=AgSi_transverse_Ag_m_acq_v17_01 proposal_only_no_DFT_label=T PW_PBE_energy_eV=-208.53315483688024 source_method="GPAW 26.7.0 PW-PBE 500 eV Gamma single point" free_energy=-209.47716631351736 energy=-208.53315483688024 dipole="-0.49736839253550946 -0.3376367869927481 2.417764720266684" magmom=0.0 pbc="T T T"
C       18.59997229      12.48568832      11.10844207   365143        3        0      -2.23794385      -0.54099724      -0.43192405       0.00000000      -2.23794385      -0.54099724      -0.43192405
Ti      17.68639525      11.50950205      17.41787882   365320        1        0      -4.03432874      -0.32150241      -2.55853605       0.00000000      -4.03432874      -0.32150241      -2.55853605
C       16.41880913      11.23745333       9.78030353   366772        3        0       1.18929260       1.31874634       1.33414543       0.00000000       1.18929260       1.31874634       1.33414543
C       16.47896696      14.68517760       9.59220696   366778        3        0      -0.99940807       0.78339961       0.21534139       0.00000000      -0.99940807       0.78339961       0.21534139
Si      13.03247546      10.81256428      11.54588199   366929        2        0       0.82621722       0.94538336      -0.62431932       0.00000000       0.82621722       0.94538336      -0.62431932
C       16.85595198      10.57457416      13.54804023   366931        3        0      -1.46765547       1.26447628       1.19754575       0.00000000      -1.46765547       1.26447628       1.19754575
Si      13.24756583      10.09299501      13.89543918   366933        2        0       0.33534458       0.72939114       1.34014257       0.00000000       0.33534458       0.72939114       1.34014257
Si      13.57862136      12.84027175      14.30526025   366934        2        1      -0.76209347      -0.53355364       0.13073329       0.00000000      -0.76209347      -0.53355364       0.13073329
Ti      15.29981075      11.23489767      15.30672895   366935        1        0       2.16916036      -2.10260611       0.41265615       0.00000000       2.16916036      -2.10260611       0.41265615
Si      14.07452393      13.07440001      11.84527460   366936        2        0      -0.16453467      -0.32671310      -0.58790639       0.00000000      -0.16453467      -0.32671310      -0.58790639
C       16.32293638       9.78228197      16.33324608   367109        3        0      -0.09361748       1.83044604       2.85638895       0.00000000      -0.09361748       1.83044604       2.85638895
Si      13.15366079      10.13595433      16.63871231   367110        2        0      -0.14208627       0.13460911      -0.51725071       0.00000000      -0.14208627       0.13460911      -0.51725071
C       16.48100250      12.76445334      16.24568078   367111        3        0       0.15767598       0.00421533       1.01060709       0.00000000       0.15767598       0.00421533       1.01060709
Ti      15.25461263       9.99188169      18.18059921   367112        1        0       0.98586760       0.43923076      -2.96392145       0.00000000       0.98586760       0.43923076      -2.96392145
Ti      15.21048961      12.94153364      18.03487212   367113        1        0       0.02855433       0.79749659       0.49071314       0.00000000       0.02855433       0.79749659       0.49071314
Si      13.17741765      13.14324215      19.70608455   367115        2        0      -0.24933553       0.46547505      -1.09558708       0.00000000      -0.24933553       0.46547505      -1.09558708
Ti      15.40588122      14.54471635      15.86904406   367117        1        0       1.25382622      -0.20659604       2.50402264       0.00000000       1.25382622      -0.20659604       2.50402264
Si      12.78455653      15.18854922      16.36834406   367118        2        0       0.79073303       0.25040137       0.19560067       0.00000000       0.79073303       0.25040137       0.19560067
Si      12.95712017      18.30295279      16.70442317   367120        2        0      -0.35320629      -1.51040324      -0.10016498       0.00000000      -0.35320629      -1.51040324      -0.10016498
Ti      14.51271213      16.54892641      18.01865841   367121        1        0       0.05500926      -2.29140240      -0.29278029       0.00000000       0.05500926      -2.29140240      -0.29278029
C       15.68829271      14.87916034      18.37964165   367122        3        0      -1.37444876       0.12085146      -1.75811433       0.00000000      -1.37444876       0.12085146      -1.75811433
C        9.90649004      12.77431746      10.77224184   368645        3        0       1.38949967       0.66930104      -0.13097343       0.00000000       1.38949967       0.66930104      -0.13097343
Ti      11.05639828       9.10291227      15.13117419   368823        1        0       0.00028743       2.50011172       1.67116892       0.00000000       0.00028743       2.50011172       1.67116892
Ti      11.06514563      10.57972820      12.94209330   368827        1        0      -2.42416270       0.42653412      -0.96478041       0.00000000      -2.42416270       0.42653412      -0.96478041
C        9.58869661      11.96959291      13.50714254   368829        3        0       0.86014517       0.27500003       0.32166721       0.00000000       0.86014517       0.27500003       0.32166721
Ti       8.41925107      13.28695754      14.63229457   368832        1        0       0.47034237       0.31581765       0.04313535       0.00000000       0.47034237       0.31581765       0.04313535
Ti      10.95041350      12.38211774      15.00689863   368833        1        0       0.06891143      -1.06539091       1.88301562       0.00000000       0.06891143      -1.06539091       1.88301562
C        9.56136862      16.94432396      11.26681068   368838        3        0       1.42287645      -0.99059523      -0.81834496       0.00000000       1.42287645      -0.99059523      -0.81834496
C        8.74996730      15.07383077      14.18303296   368841        3        0       1.33324009       0.38949085       0.92755981       0.00000000       1.33324009       0.38949085       0.92755981
Ti      10.21724449      15.52569843      15.45789755   368844        1        0      -1.22899797      -1.66570062      -0.30835766       0.00000000      -1.22899797      -1.66570062      -0.30835766
C       10.10142178      10.76686600      15.98766623   369024        3        0       2.16048909      -0.99452217      -2.04498116       0.00000000       2.16048909      -0.99452217      -2.04498116
C        9.73645404      13.62008341      16.26033390   369026        3        0       1.19555550       0.71122785      -0.08377176       0.00000000       1.19555550       0.71122785      -0.08377176
Ti      11.11186787      13.46402473      17.97657710   369031        1        0      -0.07988386       0.94951813      -2.00266424       0.00000000      -0.07988386       0.94951813      -2.00266424
Ti      11.68602437      16.29832535      18.34290273   369042        1        0       0.79223320      -0.09066749      -0.72737665       0.00000000       0.79223320      -0.09066749      -0.72737665
Ag      14.23841242      15.11981354      13.71795822   683609        4        1      -0.52782655       1.15669961      -1.27975028       0.00000000      -0.52782655       1.15669961      -1.27975028
Ag      16.27181445      13.08799586      13.71829332   685172        4        0       0.90283349      -0.34280453      -1.38345857       0.00000000       0.90283349      -0.34280453      -1.38345857
Ag      12.23497765      17.16474508      13.71397964   696217        4        0      -0.10331541       0.02038137       0.43721418       0.00000000      -0.10331541       0.02038137       0.43721418
Ag      12.23262404      17.16409122       9.63054985   700029        4        0      -0.32219326      -0.09893423       0.41167164       0.00000000      -0.32219326      -0.09893423       0.41167164
Ag      16.28210479      17.16427934      13.71503183   701518        4        0       0.04329700      -0.10291799       0.22916469       0.00000000       0.04329700      -0.10291799       0.22916469
Ag      16.26358870      17.15824583       9.63473704   703887        4        0       0.15989793      -1.09913788       0.49713321       0.00000000       0.15989793      -1.09913788       0.49713321
Ag      10.20371875      15.11968609       9.63702147   707313        4        0      -0.29968073       0.05244665       1.61355378       0.00000000      -0.29968073       0.05244665       1.61355378
Ag      14.26698365      15.11065688       9.63909963   710704        4        0       1.04280911      -0.49642523       0.30245953       0.00000000       1.04280911      -0.49642523       0.30245953
Ag      18.27750980      17.16648506      11.67442682   714846        4        0      -0.50115337      -0.25713259      -0.00004216       0.00000000      -0.50115337      -0.25713259      -0.00004216
Ag      12.22520705      19.20055916      11.68116928   729574        4        0       0.06080730      -0.44978820       0.11126526       0.00000000       0.06080730      -0.44978820       0.11126526
Ag      12.24544758      15.11304736      11.67845050   730721        4        0      -0.48583822      -0.10711364       0.01464288       0.00000000      -0.48583822      -0.10711364       0.01464288
Ag      12.23423875      13.09216142       9.61141820   735549        4        0      -0.66226683      -0.29377475       0.87624965       0.00000000      -0.66226683      -0.29377475       0.87624965
Ag      14.26159449      17.15500363      11.67590227   737082        4        0       0.16323230       0.33218491       0.00614803       0.00000000       0.16323230       0.33218491       0.00614803
Ag      16.27844432      19.21372509      15.76315800   737200        4        0      -0.26119858      -0.65706210      -0.12197303       0.00000000      -0.26119858      -0.65706210      -0.12197303
Ag      14.25157430      19.22515650      13.71347117   744883        4        0      -0.06979587      -0.42206735       0.19219703       0.00000000      -0.06979587      -0.42206735       0.19219703
Ag      18.29062922      15.13132030      13.70696502   752169        4        0      -0.42380023       0.14930959      -0.01565312       0.00000000      -0.42380023       0.14930959      -0.01565312
Ag      18.29071798      17.17053909      15.76426284   755982        4        0      -0.60132455      -0.06836837      -0.40740847       0.00000000      -0.60132455      -0.06836837      -0.40740847
