LAMMPS (30 Sep 2026)
OMP_NUM_THREADS environment is not set. Defaulting to 1 thread.
  using 1 OpenMP thread(s) per MPI task
units metal
dimension 3
atom_style atomic
boundary p p f
read_data structures/impact_08_62eV.data
Reading data file ...
  triclinic box = (0 0 -10) to (37.285975 32.290601 100) with tilt (-18.642987 0 0)
WARNING: Triclinic box skew is large. LAMMPS will run inefficiently. (src/domain.cpp:214)
  1 by 1 by 1 MPI processor grid
  reading atoms ...
  4313 atoms
  reading velocities ...
  4313 velocities
  read_data CPU = 0.029 seconds
include potentials/potential_stage69.inc
# Stage69 collision-ready candidate potential; no physical run is implied.
# Baseline: Ag EAM + Ti/Si/C TSCBOP + calibrated Ag-interface Morse.
# ZBL is overlaid only in the 0.8-1.5 A short-range window.
pair_style hybrid/overlay eam tersoff morse 8.0 zbl 0.8 1.5
pair_coeff 4 4 eam potentials/Ag_u3.eam
Reading eam potential file potentials/Ag_u3.eam with DATE: 2007-06-11
pair_coeff * * tersoff potentials/TSCBOP.tersoff Ti Si C NULL
pair_coeff 1 4 morse 0.94814194 2.00000000 2.33708864 8.0
pair_coeff 2 4 morse 0.93944948 2.00000000 2.40407837 8.0
pair_coeff 3 4 morse 1.35077230 2.00000000 2.15255924 8.0
pair_coeff 1 4 zbl 22 47
pair_coeff 2 4 zbl 14 47
pair_coeff 3 4 zbl 6 47
pair_coeff 4 4 zbl 47 47
neighbor 2.0 bin
neigh_modify delay 0 every 1 check yes
region sink_region block INF INF INF INF 8.0 18.0 units box
region crater_region cylinder z 9.9573898076 24.2578814220 8.0 12.0 100.0 units box
group fixed_part_01 id 2 3 9 90 2969 3032 81 82 2909 2910 2914 2975 170 250 251 255 256 257 351 356 2921 341 342 352 444 445 516 2924 2933 2992 2998 3003 436 511 517 596 603 604 2934 2939 3006 597 693 698 699 777 2948 3010 3018 3019 766 849 850 859 2953 2954 2955 2958 3022 3024 851 952 953 2963 24 3033 16 17 25 96 97 104 105 106 189 184 190 260 261 269 270 2915 2916 2983 2989 262 357 358 364 2925
90 atoms in group fixed_part_01
group fixed_part_02 id 2926 2993 453 454 523 530 537 626 2935 2999 524 610 611 617 618 708 715 792 2941 2942 778 783 784 785 875 876 882 2949 867 868 869 877 963 970 971 972 2964 23 964 119 120 127 2970 2971 111 112 113 121 203 285 2917 2976 2985 277 286 372 373 380 381 389 475 2984 374 466 470 545 550 2927 2928 2937 538 627 637 638 639 644 2936 3007 628 725 901 2943 2950 3011 3012 3020 883 884 892 893
90 atoms in group fixed_part_02
group fixed_part_03 id 984 985 2956 38 986 2965 3025 3035 39 44 2972 40 128 135 136 2911 2918 2977 2978 210 294 295 299 300 396 406 2986 2987 390 397 398 486 2929 2930 556 557 558 654 655 2938 645 646 656 728 818 2944 2951 3013 3014 729 805 806 807 902 912 913 914 922 2957 3021 43 903 991 2959 2966 3026 3027 60 53 54 61 146 150 151 2913 2973 2980 222 223 224 229 315 316 2912 2920 2979 2991 308 309 407
90 atoms in group fixed_part_03
group fixed_part_04 id 497 2922 2990 2995 408 562 563 573 574 575 2931 2932 3001 564 659 660 667 2945 3008 3009 742 743 750 819 826 827 828 2952 3015 3016 923 924 930 931 932 999 1000 2960 2967 3028 1001 71 75 76 80 163 2974 3036 3037 156 157 158 164 236 2919 2981 2982 237 325 326 327 334 340 431 432 2997 424 425 433 498 504 505 587 2923 3002 499 580 581 582 588 589 675 681 682 692 2940 3005 756 760 765
90 atoms in group fixed_part_04
group fixed_part_05 id 841 842 2946 2947 835 836 837 843 939 946 2962 3023 3031 1 74 1015 2961 2968 3030 4 5 12 91 3105 83 85 94 171 177 181 3110 175 252 254 258 3044 3049 343 346 449 515 518 520 605 607 3063 700 3074 3075 3082 767 769 775 852 863 949 856 954 960 3099 26 3101 98 100 107 3039 3100 3106 185 188 3038 3045 3046 368 459 2994 3050 3051 457 463 531 535 3000 3004 3052 527 619 716 3068 3069
90 atoms in group fixed_part_05
group fixed_part_06 id 710 779 780 786 3076 3083 870 872 965 974 3087 3093 32 35 36 122 3034 3102 114 117 123 206 287 3040 291 375 382 3047 3054 377 467 469 471 472 546 3053 539 540 629 3064 3065 3070 3071 632 721 726 793 802 3077 796 885 894 897 987 3088 3089 3095 989 3094 41 45 3103 129 137 141 3041 3107 298 304 399 3048 391 402 3055 3059 551 554 559 560 3058 3066 3072 647 658 736 740 3078 811 817 904
90 atoms in group fixed_part_06
group fixed_part_07 id 915 918 3090 3096 62 55 59 66 147 152 3108 148 225 226 231 317 3042 310 312 321 409 413 421 2996 3056 487 488 565 576 577 3060 568 668 672 3017 3073 747 820 830 933 3079 3084 823 925 926 3029 3091 3092 3097 1002 1004 72 73 77 3104 3109 166 247 2988 3043 328 331 335 338 434 426 428 500 3057 3061 3062 583 593 676 683 687 3067 679 757 761 844 3080 3081 838 943 947 951 3085 3086 1016
90 atoms in group fixed_part_07
group fixed_part_08 id 1020 1025 3098
3 atoms in group fixed_part_08
group fixed union fixed_part_01 fixed_part_02 fixed_part_03 fixed_part_04 fixed_part_05 fixed_part_06 fixed_part_07 fixed_part_08
633 atoms in group fixed
group sink region sink_region
871 atoms in group sink
group mobile subtract all fixed
3680 atoms in group mobile
group crater region crater_region
497 atoms in group crater
group freezone intersect mobile crater
497 atoms in group freezone
group anchored subtract mobile freezone
3183 atoms in group anchored
group bath subtract sink freezone
791 atoms in group bath
fix hold fixed setforce 0.0 0.0 0.0
fix integrate all nve
fix anchor anchored spring/self 100.0
fix_modify anchor energy yes
fix bathfix bath langevin 300.0 300.0 0.05 552024 zero yes tally yes
compute Tmobile mobile temp
compute Tfree freezone temp
timestep 0.0001
thermo 250
thermo_style custom step time atoms c_Tfree c_Tmobile pe ke etotal f_bathfix
thermo_modify flush yes
dump tr all custom 500 dumps/cool_02_0p5ps.dump id type x y z vx vy vz fx fy fz
dump_modify tr sort id
run 5000
Neighbor list info ...
  update: every = 1 steps, delay = 0 steps, check = yes
  max neighbors/atom: 2000, page size: 100000
  master list distance cutoff = 10
  ghost atom cutoff = 10
  binsize = 5, bins = 12 7 22
  6 neighbor lists, perpetual/occasional/extra = 6 0 0
  (1) pair eam, perpetual, skip from (5)
      attributes: half, newton on
      pair build: skip
      stencil: none
      bin: none
  (2) pair tersoff, perpetual, skip from (6)
      attributes: full, newton on
      pair build: skip
      stencil: none
      bin: none
  (3) pair morse, perpetual, skip from (5)
      attributes: half, newton on
      pair build: skip
      stencil: none
      bin: none
  (4) pair zbl, perpetual, skip from (5)
      attributes: half, newton on
      pair build: skip
      stencil: none
      bin: none
  (5) neighbor class addition, perpetual, half/full from (6)
      attributes: half, newton on
      pair build: halffull/newton/tri
      stencil: none
      bin: none
  (6) neighbor class addition, perpetual
      attributes: full, newton on
      pair build: full/bin/atomonly
      stencil: full/bin/3d
      bin: standard
Per MPI rank memory allocation (min/avg/max) = 13.85 | 13.85 | 13.85 Mbytes
   Step          Time         Atoms       c_Tfree       c_Tmobile        PotEng         KinEng         TotEng       f_bathfix   
         0   0                   4313   4636.1647      825.96475     -25595.114      392.78595     -25202.329     -0            
       250   0.025               4313   4704.5391      799.96915     -25572.294      380.42379     -25191.87      -10.440967    
       500   0.05                4313   4369.8371      735.97935     -25533.134      349.99356     -25183.14      -19.181163    
       750   0.075               4313   4096.3969      684.32648     -25506.925      325.43014     -25181.495     -20.821309    
      1000   0.1                 4313   4008.2849      713.14122     -25517.496      339.13293     -25178.363     -23.956889    
      1250   0.125               4313   4018.0503      736.28142     -25526.379      350.13721     -25176.242     -26.083268    
      1500   0.15                4313   4369.0898      794.80868     -25552.093      377.96974     -25174.123     -28.207309    
      1750   0.175               4313   4356.6605      764.51395     -25538.341      363.56314     -25174.778     -27.556045    
      2000   0.2                 4313   4155.6403      753.85995     -25532.582      358.49664     -25174.085     -28.246325    
      2250   0.225               4313   4042.3449      741.964       -25528.325      352.83955     -25175.485     -26.851188    
      2500   0.25                4313   3970.5008      748.29633     -25531.931      355.85088     -25176.081     -26.260281    
      2750   0.275               4313   3734.7476      726.0379      -25518.931      345.26592     -25173.665     -28.676883    
      3000   0.3                 4313   4009.1923      758.08111     -25535.21       360.50401     -25174.706     -27.639488    
      3250   0.325               4313   3907.1811      738.37763     -25524.485      351.13406     -25173.351     -28.992152    
      3500   0.35                4313   3863.7794      735.51404     -25523.743      349.77228     -25173.97      -28.371775    
      3750   0.375               4313   3762.9503      722.44448     -25516.257      343.55708     -25172.699     -29.643858    
      4000   0.4                 4313   3915.6036      751.88374     -25530.423      357.55686     -25172.866     -29.479223    
      4250   0.425               4313   3792.4417      737.16312     -25524.247      350.5565      -25173.691     -28.651355    
      4500   0.45                4313   3606.5449      712.03332     -25513.814      338.60607     -25175.208     -27.133146    
      4750   0.475               4313   3918.8965      745.56605     -25529.994      354.5525      -25175.441     -26.896958    
      5000   0.5                 4313   3884.3122      747.77497     -25529.582      355.60294     -25173.979     -28.359718    
Loop time of 138.811 on 1 procs for 5000 steps with 4313 atoms

Performance: 0.311 ns/day, 77.117 hours/ns, 36.020 timesteps/s, 155.355 katom-step/s
99.9% CPU use with 1 MPI tasks x 1 OpenMP threads

MPI task timing breakdown:
Section |  min time  |  avg time  |  max time  |%varavg| %total
---------------------------------------------------------------
Pair    | 136.96     | 136.96     | 136.96     |   0.0 | 98.67
Neigh   | 0.77247    | 0.77247    | 0.77247    |   0.0 |  0.56
Comm    | 0.19643    | 0.19643    | 0.19643    |   0.0 |  0.14
Output  | 0.10279    | 0.10279    | 0.10279    |   0.0 |  0.07
Modify  | 0.66453    | 0.66453    | 0.66453    |   0.0 |  0.48
Other   |            | 0.1135     |            |       |  0.08

Nlocal:           4313 ave        4313 max        4313 min
Histogram: 1 0 0 0 0 0 0 0 0 0
Nghost:           7149 ave        7149 max        7149 min
Histogram: 1 0 0 0 0 0 0 0 0 0
Neighs:              0 ave           0 max           0 min
Histogram: 1 0 0 0 0 0 0 0 0 0

Total # of neighbors = 0
Ave neighs/atom = 0
Neighbor list builds = 30
Dangerous builds = 0
undump tr
write_data structures/cool_02_0p5ps.data
System init for write_data ...
write_restart restart/cool_02_0p5ps.restart
System init for write_restart ...
Total wall time: 0:02:18
