LAMMPS (30 Sep 2026)
OMP_NUM_THREADS environment is not set. Defaulting to 1 thread.
  using 1 OpenMP thread(s) per MPI task
units metal
dimension 3
atom_style atomic
boundary p p f
read_data structures/base_active_local_relaxed.data
Reading data file ...
  triclinic box = (0 0 -10) to (37.285975 32.290601 100) with tilt (-18.642987 0 0)
WARNING: Triclinic box skew is large. LAMMPS will run inefficiently. (src/domain.cpp:214)
  1 by 1 by 1 MPI processor grid
  reading atoms ...
  4305 atoms
  reading velocities ...
  4305 velocities
  read_data CPU = 0.022 seconds
create_atoms 4 single 9.9573898076 24.2578814220 60.0 units box
Created 1 atoms
  using box units in triclinic box = (0 0 -10) to (37.285975 32.290601 100) with tilt (-18.642987 0 0)
  create_atoms CPU = 0.000 seconds
include potentials/potential_stage69.inc
# Stage69 collision-ready candidate potential; no physical run is implied.
# Baseline: Ag EAM + Ti/Si/C TSCBOP + calibrated Ag-interface Morse.
# ZBL is overlaid only in the 0.8-1.5 A short-range window.
pair_style hybrid/overlay eam tersoff morse 8.0 zbl 0.8 1.5
pair_coeff 4 4 eam potentials/Ag_u3.eam
Reading eam potential file potentials/Ag_u3.eam with DATE: 2007-06-11
pair_coeff * * tersoff potentials/TSCBOP.tersoff Ti Si C NULL
pair_coeff 1 4 morse 0.94814194 2.00000000 2.33708864 8.0
pair_coeff 2 4 morse 0.93944948 2.00000000 2.40407837 8.0
pair_coeff 3 4 morse 1.35077230 2.00000000 2.15255924 8.0
pair_coeff 1 4 zbl 22 47
pair_coeff 2 4 zbl 14 47
pair_coeff 3 4 zbl 6 47
pair_coeff 4 4 zbl 47 47
neighbor 2.0 bin
neigh_modify delay 0 every 1 check yes
region fixed_region block INF INF INF INF -10.0 8.0 units box
region sink_region block INF INF INF INF 8.0 18.0 units box
region crater_region cylinder z 9.9573898076 24.2578814220 8.0 12.0 100.0 units box
group substrate id 1:4305
4305 atoms in group substrate
group projectile id 4306
1 atoms in group projectile
group fixed region fixed_region
633 atoms in group fixed
group sink region sink_region
866 atoms in group sink
group mobile subtract all fixed
3673 atoms in group mobile
group crater region crater_region
528 atoms in group crater
group freezone intersect mobile crater
528 atoms in group freezone
group free_substrate subtract freezone projectile
527 atoms in group free_substrate
group anchored subtract mobile freezone
3145 atoms in group anchored
group bath subtract sink freezone
788 atoms in group bath
velocity substrate create 300.0 977302 mom yes rot no dist gaussian
velocity fixed set 0.0 0.0 0.0
velocity projectile set 0.0 0.0 -105.3164
fix hold fixed setforce 0.0 0.0 0.0
fix integrate all nve
fix anchor anchored spring/self 100.0
fix_modify anchor energy yes
fix bathfix bath langevin 300.0 300.0 0.05 551030 zero yes tally yes
compute Tfree free_substrate temp
compute Tmobile mobile temp
timestep 0.00002
thermo 500
thermo_style custom step time atoms c_Tfree c_Tmobile pe ke etotal f_bathfix
thermo_modify flush yes
dump tr all custom 500 dumps/impact_01_62eV.dump id type x y z vx vy vz fx fy fz
dump_modify tr sort id
run 9000
Neighbor list info ...
  update: every = 1 steps, delay = 0 steps, check = yes
  max neighbors/atom: 2000, page size: 100000
  master list distance cutoff = 10
  ghost atom cutoff = 10
  binsize = 5, bins = 12 7 22
  6 neighbor lists, perpetual/occasional/extra = 6 0 0
  (1) pair eam, perpetual, skip from (5)
      attributes: half, newton on
      pair build: skip
      stencil: none
      bin: none
  (2) pair tersoff, perpetual, skip from (6)
      attributes: full, newton on
      pair build: skip
      stencil: none
      bin: none
  (3) pair morse, perpetual, skip from (5)
      attributes: half, newton on
      pair build: skip
      stencil: none
      bin: none
  (4) pair zbl, perpetual, skip from (5)
      attributes: half, newton on
      pair build: skip
      stencil: none
      bin: none
  (5) neighbor class addition, perpetual, half/full from (6)
      attributes: half, newton on
      pair build: halffull/newton/tri
      stencil: none
      bin: none
  (6) neighbor class addition, perpetual
      attributes: full, newton on
      pair build: full/bin/atomonly
      stencil: full/bin/3d
      bin: standard
Per MPI rank memory allocation (min/avg/max) = 13.46 | 13.46 | 13.46 Mbytes
   Step          Time         Atoms       c_Tfree       c_Tmobile        PotEng         KinEng         TotEng       f_bathfix   
         0   0                   4306   304.49285      430.77037     -24947.652      204.46225     -24743.19      -0            
       500   0.01                4306   188.52381      351.07567     -24910.017      166.6357      -24743.381      0.19233627   
      1000   0.02                4306   145.54342      365.19064     -24915.053      173.33527     -24741.717     -1.4729473    
      1500   0.03                4306   140.49596      376.78012     -24919.346      178.83614     -24740.51      -2.679649     
      2000   0.04                4306   171.61901      379.85536     -24920.832      180.29578     -24740.537     -2.6537863    
      2500   0.05                4306   169.6033       346.09304     -24903.194      164.27073     -24738.923     -4.2671419    
      3000   0.06                4306   195.141        396.42623     -24926.692      188.16104     -24738.531     -4.6597076    
      3500   0.07                4306   216.56017      376.58545     -24915.619      178.74374     -24736.876     -6.3136198    
      4000   0.08                4306   243.57776      377.71822     -24916.522      179.2814      -24737.24      -5.9504116    
      4500   0.09                4306   266.79798      384.46369     -24920.256      182.4831      -24737.773     -5.417536     
      5000   0.1                 4306   290.09899      413.9873      -24934.133      196.49628     -24737.636     -5.5553313    
      5500   0.11                4306   315.7314       394.44153     -24924.58       187.21901     -24737.361     -5.8321683    
      6000   0.12                4306   399.61811      408.06515     -24931.136      193.68537     -24737.451     -5.7415079    
      6500   0.13                4306   469.06335      404.36888     -24930.25       191.93096     -24738.319     -4.8737337    
      7000   0.14                4306   711.10826      377.81065     -24918.16       179.32528     -24738.835     -4.3585423    
      7500   0.15                4306   642.51132      356.41631     -24905.866      169.1706      -24736.696     -6.4977152    
      8000   0.16                4306   772.48403      359.43255     -24907.171      170.60224     -24736.569     -6.6247578    
      8500   0.17                4306   889.63248      363.97884     -24909.942      172.7601      -24737.182     -6.0127485    
      9000   0.18                4306   854.90428      344.06406     -24901.592      163.30768     -24738.284     -4.9104296    
Loop time of 252.512 on 1 procs for 9000 steps with 4306 atoms

Performance: 0.062 ns/day, 389.679 hours/ns, 35.642 timesteps/s, 153.474 katom-step/s
100.0% CPU use with 1 MPI tasks x 1 OpenMP threads

MPI task timing breakdown:
Section |  min time  |  avg time  |  max time  |%varavg| %total
---------------------------------------------------------------
Pair    | 250.23     | 250.23     | 250.23     |   0.0 | 99.10
Neigh   | 0.39465    | 0.39465    | 0.39465    |   0.0 |  0.16
Comm    | 0.30985    | 0.30985    | 0.30985    |   0.0 |  0.12
Output  | 0.17131    | 0.17131    | 0.17131    |   0.0 |  0.07
Modify  | 1.2103     | 1.2103     | 1.2103     |   0.0 |  0.48
Other   |            | 0.1923     |            |       |  0.08

Nlocal:           4306 ave        4306 max        4306 min
Histogram: 1 0 0 0 0 0 0 0 0 0
Nghost:           7131 ave        7131 max        7131 min
Histogram: 1 0 0 0 0 0 0 0 0 0
Neighs:              0 ave           0 max           0 min
Histogram: 1 0 0 0 0 0 0 0 0 0

Total # of neighbors = 0
Ave neighs/atom = 0
Neighbor list builds = 16
Dangerous builds = 0
undump tr
write_data structures/impact_01_62eV.data
System init for write_data ...
write_restart restart/impact_01_62eV.restart
System init for write_restart ...
Total wall time: 0:04:12
