LAMMPS (30 Sep 2026)
OMP_NUM_THREADS environment is not set. Defaulting to 1 thread.
  using 1 OpenMP thread(s) per MPI task
units metal
dimension 3
atom_style atomic
boundary p p f
read_data structures/cool_01_0p05ps.data
Reading data file ...
  triclinic box = (0 0 -10) to (37.285975 32.290601 100) with tilt (-18.642987 0 0)
WARNING: Triclinic box skew is large. LAMMPS will run inefficiently. (src/domain.cpp:214)
  1 by 1 by 1 MPI processor grid
  reading atoms ...
  4306 atoms
  reading velocities ...
  4306 velocities
  read_data CPU = 0.028 seconds
create_atoms 4 single 9.9573898076 24.2578814220 60.0 units box
Created 1 atoms
  using box units in triclinic box = (0 0 -10) to (37.285975 32.290601 100) with tilt (-18.642987 0 0)
  create_atoms CPU = 0.000 seconds
include potentials/potential_stage69.inc
# Stage69 collision-ready candidate potential; no physical run is implied.
# Baseline: Ag EAM + Ti/Si/C TSCBOP + calibrated Ag-interface Morse.
# ZBL is overlaid only in the 0.8-1.5 A short-range window.
pair_style hybrid/overlay eam tersoff morse 8.0 zbl 0.8 1.5
pair_coeff 4 4 eam potentials/Ag_u3.eam
Reading eam potential file potentials/Ag_u3.eam with DATE: 2007-06-11
pair_coeff * * tersoff potentials/TSCBOP.tersoff Ti Si C NULL
pair_coeff 1 4 morse 0.94814194 2.00000000 2.33708864 8.0
pair_coeff 2 4 morse 0.93944948 2.00000000 2.40407837 8.0
pair_coeff 3 4 morse 1.35077230 2.00000000 2.15255924 8.0
pair_coeff 1 4 zbl 22 47
pair_coeff 2 4 zbl 14 47
pair_coeff 3 4 zbl 6 47
pair_coeff 4 4 zbl 47 47
neighbor 2.0 bin
neigh_modify delay 0 every 1 check yes
region sink_region block INF INF INF INF 8.0 18.0 units box
region crater_region cylinder z 9.9573898076 24.2578814220 8.0 12.0 100.0 units box
group projectiles id 4306 4307
2 atoms in group projectiles
group new_projectile id 4307
1 atoms in group new_projectile
group fixed_part_01 id 1 2 3 4 5 9 12 16 17 23 24 25 26 32 35 36 38 39 40 41 43 44 45 53 54 55 59 60 61 62 66 71 72 73 74 75 76 77 80 81 82 83 85 90 91 94 96 97 98 100 104 105 106 107 111 112 113 114 117 119 120 121 122 123 127 128 129 135 136 137 141 146 147 148 150 151 152 156 157 158 163 164 166 170 171 175 177 181 184 185
90 atoms in group fixed_part_01
group fixed_part_02 id 188 189 190 203 206 210 222 223 224 225 226 229 231 236 237 247 250 251 252 254 255 256 257 258 260 261 262 269 270 277 285 286 287 291 294 295 298 299 300 304 308 309 310 312 315 316 317 321 325 326 327 328 331 334 335 338 340 341 342 343 346 351 352 356 357 358 364 368 372 373 374 375 377 380 381 382 389 390 391 396 397 398 399 402 406 407 408 409 413 421
90 atoms in group fixed_part_02
group fixed_part_03 id 424 425 426 428 431 432 433 434 436 444 445 449 453 454 457 459 463 466 467 469 470 471 472 475 486 487 488 497 498 499 500 504 505 511 515 516 517 518 520 523 524 527 530 531 535 537 538 539 540 545 546 550 551 554 556 557 558 559 560 562 563 564 565 568 573 574 575 576 577 580 581 582 583 587 588 589 593 596 597 603 604 605 607 610 611 617 618 619 626 627
90 atoms in group fixed_part_03
group fixed_part_04 id 628 629 632 637 638 639 644 645 646 647 654 655 656 658 659 660 667 668 672 675 676 679 681 682 683 687 692 693 698 699 700 708 710 715 716 721 725 726 728 729 736 740 742 743 747 750 756 757 760 761 765 766 767 769 775 777 778 779 780 783 784 785 786 792 793 796 802 805 806 807 811 817 818 819 820 823 826 827 828 830 835 836 837 838 841 842 843 844 849 850
90 atoms in group fixed_part_04
group fixed_part_05 id 851 852 856 859 863 867 868 869 870 872 875 876 877 882 883 884 885 892 893 894 897 901 902 903 904 912 913 914 915 918 922 923 924 925 926 930 931 932 933 939 943 946 947 949 951 952 953 954 960 963 964 965 970 971 972 974 984 985 986 987 989 991 999 1000 1001 1002 1004 1015 1016 1020 1025 2909 2910 2911 2912 2913 2914 2915 2916 2917 2918 2919 2920 2921 2922 2923 2924 2925 2926 2927
90 atoms in group fixed_part_05
group fixed_part_06 id 2928 2929 2930 2931 2932 2933 2934 2935 2936 2937 2938 2939 2940 2941 2942 2943 2944 2945 2946 2947 2948 2949 2950 2951 2952 2953 2954 2955 2956 2957 2958 2959 2960 2961 2962 2963 2964 2965 2966 2967 2968 2969 2970 2971 2972 2973 2974 2975 2976 2977 2978 2979 2980 2981 2982 2983 2984 2985 2986 2987 2988 2989 2990 2991 2992 2993 2994 2995 2996 2997 2998 2999 3000 3001 3002 3003 3004 3005 3006 3007 3008 3009 3010 3011 3012 3013 3014 3015 3016 3017
90 atoms in group fixed_part_06
group fixed_part_07 id 3018 3019 3020 3021 3022 3023 3024 3025 3026 3027 3028 3029 3030 3031 3032 3033 3034 3035 3036 3037 3038 3039 3040 3041 3042 3043 3044 3045 3046 3047 3048 3049 3050 3051 3052 3053 3054 3055 3056 3057 3058 3059 3060 3061 3062 3063 3064 3065 3066 3067 3068 3069 3070 3071 3072 3073 3074 3075 3076 3077 3078 3079 3080 3081 3082 3083 3084 3085 3086 3087 3088 3089 3090 3091 3092 3093 3094 3095 3096 3097 3098 3099 3100 3101 3102 3103 3104 3105 3106 3107
90 atoms in group fixed_part_07
group fixed_part_08 id 3108 3109 3110
3 atoms in group fixed_part_08
group fixed union fixed_part_01 fixed_part_02 fixed_part_03 fixed_part_04 fixed_part_05 fixed_part_06 fixed_part_07 fixed_part_08
633 atoms in group fixed
group sink region sink_region
868 atoms in group sink
group mobile subtract all fixed
3674 atoms in group mobile
group crater region crater_region
527 atoms in group crater
group freezone intersect mobile crater
527 atoms in group freezone
group free_substrate subtract freezone projectiles
525 atoms in group free_substrate
group anchored subtract mobile freezone
3147 atoms in group anchored
group bath subtract sink freezone
790 atoms in group bath
velocity new_projectile set 0.0 0.0 -105.3164
fix hold fixed setforce 0.0 0.0 0.0
fix integrate all nve
fix anchor anchored spring/self 100.0
fix_modify anchor energy yes
fix bathfix bath langevin 300.0 300.0 0.05 551032 zero yes tally yes
compute Tfree free_substrate temp
compute Tmobile mobile temp
timestep 0.0001
thermo 200
thermo_style custom step time atoms c_Tfree c_Tmobile pe ke etotal f_bathfix
thermo_modify flush yes
dump tr all custom 200 dumps/impact_02_62eV.dump id type x y z vx vy vz fx fy fz
dump_modify tr sort id
run 1800
Neighbor list info ...
  update: every = 1 steps, delay = 0 steps, check = yes
  max neighbors/atom: 2000, page size: 100000
  master list distance cutoff = 10
  ghost atom cutoff = 10
  binsize = 5, bins = 12 7 22
  6 neighbor lists, perpetual/occasional/extra = 6 0 0
  (1) pair eam, perpetual, skip from (5)
      attributes: half, newton on
      pair build: skip
      stencil: none
      bin: none
  (2) pair tersoff, perpetual, skip from (6)
      attributes: full, newton on
      pair build: skip
      stencil: none
      bin: none
  (3) pair morse, perpetual, skip from (5)
      attributes: half, newton on
      pair build: skip
      stencil: none
      bin: none
  (4) pair zbl, perpetual, skip from (5)
      attributes: half, newton on
      pair build: skip
      stencil: none
      bin: none
  (5) neighbor class addition, perpetual, half/full from (6)
      attributes: half, newton on
      pair build: halffull/newton/tri
      stencil: none
      bin: none
  (6) neighbor class addition, perpetual
      attributes: full, newton on
      pair build: full/bin/atomonly
      stencil: full/bin/3d
      bin: standard
Per MPI rank memory allocation (min/avg/max) = 13.47 | 13.47 | 13.47 Mbytes
   Step          Time         Atoms       c_Tfree       c_Tmobile        PotEng         KinEng         TotEng       f_bathfix   
         0   0                   4307   904.1188       449.99955     -25200.86       213.64742     -24987.212     -0            
       200   0.02                4307   938.29931      443.80935     -25189.853      210.70848     -24979.144     -8.0680498    
       400   0.04                4307   950.06382      396.61905     -25162.231      188.30382     -24973.927     -13.284433    
       600   0.06                4307   966.76295      453.06247     -25185.845      215.10161     -24970.744     -16.468903    
       800   0.08                4307   1015.9944      422.95782     -25169.948      200.80875     -24969.139     -18.076024    
      1000   0.1                 4307   1053.8018      420.56179     -25168.557      199.67118     -24968.886     -18.324686    
      1200   0.12                4307   1096.7774      461.23973     -25185.693      218.98394     -24966.709     -20.505828    
      1400   0.14                4307   1206.2097      420.16723     -25165.613      199.48385     -24966.129     -21.090636    
      1600   0.16                4307   1340.1709      397.08156     -25153.924      188.52341     -24965.4       -21.820891    
      1800   0.18                4307   1651.8484      423.86479     -25167.132      201.23935     -24965.892     -21.329741    
Loop time of 50.4297 on 1 procs for 1800 steps with 4307 atoms

Performance: 0.308 ns/day, 77.824 hours/ns, 35.693 timesteps/s, 153.731 katom-step/s
100.0% CPU use with 1 MPI tasks x 1 OpenMP threads

MPI task timing breakdown:
Section |  min time  |  avg time  |  max time  |%varavg| %total
---------------------------------------------------------------
Pair    | 49.552     | 49.552     | 49.552     |   0.0 | 98.26
Neigh   | 0.44305    | 0.44305    | 0.44305    |   0.0 |  0.88
Comm    | 0.069444   | 0.069444   | 0.069444   |   0.0 |  0.14
Output  | 0.087178   | 0.087178   | 0.087178   |   0.0 |  0.17
Modify  | 0.23894    | 0.23894    | 0.23894    |   0.0 |  0.47
Other   |            | 0.0394     |            |       |  0.08

Nlocal:           4307 ave        4307 max        4307 min
Histogram: 1 0 0 0 0 0 0 0 0 0
Nghost:           7127 ave        7127 max        7127 min
Histogram: 1 0 0 0 0 0 0 0 0 0
Neighs:              0 ave           0 max           0 min
Histogram: 1 0 0 0 0 0 0 0 0 0

Total # of neighbors = 0
Ave neighs/atom = 0
Neighbor list builds = 17
Dangerous builds = 0
undump tr
write_data structures/impact_02_62eV.data
System init for write_data ...
write_restart restart/impact_02_62eV.restart
System init for write_restart ...
Total wall time: 0:00:50
