LAMMPS (30 Sep 2026)
OMP_NUM_THREADS environment is not set. Defaulting to 1 thread.
  using 1 OpenMP thread(s) per MPI task
units metal
dimension 3
atom_style atomic
boundary p p f
read_data structures/impact_17_62eV.data
Reading data file ...
  triclinic box = (0 0 -10) to (37.285975 32.290601 100) with tilt (-18.642987 0 0)
WARNING: Triclinic box skew is large. LAMMPS will run inefficiently. (src/domain.cpp:214)
  1 by 1 by 1 MPI processor grid
  reading atoms ...
  4322 atoms
  reading velocities ...
  4322 velocities
  read_data CPU = 0.037 seconds
create_atoms 4 single 12.1961255836 22.8337809602 60.0 units box
Created 1 atoms
  using box units in triclinic box = (0 0 -10) to (37.285975 32.290601 100) with tilt (-18.642987 0 0)
  create_atoms CPU = 0.000 seconds
include potentials/potential_stage69.inc
# Stage69 collision-ready candidate potential; no physical run is implied.
# Baseline: Ag EAM + Ti/Si/C TSCBOP + calibrated Ag-interface Morse.
# ZBL is overlaid only in the 0.8-1.5 A short-range window.
pair_style hybrid/overlay eam tersoff morse 8.0 zbl 0.8 1.5
pair_coeff 4 4 eam potentials/Ag_u3.eam
Reading eam potential file potentials/Ag_u3.eam with DATE: 2007-06-11
pair_coeff * * tersoff potentials/TSCBOP.tersoff Ti Si C NULL
pair_coeff 1 4 morse 0.94814194 2.00000000 2.33708864 8.0
pair_coeff 2 4 morse 0.93944948 2.00000000 2.40407837 8.0
pair_coeff 3 4 morse 1.35077230 2.00000000 2.15255924 8.0
pair_coeff 1 4 zbl 22 47
pair_coeff 2 4 zbl 14 47
pair_coeff 3 4 zbl 6 47
pair_coeff 4 4 zbl 47 47
neighbor 2.0 bin
neigh_modify delay 0 every 1 check yes
region sink_region block INF INF INF INF 8.0 18.0 units box
region crater_region cylinder z 9.9573898076 24.2578814220 8.0 12.0 100.0 units box
group projectiles id 4306 4307 4308 4309 4310 4311 4312 4313 4314 4315 4316 4317 4318 4319 4320 4321 4322
17 atoms in group projectiles
group new_projectile id 4323
1 atoms in group new_projectile
group fixed_part_01 id 2 3 9 90 2969 3032 81 82 2909 2910 2914 2975 170 250 251 255 256 257 351 356 2921 341 342 352 444 445 516 2924 2933 2992 2998 3003 436 511 517 596 603 604 2934 2939 3006 597 693 698 699 777 2948 3010 3018 3019 766 849 850 859 2953 2954 2955 2958 3022 3024 851 952 953 2963 24 3033 16 17 25 96 97 104 105 106 189 184 190 260 261 269 270 2915 2916 2983 2989 262 357 358 364 2925
90 atoms in group fixed_part_01
group fixed_part_02 id 2926 2993 453 454 523 530 537 626 2935 2999 524 610 611 617 618 708 715 792 2941 2942 778 783 784 785 875 876 882 2949 867 868 869 877 963 970 971 972 2964 23 964 119 120 127 2970 2971 111 112 113 121 203 285 2917 2976 2985 277 286 372 373 380 381 389 475 2984 374 466 470 545 550 2927 2928 2937 538 627 637 638 639 644 2936 3007 628 725 901 2943 2950 3011 3012 3020 883 884 892 893
90 atoms in group fixed_part_02
group fixed_part_03 id 984 985 2956 38 986 2965 3025 3035 39 44 2972 40 128 135 136 2911 2918 2977 2978 210 294 295 299 300 396 406 2986 2987 390 397 398 486 2929 2930 556 557 558 654 655 2938 645 646 656 728 818 2944 2951 3013 3014 729 805 806 807 902 912 913 914 922 2957 3021 43 903 991 2959 2966 3026 3027 60 53 54 61 146 150 151 2913 2973 2980 222 223 224 229 315 316 2912 2920 2979 2991 308 309 407
90 atoms in group fixed_part_03
group fixed_part_04 id 497 2922 2990 2995 408 562 563 573 574 575 2931 2932 3001 564 659 660 667 2945 3008 3009 742 743 750 819 826 827 828 2952 3015 3016 923 924 930 931 932 999 1000 2960 2967 3028 1001 71 75 76 80 163 2974 3036 3037 156 157 158 164 236 2919 2981 2982 237 325 326 327 334 340 431 432 2997 424 425 433 498 504 505 587 2923 3002 499 580 581 582 588 589 675 681 682 692 2940 3005 756 760 765
90 atoms in group fixed_part_04
group fixed_part_05 id 841 842 2946 2947 835 836 837 843 939 946 2962 3023 3031 1 74 1015 2961 2968 3030 4 5 12 91 3105 83 85 94 171 177 181 3110 175 252 254 258 3044 3049 343 346 449 515 518 520 605 607 3063 700 3074 3075 3082 767 769 775 852 863 949 856 954 960 3099 26 3101 98 100 107 3039 3100 3106 185 188 3038 3045 3046 368 459 2994 3050 3051 457 463 531 535 3000 3004 3052 527 619 716 3068 3069
90 atoms in group fixed_part_05
group fixed_part_06 id 710 779 780 786 3076 3083 870 872 965 974 3087 3093 32 35 36 122 3034 3102 114 117 123 206 287 3040 291 375 382 3047 3054 377 467 469 471 472 546 3053 539 540 629 3064 3065 3070 3071 632 721 726 793 802 3077 796 885 894 897 987 3088 3089 3095 989 3094 41 45 3103 129 137 141 3041 3107 298 304 399 3048 391 402 3055 3059 551 554 559 560 3058 3066 3072 647 658 736 740 3078 811 817 904
90 atoms in group fixed_part_06
group fixed_part_07 id 915 918 3090 3096 62 55 59 66 147 152 3108 148 225 226 231 317 3042 310 312 321 409 413 421 2996 3056 487 488 565 576 577 3060 568 668 672 3017 3073 747 820 830 933 3079 3084 823 925 926 3029 3091 3092 3097 1002 1004 72 73 77 3104 3109 166 247 2988 3043 328 331 335 338 434 426 428 500 3057 3061 3062 583 593 676 683 687 3067 679 757 761 844 3080 3081 838 943 947 951 3085 3086 1016
90 atoms in group fixed_part_07
group fixed_part_08 id 1020 1025 3098
3 atoms in group fixed_part_08
group fixed union fixed_part_01 fixed_part_02 fixed_part_03 fixed_part_04 fixed_part_05 fixed_part_06 fixed_part_07 fixed_part_08
633 atoms in group fixed
group sink region sink_region
876 atoms in group sink
group mobile subtract all fixed
3690 atoms in group mobile
group crater region crater_region
462 atoms in group crater
group freezone intersect mobile crater
462 atoms in group freezone
group free_substrate subtract freezone projectiles
445 atoms in group free_substrate
group anchored subtract mobile freezone
3228 atoms in group anchored
group bath subtract sink freezone
792 atoms in group bath
velocity new_projectile set 0.0 0.0 -105.3164
fix hold fixed setforce 0.0 0.0 0.0
fix integrate all nve
fix anchor anchored spring/self 100.0
fix_modify anchor energy yes
fix bathfix bath langevin 300.0 300.0 0.05 551048 zero yes tally yes
compute Tfree free_substrate temp
compute Tmobile mobile temp
timestep 0.00005
thermo 200
thermo_style custom step time atoms c_Tfree c_Tmobile pe ke etotal f_bathfix
thermo_modify flush yes
dump tr all custom 200 dumps/impact_18_62eV.dump id type x y z vx vy vz fx fy fz
dump_modify tr sort id
run 6000
Neighbor list info ...
  update: every = 1 steps, delay = 0 steps, check = yes
  max neighbors/atom: 2000, page size: 100000
  master list distance cutoff = 10
  ghost atom cutoff = 10
  binsize = 5, bins = 12 7 22
  6 neighbor lists, perpetual/occasional/extra = 6 0 0
  (1) pair eam, perpetual, skip from (5)
      attributes: half, newton on
      pair build: skip
      stencil: none
      bin: none
  (2) pair tersoff, perpetual, skip from (6)
      attributes: full, newton on
      pair build: skip
      stencil: none
      bin: none
  (3) pair morse, perpetual, skip from (5)
      attributes: half, newton on
      pair build: skip
      stencil: none
      bin: none
  (4) pair zbl, perpetual, skip from (5)
      attributes: half, newton on
      pair build: skip
      stencil: none
      bin: none
  (5) neighbor class addition, perpetual, half/full from (6)
      attributes: half, newton on
      pair build: halffull/newton/tri
      stencil: none
      bin: none
  (6) neighbor class addition, perpetual
      attributes: full, newton on
      pair build: full/bin/atomonly
      stencil: full/bin/3d
      bin: standard
Per MPI rank memory allocation (min/avg/max) = 13.85 | 13.85 | 13.85 Mbytes
   Step          Time         Atoms       c_Tfree       c_Tmobile        PotEng         KinEng         TotEng       f_bathfix   
         0   0                   4323   5875.979       1022.9518     -26101.948      487.78505     -25614.163     -0            
       200   0.01                4323   5937.5454      900.0513      -26039.611      429.18107     -25610.43      -3.7321041    
       400   0.02                4323   6171.1724      997.25007     -26081.594      475.5294      -25606.065     -8.094472     
       600   0.03                4323   6016.8353      988.98281     -26074.829      471.58723     -25603.242     -10.916231    
       800   0.04                4323   5771.9733      947.33225     -26054.78       451.72655     -25603.054     -11.105665    
      1000   0.05                4323   6037.1304      947.23542     -26052.993      451.68038     -25601.313     -12.845823    
      1200   0.06                4323   6000.037       1032.4516     -26092.726      492.31493     -25600.411     -13.747638    
      1400   0.07                4323   5752.2238      944.24596     -26048.483      450.25488     -25598.228     -15.928245    
      1600   0.08                4323   5817.2083      962.30371     -26056.577      458.86555     -25597.711     -16.446993    
      1800   0.09                4323   6056.9921      1027.9067     -26086.218      490.14771     -25596.07      -18.086795    
      2000   0.1                 4323   5995.0257      988.76447     -26066.614      471.48312     -25595.131     -19.025382    
      2200   0.11                4323   5865.3447      979.90066     -26062.048      467.25649     -25594.792     -19.364961    
      2400   0.12                4323   5799.3118      992.89906     -26067.073      473.45466     -25593.618     -20.538803    
      2600   0.13                4323   5811.326       984.21801     -26063.318      469.31518     -25594.003     -20.155503    
      2800   0.14                4323   5900.0173      955.31204     -26048.627      455.53164     -25593.095     -21.063588    
      3000   0.15                4323   5764.4751      995.17154     -26067.539      474.53827     -25593         -21.158331    
      3200   0.16                4323   6035.5575      994.39903     -26067.09       474.1699      -25592.92      -21.239239    
      3400   0.17                4323   6264.9908      1029.3574     -26084.199      490.83948     -25593.359     -20.798721    
      3600   0.18                4323   6185.1433      1030.4874     -26084.929      491.3783      -25593.55      -20.606965    
      3800   0.19                4323   5985.5504      996.00125     -26068.05       474.93391     -25593.117     -21.042479    
      4000   0.2                 4323   5904.2301      974.37251     -26058.022      464.62044     -25593.401     -20.758053    
      4200   0.21                4323   5991.2515      998.77492     -26069.056      476.25651     -25592.799     -21.360986    
      4400   0.22                4323   5667.8498      958.03801     -26048.864      456.83149     -25592.032     -22.128543    
      4600   0.23                4323   5598.7078      938.75842     -26039.499      447.6382      -25591.861     -22.299864    
      4800   0.24                4323   5613.5661      962.9496      -26051.071      459.17354     -25591.898     -22.262726    
      5000   0.25                4323   5800.4074      973.06563     -26057.209      463.99727     -25593.212     -20.948968    
      5200   0.26                4323   5635.475       959.34399     -26051.541      457.45424     -25594.087     -20.073667    
      5400   0.27                4323   5812.8344      972.95943     -26058.706      463.94663     -25594.759     -19.400321    
      5600   0.28                4323   5636.592       954.09867     -26051.203      454.95305     -25596.25      -17.911592    
      5800   0.29                4323   5734.9927      938.48044     -26043.572      447.50565     -25596.067     -18.095286    
      6000   0.3                 4323   5702.2898      963.23124     -26055.954      459.30783     -25596.646     -17.517531    
Loop time of 169.362 on 1 procs for 6000 steps with 4323 atoms

Performance: 0.153 ns/day, 156.817 hours/ns, 35.427 timesteps/s, 153.151 katom-step/s
100.0% CPU use with 1 MPI tasks x 1 OpenMP threads

MPI task timing breakdown:
Section |  min time  |  avg time  |  max time  |%varavg| %total
---------------------------------------------------------------
Pair    | 167.14     | 167.14     | 167.14     |   0.0 | 98.69
Neigh   | 0.7558     | 0.7558     | 0.7558     |   0.0 |  0.45
Comm    | 0.21621    | 0.21621    | 0.21621    |   0.0 |  0.13
Output  | 0.30345    | 0.30345    | 0.30345    |   0.0 |  0.18
Modify  | 0.80842    | 0.80842    | 0.80842    |   0.0 |  0.48
Other   |            | 0.1337     |            |       |  0.08

Nlocal:           4323 ave        4323 max        4323 min
Histogram: 1 0 0 0 0 0 0 0 0 0
Nghost:           7146 ave        7146 max        7146 min
Histogram: 1 0 0 0 0 0 0 0 0 0
Neighs:              0 ave           0 max           0 min
Histogram: 1 0 0 0 0 0 0 0 0 0

Total # of neighbors = 0
Ave neighs/atom = 0
Neighbor list builds = 29
Dangerous builds = 0
undump tr
write_data structures/impact_18_62eV.data
System init for write_data ...
write_restart restart/impact_18_62eV.restart
System init for write_restart ...
Total wall time: 0:02:49
