48
Lattice="28.140000000000001 0 0 0 28.140000000000001 0 0 0 28.140000000000001" Properties=species:S:1:pos:R:3:lammps_id:I:1:central_pair:I:1 pbc="T T T"
Ti 14.77773371 12.05600926 19.115518059999999 113766 0
Ti 19.828112170000001 14.16747384 12.332465689999999 600768 0
Ti 15.14933662 14.09146 8.9903422299999995 602398 0
Ti 16.707006719999999 11.35471852 12.383686190000001 602560 0
C 15.808347489999999 12.2813523 10.412757190000001 602563 0
C 15.245957300000001 10.246780879999999 13.1973631 602564 0
C 15.09615209 17.798665679999999 11.056472449999999 602568 0
Ti 16.22196177 17.830626290000001 12.744230180000001 602569 0
C 15.078564930000001 19.597324629999999 13.72647342 602577 0
Ti 16.764409740000001 12.976426760000001 14.38731587 602709 0
Ti 16.301019149999998 9.8796257300000008 15.168303099999999 602714 0
Si 16.289071119999999 11.75977571 16.924165590000001 602717 0
Ti 19.603923399999999 12.8276298 14.906908530000001 602720 0
Si 17.678577279999999 13.648193819999999 16.568189050000001 602722 0
Si 17.720841539999999 16.09981719 16.310877860000002 602726 0
Si 18.23918609 18.049040439999999 14.559151099999999 602728 0
Ti 14.7650284 10.24823364 11.01852302 604584 0
C 13.17986737 8.6758332899999999 11.62428134 604585 0
Ti 11.74276545 10.17736294 12.03503218 604586 0
C 13.195631990000001 11.179687960000001 11.24892195 604587 0
Ti 14.358823640000001 8.5219883700000008 13.27154629 604588 0
Ti 13.895220269999999 11.47862233 13.1940499 604589 0
Ti 13.89476314 12.736905139999999 10.904804800000001 604590 0
C 12.766711519999999 10.07059819 13.826003630000001 604592 0
Si 9.9731049400000007 12.81272528 11.37092765 604593 0
Si 9.9104925000000001 11.50366541 13.683733889999999 604594 0
C 13.36240624 13.479245990000001 9.2430265499999997 604596 0
C 12.81786136 16.199133839999998 9.9045059799999997 604598 0
Ti 11.95350169 14.266179279999999 10.374237279999999 604599 0
Ti 14.049926970422014 15.962085165020918 11.550646756941971 604600 0
Ti 11.43344149 17.433476670000001 10.56034947 604601 0
C 13.066467189999999 14.1368467 12.10746617 604602 0
C 12.78805257 17.510479719999999 12.49636784 604603 0
Si 9.8068985699999995 15.55673045 10.575952409999999 604605 0
Ti 13.89404094 19.214804900000001 11.80016927 604608 0
Ti 11.2580215 18.925486240000001 12.55015014 604611 0
Ti 12.266348539999999 10.47500164 17.74830506 604794 0
Ti 11.800335179999999 8.6634569199999998 15.229030440000001 604795 0
Ti 12.16895326 11.738342400000001 15.12525415 604796 0
Si 10.142390369999999 12.97278704 16.233870270000001 604803 0
C 13.47588002 12.93679245 14.26673336 604804 1
Ti 13.941323150000001 17.725990459999998 14.28329593 604805 0
Ti 12.291049299999999 13.6369851 17.68575294 604806 0
C 13.504690610000001 14.90550135 16.603743649999998 604810 0
Si 10.251690180000001 15.684724729999999 15.668430320000001 604813 0
Si 9.7030737200000008 16.94008547 12.67728352 606503 0
Ag 14.11040925 15.463241500000001 13.72951918 688433 1
Ag 16.166574019999999 15.463978969999999 11.65879226 751743 0
