51
Lattice="27.859999999999999 0 0 0 27.859999999999999 0 0 0 27.859999999999999" Properties=species:S:1:pos:R:3:lammps_id:I:1:central_pair:I:1 pbc="T T T"
C 18.59997229 12.48568832 11.108442070000001 365143 0
Ti 17.68639525 11.50950205 17.417878819999999 365320 0
C 16.41880913 11.237453329999999 9.7803035299999994 366772 0
C 16.478966960000001 14.685177599999999 9.5922069600000004 366778 0
Si 13.032475460000001 10.81256428 11.54588199 366929 0
C 16.85595198 10.574574159999999 13.54804023 366931 0
Si 13.247565829999999 10.092995009999999 13.89543918 366933 0
Si 13.55727637186175 12.795249122460838 14.319775512354937 366934 1
Ti 15.299810750000001 11.234897670000001 15.30672895 366935 0
Si 14.07452393 13.07440001 11.8452746 366936 0
C 16.322936380000002 9.7822819699999997 16.333246079999999 367109 0
Si 13.15366079 10.135954330000001 16.638712309999999 367110 0
C 16.481002499999999 12.764453339999999 16.245680780000001 367111 0
Ti 15.25461263 9.9918816899999996 18.18059921 367112 0
Ti 15.21048961 12.941533639999999 18.034872119999999 367113 0
Si 13.177417650000001 13.143242150000001 19.70608455 367115 0
Ti 15.405881219999999 14.54471635 15.86904406 367117 0
Si 12.78455653 15.188549220000001 16.368344059999998 367118 0
Si 12.95712017 18.302952789999999 16.704423169999998 367120 0
Ti 14.512712130000001 16.54892641 18.01865841 367121 0
C 15.688292710000001 14.87916034 18.37964165 367122 0
C 9.9064900399999996 12.774317460000001 10.77224184 368645 0
Ti 11.05639828 9.1029122699999991 15.131174189999999 368823 0
Ti 11.06514563 10.5797282 12.9420933 368827 0
C 9.5886966099999995 11.969592909999999 13.50714254 368829 0
Ti 8.4192510699999996 13.28695754 14.632294569999999 368832 0
Ti 10.9504135 12.38211774 15.00689863 368833 0
C 9.5613686199999997 16.944323959999998 11.266810680000001 368838 0
C 8.7499672999999998 15.073830770000001 14.18303296 368841 0
Ti 10.217244490000001 15.52569843 15.45789755 368844 0
C 10.101421780000001 10.766866 15.98766623 369024 0
C 9.7364540399999999 13.620083409999999 16.260333899999999 369026 0
Ti 11.111867869999999 13.46402473 17.9765771 369031 0
Ti 11.68602437 16.298325349999999 18.342902729999999 369042 0
Ag 13.841978559999999 15.502326979999999 13.71795822 683609 1
Ag 15.86516794813825 13.373402857539162 13.739881297645065 685172 0
Ag 11.838543789999999 17.54725852 13.71397964 696217 0
Ag 11.836190179999999 17.54660466 9.6305498499999995 700029 0
Ag 15.88567093 17.546792780000001 13.715031829999999 701518 0
Ag 15.86715484 17.540759269999999 9.6347370399999992 703887 0
Ag 9.80728489 15.50219953 9.6370214700000005 707313 0
Ag 13.87054979 15.493170320000001 9.6390996300000005 710704 0
Ag 17.881075939999999 17.5489985 11.674426820000001 714846 0
Ag 11.82877319 19.583072600000001 11.681169280000001 729574 0
Ag 11.84901372 15.4955608 11.6784505 730721 0
Ag 11.837804889999999 13.47467486 9.6114181999999992 735549 0
Ag 13.86516063 17.53751707 11.67590227 737082 0
Ag 15.88201046 19.596238530000001 15.763158000000001 737200 0
Ag 13.85514044 19.607669940000001 13.71347117 744883 0
Ag 17.894195360000001 15.513833740000001 13.70696502 752169 0
Ag 17.894284119999998 17.553052529999999 15.764262840000001 755982 0
