49
Lattice="28 0 0 0 28 0 0 0 28" Properties=species:S:1:pos:R:3:lammps_id:I:1:central_pair:I:1 pbc="T T T"
C 13.89902107 12.906671660000001 9.5709330799999996 478831 0
Ti 12.623045250000001 14.702277840000001 8.7462090499999992 478840 0
Si 16.746639139999999 14.99666412 9.0558805299999996 478841 0
C 13.77615718 16.766598299999998 9.4620553199999993 478844 0
Ti 12.49439364 12.82858132 11.260962920000001 479021 0
Ti 12.697544747482816 14.261120459959884 13.892636508549129 479027 1
Ti 13.273336909999999 17.522761330000002 13.675254089999999 479028 0
C 12.1940607 16.00730532 12.986992669999999 479030 0
C 11.92979276 17.83928667 10.046082419999999 479031 0
C 11.14030857 11.609802869999999 10.51944505 480798 0
Ti 9.6736502699999996 11.73672021 12.529495020000001 480801 0
C 10.41266283 9.5877510899999994 13.768942190000001 480802 0
C 11.248373322517184 12.998326330040117 13.311693321450869 480805 0
C 11.267799119999999 14.20441406 10.34350882 480807 0
Ti 10.632778800000001 14.68120764 12.237934660000001 480810 0
Ti 11.15181567 17.428988919999998 11.878558870000001 480811 0
Ti 10.574901390000001 16.472631159999999 14.345468009999999 480812 0
C 11.98467917 18.760624029999999 12.897438790000001 480813 0
C 10.74527181 9.3489891800000002 15.9214108 480974 0
C 10.58950093 11.909053309999999 16.64358691 480975 0
Ti 9.9301422000000006 13.54071165 15.286486099999999 480980 0
Ag 13.67921387 12.13477149 14.08448967 682693 0
Ag 19.771039909999999 16.261726800000002 16.143252759999999 685396 0
Ag 17.73061775 16.247441240000001 14.080841120000001 685467 0
Ag 15.720285499999999 12.12319346 16.136603099999999 686309 0
Ag 17.740757169999998 14.198114869999999 16.152679249999998 686324 0
Ag 15.70543632 10.080474069999999 14.08505358 686418 0
Ag 19.767999710000002 14.204316390000001 14.08329543 686622 0
Ag 17.739871449999999 16.24230202 18.182478010000001 686899 0
Ag 17.73652607 10.091777479999999 16.14439265 687243 0
Ag 15.812579039999999 14.17927572 14.099601939999999 687247 1
Ag 15.72219692 16.251379109999998 16.15723208 688096 0
Ag 17.751729220000001 10.082533209999999 12.04485225 688280 0
Ag 15.70875603 14.18728606 18.197136199999999 688689 0
Ag 17.712738000000002 18.295811390000001 16.150006520000002 688707 0
Ag 17.75143735 12.13238003 14.0878443 689682 0
Ag 13.68170587 16.241764700000001 18.171511769999999 690927 0
Ag 15.70634649 18.295776740000001 18.200046010000001 691757 0
Ag 13.67617624 12.157985869999999 18.191721820000001 694331 0
Ag 17.73960348 12.131728949999999 18.182194689999999 696686 0
Ag 13.676647150000001 10.08304979 16.153009969999999 700223 0
Ag 11.656620759999999 14.188131820000001 18.202379059999998 701905 0
Ag 17.721458460000001 18.299821380000001 12.03659182 703736 0
Ag 15.703665320000001 16.254363690000002 12.04745982 704767 0
Ag 17.743981529999999 14.1868669 12.02973371 716228 0
Ag 15.715982820000001 12.152855690000001 12.02298661 720990 0
Ag 13.675762799999999 18.301032459999998 16.127509490000001 721910 0
Ag 17.74565333 12.136605680000001 9.9761591599999999 728014 0
Ag 13.675519059999999 10.08412807 12.017907510000001 741114 0
