52
Lattice="6.1150000000000002 0 0 -3.0574999999999988 5.2957453441418432 0 0 0 34.205876500000002" Properties=species:S:1:pos:R:3:PW_PBE_forces:R:3:lammps_id:I:1:central_pair:I:1 pbc="T T T" PW_PBE_energy_eV=-390.44395403993826 config_type=AgSi_COD9009647_pilot_k6x6
Ti 0 0 10.388251500000001 0.00072072366842025235 -0.00041327816981436591 0.15981204497558071 19101000 0
Ti 0 0 19.200001499999999 0.0010342955824952735 -0.001244811005569584 -0.016563072231698589 19101001 0
Ti 1.5287652899999999 0.88261540000000005 12.77623575 8.8760718379589821e-05 -1.9436055679876598e-05 -0.25591236869388984 19101002 0
Ti 0 1.7652308000000001 21.587985750000001 0.0094210244639553239 0.0083717122418251154 -0.073030068229643877 19101003 0
Ti 1.5287500000000001 0.88264187999999999 16.81201725 0.00023703094851608493 -0.0013153348821301253 0.014333653852922392 19101004 0
Ti -1.5290000000000001e-05 1.76525727 8.0002672500000003 0.00074717575135341892 -0.00054724487855117626 0.5498298615002214 19101005 0
Si 0 0 14.794126500000001 0.00095610681962721774 -0.0003543413220015896 0.073372000356961814 19101006 0
Si 0 0 23.605876500000001 0.040811402611031534 0.020716945598400319 0.94698779344104334 19101007 1
C -1.5290000000000001e-05 1.76525727 11.6606682 -0.0013536339634063507 0.00079616605024568116 0.17218278829971986 19101008 0
C 1.5287500000000001 0.88264187999999999 20.4724182 -0.001771282861234948 -0.0023144583240943851 0.083491548286882364 19101009 0
C 0 1.7652308000000001 17.927584800000002 -0.0010351262950039845 0.0022975572871820672 -0.10036091796989839 19101010 0
C 1.5287652899999999 0.88261540000000005 9.1158348 -0.00072413766947281065 0.00054154572136609494 -0.89584554604395272 19101011 0
Ti -1.5287500000000001 2.6478726699999999 10.388251500000001 0.00072077084951155466 -0.00041312081202997375 0.15981199965491774 19101012 0
Ti -1.5287500000000001 2.6478726699999999 19.200001499999999 0.0010343367648669548 -0.0012447799502021593 -0.016563083938355996 19101013 0
Ti 1.5290000000000001e-05 3.5304880700000001 12.77623575 8.8751715078420662e-05 -1.9443558396422651e-05 -0.25591228045255737 19101014 0
Ti -1.5287500000000001 4.4131034700000003 21.587985750000001 0.0094209507649989123 0.0083717349593437941 -0.073030220552043237 19101015 0
Ti 0 3.5305145499999999 16.81201725 0.00023706519125924155 -0.0013152296702999373 0.01433371717210285 19101016 0
Ti -1.5287652899999999 4.4131299500000001 8.0002672500000003 0.00074730288929786433 -0.00054740273765954781 0.54982927931340875 19101017 0
Si -1.5287500000000001 2.6478726699999999 14.794126500000001 0.00095611212977000698 -0.00035435205683304304 0.073371985883483412 19101018 0
Si -1.5287500000000001 2.6478726699999999 23.605876500000001 0.040811434341167012 0.020716954292922501 0.94698782584545671 19101019 0
C -1.5287652899999999 4.4131299500000001 11.6606682 -0.0013536440062086217 0.00079589180274430241 0.17218284941518153 19101020 0
C 0 3.5305145499999999 20.4724182 -0.0017713035008692373 -0.0023143458784432025 0.083491578076403047 19101021 0
C -1.5287500000000001 4.4131034700000003 17.927584800000002 -0.00103515467941008 0.00229770448364884 -0.10036084563603234 19101022 0
C 1.5290000000000001e-05 3.5304880700000001 9.1158348 -0.00072411973032768327 0.00054149536452114462 -0.89584557456803793 19101023 0
Ti 3.0575000000000001 0 10.388251500000001 0.00072072979956754458 -0.00041328259774448239 0.15981204053618089 19101024 0
Ti 3.0575000000000001 0 19.200001499999999 0.0010342961517454004 -0.0012448144001573243 -0.016563072195056344 19101025 0
Ti 4.58626529 0.88261540000000005 12.77623575 8.8768860056582201e-05 -1.943888061526808e-05 -0.25591237624783375 19101026 0
Ti 3.0575000000000001 1.7652308000000001 21.587985750000001 0.0094210245595631719 0.0083717146493861219 -0.073030068402153411 19101027 0
Ti 4.5862499999999997 0.88264187999999999 16.81201725 0.0002370247129446645 -0.0013153347024350277 0.014333664049510086 19101028 0
Ti 3.0574847100000002 1.76525727 8.0002672500000003 0.00074717197311062662 -0.00054723126290600374 0.54982980548295102 19101029 0
Si 3.0575000000000001 0 14.794126500000001 0.00095610506835006905 -0.00035434485216141997 0.073372005408910285 19101030 0
Si 3.0575000000000001 0 23.605876500000001 0.040811406559755625 0.020716944869596278 0.94698780051493592 19101031 0
C 3.0574847100000002 1.76525727 11.6606682 -0.0013536311564114362 0.00079617131976390343 0.17218279101528619 19101032 0
C 4.5862499999999997 0.88264187999999999 20.4724182 -0.0017712761087387652 -0.002314459167083512 0.083491547671577626 19101033 0
C 3.0575000000000001 1.7652308000000001 17.927584800000002 -0.0010351336712981182 0.0022975476317952689 -0.10036091262136983 19101034 0
C 4.58626529 0.88261540000000005 9.1158348 -0.00072411147495496137 0.00054152857499769431 -0.89584555370172503 19101035 0
Ti 1.5287500000000001 2.6478726699999999 10.388251500000001 0.00072077195483997796 -0.00041312543223598965 0.15981198505775113 19101036 0
Ti 1.5287500000000001 2.6478726699999999 19.200001499999999 0.001034333035960133 -0.0012447780821269402 -0.016563083665537884 19101037 0
Ti 3.05751529 3.5304880700000001 12.77623575 8.8748374901470733e-05 -1.9437314957071251e-05 -0.2559122764324322 19101038 0
Ti 1.5287500000000001 4.4131034700000003 21.587985750000001 0.0094209492395885414 0.0083717542737544743 -0.073030216192889352 19101039 0
Ti 3.0575000000000001 3.5305145499999999 16.81201725 0.00023706492163468458 -0.0013152316047051076 0.014333738149144069 19101040 0
Ti 1.5287347099999999 4.4131299500000001 8.0002672500000003 0.00074727858635644906 -0.00054740705518158735 0.5498294199240733 19101041 0
Si 1.5287500000000001 2.6478726699999999 14.794126500000001 0.00095610609164244545 -0.000354352754479591 0.073371990459129496 19101042 0
Si 1.5287500000000001 2.6478726699999999 23.605876500000001 0.040811430884565493 0.020716956305945836 0.94698782325291186 19101043 0
C 1.5287347099999999 4.4131299500000001 11.6606682 -0.0013536335819431188 0.00079589474173490148 0.17218285128376376 19101044 0
C 3.0575000000000001 3.5305145499999999 20.4724182 -0.001771302364977757 -0.0023143416297240326 0.083491575686949385 19101045 0
C 1.5287500000000001 4.4131034700000003 17.927584800000002 -0.0010351710091369099 0.0022976994102112697 -0.10036084143095265 19101046 0
C 3.05751529 3.5304880700000001 9.1158348 -0.0007241367609587305 0.00054150623555428883 -0.89584555196384374 19101047 0
Ag 0.81023750000000005 0.55605325999999999 26.205876499999999 -0.048561479296923192 -0.025914048546458002 -0.65844422408461378 19101048 1
Ag -0.7185125 3.20392593 26.205876499999999 -0.048561793507270398 -0.025914362480028437 -0.65844546393654046 19101049 0
Ag 3.8677375000000001 0.55605325999999999 26.205876499999999 -0.048561464612638425 -0.025913999895305049 -0.65844425988190547 19101050 0
Ag 2.3389875 3.20392593 26.205876499999999 -0.048561804638837636 -0.02591437406345996 -0.65844542545254192 19101051 0
