48
Lattice="6.1150000000000002 0 0 -3.0574999999999988 5.2957453441418432 0 0 0 17.6235" Properties=species:S:1:pos:R:3:PW_PBE_forces:R:3:local_new_id:I:1 pbc="T T T" PW_PBE_energy_eV=-389.82601409600528 config_type=Ti3SiC2_baseline_k10x10x2_v19
Ti 0 0 0 0 0 0 1
Ti 0 0 8.81175 0 0 0 2
Ti 1.5287652899999999 0.88261540000000005 2.3879842500000001 0.0016939230659937087 -0.00097280597007221373 -0.044117436225991666 3
Ti 0 1.7652308000000001 11.199734250000001 -0.0019868442823145751 0.0014801233021999947 -0.044217980871945367 4
Ti 1.5287500000000001 0.88264187999999999 6.4237657500000003 0.0019868442870766079 -0.0014801743673752146 0.044217985449793905 5
Ti -1.5290000000000001e-05 1.76525727 15.235515749999999 -0.0016939230854261852 0.00097286903603007705 0.044117444613619307 6
Si 0 0 4.405875 -0.0011654539386733551 0.00068263393359221415 3.837090916566121e-06 7
Si 0 0 13.217625 0.0011654539386733551 -0.00068263393359221415 -3.837090916566121e-06 8
C -1.5290000000000001e-05 1.76525727 1.2724167 -0.00059862905198816425 0.00035142545286806628 0.087250365631115698 9
C 1.5287500000000001 0.88264187999999999 10.084166700000001 0.00096391693168345336 -0.0009852000308146491 0.087236141655523847 10
C 0 1.7652308000000001 7.5393333 -0.00096391691842823851 0.00098515451477652091 -0.087236135348393112 11
C 1.5287652899999999 0.88261540000000005 16.351083299999999 0.00059862905317200797 -0.00035136237770222695 -0.087250356996982831 12
Ti -1.5287500000000001 2.6478726699999999 0 0 0 0 13
Ti -1.5287500000000001 2.6478726699999999 8.81175 0 0 0 14
Ti 1.5290000000000001e-05 3.5304880700000001 2.3879842500000001 0.0016939230795771016 -0.00097286903239400286 -0.044117444616414973 15
Ti -1.5287500000000001 4.4131034700000003 11.199734250000001 -0.0019868442779020865 0.0014801743628391423 -0.044217985451453307 16
Ti 0 3.5305145499999999 6.4237657500000003 0.0019868442745169341 -0.0014801232974335306 0.044217980873799849 17
Ti -1.5287652899999999 4.4131299500000001 15.235515749999999 -0.0016939230603943004 0.00097280596728093274 0.044117436229193299 18
Si -1.5287500000000001 2.6478726699999999 4.405875 -0.0011654539523874915 0.0006826349208841968 3.822675535107423e-06 19
Si -1.5287500000000001 2.6478726699999999 13.217625 0.0011654539523874915 -0.0006826349208841968 -3.822675535107423e-06 20
C -1.5287652899999999 4.4131299500000001 1.2724167 -0.00059862905200747552 0.00035136237623386923 0.087250356998554865 21
C 0 3.5305145499999999 10.084166700000001 0.00096391691691813744 -0.00098515451331651887 0.087236135349295141 22
C -1.5287500000000001 4.4131034700000003 7.5393333 -0.00096391692809448678 0.00098520002900789536 -0.087236141656885799 23
C 1.5290000000000001e-05 3.5304880700000001 16.351083299999999 0.00059862905026682449 -0.00035142545123506726 -0.08725036563255463 24
Ti 3.0575000000000001 0 0 0 0 0 25
Ti 3.0575000000000001 0 8.81175 0 0 0 26
Ti 4.58626529 0.88261540000000005 2.3879842500000001 0.0016939230603943004 -0.00097280596728093274 -0.044117436229193299 27
Ti 3.0575000000000001 1.7652308000000001 11.199734250000001 -0.0019868442745169341 0.0014801232974335306 -0.044217980873799849 28
Ti 4.5862499999999997 0.88264187999999999 6.4237657500000003 0.0019868442779020865 -0.0014801743628391423 0.044217985451453307 29
Ti 3.0574847100000002 1.76525727 15.235515749999999 -0.0016939230795771016 0.00097286903239400286 0.044117444616414973 30
Si 3.0575000000000001 0 4.405875 -0.0011654539429295071 0.00068263393601513225 3.8370911317234612e-06 31
Si 3.0575000000000001 0 13.217625 0.0011654539429295071 -0.00068263393601513225 -3.8370911317234612e-06 32
C 3.0574847100000002 1.76525727 1.2724167 -0.00059862905026682449 0.00035142545123506726 0.08725036563255463 33
C 4.5862499999999997 0.88264187999999999 10.084166700000001 0.00096391692809448678 -0.00098520002900789536 0.087236141656885799 34
C 3.0575000000000001 1.7652308000000001 7.5393333 -0.00096391691691813744 0.00098515451331651887 -0.087236135349295141 35
C 4.58626529 0.88261540000000005 16.351083299999999 0.00059862905200747552 -0.00035136237623386923 -0.087250356998554865 36
Ti 1.5287500000000001 2.6478726699999999 0 0 0 0 37
Ti 1.5287500000000001 2.6478726699999999 8.81175 0 0 0 38
Ti 3.05751529 3.5304880700000001 2.3879842500000001 0.0016939230854261852 -0.00097286903603007705 -0.044117444613619307 39
Ti 1.5287500000000001 4.4131034700000003 11.199734250000001 -0.0019868442870766079 0.0014801743673752146 -0.044217985449793905 40
Ti 3.0575000000000001 3.5305145499999999 6.4237657500000003 0.0019868442823145751 -0.0014801233021999947 0.044217980871945367 41
Ti 1.5287347099999999 4.4131299500000001 15.235515749999999 -0.0016939230659937087 0.00097280597007221373 0.044117436225991666 42
Si 1.5287500000000001 2.6478726699999999 4.405875 -0.001165453948243311 0.00068263491827881832 3.8226754589845017e-06 43
Si 1.5287500000000001 2.6478726699999999 13.217625 0.001165453948243311 -0.00068263491827881832 -3.8226754589845017e-06 44
C 1.5287347099999999 4.4131299500000001 1.2724167 -0.00059862905317200797 0.00035136237770222695 0.087250356996982831 45
C 3.0575000000000001 3.5305145499999999 10.084166700000001 0.00096391691842823851 -0.00098515451477652091 0.087236135348393112 46
C 1.5287500000000001 4.4131034700000003 7.5393333 -0.00096391693168345336 0.0009852000308146491 -0.087236141655523847 47
C 3.05751529 3.5304880700000001 16.351083299999999 0.00059862905198816425 -0.00035142545286806628 -0.087250365631115698 48
