52
Lattice="6.115 0.0 0.0 -3.0574999999999988 5.295745344141843 0.0 0.0 0.0 34.0058765" Properties=species:S:1:pos:R:3:spacegroup_kinds:I:1:lammps_id:I:1:central_pair:I:1 config_type=AgC_COD9009647_sep_m020A_PROPOSAL dataset_role=train_or_numerical_diagnostic_only source_method="COD9009647 uploaded CIF; Kisi et al1998 DOI10.1016/S0022-3697(98)00226-1" new_ids_not_historical=T launch_enabled=F owner separation_delta_A=-0.2 separation_direction=inward_toward_framework_along_geometry_derived_surface_normal separation_method="rigid translation of all four Ag atoms; framework fixed" pbc="T T T"
Ti       0.00000000       0.00000000       7.25479320        0 19100000        0
Ti       0.00000000       0.00000000      16.06654320        0 19100001        0
Ti       1.52876529       0.88261540       9.64277745        1 19100002        0
Ti       0.00000000       1.76523080      18.45452745        1 19100003        0
Ti       1.52875000       0.88264188      13.67855895        1 19100004        0
Ti      -0.00001529       1.76525727      22.49030895        1 19100005        0
Si       0.00000000       0.00000000      11.66066820        2 19100006        0
Si       0.00000000       0.00000000      20.47241820        2 19100007        0
C       -0.00001529       1.76525727       8.52720990        3 19100008        0
C        1.52875000       0.88264188      17.33895990        3 19100009        0
C        0.00000000       1.76523080      14.79412650        3 19100010        0
C        1.52876529       0.88261540      23.60587650        3 19100011        1
Ti      -1.52875000       2.64787267       7.25479320        0 19100012        0
Ti      -1.52875000       2.64787267      16.06654320        0 19100013        0
Ti       0.00001529       3.53048807       9.64277745        1 19100014        0
Ti      -1.52875000       4.41310347      18.45452745        1 19100015        0
Ti       0.00000000       3.53051455      13.67855895        1 19100016        0
Ti      -1.52876529       4.41312995      22.49030895        1 19100017        0
Si      -1.52875000       2.64787267      11.66066820        2 19100018        0
Si      -1.52875000       2.64787267      20.47241820        2 19100019        0
C       -1.52876529       4.41312995       8.52720990        3 19100020        0
C        0.00000000       3.53051455      17.33895990        3 19100021        0
C       -1.52875000       4.41310347      14.79412650        3 19100022        0
C        0.00001529       3.53048807      23.60587650        3 19100023        0
Ti       3.05750000       0.00000000       7.25479320        0 19100024        0
Ti       3.05750000       0.00000000      16.06654320        0 19100025        0
Ti       4.58626529       0.88261540       9.64277745        1 19100026        0
Ti       3.05750000       1.76523080      18.45452745        1 19100027        0
Ti       4.58625000       0.88264188      13.67855895        1 19100028        0
Ti       3.05748471       1.76525727      22.49030895        1 19100029        0
Si       3.05750000       0.00000000      11.66066820        2 19100030        0
Si       3.05750000       0.00000000      20.47241820        2 19100031        0
C        3.05748471       1.76525727       8.52720990        3 19100032        0
C        4.58625000       0.88264188      17.33895990        3 19100033        0
C        3.05750000       1.76523080      14.79412650        3 19100034        0
C        4.58626529       0.88261540      23.60587650        3 19100035        0
Ti       1.52875000       2.64787267       7.25479320        0 19100036        0
Ti       1.52875000       2.64787267      16.06654320        0 19100037        0
Ti       3.05751529       3.53048807       9.64277745        1 19100038        0
Ti       1.52875000       4.41310347      18.45452745        1 19100039        0
Ti       3.05750000       3.53051455      13.67855895        1 19100040        0
Ti       1.52873471       4.41312995      22.49030895        1 19100041        0
Si       1.52875000       2.64787267      11.66066820        2 19100042        0
Si       1.52875000       2.64787267      20.47241820        2 19100043        0
C        1.52873471       4.41312995       8.52720990        3 19100044        0
C        3.05750000       3.53051455      17.33895990        3 19100045        0
C        1.52875000       4.41310347      14.79412650        3 19100046        0
C        3.05751529       3.53048807      23.60587650        3 19100047        0
Ag       0.81023750       0.55605326      25.80587650        0 19100048        1
Ag      -0.71851250       3.20392593      25.80587650        0 19100049        0
Ag       3.86773750       0.55605326      25.80587650        0 19100050        0
Ag       2.33898750       3.20392593      25.80587650        0 19100051        0
