32
Lattice="8.1799999999999997 0 0 0 8.1799999999999997 0 0 0 8.1799999999999997" Properties=species:S:1:pos:R:3:PW_PBE_forces:R:3:local_new_id:I:1 pbc="T T T" PW_PBE_energy_eV=-91.40796769909241 config_type=Ag_baseline_k4x4x4_v19
Ag 0 0 0 0 -3.4615345828976776e-27 0 1
Ag 0 2.0449999999999999 2.0449999999999999 -1.4178445651548888e-23 6.9328944315110878e-06 6.9328944315110895e-06 2
Ag 2.0449999999999999 0 2.0449999999999999 6.9328944315110878e-06 -1.4178445651548888e-23 6.9328944315110895e-06 3
Ag 2.0449999999999999 2.0449999999999999 0 6.932894431511092e-06 6.932894431511092e-06 -1.4178445651548888e-23 4
Ag 0 0 4.0899999999999999 -8.8615285322180548e-25 0 0 5
Ag 0 2.0449999999999999 6.1349999999999998 -1.4178445651548888e-23 6.9328944315110895e-06 -6.9328944315110903e-06 6
Ag 2.0449999999999999 0 6.1349999999999998 6.9328944315110878e-06 -1.4178445651548888e-23 -6.9328944315110903e-06 7
Ag 2.0449999999999999 2.0449999999999999 4.0899999999999999 -2.3478683878821473e-05 -2.3478683878821477e-05 7.0892228257744441e-23 8
Ag 0 4.0899999999999999 0 0 5.5384553326362842e-26 -1.772305706443611e-24 9
Ag 0 6.1349999999999998 2.0449999999999999 0 -6.9328944315110878e-06 6.9328944315110895e-06 10
Ag 2.0449999999999999 4.0899999999999999 2.0449999999999999 -2.3478683878821466e-05 7.0892228257744441e-23 -2.3478683878821477e-05 11
Ag 2.0449999999999999 6.1349999999999998 0 6.9328944315110895e-06 -6.9328944315110903e-06 -1.4178445651548888e-23 12
Ag 0 4.0899999999999999 4.0899999999999999 1.3846138331590711e-26 0 0 13
Ag 0 6.1349999999999998 6.1349999999999998 0 -6.9328944315110878e-06 -6.9328944315110878e-06 14
Ag 2.0449999999999999 4.0899999999999999 6.1349999999999998 -2.3478683878821466e-05 -4.2535336954646666e-23 2.3478683878821477e-05 15
Ag 2.0449999999999999 6.1349999999999998 4.0899999999999999 -2.3478683878821466e-05 2.347868387882148e-05 -1.4178445651548888e-23 16
Ag 4.0899999999999999 0 0 0 0 0 17
Ag 4.0899999999999999 2.0449999999999999 2.0449999999999999 4.9624559780421111e-23 -2.3478683878821463e-05 -2.3478683878821473e-05 18
Ag 6.1349999999999998 0 2.0449999999999999 -6.9328944315110878e-06 1.4178445651548888e-23 6.9328944315110895e-06 19
Ag 6.1349999999999998 2.0449999999999999 0 -6.9328944315110895e-06 6.9328944315110903e-06 -1.4178445651548888e-23 20
Ag 4.0899999999999999 0 4.0899999999999999 0 1.3846138331590711e-26 0 21
Ag 4.0899999999999999 2.0449999999999999 6.1349999999999998 0 -2.3478683878821466e-05 2.3478683878821477e-05 22
Ag 6.1349999999999998 0 6.1349999999999998 -6.9328944315110878e-06 7.0892228257744438e-24 -6.9328944315110878e-06 23
Ag 6.1349999999999998 2.0449999999999999 4.0899999999999999 2.3478683878821483e-05 -2.3478683878821473e-05 1.4178445651548888e-23 24
Ag 4.0899999999999999 4.0899999999999999 0 1.772305706443611e-24 0 1.3846138331590711e-26 25
Ag 4.0899999999999999 6.1349999999999998 2.0449999999999999 -1.4178445651548888e-23 2.3478683878821473e-05 -2.3478683878821483e-05 26
Ag 6.1349999999999998 4.0899999999999999 2.0449999999999999 2.3478683878821473e-05 1.4178445651548888e-23 -2.347868387882148e-05 27
Ag 6.1349999999999998 6.1349999999999998 0 -6.9328944315110878e-06 -6.9328944315110895e-06 -7.0892228257744438e-24 28
Ag 4.0899999999999999 4.0899999999999999 4.0899999999999999 -1.3846138331590711e-26 -1.7307672914488389e-26 -1.3846138331590711e-26 29
Ag 4.0899999999999999 6.1349999999999998 6.1349999999999998 1.4178445651548888e-23 2.3478683878821473e-05 2.347868387882148e-05 30
Ag 6.1349999999999998 4.0899999999999999 6.1349999999999998 2.3478683878821473e-05 1.4178445651548888e-23 2.347868387882148e-05 31
Ag 6.1349999999999998 6.1349999999999998 4.0899999999999999 2.3478683878821483e-05 2.347868387882148e-05 1.4178445651548888e-23 32
